<?xml version="1.0"?> 
<VTKFile type="UnstructuredGrid"> 
   <UnstructuredGrid> 
      <Piece NumberOfPoints="6000"  NumberOfCells="1500">  
          <Points>  
             <DataArray type="Float64" NumberOfComponents="3" format="ascii">   
-500.0   0.0   0.0
-450.0   0.0   0.0
-500.0   30.0   0.0
-500.0   0.0   16.666666666666668
-450.0   0.0   0.0
-450.0   30.0   0.0
-500.0   30.0   0.0
-450.0   30.0   16.666666666666668
-500.0   0.0   16.666666666666668
-500.0   30.0   16.666666666666668
-450.0   30.0   16.666666666666668
-500.0   30.0   0.0
-500.0   0.0   16.666666666666668
-450.0   30.0   16.666666666666668
-450.0   0.0   16.666666666666668
-450.0   0.0   0.0
-500.0   0.0   16.666666666666668
-450.0   30.0   16.666666666666668
-450.0   0.0   0.0
-500.0   30.0   0.0
-500.0   0.0   16.666666666666668
-450.0   0.0   16.666666666666668
-500.0   30.0   16.666666666666668
-500.0   0.0   33.333333333333336
-450.0   0.0   16.666666666666668
-450.0   30.0   16.666666666666668
-500.0   30.0   16.666666666666668
-450.0   30.0   33.333333333333336
-500.0   0.0   33.333333333333336
-500.0   30.0   33.333333333333336
-450.0   30.0   33.333333333333336
-500.0   30.0   16.666666666666668
-500.0   0.0   33.333333333333336
-450.0   30.0   33.333333333333336
-450.0   0.0   33.333333333333336
-450.0   0.0   16.666666666666668
-500.0   0.0   33.333333333333336
-450.0   30.0   33.333333333333336
-450.0   0.0   16.666666666666668
-500.0   30.0   16.666666666666668
-500.0   0.0   33.333333333333336
-450.0   0.0   33.333333333333336
-500.0   30.0   33.333333333333336
-500.0   0.0   50.0
-450.0   0.0   33.333333333333336
-450.0   30.0   33.333333333333336
-500.0   30.0   33.333333333333336
-450.0   30.0   50.0
-500.0   0.0   50.0
-500.0   30.0   50.0
-450.0   30.0   50.0
-500.0   30.0   33.333333333333336
-500.0   0.0   50.0
-450.0   30.0   50.0
-450.0   0.0   50.0
-450.0   0.0   33.333333333333336
-500.0   0.0   50.0
-450.0   30.0   50.0
-450.0   0.0   33.333333333333336
-500.0   30.0   33.333333333333336
-500.0   30.0   0.0
-450.0   30.0   0.0
-500.0   60.0   0.0
-500.0   30.0   16.666666666666668
-450.0   30.0   0.0
-450.0   60.0   0.0
-500.0   60.0   0.0
-450.0   60.0   16.666666666666668
-500.0   30.0   16.666666666666668
-500.0   60.0   16.666666666666668
-450.0   60.0   16.666666666666668
-500.0   60.0   0.0
-500.0   30.0   16.666666666666668
-450.0   60.0   16.666666666666668
-450.0   30.0   16.666666666666668
-450.0   30.0   0.0
-500.0   30.0   16.666666666666668
-450.0   60.0   16.666666666666668
-450.0   30.0   0.0
-500.0   60.0   0.0
-500.0   30.0   16.666666666666668
-450.0   30.0   16.666666666666668
-500.0   60.0   16.666666666666668
-500.0   30.0   33.333333333333336
-450.0   30.0   16.666666666666668
-450.0   60.0   16.666666666666668
-500.0   60.0   16.666666666666668
-450.0   60.0   33.333333333333336
-500.0   30.0   33.333333333333336
-500.0   60.0   33.333333333333336
-450.0   60.0   33.333333333333336
-500.0   60.0   16.666666666666668
-500.0   30.0   33.333333333333336
-450.0   60.0   33.333333333333336
-450.0   30.0   33.333333333333336
-450.0   30.0   16.666666666666668
-500.0   30.0   33.333333333333336
-450.0   60.0   33.333333333333336
-450.0   30.0   16.666666666666668
-500.0   60.0   16.666666666666668
-500.0   30.0   33.333333333333336
-450.0   30.0   33.333333333333336
-500.0   60.0   33.333333333333336
-500.0   30.0   50.0
-450.0   30.0   33.333333333333336
-450.0   60.0   33.333333333333336
-500.0   60.0   33.333333333333336
-450.0   60.0   50.0
-500.0   30.0   50.0
-500.0   60.0   50.0
-450.0   60.0   50.0
-500.0   60.0   33.333333333333336
-500.0   30.0   50.0
-450.0   60.0   50.0
-450.0   30.0   50.0
-450.0   30.0   33.333333333333336
-500.0   30.0   50.0
-450.0   60.0   50.0
-450.0   30.0   33.333333333333336
-500.0   60.0   33.333333333333336
-500.0   60.0   0.0
-450.0   60.0   0.0
-500.0   90.0   0.0
-500.0   60.0   16.666666666666668
-450.0   60.0   0.0
-450.0   90.0   0.0
-500.0   90.0   0.0
-450.0   90.0   16.666666666666668
-500.0   60.0   16.666666666666668
-500.0   90.0   16.666666666666668
-450.0   90.0   16.666666666666668
-500.0   90.0   0.0
-500.0   60.0   16.666666666666668
-450.0   90.0   16.666666666666668
-450.0   60.0   16.666666666666668
-450.0   60.0   0.0
-500.0   60.0   16.666666666666668
-450.0   90.0   16.666666666666668
-450.0   60.0   0.0
-500.0   90.0   0.0
-500.0   60.0   16.666666666666668
-450.0   60.0   16.666666666666668
-500.0   90.0   16.666666666666668
-500.0   60.0   33.333333333333336
-450.0   60.0   16.666666666666668
-450.0   90.0   16.666666666666668
-500.0   90.0   16.666666666666668
-450.0   90.0   33.333333333333336
-500.0   60.0   33.333333333333336
-500.0   90.0   33.333333333333336
-450.0   90.0   33.333333333333336
-500.0   90.0   16.666666666666668
-500.0   60.0   33.333333333333336
-450.0   90.0   33.333333333333336
-450.0   60.0   33.333333333333336
-450.0   60.0   16.666666666666668
-500.0   60.0   33.333333333333336
-450.0   90.0   33.333333333333336
-450.0   60.0   16.666666666666668
-500.0   90.0   16.666666666666668
-500.0   60.0   33.333333333333336
-450.0   60.0   33.333333333333336
-500.0   90.0   33.333333333333336
-500.0   60.0   50.0
-450.0   60.0   33.333333333333336
-450.0   90.0   33.333333333333336
-500.0   90.0   33.333333333333336
-450.0   90.0   50.0
-500.0   60.0   50.0
-500.0   90.0   50.0
-450.0   90.0   50.0
-500.0   90.0   33.333333333333336
-500.0   60.0   50.0
-450.0   90.0   50.0
-450.0   60.0   50.0
-450.0   60.0   33.333333333333336
-500.0   60.0   50.0
-450.0   90.0   50.0
-450.0   60.0   33.333333333333336
-500.0   90.0   33.333333333333336
-500.0   90.0   0.0
-450.0   90.0   0.0
-500.0   120.0   0.0
-500.0   90.0   16.666666666666668
-450.0   90.0   0.0
-450.0   120.0   0.0
-500.0   120.0   0.0
-450.0   120.0   16.666666666666668
-500.0   90.0   16.666666666666668
-500.0   120.0   16.666666666666668
-450.0   120.0   16.666666666666668
-500.0   120.0   0.0
-500.0   90.0   16.666666666666668
-450.0   120.0   16.666666666666668
-450.0   90.0   16.666666666666668
-450.0   90.0   0.0
-500.0   90.0   16.666666666666668
-450.0   120.0   16.666666666666668
-450.0   90.0   0.0
-500.0   120.0   0.0
-500.0   90.0   16.666666666666668
-450.0   90.0   16.666666666666668
-500.0   120.0   16.666666666666668
-500.0   90.0   33.333333333333336
-450.0   90.0   16.666666666666668
-450.0   120.0   16.666666666666668
-500.0   120.0   16.666666666666668
-450.0   120.0   33.333333333333336
-500.0   90.0   33.333333333333336
-500.0   120.0   33.333333333333336
-450.0   120.0   33.333333333333336
-500.0   120.0   16.666666666666668
-500.0   90.0   33.333333333333336
-450.0   120.0   33.333333333333336
-450.0   90.0   33.333333333333336
-450.0   90.0   16.666666666666668
-500.0   90.0   33.333333333333336
-450.0   120.0   33.333333333333336
-450.0   90.0   16.666666666666668
-500.0   120.0   16.666666666666668
-500.0   90.0   33.333333333333336
-450.0   90.0   33.333333333333336
-500.0   120.0   33.333333333333336
-500.0   90.0   50.0
-450.0   90.0   33.333333333333336
-450.0   120.0   33.333333333333336
-500.0   120.0   33.333333333333336
-450.0   120.0   50.0
-500.0   90.0   50.0
-500.0   120.0   50.0
-450.0   120.0   50.0
-500.0   120.0   33.333333333333336
-500.0   90.0   50.0
-450.0   120.0   50.0
-450.0   90.0   50.0
-450.0   90.0   33.333333333333336
-500.0   90.0   50.0
-450.0   120.0   50.0
-450.0   90.0   33.333333333333336
-500.0   120.0   33.333333333333336
-500.0   120.0   0.0
-450.0   120.0   0.0
-500.0   150.0   0.0
-500.0   120.0   16.666666666666668
-450.0   120.0   0.0
-450.0   150.0   0.0
-500.0   150.0   0.0
-450.0   150.0   16.666666666666668
-500.0   120.0   16.666666666666668
-500.0   150.0   16.666666666666668
-450.0   150.0   16.666666666666668
-500.0   150.0   0.0
-500.0   120.0   16.666666666666668
-450.0   150.0   16.666666666666668
-450.0   120.0   16.666666666666668
-450.0   120.0   0.0
-500.0   120.0   16.666666666666668
-450.0   150.0   16.666666666666668
-450.0   120.0   0.0
-500.0   150.0   0.0
-500.0   120.0   16.666666666666668
-450.0   120.0   16.666666666666668
-500.0   150.0   16.666666666666668
-500.0   120.0   33.333333333333336
-450.0   120.0   16.666666666666668
-450.0   150.0   16.666666666666668
-500.0   150.0   16.666666666666668
-450.0   150.0   33.333333333333336
-500.0   120.0   33.333333333333336
-500.0   150.0   33.333333333333336
-450.0   150.0   33.333333333333336
-500.0   150.0   16.666666666666668
-500.0   120.0   33.333333333333336
-450.0   150.0   33.333333333333336
-450.0   120.0   33.333333333333336
-450.0   120.0   16.666666666666668
-500.0   120.0   33.333333333333336
-450.0   150.0   33.333333333333336
-450.0   120.0   16.666666666666668
-500.0   150.0   16.666666666666668
-500.0   120.0   33.333333333333336
-450.0   120.0   33.333333333333336
-500.0   150.0   33.333333333333336
-500.0   120.0   50.0
-450.0   120.0   33.333333333333336
-450.0   150.0   33.333333333333336
-500.0   150.0   33.333333333333336
-450.0   150.0   50.0
-500.0   120.0   50.0
-500.0   150.0   50.0
-450.0   150.0   50.0
-500.0   150.0   33.333333333333336
-500.0   120.0   50.0
-450.0   150.0   50.0
-450.0   120.0   50.0
-450.0   120.0   33.333333333333336
-500.0   120.0   50.0
-450.0   150.0   50.0
-450.0   120.0   33.333333333333336
-500.0   150.0   33.333333333333336
-450.0   0.0   0.0
-400.0   0.0   0.0
-450.0   30.0   0.0
-450.0   0.0   16.666666666666668
-400.0   0.0   0.0
-400.0   30.0   0.0
-450.0   30.0   0.0
-400.0   30.0   16.666666666666668
-450.0   0.0   16.666666666666668
-450.0   30.0   16.666666666666668
-400.0   30.0   16.666666666666668
-450.0   30.0   0.0
-450.0   0.0   16.666666666666668
-400.0   30.0   16.666666666666668
-400.0   0.0   16.666666666666668
-400.0   0.0   0.0
-450.0   0.0   16.666666666666668
-400.0   30.0   16.666666666666668
-400.0   0.0   0.0
-450.0   30.0   0.0
-450.0   0.0   16.666666666666668
-400.0   0.0   16.666666666666668
-450.0   30.0   16.666666666666668
-450.0   0.0   33.333333333333336
-400.0   0.0   16.666666666666668
-400.0   30.0   16.666666666666668
-450.0   30.0   16.666666666666668
-400.0   30.0   33.333333333333336
-450.0   0.0   33.333333333333336
-450.0   30.0   33.333333333333336
-400.0   30.0   33.333333333333336
-450.0   30.0   16.666666666666668
-450.0   0.0   33.333333333333336
-400.0   30.0   33.333333333333336
-400.0   0.0   33.333333333333336
-400.0   0.0   16.666666666666668
-450.0   0.0   33.333333333333336
-400.0   30.0   33.333333333333336
-400.0   0.0   16.666666666666668
-450.0   30.0   16.666666666666668
-450.0   0.0   33.333333333333336
-400.0   0.0   33.333333333333336
-450.0   30.0   33.333333333333336
-450.0   0.0   50.0
-400.0   0.0   33.333333333333336
-400.0   30.0   33.333333333333336
-450.0   30.0   33.333333333333336
-400.0   30.0   50.0
-450.0   0.0   50.0
-450.0   30.0   50.0
-400.0   30.0   50.0
-450.0   30.0   33.333333333333336
-450.0   0.0   50.0
-400.0   30.0   50.0
-400.0   0.0   50.0
-400.0   0.0   33.333333333333336
-450.0   0.0   50.0
-400.0   30.0   50.0
-400.0   0.0   33.333333333333336
-450.0   30.0   33.333333333333336
-450.0   30.0   0.0
-400.0   30.0   0.0
-450.0   60.0   0.0
-450.0   30.0   16.666666666666668
-400.0   30.0   0.0
-400.0   60.0   0.0
-450.0   60.0   0.0
-400.0   60.0   16.666666666666668
-450.0   30.0   16.666666666666668
-450.0   60.0   16.666666666666668
-400.0   60.0   16.666666666666668
-450.0   60.0   0.0
-450.0   30.0   16.666666666666668
-400.0   60.0   16.666666666666668
-400.0   30.0   16.666666666666668
-400.0   30.0   0.0
-450.0   30.0   16.666666666666668
-400.0   60.0   16.666666666666668
-400.0   30.0   0.0
-450.0   60.0   0.0
-450.0   30.0   16.666666666666668
-400.0   30.0   16.666666666666668
-450.0   60.0   16.666666666666668
-450.0   30.0   33.333333333333336
-400.0   30.0   16.666666666666668
-400.0   60.0   16.666666666666668
-450.0   60.0   16.666666666666668
-400.0   60.0   33.333333333333336
-450.0   30.0   33.333333333333336
-450.0   60.0   33.333333333333336
-400.0   60.0   33.333333333333336
-450.0   60.0   16.666666666666668
-450.0   30.0   33.333333333333336
-400.0   60.0   33.333333333333336
-400.0   30.0   33.333333333333336
-400.0   30.0   16.666666666666668
-450.0   30.0   33.333333333333336
-400.0   60.0   33.333333333333336
-400.0   30.0   16.666666666666668
-450.0   60.0   16.666666666666668
-450.0   30.0   33.333333333333336
-400.0   30.0   33.333333333333336
-450.0   60.0   33.333333333333336
-450.0   30.0   50.0
-400.0   30.0   33.333333333333336
-400.0   60.0   33.333333333333336
-450.0   60.0   33.333333333333336
-400.0   60.0   50.0
-450.0   30.0   50.0
-450.0   60.0   50.0
-400.0   60.0   50.0
-450.0   60.0   33.333333333333336
-450.0   30.0   50.0
-400.0   60.0   50.0
-400.0   30.0   50.0
-400.0   30.0   33.333333333333336
-450.0   30.0   50.0
-400.0   60.0   50.0
-400.0   30.0   33.333333333333336
-450.0   60.0   33.333333333333336
-450.0   60.0   0.0
-400.0   60.0   0.0
-450.0   90.0   0.0
-450.0   60.0   16.666666666666668
-400.0   60.0   0.0
-400.0   90.0   0.0
-450.0   90.0   0.0
-400.0   90.0   16.666666666666668
-450.0   60.0   16.666666666666668
-450.0   90.0   16.666666666666668
-400.0   90.0   16.666666666666668
-450.0   90.0   0.0
-450.0   60.0   16.666666666666668
-400.0   90.0   16.666666666666668
-400.0   60.0   16.666666666666668
-400.0   60.0   0.0
-450.0   60.0   16.666666666666668
-400.0   90.0   16.666666666666668
-400.0   60.0   0.0
-450.0   90.0   0.0
-450.0   60.0   16.666666666666668
-400.0   60.0   16.666666666666668
-450.0   90.0   16.666666666666668
-450.0   60.0   33.333333333333336
-400.0   60.0   16.666666666666668
-400.0   90.0   16.666666666666668
-450.0   90.0   16.666666666666668
-400.0   90.0   33.333333333333336
-450.0   60.0   33.333333333333336
-450.0   90.0   33.333333333333336
-400.0   90.0   33.333333333333336
-450.0   90.0   16.666666666666668
-450.0   60.0   33.333333333333336
-400.0   90.0   33.333333333333336
-400.0   60.0   33.333333333333336
-400.0   60.0   16.666666666666668
-450.0   60.0   33.333333333333336
-400.0   90.0   33.333333333333336
-400.0   60.0   16.666666666666668
-450.0   90.0   16.666666666666668
-450.0   60.0   33.333333333333336
-400.0   60.0   33.333333333333336
-450.0   90.0   33.333333333333336
-450.0   60.0   50.0
-400.0   60.0   33.333333333333336
-400.0   90.0   33.333333333333336
-450.0   90.0   33.333333333333336
-400.0   90.0   50.0
-450.0   60.0   50.0
-450.0   90.0   50.0
-400.0   90.0   50.0
-450.0   90.0   33.333333333333336
-450.0   60.0   50.0
-400.0   90.0   50.0
-400.0   60.0   50.0
-400.0   60.0   33.333333333333336
-450.0   60.0   50.0
-400.0   90.0   50.0
-400.0   60.0   33.333333333333336
-450.0   90.0   33.333333333333336
-450.0   90.0   0.0
-400.0   90.0   0.0
-450.0   120.0   0.0
-450.0   90.0   16.666666666666668
-400.0   90.0   0.0
-400.0   120.0   0.0
-450.0   120.0   0.0
-400.0   120.0   16.666666666666668
-450.0   90.0   16.666666666666668
-450.0   120.0   16.666666666666668
-400.0   120.0   16.666666666666668
-450.0   120.0   0.0
-450.0   90.0   16.666666666666668
-400.0   120.0   16.666666666666668
-400.0   90.0   16.666666666666668
-400.0   90.0   0.0
-450.0   90.0   16.666666666666668
-400.0   120.0   16.666666666666668
-400.0   90.0   0.0
-450.0   120.0   0.0
-450.0   90.0   16.666666666666668
-400.0   90.0   16.666666666666668
-450.0   120.0   16.666666666666668
-450.0   90.0   33.333333333333336
-400.0   90.0   16.666666666666668
-400.0   120.0   16.666666666666668
-450.0   120.0   16.666666666666668
-400.0   120.0   33.333333333333336
-450.0   90.0   33.333333333333336
-450.0   120.0   33.333333333333336
-400.0   120.0   33.333333333333336
-450.0   120.0   16.666666666666668
-450.0   90.0   33.333333333333336
-400.0   120.0   33.333333333333336
-400.0   90.0   33.333333333333336
-400.0   90.0   16.666666666666668
-450.0   90.0   33.333333333333336
-400.0   120.0   33.333333333333336
-400.0   90.0   16.666666666666668
-450.0   120.0   16.666666666666668
-450.0   90.0   33.333333333333336
-400.0   90.0   33.333333333333336
-450.0   120.0   33.333333333333336
-450.0   90.0   50.0
-400.0   90.0   33.333333333333336
-400.0   120.0   33.333333333333336
-450.0   120.0   33.333333333333336
-400.0   120.0   50.0
-450.0   90.0   50.0
-450.0   120.0   50.0
-400.0   120.0   50.0
-450.0   120.0   33.333333333333336
-450.0   90.0   50.0
-400.0   120.0   50.0
-400.0   90.0   50.0
-400.0   90.0   33.333333333333336
-450.0   90.0   50.0
-400.0   120.0   50.0
-400.0   90.0   33.333333333333336
-450.0   120.0   33.333333333333336
-450.0   120.0   0.0
-400.0   120.0   0.0
-450.0   150.0   0.0
-450.0   120.0   16.666666666666668
-400.0   120.0   0.0
-400.0   150.0   0.0
-450.0   150.0   0.0
-400.0   150.0   16.666666666666668
-450.0   120.0   16.666666666666668
-450.0   150.0   16.666666666666668
-400.0   150.0   16.666666666666668
-450.0   150.0   0.0
-450.0   120.0   16.666666666666668
-400.0   150.0   16.666666666666668
-400.0   120.0   16.666666666666668
-400.0   120.0   0.0
-450.0   120.0   16.666666666666668
-400.0   150.0   16.666666666666668
-400.0   120.0   0.0
-450.0   150.0   0.0
-450.0   120.0   16.666666666666668
-400.0   120.0   16.666666666666668
-450.0   150.0   16.666666666666668
-450.0   120.0   33.333333333333336
-400.0   120.0   16.666666666666668
-400.0   150.0   16.666666666666668
-450.0   150.0   16.666666666666668
-400.0   150.0   33.333333333333336
-450.0   120.0   33.333333333333336
-450.0   150.0   33.333333333333336
-400.0   150.0   33.333333333333336
-450.0   150.0   16.666666666666668
-450.0   120.0   33.333333333333336
-400.0   150.0   33.333333333333336
-400.0   120.0   33.333333333333336
-400.0   120.0   16.666666666666668
-450.0   120.0   33.333333333333336
-400.0   150.0   33.333333333333336
-400.0   120.0   16.666666666666668
-450.0   150.0   16.666666666666668
-450.0   120.0   33.333333333333336
-400.0   120.0   33.333333333333336
-450.0   150.0   33.333333333333336
-450.0   120.0   50.0
-400.0   120.0   33.333333333333336
-400.0   150.0   33.333333333333336
-450.0   150.0   33.333333333333336
-400.0   150.0   50.0
-450.0   120.0   50.0
-450.0   150.0   50.0
-400.0   150.0   50.0
-450.0   150.0   33.333333333333336
-450.0   120.0   50.0
-400.0   150.0   50.0
-400.0   120.0   50.0
-400.0   120.0   33.333333333333336
-450.0   120.0   50.0
-400.0   150.0   50.0
-400.0   120.0   33.333333333333336
-450.0   150.0   33.333333333333336
-400.0   0.0   0.0
-350.0   0.0   0.0
-400.0   30.0   0.0
-400.0   0.0   16.666666666666668
-350.0   0.0   0.0
-350.0   30.0   0.0
-400.0   30.0   0.0
-350.0   30.0   16.666666666666668
-400.0   0.0   16.666666666666668
-400.0   30.0   16.666666666666668
-350.0   30.0   16.666666666666668
-400.0   30.0   0.0
-400.0   0.0   16.666666666666668
-350.0   30.0   16.666666666666668
-350.0   0.0   16.666666666666668
-350.0   0.0   0.0
-400.0   0.0   16.666666666666668
-350.0   30.0   16.666666666666668
-350.0   0.0   0.0
-400.0   30.0   0.0
-400.0   0.0   16.666666666666668
-350.0   0.0   16.666666666666668
-400.0   30.0   16.666666666666668
-400.0   0.0   33.333333333333336
-350.0   0.0   16.666666666666668
-350.0   30.0   16.666666666666668
-400.0   30.0   16.666666666666668
-350.0   30.0   33.333333333333336
-400.0   0.0   33.333333333333336
-400.0   30.0   33.333333333333336
-350.0   30.0   33.333333333333336
-400.0   30.0   16.666666666666668
-400.0   0.0   33.333333333333336
-350.0   30.0   33.333333333333336
-350.0   0.0   33.333333333333336
-350.0   0.0   16.666666666666668
-400.0   0.0   33.333333333333336
-350.0   30.0   33.333333333333336
-350.0   0.0   16.666666666666668
-400.0   30.0   16.666666666666668
-400.0   0.0   33.333333333333336
-350.0   0.0   33.333333333333336
-400.0   30.0   33.333333333333336
-400.0   0.0   50.0
-350.0   0.0   33.333333333333336
-350.0   30.0   33.333333333333336
-400.0   30.0   33.333333333333336
-350.0   30.0   50.0
-400.0   0.0   50.0
-400.0   30.0   50.0
-350.0   30.0   50.0
-400.0   30.0   33.333333333333336
-400.0   0.0   50.0
-350.0   30.0   50.0
-350.0   0.0   50.0
-350.0   0.0   33.333333333333336
-400.0   0.0   50.0
-350.0   30.0   50.0
-350.0   0.0   33.333333333333336
-400.0   30.0   33.333333333333336
-400.0   30.0   0.0
-350.0   30.0   0.0
-400.0   60.0   0.0
-400.0   30.0   16.666666666666668
-350.0   30.0   0.0
-350.0   60.0   0.0
-400.0   60.0   0.0
-350.0   60.0   16.666666666666668
-400.0   30.0   16.666666666666668
-400.0   60.0   16.666666666666668
-350.0   60.0   16.666666666666668
-400.0   60.0   0.0
-400.0   30.0   16.666666666666668
-350.0   60.0   16.666666666666668
-350.0   30.0   16.666666666666668
-350.0   30.0   0.0
-400.0   30.0   16.666666666666668
-350.0   60.0   16.666666666666668
-350.0   30.0   0.0
-400.0   60.0   0.0
-400.0   30.0   16.666666666666668
-350.0   30.0   16.666666666666668
-400.0   60.0   16.666666666666668
-400.0   30.0   33.333333333333336
-350.0   30.0   16.666666666666668
-350.0   60.0   16.666666666666668
-400.0   60.0   16.666666666666668
-350.0   60.0   33.333333333333336
-400.0   30.0   33.333333333333336
-400.0   60.0   33.333333333333336
-350.0   60.0   33.333333333333336
-400.0   60.0   16.666666666666668
-400.0   30.0   33.333333333333336
-350.0   60.0   33.333333333333336
-350.0   30.0   33.333333333333336
-350.0   30.0   16.666666666666668
-400.0   30.0   33.333333333333336
-350.0   60.0   33.333333333333336
-350.0   30.0   16.666666666666668
-400.0   60.0   16.666666666666668
-400.0   30.0   33.333333333333336
-350.0   30.0   33.333333333333336
-400.0   60.0   33.333333333333336
-400.0   30.0   50.0
-350.0   30.0   33.333333333333336
-350.0   60.0   33.333333333333336
-400.0   60.0   33.333333333333336
-350.0   60.0   50.0
-400.0   30.0   50.0
-400.0   60.0   50.0
-350.0   60.0   50.0
-400.0   60.0   33.333333333333336
-400.0   30.0   50.0
-350.0   60.0   50.0
-350.0   30.0   50.0
-350.0   30.0   33.333333333333336
-400.0   30.0   50.0
-350.0   60.0   50.0
-350.0   30.0   33.333333333333336
-400.0   60.0   33.333333333333336
-400.0   60.0   0.0
-350.0   60.0   0.0
-400.0   90.0   0.0
-400.0   60.0   16.666666666666668
-350.0   60.0   0.0
-350.0   90.0   0.0
-400.0   90.0   0.0
-350.0   90.0   16.666666666666668
-400.0   60.0   16.666666666666668
-400.0   90.0   16.666666666666668
-350.0   90.0   16.666666666666668
-400.0   90.0   0.0
-400.0   60.0   16.666666666666668
-350.0   90.0   16.666666666666668
-350.0   60.0   16.666666666666668
-350.0   60.0   0.0
-400.0   60.0   16.666666666666668
-350.0   90.0   16.666666666666668
-350.0   60.0   0.0
-400.0   90.0   0.0
-400.0   60.0   16.666666666666668
-350.0   60.0   16.666666666666668
-400.0   90.0   16.666666666666668
-400.0   60.0   33.333333333333336
-350.0   60.0   16.666666666666668
-350.0   90.0   16.666666666666668
-400.0   90.0   16.666666666666668
-350.0   90.0   33.333333333333336
-400.0   60.0   33.333333333333336
-400.0   90.0   33.333333333333336
-350.0   90.0   33.333333333333336
-400.0   90.0   16.666666666666668
-400.0   60.0   33.333333333333336
-350.0   90.0   33.333333333333336
-350.0   60.0   33.333333333333336
-350.0   60.0   16.666666666666668
-400.0   60.0   33.333333333333336
-350.0   90.0   33.333333333333336
-350.0   60.0   16.666666666666668
-400.0   90.0   16.666666666666668
-400.0   60.0   33.333333333333336
-350.0   60.0   33.333333333333336
-400.0   90.0   33.333333333333336
-400.0   60.0   50.0
-350.0   60.0   33.333333333333336
-350.0   90.0   33.333333333333336
-400.0   90.0   33.333333333333336
-350.0   90.0   50.0
-400.0   60.0   50.0
-400.0   90.0   50.0
-350.0   90.0   50.0
-400.0   90.0   33.333333333333336
-400.0   60.0   50.0
-350.0   90.0   50.0
-350.0   60.0   50.0
-350.0   60.0   33.333333333333336
-400.0   60.0   50.0
-350.0   90.0   50.0
-350.0   60.0   33.333333333333336
-400.0   90.0   33.333333333333336
-400.0   90.0   0.0
-350.0   90.0   0.0
-400.0   120.0   0.0
-400.0   90.0   16.666666666666668
-350.0   90.0   0.0
-350.0   120.0   0.0
-400.0   120.0   0.0
-350.0   120.0   16.666666666666668
-400.0   90.0   16.666666666666668
-400.0   120.0   16.666666666666668
-350.0   120.0   16.666666666666668
-400.0   120.0   0.0
-400.0   90.0   16.666666666666668
-350.0   120.0   16.666666666666668
-350.0   90.0   16.666666666666668
-350.0   90.0   0.0
-400.0   90.0   16.666666666666668
-350.0   120.0   16.666666666666668
-350.0   90.0   0.0
-400.0   120.0   0.0
-400.0   90.0   16.666666666666668
-350.0   90.0   16.666666666666668
-400.0   120.0   16.666666666666668
-400.0   90.0   33.333333333333336
-350.0   90.0   16.666666666666668
-350.0   120.0   16.666666666666668
-400.0   120.0   16.666666666666668
-350.0   120.0   33.333333333333336
-400.0   90.0   33.333333333333336
-400.0   120.0   33.333333333333336
-350.0   120.0   33.333333333333336
-400.0   120.0   16.666666666666668
-400.0   90.0   33.333333333333336
-350.0   120.0   33.333333333333336
-350.0   90.0   33.333333333333336
-350.0   90.0   16.666666666666668
-400.0   90.0   33.333333333333336
-350.0   120.0   33.333333333333336
-350.0   90.0   16.666666666666668
-400.0   120.0   16.666666666666668
-400.0   90.0   33.333333333333336
-350.0   90.0   33.333333333333336
-400.0   120.0   33.333333333333336
-400.0   90.0   50.0
-350.0   90.0   33.333333333333336
-350.0   120.0   33.333333333333336
-400.0   120.0   33.333333333333336
-350.0   120.0   50.0
-400.0   90.0   50.0
-400.0   120.0   50.0
-350.0   120.0   50.0
-400.0   120.0   33.333333333333336
-400.0   90.0   50.0
-350.0   120.0   50.0
-350.0   90.0   50.0
-350.0   90.0   33.333333333333336
-400.0   90.0   50.0
-350.0   120.0   50.0
-350.0   90.0   33.333333333333336
-400.0   120.0   33.333333333333336
-400.0   120.0   0.0
-350.0   120.0   0.0
-400.0   150.0   0.0
-400.0   120.0   16.666666666666668
-350.0   120.0   0.0
-350.0   150.0   0.0
-400.0   150.0   0.0
-350.0   150.0   16.666666666666668
-400.0   120.0   16.666666666666668
-400.0   150.0   16.666666666666668
-350.0   150.0   16.666666666666668
-400.0   150.0   0.0
-400.0   120.0   16.666666666666668
-350.0   150.0   16.666666666666668
-350.0   120.0   16.666666666666668
-350.0   120.0   0.0
-400.0   120.0   16.666666666666668
-350.0   150.0   16.666666666666668
-350.0   120.0   0.0
-400.0   150.0   0.0
-400.0   120.0   16.666666666666668
-350.0   120.0   16.666666666666668
-400.0   150.0   16.666666666666668
-400.0   120.0   33.333333333333336
-350.0   120.0   16.666666666666668
-350.0   150.0   16.666666666666668
-400.0   150.0   16.666666666666668
-350.0   150.0   33.333333333333336
-400.0   120.0   33.333333333333336
-400.0   150.0   33.333333333333336
-350.0   150.0   33.333333333333336
-400.0   150.0   16.666666666666668
-400.0   120.0   33.333333333333336
-350.0   150.0   33.333333333333336
-350.0   120.0   33.333333333333336
-350.0   120.0   16.666666666666668
-400.0   120.0   33.333333333333336
-350.0   150.0   33.333333333333336
-350.0   120.0   16.666666666666668
-400.0   150.0   16.666666666666668
-400.0   120.0   33.333333333333336
-350.0   120.0   33.333333333333336
-400.0   150.0   33.333333333333336
-400.0   120.0   50.0
-350.0   120.0   33.333333333333336
-350.0   150.0   33.333333333333336
-400.0   150.0   33.333333333333336
-350.0   150.0   50.0
-400.0   120.0   50.0
-400.0   150.0   50.0
-350.0   150.0   50.0
-400.0   150.0   33.333333333333336
-400.0   120.0   50.0
-350.0   150.0   50.0
-350.0   120.0   50.0
-350.0   120.0   33.333333333333336
-400.0   120.0   50.0
-350.0   150.0   50.0
-350.0   120.0   33.333333333333336
-400.0   150.0   33.333333333333336
-350.0   0.0   0.0
-300.0   0.0   0.0
-350.0   30.0   0.0
-350.0   0.0   16.666666666666668
-300.0   0.0   0.0
-300.0   30.0   0.0
-350.0   30.0   0.0
-300.0   30.0   16.666666666666668
-350.0   0.0   16.666666666666668
-350.0   30.0   16.666666666666668
-300.0   30.0   16.666666666666668
-350.0   30.0   0.0
-350.0   0.0   16.666666666666668
-300.0   30.0   16.666666666666668
-300.0   0.0   16.666666666666668
-300.0   0.0   0.0
-350.0   0.0   16.666666666666668
-300.0   30.0   16.666666666666668
-300.0   0.0   0.0
-350.0   30.0   0.0
-350.0   0.0   16.666666666666668
-300.0   0.0   16.666666666666668
-350.0   30.0   16.666666666666668
-350.0   0.0   33.333333333333336
-300.0   0.0   16.666666666666668
-300.0   30.0   16.666666666666668
-350.0   30.0   16.666666666666668
-300.0   30.0   33.333333333333336
-350.0   0.0   33.333333333333336
-350.0   30.0   33.333333333333336
-300.0   30.0   33.333333333333336
-350.0   30.0   16.666666666666668
-350.0   0.0   33.333333333333336
-300.0   30.0   33.333333333333336
-300.0   0.0   33.333333333333336
-300.0   0.0   16.666666666666668
-350.0   0.0   33.333333333333336
-300.0   30.0   33.333333333333336
-300.0   0.0   16.666666666666668
-350.0   30.0   16.666666666666668
-350.0   0.0   33.333333333333336
-300.0   0.0   33.333333333333336
-350.0   30.0   33.333333333333336
-350.0   0.0   50.0
-300.0   0.0   33.333333333333336
-300.0   30.0   33.333333333333336
-350.0   30.0   33.333333333333336
-300.0   30.0   50.0
-350.0   0.0   50.0
-350.0   30.0   50.0
-300.0   30.0   50.0
-350.0   30.0   33.333333333333336
-350.0   0.0   50.0
-300.0   30.0   50.0
-300.0   0.0   50.0
-300.0   0.0   33.333333333333336
-350.0   0.0   50.0
-300.0   30.0   50.0
-300.0   0.0   33.333333333333336
-350.0   30.0   33.333333333333336
-350.0   30.0   0.0
-300.0   30.0   0.0
-350.0   60.0   0.0
-350.0   30.0   16.666666666666668
-300.0   30.0   0.0
-300.0   60.0   0.0
-350.0   60.0   0.0
-300.0   60.0   16.666666666666668
-350.0   30.0   16.666666666666668
-350.0   60.0   16.666666666666668
-300.0   60.0   16.666666666666668
-350.0   60.0   0.0
-350.0   30.0   16.666666666666668
-300.0   60.0   16.666666666666668
-300.0   30.0   16.666666666666668
-300.0   30.0   0.0
-350.0   30.0   16.666666666666668
-300.0   60.0   16.666666666666668
-300.0   30.0   0.0
-350.0   60.0   0.0
-350.0   30.0   16.666666666666668
-300.0   30.0   16.666666666666668
-350.0   60.0   16.666666666666668
-350.0   30.0   33.333333333333336
-300.0   30.0   16.666666666666668
-300.0   60.0   16.666666666666668
-350.0   60.0   16.666666666666668
-300.0   60.0   33.333333333333336
-350.0   30.0   33.333333333333336
-350.0   60.0   33.333333333333336
-300.0   60.0   33.333333333333336
-350.0   60.0   16.666666666666668
-350.0   30.0   33.333333333333336
-300.0   60.0   33.333333333333336
-300.0   30.0   33.333333333333336
-300.0   30.0   16.666666666666668
-350.0   30.0   33.333333333333336
-300.0   60.0   33.333333333333336
-300.0   30.0   16.666666666666668
-350.0   60.0   16.666666666666668
-350.0   30.0   33.333333333333336
-300.0   30.0   33.333333333333336
-350.0   60.0   33.333333333333336
-350.0   30.0   50.0
-300.0   30.0   33.333333333333336
-300.0   60.0   33.333333333333336
-350.0   60.0   33.333333333333336
-300.0   60.0   50.0
-350.0   30.0   50.0
-350.0   60.0   50.0
-300.0   60.0   50.0
-350.0   60.0   33.333333333333336
-350.0   30.0   50.0
-300.0   60.0   50.0
-300.0   30.0   50.0
-300.0   30.0   33.333333333333336
-350.0   30.0   50.0
-300.0   60.0   50.0
-300.0   30.0   33.333333333333336
-350.0   60.0   33.333333333333336
-350.0   60.0   0.0
-300.0   60.0   0.0
-350.0   90.0   0.0
-350.0   60.0   16.666666666666668
-300.0   60.0   0.0
-300.0   90.0   0.0
-350.0   90.0   0.0
-300.0   90.0   16.666666666666668
-350.0   60.0   16.666666666666668
-350.0   90.0   16.666666666666668
-300.0   90.0   16.666666666666668
-350.0   90.0   0.0
-350.0   60.0   16.666666666666668
-300.0   90.0   16.666666666666668
-300.0   60.0   16.666666666666668
-300.0   60.0   0.0
-350.0   60.0   16.666666666666668
-300.0   90.0   16.666666666666668
-300.0   60.0   0.0
-350.0   90.0   0.0
-350.0   60.0   16.666666666666668
-300.0   60.0   16.666666666666668
-350.0   90.0   16.666666666666668
-350.0   60.0   33.333333333333336
-300.0   60.0   16.666666666666668
-300.0   90.0   16.666666666666668
-350.0   90.0   16.666666666666668
-300.0   90.0   33.333333333333336
-350.0   60.0   33.333333333333336
-350.0   90.0   33.333333333333336
-300.0   90.0   33.333333333333336
-350.0   90.0   16.666666666666668
-350.0   60.0   33.333333333333336
-300.0   90.0   33.333333333333336
-300.0   60.0   33.333333333333336
-300.0   60.0   16.666666666666668
-350.0   60.0   33.333333333333336
-300.0   90.0   33.333333333333336
-300.0   60.0   16.666666666666668
-350.0   90.0   16.666666666666668
-350.0   60.0   33.333333333333336
-300.0   60.0   33.333333333333336
-350.0   90.0   33.333333333333336
-350.0   60.0   50.0
-300.0   60.0   33.333333333333336
-300.0   90.0   33.333333333333336
-350.0   90.0   33.333333333333336
-300.0   90.0   50.0
-350.0   60.0   50.0
-350.0   90.0   50.0
-300.0   90.0   50.0
-350.0   90.0   33.333333333333336
-350.0   60.0   50.0
-300.0   90.0   50.0
-300.0   60.0   50.0
-300.0   60.0   33.333333333333336
-350.0   60.0   50.0
-300.0   90.0   50.0
-300.0   60.0   33.333333333333336
-350.0   90.0   33.333333333333336
-350.0   90.0   0.0
-300.0   90.0   0.0
-350.0   120.0   0.0
-350.0   90.0   16.666666666666668
-300.0   90.0   0.0
-300.0   120.0   0.0
-350.0   120.0   0.0
-300.0   120.0   16.666666666666668
-350.0   90.0   16.666666666666668
-350.0   120.0   16.666666666666668
-300.0   120.0   16.666666666666668
-350.0   120.0   0.0
-350.0   90.0   16.666666666666668
-300.0   120.0   16.666666666666668
-300.0   90.0   16.666666666666668
-300.0   90.0   0.0
-350.0   90.0   16.666666666666668
-300.0   120.0   16.666666666666668
-300.0   90.0   0.0
-350.0   120.0   0.0
-350.0   90.0   16.666666666666668
-300.0   90.0   16.666666666666668
-350.0   120.0   16.666666666666668
-350.0   90.0   33.333333333333336
-300.0   90.0   16.666666666666668
-300.0   120.0   16.666666666666668
-350.0   120.0   16.666666666666668
-300.0   120.0   33.333333333333336
-350.0   90.0   33.333333333333336
-350.0   120.0   33.333333333333336
-300.0   120.0   33.333333333333336
-350.0   120.0   16.666666666666668
-350.0   90.0   33.333333333333336
-300.0   120.0   33.333333333333336
-300.0   90.0   33.333333333333336
-300.0   90.0   16.666666666666668
-350.0   90.0   33.333333333333336
-300.0   120.0   33.333333333333336
-300.0   90.0   16.666666666666668
-350.0   120.0   16.666666666666668
-350.0   90.0   33.333333333333336
-300.0   90.0   33.333333333333336
-350.0   120.0   33.333333333333336
-350.0   90.0   50.0
-300.0   90.0   33.333333333333336
-300.0   120.0   33.333333333333336
-350.0   120.0   33.333333333333336
-300.0   120.0   50.0
-350.0   90.0   50.0
-350.0   120.0   50.0
-300.0   120.0   50.0
-350.0   120.0   33.333333333333336
-350.0   90.0   50.0
-300.0   120.0   50.0
-300.0   90.0   50.0
-300.0   90.0   33.333333333333336
-350.0   90.0   50.0
-300.0   120.0   50.0
-300.0   90.0   33.333333333333336
-350.0   120.0   33.333333333333336
-350.0   120.0   0.0
-300.0   120.0   0.0
-350.0   150.0   0.0
-350.0   120.0   16.666666666666668
-300.0   120.0   0.0
-300.0   150.0   0.0
-350.0   150.0   0.0
-300.0   150.0   16.666666666666668
-350.0   120.0   16.666666666666668
-350.0   150.0   16.666666666666668
-300.0   150.0   16.666666666666668
-350.0   150.0   0.0
-350.0   120.0   16.666666666666668
-300.0   150.0   16.666666666666668
-300.0   120.0   16.666666666666668
-300.0   120.0   0.0
-350.0   120.0   16.666666666666668
-300.0   150.0   16.666666666666668
-300.0   120.0   0.0
-350.0   150.0   0.0
-350.0   120.0   16.666666666666668
-300.0   120.0   16.666666666666668
-350.0   150.0   16.666666666666668
-350.0   120.0   33.333333333333336
-300.0   120.0   16.666666666666668
-300.0   150.0   16.666666666666668
-350.0   150.0   16.666666666666668
-300.0   150.0   33.333333333333336
-350.0   120.0   33.333333333333336
-350.0   150.0   33.333333333333336
-300.0   150.0   33.333333333333336
-350.0   150.0   16.666666666666668
-350.0   120.0   33.333333333333336
-300.0   150.0   33.333333333333336
-300.0   120.0   33.333333333333336
-300.0   120.0   16.666666666666668
-350.0   120.0   33.333333333333336
-300.0   150.0   33.333333333333336
-300.0   120.0   16.666666666666668
-350.0   150.0   16.666666666666668
-350.0   120.0   33.333333333333336
-300.0   120.0   33.333333333333336
-350.0   150.0   33.333333333333336
-350.0   120.0   50.0
-300.0   120.0   33.333333333333336
-300.0   150.0   33.333333333333336
-350.0   150.0   33.333333333333336
-300.0   150.0   50.0
-350.0   120.0   50.0
-350.0   150.0   50.0
-300.0   150.0   50.0
-350.0   150.0   33.333333333333336
-350.0   120.0   50.0
-300.0   150.0   50.0
-300.0   120.0   50.0
-300.0   120.0   33.333333333333336
-350.0   120.0   50.0
-300.0   150.0   50.0
-300.0   120.0   33.333333333333336
-350.0   150.0   33.333333333333336
-300.0   0.0   0.0
-250.0   0.0   0.0
-300.0   30.0   0.0
-300.0   0.0   16.666666666666668
-250.0   0.0   0.0
-250.0   30.0   0.0
-300.0   30.0   0.0
-250.0   30.0   16.666666666666668
-300.0   0.0   16.666666666666668
-300.0   30.0   16.666666666666668
-250.0   30.0   16.666666666666668
-300.0   30.0   0.0
-300.0   0.0   16.666666666666668
-250.0   30.0   16.666666666666668
-250.0   0.0   16.666666666666668
-250.0   0.0   0.0
-300.0   0.0   16.666666666666668
-250.0   30.0   16.666666666666668
-250.0   0.0   0.0
-300.0   30.0   0.0
-300.0   0.0   16.666666666666668
-250.0   0.0   16.666666666666668
-300.0   30.0   16.666666666666668
-300.0   0.0   33.333333333333336
-250.0   0.0   16.666666666666668
-250.0   30.0   16.666666666666668
-300.0   30.0   16.666666666666668
-250.0   30.0   33.333333333333336
-300.0   0.0   33.333333333333336
-300.0   30.0   33.333333333333336
-250.0   30.0   33.333333333333336
-300.0   30.0   16.666666666666668
-300.0   0.0   33.333333333333336
-250.0   30.0   33.333333333333336
-250.0   0.0   33.333333333333336
-250.0   0.0   16.666666666666668
-300.0   0.0   33.333333333333336
-250.0   30.0   33.333333333333336
-250.0   0.0   16.666666666666668
-300.0   30.0   16.666666666666668
-300.0   0.0   33.333333333333336
-250.0   0.0   33.333333333333336
-300.0   30.0   33.333333333333336
-300.0   0.0   50.0
-250.0   0.0   33.333333333333336
-250.0   30.0   33.333333333333336
-300.0   30.0   33.333333333333336
-250.0   30.0   50.0
-300.0   0.0   50.0
-300.0   30.0   50.0
-250.0   30.0   50.0
-300.0   30.0   33.333333333333336
-300.0   0.0   50.0
-250.0   30.0   50.0
-250.0   0.0   50.0
-250.0   0.0   33.333333333333336
-300.0   0.0   50.0
-250.0   30.0   50.0
-250.0   0.0   33.333333333333336
-300.0   30.0   33.333333333333336
-300.0   30.0   0.0
-250.0   30.0   0.0
-300.0   60.0   0.0
-300.0   30.0   16.666666666666668
-250.0   30.0   0.0
-250.0   60.0   0.0
-300.0   60.0   0.0
-250.0   60.0   16.666666666666668
-300.0   30.0   16.666666666666668
-300.0   60.0   16.666666666666668
-250.0   60.0   16.666666666666668
-300.0   60.0   0.0
-300.0   30.0   16.666666666666668
-250.0   60.0   16.666666666666668
-250.0   30.0   16.666666666666668
-250.0   30.0   0.0
-300.0   30.0   16.666666666666668
-250.0   60.0   16.666666666666668
-250.0   30.0   0.0
-300.0   60.0   0.0
-300.0   30.0   16.666666666666668
-250.0   30.0   16.666666666666668
-300.0   60.0   16.666666666666668
-300.0   30.0   33.333333333333336
-250.0   30.0   16.666666666666668
-250.0   60.0   16.666666666666668
-300.0   60.0   16.666666666666668
-250.0   60.0   33.333333333333336
-300.0   30.0   33.333333333333336
-300.0   60.0   33.333333333333336
-250.0   60.0   33.333333333333336
-300.0   60.0   16.666666666666668
-300.0   30.0   33.333333333333336
-250.0   60.0   33.333333333333336
-250.0   30.0   33.333333333333336
-250.0   30.0   16.666666666666668
-300.0   30.0   33.333333333333336
-250.0   60.0   33.333333333333336
-250.0   30.0   16.666666666666668
-300.0   60.0   16.666666666666668
-300.0   30.0   33.333333333333336
-250.0   30.0   33.333333333333336
-300.0   60.0   33.333333333333336
-300.0   30.0   50.0
-250.0   30.0   33.333333333333336
-250.0   60.0   33.333333333333336
-300.0   60.0   33.333333333333336
-250.0   60.0   50.0
-300.0   30.0   50.0
-300.0   60.0   50.0
-250.0   60.0   50.0
-300.0   60.0   33.333333333333336
-300.0   30.0   50.0
-250.0   60.0   50.0
-250.0   30.0   50.0
-250.0   30.0   33.333333333333336
-300.0   30.0   50.0
-250.0   60.0   50.0
-250.0   30.0   33.333333333333336
-300.0   60.0   33.333333333333336
-300.0   60.0   0.0
-250.0   60.0   0.0
-300.0   90.0   0.0
-300.0   60.0   16.666666666666668
-250.0   60.0   0.0
-250.0   90.0   0.0
-300.0   90.0   0.0
-250.0   90.0   16.666666666666668
-300.0   60.0   16.666666666666668
-300.0   90.0   16.666666666666668
-250.0   90.0   16.666666666666668
-300.0   90.0   0.0
-300.0   60.0   16.666666666666668
-250.0   90.0   16.666666666666668
-250.0   60.0   16.666666666666668
-250.0   60.0   0.0
-300.0   60.0   16.666666666666668
-250.0   90.0   16.666666666666668
-250.0   60.0   0.0
-300.0   90.0   0.0
-300.0   60.0   16.666666666666668
-250.0   60.0   16.666666666666668
-300.0   90.0   16.666666666666668
-300.0   60.0   33.333333333333336
-250.0   60.0   16.666666666666668
-250.0   90.0   16.666666666666668
-300.0   90.0   16.666666666666668
-250.0   90.0   33.333333333333336
-300.0   60.0   33.333333333333336
-300.0   90.0   33.333333333333336
-250.0   90.0   33.333333333333336
-300.0   90.0   16.666666666666668
-300.0   60.0   33.333333333333336
-250.0   90.0   33.333333333333336
-250.0   60.0   33.333333333333336
-250.0   60.0   16.666666666666668
-300.0   60.0   33.333333333333336
-250.0   90.0   33.333333333333336
-250.0   60.0   16.666666666666668
-300.0   90.0   16.666666666666668
-300.0   60.0   33.333333333333336
-250.0   60.0   33.333333333333336
-300.0   90.0   33.333333333333336
-300.0   60.0   50.0
-250.0   60.0   33.333333333333336
-250.0   90.0   33.333333333333336
-300.0   90.0   33.333333333333336
-250.0   90.0   50.0
-300.0   60.0   50.0
-300.0   90.0   50.0
-250.0   90.0   50.0
-300.0   90.0   33.333333333333336
-300.0   60.0   50.0
-250.0   90.0   50.0
-250.0   60.0   50.0
-250.0   60.0   33.333333333333336
-300.0   60.0   50.0
-250.0   90.0   50.0
-250.0   60.0   33.333333333333336
-300.0   90.0   33.333333333333336
-300.0   90.0   0.0
-250.0   90.0   0.0
-300.0   120.0   0.0
-300.0   90.0   16.666666666666668
-250.0   90.0   0.0
-250.0   120.0   0.0
-300.0   120.0   0.0
-250.0   120.0   16.666666666666668
-300.0   90.0   16.666666666666668
-300.0   120.0   16.666666666666668
-250.0   120.0   16.666666666666668
-300.0   120.0   0.0
-300.0   90.0   16.666666666666668
-250.0   120.0   16.666666666666668
-250.0   90.0   16.666666666666668
-250.0   90.0   0.0
-300.0   90.0   16.666666666666668
-250.0   120.0   16.666666666666668
-250.0   90.0   0.0
-300.0   120.0   0.0
-300.0   90.0   16.666666666666668
-250.0   90.0   16.666666666666668
-300.0   120.0   16.666666666666668
-300.0   90.0   33.333333333333336
-250.0   90.0   16.666666666666668
-250.0   120.0   16.666666666666668
-300.0   120.0   16.666666666666668
-250.0   120.0   33.333333333333336
-300.0   90.0   33.333333333333336
-300.0   120.0   33.333333333333336
-250.0   120.0   33.333333333333336
-300.0   120.0   16.666666666666668
-300.0   90.0   33.333333333333336
-250.0   120.0   33.333333333333336
-250.0   90.0   33.333333333333336
-250.0   90.0   16.666666666666668
-300.0   90.0   33.333333333333336
-250.0   120.0   33.333333333333336
-250.0   90.0   16.666666666666668
-300.0   120.0   16.666666666666668
-300.0   90.0   33.333333333333336
-250.0   90.0   33.333333333333336
-300.0   120.0   33.333333333333336
-300.0   90.0   50.0
-250.0   90.0   33.333333333333336
-250.0   120.0   33.333333333333336
-300.0   120.0   33.333333333333336
-250.0   120.0   50.0
-300.0   90.0   50.0
-300.0   120.0   50.0
-250.0   120.0   50.0
-300.0   120.0   33.333333333333336
-300.0   90.0   50.0
-250.0   120.0   50.0
-250.0   90.0   50.0
-250.0   90.0   33.333333333333336
-300.0   90.0   50.0
-250.0   120.0   50.0
-250.0   90.0   33.333333333333336
-300.0   120.0   33.333333333333336
-300.0   120.0   0.0
-250.0   120.0   0.0
-300.0   150.0   0.0
-300.0   120.0   16.666666666666668
-250.0   120.0   0.0
-250.0   150.0   0.0
-300.0   150.0   0.0
-250.0   150.0   16.666666666666668
-300.0   120.0   16.666666666666668
-300.0   150.0   16.666666666666668
-250.0   150.0   16.666666666666668
-300.0   150.0   0.0
-300.0   120.0   16.666666666666668
-250.0   150.0   16.666666666666668
-250.0   120.0   16.666666666666668
-250.0   120.0   0.0
-300.0   120.0   16.666666666666668
-250.0   150.0   16.666666666666668
-250.0   120.0   0.0
-300.0   150.0   0.0
-300.0   120.0   16.666666666666668
-250.0   120.0   16.666666666666668
-300.0   150.0   16.666666666666668
-300.0   120.0   33.333333333333336
-250.0   120.0   16.666666666666668
-250.0   150.0   16.666666666666668
-300.0   150.0   16.666666666666668
-250.0   150.0   33.333333333333336
-300.0   120.0   33.333333333333336
-300.0   150.0   33.333333333333336
-250.0   150.0   33.333333333333336
-300.0   150.0   16.666666666666668
-300.0   120.0   33.333333333333336
-250.0   150.0   33.333333333333336
-250.0   120.0   33.333333333333336
-250.0   120.0   16.666666666666668
-300.0   120.0   33.333333333333336
-250.0   150.0   33.333333333333336
-250.0   120.0   16.666666666666668
-300.0   150.0   16.666666666666668
-300.0   120.0   33.333333333333336
-250.0   120.0   33.333333333333336
-300.0   150.0   33.333333333333336
-300.0   120.0   50.0
-250.0   120.0   33.333333333333336
-250.0   150.0   33.333333333333336
-300.0   150.0   33.333333333333336
-250.0   150.0   50.0
-300.0   120.0   50.0
-300.0   150.0   50.0
-250.0   150.0   50.0
-300.0   150.0   33.333333333333336
-300.0   120.0   50.0
-250.0   150.0   50.0
-250.0   120.0   50.0
-250.0   120.0   33.333333333333336
-300.0   120.0   50.0
-250.0   150.0   50.0
-250.0   120.0   33.333333333333336
-300.0   150.0   33.333333333333336
-250.0   0.0   0.0
-200.0   0.0   0.0
-250.0   30.0   0.0
-250.0   0.0   16.666666666666668
-200.0   0.0   0.0
-200.0   30.0   0.0
-250.0   30.0   0.0
-200.0   30.0   16.666666666666668
-250.0   0.0   16.666666666666668
-250.0   30.0   16.666666666666668
-200.0   30.0   16.666666666666668
-250.0   30.0   0.0
-250.0   0.0   16.666666666666668
-200.0   30.0   16.666666666666668
-200.0   0.0   16.666666666666668
-200.0   0.0   0.0
-250.0   0.0   16.666666666666668
-200.0   30.0   16.666666666666668
-200.0   0.0   0.0
-250.0   30.0   0.0
-250.0   0.0   16.666666666666668
-200.0   0.0   16.666666666666668
-250.0   30.0   16.666666666666668
-250.0   0.0   33.333333333333336
-200.0   0.0   16.666666666666668
-200.0   30.0   16.666666666666668
-250.0   30.0   16.666666666666668
-200.0   30.0   33.333333333333336
-250.0   0.0   33.333333333333336
-250.0   30.0   33.333333333333336
-200.0   30.0   33.333333333333336
-250.0   30.0   16.666666666666668
-250.0   0.0   33.333333333333336
-200.0   30.0   33.333333333333336
-200.0   0.0   33.333333333333336
-200.0   0.0   16.666666666666668
-250.0   0.0   33.333333333333336
-200.0   30.0   33.333333333333336
-200.0   0.0   16.666666666666668
-250.0   30.0   16.666666666666668
-250.0   0.0   33.333333333333336
-200.0   0.0   33.333333333333336
-250.0   30.0   33.333333333333336
-250.0   0.0   50.0
-200.0   0.0   33.333333333333336
-200.0   30.0   33.333333333333336
-250.0   30.0   33.333333333333336
-200.0   30.0   50.0
-250.0   0.0   50.0
-250.0   30.0   50.0
-200.0   30.0   50.0
-250.0   30.0   33.333333333333336
-250.0   0.0   50.0
-200.0   30.0   50.0
-200.0   0.0   50.0
-200.0   0.0   33.333333333333336
-250.0   0.0   50.0
-200.0   30.0   50.0
-200.0   0.0   33.333333333333336
-250.0   30.0   33.333333333333336
-250.0   30.0   0.0
-200.0   30.0   0.0
-250.0   60.0   0.0
-250.0   30.0   16.666666666666668
-200.0   30.0   0.0
-200.0   60.0   0.0
-250.0   60.0   0.0
-200.0   60.0   16.666666666666668
-250.0   30.0   16.666666666666668
-250.0   60.0   16.666666666666668
-200.0   60.0   16.666666666666668
-250.0   60.0   0.0
-250.0   30.0   16.666666666666668
-200.0   60.0   16.666666666666668
-200.0   30.0   16.666666666666668
-200.0   30.0   0.0
-250.0   30.0   16.666666666666668
-200.0   60.0   16.666666666666668
-200.0   30.0   0.0
-250.0   60.0   0.0
-250.0   30.0   16.666666666666668
-200.0   30.0   16.666666666666668
-250.0   60.0   16.666666666666668
-250.0   30.0   33.333333333333336
-200.0   30.0   16.666666666666668
-200.0   60.0   16.666666666666668
-250.0   60.0   16.666666666666668
-200.0   60.0   33.333333333333336
-250.0   30.0   33.333333333333336
-250.0   60.0   33.333333333333336
-200.0   60.0   33.333333333333336
-250.0   60.0   16.666666666666668
-250.0   30.0   33.333333333333336
-200.0   60.0   33.333333333333336
-200.0   30.0   33.333333333333336
-200.0   30.0   16.666666666666668
-250.0   30.0   33.333333333333336
-200.0   60.0   33.333333333333336
-200.0   30.0   16.666666666666668
-250.0   60.0   16.666666666666668
-250.0   30.0   33.333333333333336
-200.0   30.0   33.333333333333336
-250.0   60.0   33.333333333333336
-250.0   30.0   50.0
-200.0   30.0   33.333333333333336
-200.0   60.0   33.333333333333336
-250.0   60.0   33.333333333333336
-200.0   60.0   50.0
-250.0   30.0   50.0
-250.0   60.0   50.0
-200.0   60.0   50.0
-250.0   60.0   33.333333333333336
-250.0   30.0   50.0
-200.0   60.0   50.0
-200.0   30.0   50.0
-200.0   30.0   33.333333333333336
-250.0   30.0   50.0
-200.0   60.0   50.0
-200.0   30.0   33.333333333333336
-250.0   60.0   33.333333333333336
-250.0   60.0   0.0
-200.0   60.0   0.0
-250.0   90.0   0.0
-250.0   60.0   16.666666666666668
-200.0   60.0   0.0
-200.0   90.0   0.0
-250.0   90.0   0.0
-200.0   90.0   16.666666666666668
-250.0   60.0   16.666666666666668
-250.0   90.0   16.666666666666668
-200.0   90.0   16.666666666666668
-250.0   90.0   0.0
-250.0   60.0   16.666666666666668
-200.0   90.0   16.666666666666668
-200.0   60.0   16.666666666666668
-200.0   60.0   0.0
-250.0   60.0   16.666666666666668
-200.0   90.0   16.666666666666668
-200.0   60.0   0.0
-250.0   90.0   0.0
-250.0   60.0   16.666666666666668
-200.0   60.0   16.666666666666668
-250.0   90.0   16.666666666666668
-250.0   60.0   33.333333333333336
-200.0   60.0   16.666666666666668
-200.0   90.0   16.666666666666668
-250.0   90.0   16.666666666666668
-200.0   90.0   33.333333333333336
-250.0   60.0   33.333333333333336
-250.0   90.0   33.333333333333336
-200.0   90.0   33.333333333333336
-250.0   90.0   16.666666666666668
-250.0   60.0   33.333333333333336
-200.0   90.0   33.333333333333336
-200.0   60.0   33.333333333333336
-200.0   60.0   16.666666666666668
-250.0   60.0   33.333333333333336
-200.0   90.0   33.333333333333336
-200.0   60.0   16.666666666666668
-250.0   90.0   16.666666666666668
-250.0   60.0   33.333333333333336
-200.0   60.0   33.333333333333336
-250.0   90.0   33.333333333333336
-250.0   60.0   50.0
-200.0   60.0   33.333333333333336
-200.0   90.0   33.333333333333336
-250.0   90.0   33.333333333333336
-200.0   90.0   50.0
-250.0   60.0   50.0
-250.0   90.0   50.0
-200.0   90.0   50.0
-250.0   90.0   33.333333333333336
-250.0   60.0   50.0
-200.0   90.0   50.0
-200.0   60.0   50.0
-200.0   60.0   33.333333333333336
-250.0   60.0   50.0
-200.0   90.0   50.0
-200.0   60.0   33.333333333333336
-250.0   90.0   33.333333333333336
-250.0   90.0   0.0
-200.0   90.0   0.0
-250.0   120.0   0.0
-250.0   90.0   16.666666666666668
-200.0   90.0   0.0
-200.0   120.0   0.0
-250.0   120.0   0.0
-200.0   120.0   16.666666666666668
-250.0   90.0   16.666666666666668
-250.0   120.0   16.666666666666668
-200.0   120.0   16.666666666666668
-250.0   120.0   0.0
-250.0   90.0   16.666666666666668
-200.0   120.0   16.666666666666668
-200.0   90.0   16.666666666666668
-200.0   90.0   0.0
-250.0   90.0   16.666666666666668
-200.0   120.0   16.666666666666668
-200.0   90.0   0.0
-250.0   120.0   0.0
-250.0   90.0   16.666666666666668
-200.0   90.0   16.666666666666668
-250.0   120.0   16.666666666666668
-250.0   90.0   33.333333333333336
-200.0   90.0   16.666666666666668
-200.0   120.0   16.666666666666668
-250.0   120.0   16.666666666666668
-200.0   120.0   33.333333333333336
-250.0   90.0   33.333333333333336
-250.0   120.0   33.333333333333336
-200.0   120.0   33.333333333333336
-250.0   120.0   16.666666666666668
-250.0   90.0   33.333333333333336
-200.0   120.0   33.333333333333336
-200.0   90.0   33.333333333333336
-200.0   90.0   16.666666666666668
-250.0   90.0   33.333333333333336
-200.0   120.0   33.333333333333336
-200.0   90.0   16.666666666666668
-250.0   120.0   16.666666666666668
-250.0   90.0   33.333333333333336
-200.0   90.0   33.333333333333336
-250.0   120.0   33.333333333333336
-250.0   90.0   50.0
-200.0   90.0   33.333333333333336
-200.0   120.0   33.333333333333336
-250.0   120.0   33.333333333333336
-200.0   120.0   50.0
-250.0   90.0   50.0
-250.0   120.0   50.0
-200.0   120.0   50.0
-250.0   120.0   33.333333333333336
-250.0   90.0   50.0
-200.0   120.0   50.0
-200.0   90.0   50.0
-200.0   90.0   33.333333333333336
-250.0   90.0   50.0
-200.0   120.0   50.0
-200.0   90.0   33.333333333333336
-250.0   120.0   33.333333333333336
-250.0   120.0   0.0
-200.0   120.0   0.0
-250.0   150.0   0.0
-250.0   120.0   16.666666666666668
-200.0   120.0   0.0
-200.0   150.0   0.0
-250.0   150.0   0.0
-200.0   150.0   16.666666666666668
-250.0   120.0   16.666666666666668
-250.0   150.0   16.666666666666668
-200.0   150.0   16.666666666666668
-250.0   150.0   0.0
-250.0   120.0   16.666666666666668
-200.0   150.0   16.666666666666668
-200.0   120.0   16.666666666666668
-200.0   120.0   0.0
-250.0   120.0   16.666666666666668
-200.0   150.0   16.666666666666668
-200.0   120.0   0.0
-250.0   150.0   0.0
-250.0   120.0   16.666666666666668
-200.0   120.0   16.666666666666668
-250.0   150.0   16.666666666666668
-250.0   120.0   33.333333333333336
-200.0   120.0   16.666666666666668
-200.0   150.0   16.666666666666668
-250.0   150.0   16.666666666666668
-200.0   150.0   33.333333333333336
-250.0   120.0   33.333333333333336
-250.0   150.0   33.333333333333336
-200.0   150.0   33.333333333333336
-250.0   150.0   16.666666666666668
-250.0   120.0   33.333333333333336
-200.0   150.0   33.333333333333336
-200.0   120.0   33.333333333333336
-200.0   120.0   16.666666666666668
-250.0   120.0   33.333333333333336
-200.0   150.0   33.333333333333336
-200.0   120.0   16.666666666666668
-250.0   150.0   16.666666666666668
-250.0   120.0   33.333333333333336
-200.0   120.0   33.333333333333336
-250.0   150.0   33.333333333333336
-250.0   120.0   50.0
-200.0   120.0   33.333333333333336
-200.0   150.0   33.333333333333336
-250.0   150.0   33.333333333333336
-200.0   150.0   50.0
-250.0   120.0   50.0
-250.0   150.0   50.0
-200.0   150.0   50.0
-250.0   150.0   33.333333333333336
-250.0   120.0   50.0
-200.0   150.0   50.0
-200.0   120.0   50.0
-200.0   120.0   33.333333333333336
-250.0   120.0   50.0
-200.0   150.0   50.0
-200.0   120.0   33.333333333333336
-250.0   150.0   33.333333333333336
-200.0   0.0   0.0
-150.0   0.0   0.0
-200.0   30.0   0.0
-200.0   0.0   16.666666666666668
-150.0   0.0   0.0
-150.0   30.0   0.0
-200.0   30.0   0.0
-150.0   30.0   16.666666666666668
-200.0   0.0   16.666666666666668
-200.0   30.0   16.666666666666668
-150.0   30.0   16.666666666666668
-200.0   30.0   0.0
-200.0   0.0   16.666666666666668
-150.0   30.0   16.666666666666668
-150.0   0.0   16.666666666666668
-150.0   0.0   0.0
-200.0   0.0   16.666666666666668
-150.0   30.0   16.666666666666668
-150.0   0.0   0.0
-200.0   30.0   0.0
-200.0   0.0   16.666666666666668
-150.0   0.0   16.666666666666668
-200.0   30.0   16.666666666666668
-200.0   0.0   33.333333333333336
-150.0   0.0   16.666666666666668
-150.0   30.0   16.666666666666668
-200.0   30.0   16.666666666666668
-150.0   30.0   33.333333333333336
-200.0   0.0   33.333333333333336
-200.0   30.0   33.333333333333336
-150.0   30.0   33.333333333333336
-200.0   30.0   16.666666666666668
-200.0   0.0   33.333333333333336
-150.0   30.0   33.333333333333336
-150.0   0.0   33.333333333333336
-150.0   0.0   16.666666666666668
-200.0   0.0   33.333333333333336
-150.0   30.0   33.333333333333336
-150.0   0.0   16.666666666666668
-200.0   30.0   16.666666666666668
-200.0   0.0   33.333333333333336
-150.0   0.0   33.333333333333336
-200.0   30.0   33.333333333333336
-200.0   0.0   50.0
-150.0   0.0   33.333333333333336
-150.0   30.0   33.333333333333336
-200.0   30.0   33.333333333333336
-150.0   30.0   50.0
-200.0   0.0   50.0
-200.0   30.0   50.0
-150.0   30.0   50.0
-200.0   30.0   33.333333333333336
-200.0   0.0   50.0
-150.0   30.0   50.0
-150.0   0.0   50.0
-150.0   0.0   33.333333333333336
-200.0   0.0   50.0
-150.0   30.0   50.0
-150.0   0.0   33.333333333333336
-200.0   30.0   33.333333333333336
-200.0   30.0   0.0
-150.0   30.0   0.0
-200.0   60.0   0.0
-200.0   30.0   16.666666666666668
-150.0   30.0   0.0
-150.0   60.0   0.0
-200.0   60.0   0.0
-150.0   60.0   16.666666666666668
-200.0   30.0   16.666666666666668
-200.0   60.0   16.666666666666668
-150.0   60.0   16.666666666666668
-200.0   60.0   0.0
-200.0   30.0   16.666666666666668
-150.0   60.0   16.666666666666668
-150.0   30.0   16.666666666666668
-150.0   30.0   0.0
-200.0   30.0   16.666666666666668
-150.0   60.0   16.666666666666668
-150.0   30.0   0.0
-200.0   60.0   0.0
-200.0   30.0   16.666666666666668
-150.0   30.0   16.666666666666668
-200.0   60.0   16.666666666666668
-200.0   30.0   33.333333333333336
-150.0   30.0   16.666666666666668
-150.0   60.0   16.666666666666668
-200.0   60.0   16.666666666666668
-150.0   60.0   33.333333333333336
-200.0   30.0   33.333333333333336
-200.0   60.0   33.333333333333336
-150.0   60.0   33.333333333333336
-200.0   60.0   16.666666666666668
-200.0   30.0   33.333333333333336
-150.0   60.0   33.333333333333336
-150.0   30.0   33.333333333333336
-150.0   30.0   16.666666666666668
-200.0   30.0   33.333333333333336
-150.0   60.0   33.333333333333336
-150.0   30.0   16.666666666666668
-200.0   60.0   16.666666666666668
-200.0   30.0   33.333333333333336
-150.0   30.0   33.333333333333336
-200.0   60.0   33.333333333333336
-200.0   30.0   50.0
-150.0   30.0   33.333333333333336
-150.0   60.0   33.333333333333336
-200.0   60.0   33.333333333333336
-150.0   60.0   50.0
-200.0   30.0   50.0
-200.0   60.0   50.0
-150.0   60.0   50.0
-200.0   60.0   33.333333333333336
-200.0   30.0   50.0
-150.0   60.0   50.0
-150.0   30.0   50.0
-150.0   30.0   33.333333333333336
-200.0   30.0   50.0
-150.0   60.0   50.0
-150.0   30.0   33.333333333333336
-200.0   60.0   33.333333333333336
-200.0   60.0   0.0
-150.0   60.0   0.0
-200.0   90.0   0.0
-200.0   60.0   16.666666666666668
-150.0   60.0   0.0
-150.0   90.0   0.0
-200.0   90.0   0.0
-150.0   90.0   16.666666666666668
-200.0   60.0   16.666666666666668
-200.0   90.0   16.666666666666668
-150.0   90.0   16.666666666666668
-200.0   90.0   0.0
-200.0   60.0   16.666666666666668
-150.0   90.0   16.666666666666668
-150.0   60.0   16.666666666666668
-150.0   60.0   0.0
-200.0   60.0   16.666666666666668
-150.0   90.0   16.666666666666668
-150.0   60.0   0.0
-200.0   90.0   0.0
-200.0   60.0   16.666666666666668
-150.0   60.0   16.666666666666668
-200.0   90.0   16.666666666666668
-200.0   60.0   33.333333333333336
-150.0   60.0   16.666666666666668
-150.0   90.0   16.666666666666668
-200.0   90.0   16.666666666666668
-150.0   90.0   33.333333333333336
-200.0   60.0   33.333333333333336
-200.0   90.0   33.333333333333336
-150.0   90.0   33.333333333333336
-200.0   90.0   16.666666666666668
-200.0   60.0   33.333333333333336
-150.0   90.0   33.333333333333336
-150.0   60.0   33.333333333333336
-150.0   60.0   16.666666666666668
-200.0   60.0   33.333333333333336
-150.0   90.0   33.333333333333336
-150.0   60.0   16.666666666666668
-200.0   90.0   16.666666666666668
-200.0   60.0   33.333333333333336
-150.0   60.0   33.333333333333336
-200.0   90.0   33.333333333333336
-200.0   60.0   50.0
-150.0   60.0   33.333333333333336
-150.0   90.0   33.333333333333336
-200.0   90.0   33.333333333333336
-150.0   90.0   50.0
-200.0   60.0   50.0
-200.0   90.0   50.0
-150.0   90.0   50.0
-200.0   90.0   33.333333333333336
-200.0   60.0   50.0
-150.0   90.0   50.0
-150.0   60.0   50.0
-150.0   60.0   33.333333333333336
-200.0   60.0   50.0
-150.0   90.0   50.0
-150.0   60.0   33.333333333333336
-200.0   90.0   33.333333333333336
-200.0   90.0   0.0
-150.0   90.0   0.0
-200.0   120.0   0.0
-200.0   90.0   16.666666666666668
-150.0   90.0   0.0
-150.0   120.0   0.0
-200.0   120.0   0.0
-150.0   120.0   16.666666666666668
-200.0   90.0   16.666666666666668
-200.0   120.0   16.666666666666668
-150.0   120.0   16.666666666666668
-200.0   120.0   0.0
-200.0   90.0   16.666666666666668
-150.0   120.0   16.666666666666668
-150.0   90.0   16.666666666666668
-150.0   90.0   0.0
-200.0   90.0   16.666666666666668
-150.0   120.0   16.666666666666668
-150.0   90.0   0.0
-200.0   120.0   0.0
-200.0   90.0   16.666666666666668
-150.0   90.0   16.666666666666668
-200.0   120.0   16.666666666666668
-200.0   90.0   33.333333333333336
-150.0   90.0   16.666666666666668
-150.0   120.0   16.666666666666668
-200.0   120.0   16.666666666666668
-150.0   120.0   33.333333333333336
-200.0   90.0   33.333333333333336
-200.0   120.0   33.333333333333336
-150.0   120.0   33.333333333333336
-200.0   120.0   16.666666666666668
-200.0   90.0   33.333333333333336
-150.0   120.0   33.333333333333336
-150.0   90.0   33.333333333333336
-150.0   90.0   16.666666666666668
-200.0   90.0   33.333333333333336
-150.0   120.0   33.333333333333336
-150.0   90.0   16.666666666666668
-200.0   120.0   16.666666666666668
-200.0   90.0   33.333333333333336
-150.0   90.0   33.333333333333336
-200.0   120.0   33.333333333333336
-200.0   90.0   50.0
-150.0   90.0   33.333333333333336
-150.0   120.0   33.333333333333336
-200.0   120.0   33.333333333333336
-150.0   120.0   50.0
-200.0   90.0   50.0
-200.0   120.0   50.0
-150.0   120.0   50.0
-200.0   120.0   33.333333333333336
-200.0   90.0   50.0
-150.0   120.0   50.0
-150.0   90.0   50.0
-150.0   90.0   33.333333333333336
-200.0   90.0   50.0
-150.0   120.0   50.0
-150.0   90.0   33.333333333333336
-200.0   120.0   33.333333333333336
-200.0   120.0   0.0
-150.0   120.0   0.0
-200.0   150.0   0.0
-200.0   120.0   16.666666666666668
-150.0   120.0   0.0
-150.0   150.0   0.0
-200.0   150.0   0.0
-150.0   150.0   16.666666666666668
-200.0   120.0   16.666666666666668
-200.0   150.0   16.666666666666668
-150.0   150.0   16.666666666666668
-200.0   150.0   0.0
-200.0   120.0   16.666666666666668
-150.0   150.0   16.666666666666668
-150.0   120.0   16.666666666666668
-150.0   120.0   0.0
-200.0   120.0   16.666666666666668
-150.0   150.0   16.666666666666668
-150.0   120.0   0.0
-200.0   150.0   0.0
-200.0   120.0   16.666666666666668
-150.0   120.0   16.666666666666668
-200.0   150.0   16.666666666666668
-200.0   120.0   33.333333333333336
-150.0   120.0   16.666666666666668
-150.0   150.0   16.666666666666668
-200.0   150.0   16.666666666666668
-150.0   150.0   33.333333333333336
-200.0   120.0   33.333333333333336
-200.0   150.0   33.333333333333336
-150.0   150.0   33.333333333333336
-200.0   150.0   16.666666666666668
-200.0   120.0   33.333333333333336
-150.0   150.0   33.333333333333336
-150.0   120.0   33.333333333333336
-150.0   120.0   16.666666666666668
-200.0   120.0   33.333333333333336
-150.0   150.0   33.333333333333336
-150.0   120.0   16.666666666666668
-200.0   150.0   16.666666666666668
-200.0   120.0   33.333333333333336
-150.0   120.0   33.333333333333336
-200.0   150.0   33.333333333333336
-200.0   120.0   50.0
-150.0   120.0   33.333333333333336
-150.0   150.0   33.333333333333336
-200.0   150.0   33.333333333333336
-150.0   150.0   50.0
-200.0   120.0   50.0
-200.0   150.0   50.0
-150.0   150.0   50.0
-200.0   150.0   33.333333333333336
-200.0   120.0   50.0
-150.0   150.0   50.0
-150.0   120.0   50.0
-150.0   120.0   33.333333333333336
-200.0   120.0   50.0
-150.0   150.0   50.0
-150.0   120.0   33.333333333333336
-200.0   150.0   33.333333333333336
-150.0   0.0   0.0
-100.0   0.0   0.0
-150.0   30.0   0.0
-150.0   0.0   16.666666666666668
-100.0   0.0   0.0
-100.0   30.0   0.0
-150.0   30.0   0.0
-100.0   30.0   16.666666666666668
-150.0   0.0   16.666666666666668
-150.0   30.0   16.666666666666668
-100.0   30.0   16.666666666666668
-150.0   30.0   0.0
-150.0   0.0   16.666666666666668
-100.0   30.0   16.666666666666668
-100.0   0.0   16.666666666666668
-100.0   0.0   0.0
-150.0   0.0   16.666666666666668
-100.0   30.0   16.666666666666668
-100.0   0.0   0.0
-150.0   30.0   0.0
-150.0   0.0   16.666666666666668
-100.0   0.0   16.666666666666668
-150.0   30.0   16.666666666666668
-150.0   0.0   33.333333333333336
-100.0   0.0   16.666666666666668
-100.0   30.0   16.666666666666668
-150.0   30.0   16.666666666666668
-100.0   30.0   33.333333333333336
-150.0   0.0   33.333333333333336
-150.0   30.0   33.333333333333336
-100.0   30.0   33.333333333333336
-150.0   30.0   16.666666666666668
-150.0   0.0   33.333333333333336
-100.0   30.0   33.333333333333336
-100.0   0.0   33.333333333333336
-100.0   0.0   16.666666666666668
-150.0   0.0   33.333333333333336
-100.0   30.0   33.333333333333336
-100.0   0.0   16.666666666666668
-150.0   30.0   16.666666666666668
-150.0   0.0   33.333333333333336
-100.0   0.0   33.333333333333336
-150.0   30.0   33.333333333333336
-150.0   0.0   50.0
-100.0   0.0   33.333333333333336
-100.0   30.0   33.333333333333336
-150.0   30.0   33.333333333333336
-100.0   30.0   50.0
-150.0   0.0   50.0
-150.0   30.0   50.0
-100.0   30.0   50.0
-150.0   30.0   33.333333333333336
-150.0   0.0   50.0
-100.0   30.0   50.0
-100.0   0.0   50.0
-100.0   0.0   33.333333333333336
-150.0   0.0   50.0
-100.0   30.0   50.0
-100.0   0.0   33.333333333333336
-150.0   30.0   33.333333333333336
-150.0   30.0   0.0
-100.0   30.0   0.0
-150.0   60.0   0.0
-150.0   30.0   16.666666666666668
-100.0   30.0   0.0
-100.0   60.0   0.0
-150.0   60.0   0.0
-100.0   60.0   16.666666666666668
-150.0   30.0   16.666666666666668
-150.0   60.0   16.666666666666668
-100.0   60.0   16.666666666666668
-150.0   60.0   0.0
-150.0   30.0   16.666666666666668
-100.0   60.0   16.666666666666668
-100.0   30.0   16.666666666666668
-100.0   30.0   0.0
-150.0   30.0   16.666666666666668
-100.0   60.0   16.666666666666668
-100.0   30.0   0.0
-150.0   60.0   0.0
-150.0   30.0   16.666666666666668
-100.0   30.0   16.666666666666668
-150.0   60.0   16.666666666666668
-150.0   30.0   33.333333333333336
-100.0   30.0   16.666666666666668
-100.0   60.0   16.666666666666668
-150.0   60.0   16.666666666666668
-100.0   60.0   33.333333333333336
-150.0   30.0   33.333333333333336
-150.0   60.0   33.333333333333336
-100.0   60.0   33.333333333333336
-150.0   60.0   16.666666666666668
-150.0   30.0   33.333333333333336
-100.0   60.0   33.333333333333336
-100.0   30.0   33.333333333333336
-100.0   30.0   16.666666666666668
-150.0   30.0   33.333333333333336
-100.0   60.0   33.333333333333336
-100.0   30.0   16.666666666666668
-150.0   60.0   16.666666666666668
-150.0   30.0   33.333333333333336
-100.0   30.0   33.333333333333336
-150.0   60.0   33.333333333333336
-150.0   30.0   50.0
-100.0   30.0   33.333333333333336
-100.0   60.0   33.333333333333336
-150.0   60.0   33.333333333333336
-100.0   60.0   50.0
-150.0   30.0   50.0
-150.0   60.0   50.0
-100.0   60.0   50.0
-150.0   60.0   33.333333333333336
-150.0   30.0   50.0
-100.0   60.0   50.0
-100.0   30.0   50.0
-100.0   30.0   33.333333333333336
-150.0   30.0   50.0
-100.0   60.0   50.0
-100.0   30.0   33.333333333333336
-150.0   60.0   33.333333333333336
-150.0   60.0   0.0
-100.0   60.0   0.0
-150.0   90.0   0.0
-150.0   60.0   16.666666666666668
-100.0   60.0   0.0
-100.0   90.0   0.0
-150.0   90.0   0.0
-100.0   90.0   16.666666666666668
-150.0   60.0   16.666666666666668
-150.0   90.0   16.666666666666668
-100.0   90.0   16.666666666666668
-150.0   90.0   0.0
-150.0   60.0   16.666666666666668
-100.0   90.0   16.666666666666668
-100.0   60.0   16.666666666666668
-100.0   60.0   0.0
-150.0   60.0   16.666666666666668
-100.0   90.0   16.666666666666668
-100.0   60.0   0.0
-150.0   90.0   0.0
-150.0   60.0   16.666666666666668
-100.0   60.0   16.666666666666668
-150.0   90.0   16.666666666666668
-150.0   60.0   33.333333333333336
-100.0   60.0   16.666666666666668
-100.0   90.0   16.666666666666668
-150.0   90.0   16.666666666666668
-100.0   90.0   33.333333333333336
-150.0   60.0   33.333333333333336
-150.0   90.0   33.333333333333336
-100.0   90.0   33.333333333333336
-150.0   90.0   16.666666666666668
-150.0   60.0   33.333333333333336
-100.0   90.0   33.333333333333336
-100.0   60.0   33.333333333333336
-100.0   60.0   16.666666666666668
-150.0   60.0   33.333333333333336
-100.0   90.0   33.333333333333336
-100.0   60.0   16.666666666666668
-150.0   90.0   16.666666666666668
-150.0   60.0   33.333333333333336
-100.0   60.0   33.333333333333336
-150.0   90.0   33.333333333333336
-150.0   60.0   50.0
-100.0   60.0   33.333333333333336
-100.0   90.0   33.333333333333336
-150.0   90.0   33.333333333333336
-100.0   90.0   50.0
-150.0   60.0   50.0
-150.0   90.0   50.0
-100.0   90.0   50.0
-150.0   90.0   33.333333333333336
-150.0   60.0   50.0
-100.0   90.0   50.0
-100.0   60.0   50.0
-100.0   60.0   33.333333333333336
-150.0   60.0   50.0
-100.0   90.0   50.0
-100.0   60.0   33.333333333333336
-150.0   90.0   33.333333333333336
-150.0   90.0   0.0
-100.0   90.0   0.0
-150.0   120.0   0.0
-150.0   90.0   16.666666666666668
-100.0   90.0   0.0
-100.0   120.0   0.0
-150.0   120.0   0.0
-100.0   120.0   16.666666666666668
-150.0   90.0   16.666666666666668
-150.0   120.0   16.666666666666668
-100.0   120.0   16.666666666666668
-150.0   120.0   0.0
-150.0   90.0   16.666666666666668
-100.0   120.0   16.666666666666668
-100.0   90.0   16.666666666666668
-100.0   90.0   0.0
-150.0   90.0   16.666666666666668
-100.0   120.0   16.666666666666668
-100.0   90.0   0.0
-150.0   120.0   0.0
-150.0   90.0   16.666666666666668
-100.0   90.0   16.666666666666668
-150.0   120.0   16.666666666666668
-150.0   90.0   33.333333333333336
-100.0   90.0   16.666666666666668
-100.0   120.0   16.666666666666668
-150.0   120.0   16.666666666666668
-100.0   120.0   33.333333333333336
-150.0   90.0   33.333333333333336
-150.0   120.0   33.333333333333336
-100.0   120.0   33.333333333333336
-150.0   120.0   16.666666666666668
-150.0   90.0   33.333333333333336
-100.0   120.0   33.333333333333336
-100.0   90.0   33.333333333333336
-100.0   90.0   16.666666666666668
-150.0   90.0   33.333333333333336
-100.0   120.0   33.333333333333336
-100.0   90.0   16.666666666666668
-150.0   120.0   16.666666666666668
-150.0   90.0   33.333333333333336
-100.0   90.0   33.333333333333336
-150.0   120.0   33.333333333333336
-150.0   90.0   50.0
-100.0   90.0   33.333333333333336
-100.0   120.0   33.333333333333336
-150.0   120.0   33.333333333333336
-100.0   120.0   50.0
-150.0   90.0   50.0
-150.0   120.0   50.0
-100.0   120.0   50.0
-150.0   120.0   33.333333333333336
-150.0   90.0   50.0
-100.0   120.0   50.0
-100.0   90.0   50.0
-100.0   90.0   33.333333333333336
-150.0   90.0   50.0
-100.0   120.0   50.0
-100.0   90.0   33.333333333333336
-150.0   120.0   33.333333333333336
-150.0   120.0   0.0
-100.0   120.0   0.0
-150.0   150.0   0.0
-150.0   120.0   16.666666666666668
-100.0   120.0   0.0
-100.0   150.0   0.0
-150.0   150.0   0.0
-100.0   150.0   16.666666666666668
-150.0   120.0   16.666666666666668
-150.0   150.0   16.666666666666668
-100.0   150.0   16.666666666666668
-150.0   150.0   0.0
-150.0   120.0   16.666666666666668
-100.0   150.0   16.666666666666668
-100.0   120.0   16.666666666666668
-100.0   120.0   0.0
-150.0   120.0   16.666666666666668
-100.0   150.0   16.666666666666668
-100.0   120.0   0.0
-150.0   150.0   0.0
-150.0   120.0   16.666666666666668
-100.0   120.0   16.666666666666668
-150.0   150.0   16.666666666666668
-150.0   120.0   33.333333333333336
-100.0   120.0   16.666666666666668
-100.0   150.0   16.666666666666668
-150.0   150.0   16.666666666666668
-100.0   150.0   33.333333333333336
-150.0   120.0   33.333333333333336
-150.0   150.0   33.333333333333336
-100.0   150.0   33.333333333333336
-150.0   150.0   16.666666666666668
-150.0   120.0   33.333333333333336
-100.0   150.0   33.333333333333336
-100.0   120.0   33.333333333333336
-100.0   120.0   16.666666666666668
-150.0   120.0   33.333333333333336
-100.0   150.0   33.333333333333336
-100.0   120.0   16.666666666666668
-150.0   150.0   16.666666666666668
-150.0   120.0   33.333333333333336
-100.0   120.0   33.333333333333336
-150.0   150.0   33.333333333333336
-150.0   120.0   50.0
-100.0   120.0   33.333333333333336
-100.0   150.0   33.333333333333336
-150.0   150.0   33.333333333333336
-100.0   150.0   50.0
-150.0   120.0   50.0
-150.0   150.0   50.0
-100.0   150.0   50.0
-150.0   150.0   33.333333333333336
-150.0   120.0   50.0
-100.0   150.0   50.0
-100.0   120.0   50.0
-100.0   120.0   33.333333333333336
-150.0   120.0   50.0
-100.0   150.0   50.0
-100.0   120.0   33.333333333333336
-150.0   150.0   33.333333333333336
-100.0   0.0   0.0
-50.0   0.0   0.0
-100.0   30.0   0.0
-100.0   0.0   16.666666666666668
-50.0   0.0   0.0
-50.0   30.0   0.0
-100.0   30.0   0.0
-50.0   30.0   16.666666666666668
-100.0   0.0   16.666666666666668
-100.0   30.0   16.666666666666668
-50.0   30.0   16.666666666666668
-100.0   30.0   0.0
-100.0   0.0   16.666666666666668
-50.0   30.0   16.666666666666668
-50.0   0.0   16.666666666666668
-50.0   0.0   0.0
-100.0   0.0   16.666666666666668
-50.0   30.0   16.666666666666668
-50.0   0.0   0.0
-100.0   30.0   0.0
-100.0   0.0   16.666666666666668
-50.0   0.0   16.666666666666668
-100.0   30.0   16.666666666666668
-100.0   0.0   33.333333333333336
-50.0   0.0   16.666666666666668
-50.0   30.0   16.666666666666668
-100.0   30.0   16.666666666666668
-50.0   30.0   33.333333333333336
-100.0   0.0   33.333333333333336
-100.0   30.0   33.333333333333336
-50.0   30.0   33.333333333333336
-100.0   30.0   16.666666666666668
-100.0   0.0   33.333333333333336
-50.0   30.0   33.333333333333336
-50.0   0.0   33.333333333333336
-50.0   0.0   16.666666666666668
-100.0   0.0   33.333333333333336
-50.0   30.0   33.333333333333336
-50.0   0.0   16.666666666666668
-100.0   30.0   16.666666666666668
-100.0   0.0   33.333333333333336
-50.0   0.0   33.333333333333336
-100.0   30.0   33.333333333333336
-100.0   0.0   50.0
-50.0   0.0   33.333333333333336
-50.0   30.0   33.333333333333336
-100.0   30.0   33.333333333333336
-50.0   30.0   50.0
-100.0   0.0   50.0
-100.0   30.0   50.0
-50.0   30.0   50.0
-100.0   30.0   33.333333333333336
-100.0   0.0   50.0
-50.0   30.0   50.0
-50.0   0.0   50.0
-50.0   0.0   33.333333333333336
-100.0   0.0   50.0
-50.0   30.0   50.0
-50.0   0.0   33.333333333333336
-100.0   30.0   33.333333333333336
-100.0   30.0   0.0
-50.0   30.0   0.0
-100.0   60.0   0.0
-100.0   30.0   16.666666666666668
-50.0   30.0   0.0
-50.0   60.0   0.0
-100.0   60.0   0.0
-50.0   60.0   16.666666666666668
-100.0   30.0   16.666666666666668
-100.0   60.0   16.666666666666668
-50.0   60.0   16.666666666666668
-100.0   60.0   0.0
-100.0   30.0   16.666666666666668
-50.0   60.0   16.666666666666668
-50.0   30.0   16.666666666666668
-50.0   30.0   0.0
-100.0   30.0   16.666666666666668
-50.0   60.0   16.666666666666668
-50.0   30.0   0.0
-100.0   60.0   0.0
-100.0   30.0   16.666666666666668
-50.0   30.0   16.666666666666668
-100.0   60.0   16.666666666666668
-100.0   30.0   33.333333333333336
-50.0   30.0   16.666666666666668
-50.0   60.0   16.666666666666668
-100.0   60.0   16.666666666666668
-50.0   60.0   33.333333333333336
-100.0   30.0   33.333333333333336
-100.0   60.0   33.333333333333336
-50.0   60.0   33.333333333333336
-100.0   60.0   16.666666666666668
-100.0   30.0   33.333333333333336
-50.0   60.0   33.333333333333336
-50.0   30.0   33.333333333333336
-50.0   30.0   16.666666666666668
-100.0   30.0   33.333333333333336
-50.0   60.0   33.333333333333336
-50.0   30.0   16.666666666666668
-100.0   60.0   16.666666666666668
-100.0   30.0   33.333333333333336
-50.0   30.0   33.333333333333336
-100.0   60.0   33.333333333333336
-100.0   30.0   50.0
-50.0   30.0   33.333333333333336
-50.0   60.0   33.333333333333336
-100.0   60.0   33.333333333333336
-50.0   60.0   50.0
-100.0   30.0   50.0
-100.0   60.0   50.0
-50.0   60.0   50.0
-100.0   60.0   33.333333333333336
-100.0   30.0   50.0
-50.0   60.0   50.0
-50.0   30.0   50.0
-50.0   30.0   33.333333333333336
-100.0   30.0   50.0
-50.0   60.0   50.0
-50.0   30.0   33.333333333333336
-100.0   60.0   33.333333333333336
-100.0   60.0   0.0
-50.0   60.0   0.0
-100.0   90.0   0.0
-100.0   60.0   16.666666666666668
-50.0   60.0   0.0
-50.0   90.0   0.0
-100.0   90.0   0.0
-50.0   90.0   16.666666666666668
-100.0   60.0   16.666666666666668
-100.0   90.0   16.666666666666668
-50.0   90.0   16.666666666666668
-100.0   90.0   0.0
-100.0   60.0   16.666666666666668
-50.0   90.0   16.666666666666668
-50.0   60.0   16.666666666666668
-50.0   60.0   0.0
-100.0   60.0   16.666666666666668
-50.0   90.0   16.666666666666668
-50.0   60.0   0.0
-100.0   90.0   0.0
-100.0   60.0   16.666666666666668
-50.0   60.0   16.666666666666668
-100.0   90.0   16.666666666666668
-100.0   60.0   33.333333333333336
-50.0   60.0   16.666666666666668
-50.0   90.0   16.666666666666668
-100.0   90.0   16.666666666666668
-50.0   90.0   33.333333333333336
-100.0   60.0   33.333333333333336
-100.0   90.0   33.333333333333336
-50.0   90.0   33.333333333333336
-100.0   90.0   16.666666666666668
-100.0   60.0   33.333333333333336
-50.0   90.0   33.333333333333336
-50.0   60.0   33.333333333333336
-50.0   60.0   16.666666666666668
-100.0   60.0   33.333333333333336
-50.0   90.0   33.333333333333336
-50.0   60.0   16.666666666666668
-100.0   90.0   16.666666666666668
-100.0   60.0   33.333333333333336
-50.0   60.0   33.333333333333336
-100.0   90.0   33.333333333333336
-100.0   60.0   50.0
-50.0   60.0   33.333333333333336
-50.0   90.0   33.333333333333336
-100.0   90.0   33.333333333333336
-50.0   90.0   50.0
-100.0   60.0   50.0
-100.0   90.0   50.0
-50.0   90.0   50.0
-100.0   90.0   33.333333333333336
-100.0   60.0   50.0
-50.0   90.0   50.0
-50.0   60.0   50.0
-50.0   60.0   33.333333333333336
-100.0   60.0   50.0
-50.0   90.0   50.0
-50.0   60.0   33.333333333333336
-100.0   90.0   33.333333333333336
-100.0   90.0   0.0
-50.0   90.0   0.0
-100.0   120.0   0.0
-100.0   90.0   16.666666666666668
-50.0   90.0   0.0
-50.0   120.0   0.0
-100.0   120.0   0.0
-50.0   120.0   16.666666666666668
-100.0   90.0   16.666666666666668
-100.0   120.0   16.666666666666668
-50.0   120.0   16.666666666666668
-100.0   120.0   0.0
-100.0   90.0   16.666666666666668
-50.0   120.0   16.666666666666668
-50.0   90.0   16.666666666666668
-50.0   90.0   0.0
-100.0   90.0   16.666666666666668
-50.0   120.0   16.666666666666668
-50.0   90.0   0.0
-100.0   120.0   0.0
-100.0   90.0   16.666666666666668
-50.0   90.0   16.666666666666668
-100.0   120.0   16.666666666666668
-100.0   90.0   33.333333333333336
-50.0   90.0   16.666666666666668
-50.0   120.0   16.666666666666668
-100.0   120.0   16.666666666666668
-50.0   120.0   33.333333333333336
-100.0   90.0   33.333333333333336
-100.0   120.0   33.333333333333336
-50.0   120.0   33.333333333333336
-100.0   120.0   16.666666666666668
-100.0   90.0   33.333333333333336
-50.0   120.0   33.333333333333336
-50.0   90.0   33.333333333333336
-50.0   90.0   16.666666666666668
-100.0   90.0   33.333333333333336
-50.0   120.0   33.333333333333336
-50.0   90.0   16.666666666666668
-100.0   120.0   16.666666666666668
-100.0   90.0   33.333333333333336
-50.0   90.0   33.333333333333336
-100.0   120.0   33.333333333333336
-100.0   90.0   50.0
-50.0   90.0   33.333333333333336
-50.0   120.0   33.333333333333336
-100.0   120.0   33.333333333333336
-50.0   120.0   50.0
-100.0   90.0   50.0
-100.0   120.0   50.0
-50.0   120.0   50.0
-100.0   120.0   33.333333333333336
-100.0   90.0   50.0
-50.0   120.0   50.0
-50.0   90.0   50.0
-50.0   90.0   33.333333333333336
-100.0   90.0   50.0
-50.0   120.0   50.0
-50.0   90.0   33.333333333333336
-100.0   120.0   33.333333333333336
-100.0   120.0   0.0
-50.0   120.0   0.0
-100.0   150.0   0.0
-100.0   120.0   16.666666666666668
-50.0   120.0   0.0
-50.0   150.0   0.0
-100.0   150.0   0.0
-50.0   150.0   16.666666666666668
-100.0   120.0   16.666666666666668
-100.0   150.0   16.666666666666668
-50.0   150.0   16.666666666666668
-100.0   150.0   0.0
-100.0   120.0   16.666666666666668
-50.0   150.0   16.666666666666668
-50.0   120.0   16.666666666666668
-50.0   120.0   0.0
-100.0   120.0   16.666666666666668
-50.0   150.0   16.666666666666668
-50.0   120.0   0.0
-100.0   150.0   0.0
-100.0   120.0   16.666666666666668
-50.0   120.0   16.666666666666668
-100.0   150.0   16.666666666666668
-100.0   120.0   33.333333333333336
-50.0   120.0   16.666666666666668
-50.0   150.0   16.666666666666668
-100.0   150.0   16.666666666666668
-50.0   150.0   33.333333333333336
-100.0   120.0   33.333333333333336
-100.0   150.0   33.333333333333336
-50.0   150.0   33.333333333333336
-100.0   150.0   16.666666666666668
-100.0   120.0   33.333333333333336
-50.0   150.0   33.333333333333336
-50.0   120.0   33.333333333333336
-50.0   120.0   16.666666666666668
-100.0   120.0   33.333333333333336
-50.0   150.0   33.333333333333336
-50.0   120.0   16.666666666666668
-100.0   150.0   16.666666666666668
-100.0   120.0   33.333333333333336
-50.0   120.0   33.333333333333336
-100.0   150.0   33.333333333333336
-100.0   120.0   50.0
-50.0   120.0   33.333333333333336
-50.0   150.0   33.333333333333336
-100.0   150.0   33.333333333333336
-50.0   150.0   50.0
-100.0   120.0   50.0
-100.0   150.0   50.0
-50.0   150.0   50.0
-100.0   150.0   33.333333333333336
-100.0   120.0   50.0
-50.0   150.0   50.0
-50.0   120.0   50.0
-50.0   120.0   33.333333333333336
-100.0   120.0   50.0
-50.0   150.0   50.0
-50.0   120.0   33.333333333333336
-100.0   150.0   33.333333333333336
-50.0   0.0   0.0
0.0   0.0   0.0
-50.0   30.0   0.0
-50.0   0.0   16.666666666666668
0.0   0.0   0.0
0.0   30.0   0.0
-50.0   30.0   0.0
0.0   30.0   16.666666666666668
-50.0   0.0   16.666666666666668
-50.0   30.0   16.666666666666668
0.0   30.0   16.666666666666668
-50.0   30.0   0.0
-50.0   0.0   16.666666666666668
0.0   30.0   16.666666666666668
0.0   0.0   16.666666666666668
0.0   0.0   0.0
-50.0   0.0   16.666666666666668
0.0   30.0   16.666666666666668
0.0   0.0   0.0
-50.0   30.0   0.0
-50.0   0.0   16.666666666666668
0.0   0.0   16.666666666666668
-50.0   30.0   16.666666666666668
-50.0   0.0   33.333333333333336
0.0   0.0   16.666666666666668
0.0   30.0   16.666666666666668
-50.0   30.0   16.666666666666668
0.0   30.0   33.333333333333336
-50.0   0.0   33.333333333333336
-50.0   30.0   33.333333333333336
0.0   30.0   33.333333333333336
-50.0   30.0   16.666666666666668
-50.0   0.0   33.333333333333336
0.0   30.0   33.333333333333336
0.0   0.0   33.333333333333336
0.0   0.0   16.666666666666668
-50.0   0.0   33.333333333333336
0.0   30.0   33.333333333333336
0.0   0.0   16.666666666666668
-50.0   30.0   16.666666666666668
-50.0   0.0   33.333333333333336
0.0   0.0   33.333333333333336
-50.0   30.0   33.333333333333336
-50.0   0.0   50.0
0.0   0.0   33.333333333333336
0.0   30.0   33.333333333333336
-50.0   30.0   33.333333333333336
0.0   30.0   50.0
-50.0   0.0   50.0
-50.0   30.0   50.0
0.0   30.0   50.0
-50.0   30.0   33.333333333333336
-50.0   0.0   50.0
0.0   30.0   50.0
0.0   0.0   50.0
0.0   0.0   33.333333333333336
-50.0   0.0   50.0
0.0   30.0   50.0
0.0   0.0   33.333333333333336
-50.0   30.0   33.333333333333336
-50.0   30.0   0.0
0.0   30.0   0.0
-50.0   60.0   0.0
-50.0   30.0   16.666666666666668
0.0   30.0   0.0
0.0   60.0   0.0
-50.0   60.0   0.0
0.0   60.0   16.666666666666668
-50.0   30.0   16.666666666666668
-50.0   60.0   16.666666666666668
0.0   60.0   16.666666666666668
-50.0   60.0   0.0
-50.0   30.0   16.666666666666668
0.0   60.0   16.666666666666668
0.0   30.0   16.666666666666668
0.0   30.0   0.0
-50.0   30.0   16.666666666666668
0.0   60.0   16.666666666666668
0.0   30.0   0.0
-50.0   60.0   0.0
-50.0   30.0   16.666666666666668
0.0   30.0   16.666666666666668
-50.0   60.0   16.666666666666668
-50.0   30.0   33.333333333333336
0.0   30.0   16.666666666666668
0.0   60.0   16.666666666666668
-50.0   60.0   16.666666666666668
0.0   60.0   33.333333333333336
-50.0   30.0   33.333333333333336
-50.0   60.0   33.333333333333336
0.0   60.0   33.333333333333336
-50.0   60.0   16.666666666666668
-50.0   30.0   33.333333333333336
0.0   60.0   33.333333333333336
0.0   30.0   33.333333333333336
0.0   30.0   16.666666666666668
-50.0   30.0   33.333333333333336
0.0   60.0   33.333333333333336
0.0   30.0   16.666666666666668
-50.0   60.0   16.666666666666668
-50.0   30.0   33.333333333333336
0.0   30.0   33.333333333333336
-50.0   60.0   33.333333333333336
-50.0   30.0   50.0
0.0   30.0   33.333333333333336
0.0   60.0   33.333333333333336
-50.0   60.0   33.333333333333336
0.0   60.0   50.0
-50.0   30.0   50.0
-50.0   60.0   50.0
0.0   60.0   50.0
-50.0   60.0   33.333333333333336
-50.0   30.0   50.0
0.0   60.0   50.0
0.0   30.0   50.0
0.0   30.0   33.333333333333336
-50.0   30.0   50.0
0.0   60.0   50.0
0.0   30.0   33.333333333333336
-50.0   60.0   33.333333333333336
-50.0   60.0   0.0
0.0   60.0   0.0
-50.0   90.0   0.0
-50.0   60.0   16.666666666666668
0.0   60.0   0.0
0.0   90.0   0.0
-50.0   90.0   0.0
0.0   90.0   16.666666666666668
-50.0   60.0   16.666666666666668
-50.0   90.0   16.666666666666668
0.0   90.0   16.666666666666668
-50.0   90.0   0.0
-50.0   60.0   16.666666666666668
0.0   90.0   16.666666666666668
0.0   60.0   16.666666666666668
0.0   60.0   0.0
-50.0   60.0   16.666666666666668
0.0   90.0   16.666666666666668
0.0   60.0   0.0
-50.0   90.0   0.0
-50.0   60.0   16.666666666666668
0.0   60.0   16.666666666666668
-50.0   90.0   16.666666666666668
-50.0   60.0   33.333333333333336
0.0   60.0   16.666666666666668
0.0   90.0   16.666666666666668
-50.0   90.0   16.666666666666668
0.0   90.0   33.333333333333336
-50.0   60.0   33.333333333333336
-50.0   90.0   33.333333333333336
0.0   90.0   33.333333333333336
-50.0   90.0   16.666666666666668
-50.0   60.0   33.333333333333336
0.0   90.0   33.333333333333336
0.0   60.0   33.333333333333336
0.0   60.0   16.666666666666668
-50.0   60.0   33.333333333333336
0.0   90.0   33.333333333333336
0.0   60.0   16.666666666666668
-50.0   90.0   16.666666666666668
-50.0   60.0   33.333333333333336
0.0   60.0   33.333333333333336
-50.0   90.0   33.333333333333336
-50.0   60.0   50.0
0.0   60.0   33.333333333333336
0.0   90.0   33.333333333333336
-50.0   90.0   33.333333333333336
0.0   90.0   50.0
-50.0   60.0   50.0
-50.0   90.0   50.0
0.0   90.0   50.0
-50.0   90.0   33.333333333333336
-50.0   60.0   50.0
0.0   90.0   50.0
0.0   60.0   50.0
0.0   60.0   33.333333333333336
-50.0   60.0   50.0
0.0   90.0   50.0
0.0   60.0   33.333333333333336
-50.0   90.0   33.333333333333336
-50.0   90.0   0.0
0.0   90.0   0.0
-50.0   120.0   0.0
-50.0   90.0   16.666666666666668
0.0   90.0   0.0
0.0   120.0   0.0
-50.0   120.0   0.0
0.0   120.0   16.666666666666668
-50.0   90.0   16.666666666666668
-50.0   120.0   16.666666666666668
0.0   120.0   16.666666666666668
-50.0   120.0   0.0
-50.0   90.0   16.666666666666668
0.0   120.0   16.666666666666668
0.0   90.0   16.666666666666668
0.0   90.0   0.0
-50.0   90.0   16.666666666666668
0.0   120.0   16.666666666666668
0.0   90.0   0.0
-50.0   120.0   0.0
-50.0   90.0   16.666666666666668
0.0   90.0   16.666666666666668
-50.0   120.0   16.666666666666668
-50.0   90.0   33.333333333333336
0.0   90.0   16.666666666666668
0.0   120.0   16.666666666666668
-50.0   120.0   16.666666666666668
0.0   120.0   33.333333333333336
-50.0   90.0   33.333333333333336
-50.0   120.0   33.333333333333336
0.0   120.0   33.333333333333336
-50.0   120.0   16.666666666666668
-50.0   90.0   33.333333333333336
0.0   120.0   33.333333333333336
0.0   90.0   33.333333333333336
0.0   90.0   16.666666666666668
-50.0   90.0   33.333333333333336
0.0   120.0   33.333333333333336
0.0   90.0   16.666666666666668
-50.0   120.0   16.666666666666668
-50.0   90.0   33.333333333333336
0.0   90.0   33.333333333333336
-50.0   120.0   33.333333333333336
-50.0   90.0   50.0
0.0   90.0   33.333333333333336
0.0   120.0   33.333333333333336
-50.0   120.0   33.333333333333336
0.0   120.0   50.0
-50.0   90.0   50.0
-50.0   120.0   50.0
0.0   120.0   50.0
-50.0   120.0   33.333333333333336
-50.0   90.0   50.0
0.0   120.0   50.0
0.0   90.0   50.0
0.0   90.0   33.333333333333336
-50.0   90.0   50.0
0.0   120.0   50.0
0.0   90.0   33.333333333333336
-50.0   120.0   33.333333333333336
-50.0   120.0   0.0
0.0   120.0   0.0
-50.0   150.0   0.0
-50.0   120.0   16.666666666666668
0.0   120.0   0.0
0.0   150.0   0.0
-50.0   150.0   0.0
0.0   150.0   16.666666666666668
-50.0   120.0   16.666666666666668
-50.0   150.0   16.666666666666668
0.0   150.0   16.666666666666668
-50.0   150.0   0.0
-50.0   120.0   16.666666666666668
0.0   150.0   16.666666666666668
0.0   120.0   16.666666666666668
0.0   120.0   0.0
-50.0   120.0   16.666666666666668
0.0   150.0   16.666666666666668
0.0   120.0   0.0
-50.0   150.0   0.0
-50.0   120.0   16.666666666666668
0.0   120.0   16.666666666666668
-50.0   150.0   16.666666666666668
-50.0   120.0   33.333333333333336
0.0   120.0   16.666666666666668
0.0   150.0   16.666666666666668
-50.0   150.0   16.666666666666668
0.0   150.0   33.333333333333336
-50.0   120.0   33.333333333333336
-50.0   150.0   33.333333333333336
0.0   150.0   33.333333333333336
-50.0   150.0   16.666666666666668
-50.0   120.0   33.333333333333336
0.0   150.0   33.333333333333336
0.0   120.0   33.333333333333336
0.0   120.0   16.666666666666668
-50.0   120.0   33.333333333333336
0.0   150.0   33.333333333333336
0.0   120.0   16.666666666666668
-50.0   150.0   16.666666666666668
-50.0   120.0   33.333333333333336
0.0   120.0   33.333333333333336
-50.0   150.0   33.333333333333336
-50.0   120.0   50.0
0.0   120.0   33.333333333333336
0.0   150.0   33.333333333333336
-50.0   150.0   33.333333333333336
0.0   150.0   50.0
-50.0   120.0   50.0
-50.0   150.0   50.0
0.0   150.0   50.0
-50.0   150.0   33.333333333333336
-50.0   120.0   50.0
0.0   150.0   50.0
0.0   120.0   50.0
0.0   120.0   33.333333333333336
-50.0   120.0   50.0
0.0   150.0   50.0
0.0   120.0   33.333333333333336
-50.0   150.0   33.333333333333336
0.0   0.0   0.0
50.0   0.0   0.0
0.0   30.0   0.0
0.0   0.0   16.666666666666668
50.0   0.0   0.0
50.0   30.0   0.0
0.0   30.0   0.0
50.0   30.0   16.666666666666668
0.0   0.0   16.666666666666668
0.0   30.0   16.666666666666668
50.0   30.0   16.666666666666668
0.0   30.0   0.0
0.0   0.0   16.666666666666668
50.0   30.0   16.666666666666668
50.0   0.0   16.666666666666668
50.0   0.0   0.0
0.0   0.0   16.666666666666668
50.0   30.0   16.666666666666668
50.0   0.0   0.0
0.0   30.0   0.0
0.0   0.0   16.666666666666668
50.0   0.0   16.666666666666668
0.0   30.0   16.666666666666668
0.0   0.0   33.333333333333336
50.0   0.0   16.666666666666668
50.0   30.0   16.666666666666668
0.0   30.0   16.666666666666668
50.0   30.0   33.333333333333336
0.0   0.0   33.333333333333336
0.0   30.0   33.333333333333336
50.0   30.0   33.333333333333336
0.0   30.0   16.666666666666668
0.0   0.0   33.333333333333336
50.0   30.0   33.333333333333336
50.0   0.0   33.333333333333336
50.0   0.0   16.666666666666668
0.0   0.0   33.333333333333336
50.0   30.0   33.333333333333336
50.0   0.0   16.666666666666668
0.0   30.0   16.666666666666668
0.0   0.0   33.333333333333336
50.0   0.0   33.333333333333336
0.0   30.0   33.333333333333336
0.0   0.0   50.0
50.0   0.0   33.333333333333336
50.0   30.0   33.333333333333336
0.0   30.0   33.333333333333336
50.0   30.0   50.0
0.0   0.0   50.0
0.0   30.0   50.0
50.0   30.0   50.0
0.0   30.0   33.333333333333336
0.0   0.0   50.0
50.0   30.0   50.0
50.0   0.0   50.0
50.0   0.0   33.333333333333336
0.0   0.0   50.0
50.0   30.0   50.0
50.0   0.0   33.333333333333336
0.0   30.0   33.333333333333336
0.0   30.0   0.0
50.0   30.0   0.0
0.0   60.0   0.0
0.0   30.0   16.666666666666668
50.0   30.0   0.0
50.0   60.0   0.0
0.0   60.0   0.0
50.0   60.0   16.666666666666668
0.0   30.0   16.666666666666668
0.0   60.0   16.666666666666668
50.0   60.0   16.666666666666668
0.0   60.0   0.0
0.0   30.0   16.666666666666668
50.0   60.0   16.666666666666668
50.0   30.0   16.666666666666668
50.0   30.0   0.0
0.0   30.0   16.666666666666668
50.0   60.0   16.666666666666668
50.0   30.0   0.0
0.0   60.0   0.0
0.0   30.0   16.666666666666668
50.0   30.0   16.666666666666668
0.0   60.0   16.666666666666668
0.0   30.0   33.333333333333336
50.0   30.0   16.666666666666668
50.0   60.0   16.666666666666668
0.0   60.0   16.666666666666668
50.0   60.0   33.333333333333336
0.0   30.0   33.333333333333336
0.0   60.0   33.333333333333336
50.0   60.0   33.333333333333336
0.0   60.0   16.666666666666668
0.0   30.0   33.333333333333336
50.0   60.0   33.333333333333336
50.0   30.0   33.333333333333336
50.0   30.0   16.666666666666668
0.0   30.0   33.333333333333336
50.0   60.0   33.333333333333336
50.0   30.0   16.666666666666668
0.0   60.0   16.666666666666668
0.0   30.0   33.333333333333336
50.0   30.0   33.333333333333336
0.0   60.0   33.333333333333336
0.0   30.0   50.0
50.0   30.0   33.333333333333336
50.0   60.0   33.333333333333336
0.0   60.0   33.333333333333336
50.0   60.0   50.0
0.0   30.0   50.0
0.0   60.0   50.0
50.0   60.0   50.0
0.0   60.0   33.333333333333336
0.0   30.0   50.0
50.0   60.0   50.0
50.0   30.0   50.0
50.0   30.0   33.333333333333336
0.0   30.0   50.0
50.0   60.0   50.0
50.0   30.0   33.333333333333336
0.0   60.0   33.333333333333336
0.0   60.0   0.0
50.0   60.0   0.0
0.0   90.0   0.0
0.0   60.0   16.666666666666668
50.0   60.0   0.0
50.0   90.0   0.0
0.0   90.0   0.0
50.0   90.0   16.666666666666668
0.0   60.0   16.666666666666668
0.0   90.0   16.666666666666668
50.0   90.0   16.666666666666668
0.0   90.0   0.0
0.0   60.0   16.666666666666668
50.0   90.0   16.666666666666668
50.0   60.0   16.666666666666668
50.0   60.0   0.0
0.0   60.0   16.666666666666668
50.0   90.0   16.666666666666668
50.0   60.0   0.0
0.0   90.0   0.0
0.0   60.0   16.666666666666668
50.0   60.0   16.666666666666668
0.0   90.0   16.666666666666668
0.0   60.0   33.333333333333336
50.0   60.0   16.666666666666668
50.0   90.0   16.666666666666668
0.0   90.0   16.666666666666668
50.0   90.0   33.333333333333336
0.0   60.0   33.333333333333336
0.0   90.0   33.333333333333336
50.0   90.0   33.333333333333336
0.0   90.0   16.666666666666668
0.0   60.0   33.333333333333336
50.0   90.0   33.333333333333336
50.0   60.0   33.333333333333336
50.0   60.0   16.666666666666668
0.0   60.0   33.333333333333336
50.0   90.0   33.333333333333336
50.0   60.0   16.666666666666668
0.0   90.0   16.666666666666668
0.0   60.0   33.333333333333336
50.0   60.0   33.333333333333336
0.0   90.0   33.333333333333336
0.0   60.0   50.0
50.0   60.0   33.333333333333336
50.0   90.0   33.333333333333336
0.0   90.0   33.333333333333336
50.0   90.0   50.0
0.0   60.0   50.0
0.0   90.0   50.0
50.0   90.0   50.0
0.0   90.0   33.333333333333336
0.0   60.0   50.0
50.0   90.0   50.0
50.0   60.0   50.0
50.0   60.0   33.333333333333336
0.0   60.0   50.0
50.0   90.0   50.0
50.0   60.0   33.333333333333336
0.0   90.0   33.333333333333336
0.0   90.0   0.0
50.0   90.0   0.0
0.0   120.0   0.0
0.0   90.0   16.666666666666668
50.0   90.0   0.0
50.0   120.0   0.0
0.0   120.0   0.0
50.0   120.0   16.666666666666668
0.0   90.0   16.666666666666668
0.0   120.0   16.666666666666668
50.0   120.0   16.666666666666668
0.0   120.0   0.0
0.0   90.0   16.666666666666668
50.0   120.0   16.666666666666668
50.0   90.0   16.666666666666668
50.0   90.0   0.0
0.0   90.0   16.666666666666668
50.0   120.0   16.666666666666668
50.0   90.0   0.0
0.0   120.0   0.0
0.0   90.0   16.666666666666668
50.0   90.0   16.666666666666668
0.0   120.0   16.666666666666668
0.0   90.0   33.333333333333336
50.0   90.0   16.666666666666668
50.0   120.0   16.666666666666668
0.0   120.0   16.666666666666668
50.0   120.0   33.333333333333336
0.0   90.0   33.333333333333336
0.0   120.0   33.333333333333336
50.0   120.0   33.333333333333336
0.0   120.0   16.666666666666668
0.0   90.0   33.333333333333336
50.0   120.0   33.333333333333336
50.0   90.0   33.333333333333336
50.0   90.0   16.666666666666668
0.0   90.0   33.333333333333336
50.0   120.0   33.333333333333336
50.0   90.0   16.666666666666668
0.0   120.0   16.666666666666668
0.0   90.0   33.333333333333336
50.0   90.0   33.333333333333336
0.0   120.0   33.333333333333336
0.0   90.0   50.0
50.0   90.0   33.333333333333336
50.0   120.0   33.333333333333336
0.0   120.0   33.333333333333336
50.0   120.0   50.0
0.0   90.0   50.0
0.0   120.0   50.0
50.0   120.0   50.0
0.0   120.0   33.333333333333336
0.0   90.0   50.0
50.0   120.0   50.0
50.0   90.0   50.0
50.0   90.0   33.333333333333336
0.0   90.0   50.0
50.0   120.0   50.0
50.0   90.0   33.333333333333336
0.0   120.0   33.333333333333336
0.0   120.0   0.0
50.0   120.0   0.0
0.0   150.0   0.0
0.0   120.0   16.666666666666668
50.0   120.0   0.0
50.0   150.0   0.0
0.0   150.0   0.0
50.0   150.0   16.666666666666668
0.0   120.0   16.666666666666668
0.0   150.0   16.666666666666668
50.0   150.0   16.666666666666668
0.0   150.0   0.0
0.0   120.0   16.666666666666668
50.0   150.0   16.666666666666668
50.0   120.0   16.666666666666668
50.0   120.0   0.0
0.0   120.0   16.666666666666668
50.0   150.0   16.666666666666668
50.0   120.0   0.0
0.0   150.0   0.0
0.0   120.0   16.666666666666668
50.0   120.0   16.666666666666668
0.0   150.0   16.666666666666668
0.0   120.0   33.333333333333336
50.0   120.0   16.666666666666668
50.0   150.0   16.666666666666668
0.0   150.0   16.666666666666668
50.0   150.0   33.333333333333336
0.0   120.0   33.333333333333336
0.0   150.0   33.333333333333336
50.0   150.0   33.333333333333336
0.0   150.0   16.666666666666668
0.0   120.0   33.333333333333336
50.0   150.0   33.333333333333336
50.0   120.0   33.333333333333336
50.0   120.0   16.666666666666668
0.0   120.0   33.333333333333336
50.0   150.0   33.333333333333336
50.0   120.0   16.666666666666668
0.0   150.0   16.666666666666668
0.0   120.0   33.333333333333336
50.0   120.0   33.333333333333336
0.0   150.0   33.333333333333336
0.0   120.0   50.0
50.0   120.0   33.333333333333336
50.0   150.0   33.333333333333336
0.0   150.0   33.333333333333336
50.0   150.0   50.0
0.0   120.0   50.0
0.0   150.0   50.0
50.0   150.0   50.0
0.0   150.0   33.333333333333336
0.0   120.0   50.0
50.0   150.0   50.0
50.0   120.0   50.0
50.0   120.0   33.333333333333336
0.0   120.0   50.0
50.0   150.0   50.0
50.0   120.0   33.333333333333336
0.0   150.0   33.333333333333336
50.0   0.0   0.0
100.0   0.0   0.0
50.0   30.0   0.0
50.0   0.0   16.666666666666668
100.0   0.0   0.0
100.0   30.0   0.0
50.0   30.0   0.0
100.0   30.0   16.666666666666668
50.0   0.0   16.666666666666668
50.0   30.0   16.666666666666668
100.0   30.0   16.666666666666668
50.0   30.0   0.0
50.0   0.0   16.666666666666668
100.0   30.0   16.666666666666668
100.0   0.0   16.666666666666668
100.0   0.0   0.0
50.0   0.0   16.666666666666668
100.0   30.0   16.666666666666668
100.0   0.0   0.0
50.0   30.0   0.0
50.0   0.0   16.666666666666668
100.0   0.0   16.666666666666668
50.0   30.0   16.666666666666668
50.0   0.0   33.333333333333336
100.0   0.0   16.666666666666668
100.0   30.0   16.666666666666668
50.0   30.0   16.666666666666668
100.0   30.0   33.333333333333336
50.0   0.0   33.333333333333336
50.0   30.0   33.333333333333336
100.0   30.0   33.333333333333336
50.0   30.0   16.666666666666668
50.0   0.0   33.333333333333336
100.0   30.0   33.333333333333336
100.0   0.0   33.333333333333336
100.0   0.0   16.666666666666668
50.0   0.0   33.333333333333336
100.0   30.0   33.333333333333336
100.0   0.0   16.666666666666668
50.0   30.0   16.666666666666668
50.0   0.0   33.333333333333336
100.0   0.0   33.333333333333336
50.0   30.0   33.333333333333336
50.0   0.0   50.0
100.0   0.0   33.333333333333336
100.0   30.0   33.333333333333336
50.0   30.0   33.333333333333336
100.0   30.0   50.0
50.0   0.0   50.0
50.0   30.0   50.0
100.0   30.0   50.0
50.0   30.0   33.333333333333336
50.0   0.0   50.0
100.0   30.0   50.0
100.0   0.0   50.0
100.0   0.0   33.333333333333336
50.0   0.0   50.0
100.0   30.0   50.0
100.0   0.0   33.333333333333336
50.0   30.0   33.333333333333336
50.0   30.0   0.0
100.0   30.0   0.0
50.0   60.0   0.0
50.0   30.0   16.666666666666668
100.0   30.0   0.0
100.0   60.0   0.0
50.0   60.0   0.0
100.0   60.0   16.666666666666668
50.0   30.0   16.666666666666668
50.0   60.0   16.666666666666668
100.0   60.0   16.666666666666668
50.0   60.0   0.0
50.0   30.0   16.666666666666668
100.0   60.0   16.666666666666668
100.0   30.0   16.666666666666668
100.0   30.0   0.0
50.0   30.0   16.666666666666668
100.0   60.0   16.666666666666668
100.0   30.0   0.0
50.0   60.0   0.0
50.0   30.0   16.666666666666668
100.0   30.0   16.666666666666668
50.0   60.0   16.666666666666668
50.0   30.0   33.333333333333336
100.0   30.0   16.666666666666668
100.0   60.0   16.666666666666668
50.0   60.0   16.666666666666668
100.0   60.0   33.333333333333336
50.0   30.0   33.333333333333336
50.0   60.0   33.333333333333336
100.0   60.0   33.333333333333336
50.0   60.0   16.666666666666668
50.0   30.0   33.333333333333336
100.0   60.0   33.333333333333336
100.0   30.0   33.333333333333336
100.0   30.0   16.666666666666668
50.0   30.0   33.333333333333336
100.0   60.0   33.333333333333336
100.0   30.0   16.666666666666668
50.0   60.0   16.666666666666668
50.0   30.0   33.333333333333336
100.0   30.0   33.333333333333336
50.0   60.0   33.333333333333336
50.0   30.0   50.0
100.0   30.0   33.333333333333336
100.0   60.0   33.333333333333336
50.0   60.0   33.333333333333336
100.0   60.0   50.0
50.0   30.0   50.0
50.0   60.0   50.0
100.0   60.0   50.0
50.0   60.0   33.333333333333336
50.0   30.0   50.0
100.0   60.0   50.0
100.0   30.0   50.0
100.0   30.0   33.333333333333336
50.0   30.0   50.0
100.0   60.0   50.0
100.0   30.0   33.333333333333336
50.0   60.0   33.333333333333336
50.0   60.0   0.0
100.0   60.0   0.0
50.0   90.0   0.0
50.0   60.0   16.666666666666668
100.0   60.0   0.0
100.0   90.0   0.0
50.0   90.0   0.0
100.0   90.0   16.666666666666668
50.0   60.0   16.666666666666668
50.0   90.0   16.666666666666668
100.0   90.0   16.666666666666668
50.0   90.0   0.0
50.0   60.0   16.666666666666668
100.0   90.0   16.666666666666668
100.0   60.0   16.666666666666668
100.0   60.0   0.0
50.0   60.0   16.666666666666668
100.0   90.0   16.666666666666668
100.0   60.0   0.0
50.0   90.0   0.0
50.0   60.0   16.666666666666668
100.0   60.0   16.666666666666668
50.0   90.0   16.666666666666668
50.0   60.0   33.333333333333336
100.0   60.0   16.666666666666668
100.0   90.0   16.666666666666668
50.0   90.0   16.666666666666668
100.0   90.0   33.333333333333336
50.0   60.0   33.333333333333336
50.0   90.0   33.333333333333336
100.0   90.0   33.333333333333336
50.0   90.0   16.666666666666668
50.0   60.0   33.333333333333336
100.0   90.0   33.333333333333336
100.0   60.0   33.333333333333336
100.0   60.0   16.666666666666668
50.0   60.0   33.333333333333336
100.0   90.0   33.333333333333336
100.0   60.0   16.666666666666668
50.0   90.0   16.666666666666668
50.0   60.0   33.333333333333336
100.0   60.0   33.333333333333336
50.0   90.0   33.333333333333336
50.0   60.0   50.0
100.0   60.0   33.333333333333336
100.0   90.0   33.333333333333336
50.0   90.0   33.333333333333336
100.0   90.0   50.0
50.0   60.0   50.0
50.0   90.0   50.0
100.0   90.0   50.0
50.0   90.0   33.333333333333336
50.0   60.0   50.0
100.0   90.0   50.0
100.0   60.0   50.0
100.0   60.0   33.333333333333336
50.0   60.0   50.0
100.0   90.0   50.0
100.0   60.0   33.333333333333336
50.0   90.0   33.333333333333336
50.0   90.0   0.0
100.0   90.0   0.0
50.0   120.0   0.0
50.0   90.0   16.666666666666668
100.0   90.0   0.0
100.0   120.0   0.0
50.0   120.0   0.0
100.0   120.0   16.666666666666668
50.0   90.0   16.666666666666668
50.0   120.0   16.666666666666668
100.0   120.0   16.666666666666668
50.0   120.0   0.0
50.0   90.0   16.666666666666668
100.0   120.0   16.666666666666668
100.0   90.0   16.666666666666668
100.0   90.0   0.0
50.0   90.0   16.666666666666668
100.0   120.0   16.666666666666668
100.0   90.0   0.0
50.0   120.0   0.0
50.0   90.0   16.666666666666668
100.0   90.0   16.666666666666668
50.0   120.0   16.666666666666668
50.0   90.0   33.333333333333336
100.0   90.0   16.666666666666668
100.0   120.0   16.666666666666668
50.0   120.0   16.666666666666668
100.0   120.0   33.333333333333336
50.0   90.0   33.333333333333336
50.0   120.0   33.333333333333336
100.0   120.0   33.333333333333336
50.0   120.0   16.666666666666668
50.0   90.0   33.333333333333336
100.0   120.0   33.333333333333336
100.0   90.0   33.333333333333336
100.0   90.0   16.666666666666668
50.0   90.0   33.333333333333336
100.0   120.0   33.333333333333336
100.0   90.0   16.666666666666668
50.0   120.0   16.666666666666668
50.0   90.0   33.333333333333336
100.0   90.0   33.333333333333336
50.0   120.0   33.333333333333336
50.0   90.0   50.0
100.0   90.0   33.333333333333336
100.0   120.0   33.333333333333336
50.0   120.0   33.333333333333336
100.0   120.0   50.0
50.0   90.0   50.0
50.0   120.0   50.0
100.0   120.0   50.0
50.0   120.0   33.333333333333336
50.0   90.0   50.0
100.0   120.0   50.0
100.0   90.0   50.0
100.0   90.0   33.333333333333336
50.0   90.0   50.0
100.0   120.0   50.0
100.0   90.0   33.333333333333336
50.0   120.0   33.333333333333336
50.0   120.0   0.0
100.0   120.0   0.0
50.0   150.0   0.0
50.0   120.0   16.666666666666668
100.0   120.0   0.0
100.0   150.0   0.0
50.0   150.0   0.0
100.0   150.0   16.666666666666668
50.0   120.0   16.666666666666668
50.0   150.0   16.666666666666668
100.0   150.0   16.666666666666668
50.0   150.0   0.0
50.0   120.0   16.666666666666668
100.0   150.0   16.666666666666668
100.0   120.0   16.666666666666668
100.0   120.0   0.0
50.0   120.0   16.666666666666668
100.0   150.0   16.666666666666668
100.0   120.0   0.0
50.0   150.0   0.0
50.0   120.0   16.666666666666668
100.0   120.0   16.666666666666668
50.0   150.0   16.666666666666668
50.0   120.0   33.333333333333336
100.0   120.0   16.666666666666668
100.0   150.0   16.666666666666668
50.0   150.0   16.666666666666668
100.0   150.0   33.333333333333336
50.0   120.0   33.333333333333336
50.0   150.0   33.333333333333336
100.0   150.0   33.333333333333336
50.0   150.0   16.666666666666668
50.0   120.0   33.333333333333336
100.0   150.0   33.333333333333336
100.0   120.0   33.333333333333336
100.0   120.0   16.666666666666668
50.0   120.0   33.333333333333336
100.0   150.0   33.333333333333336
100.0   120.0   16.666666666666668
50.0   150.0   16.666666666666668
50.0   120.0   33.333333333333336
100.0   120.0   33.333333333333336
50.0   150.0   33.333333333333336
50.0   120.0   50.0
100.0   120.0   33.333333333333336
100.0   150.0   33.333333333333336
50.0   150.0   33.333333333333336
100.0   150.0   50.0
50.0   120.0   50.0
50.0   150.0   50.0
100.0   150.0   50.0
50.0   150.0   33.333333333333336
50.0   120.0   50.0
100.0   150.0   50.0
100.0   120.0   50.0
100.0   120.0   33.333333333333336
50.0   120.0   50.0
100.0   150.0   50.0
100.0   120.0   33.333333333333336
50.0   150.0   33.333333333333336
100.0   0.0   0.0
150.0   0.0   0.0
100.0   30.0   0.0
100.0   0.0   16.666666666666668
150.0   0.0   0.0
150.0   30.0   0.0
100.0   30.0   0.0
150.0   30.0   16.666666666666668
100.0   0.0   16.666666666666668
100.0   30.0   16.666666666666668
150.0   30.0   16.666666666666668
100.0   30.0   0.0
100.0   0.0   16.666666666666668
150.0   30.0   16.666666666666668
150.0   0.0   16.666666666666668
150.0   0.0   0.0
100.0   0.0   16.666666666666668
150.0   30.0   16.666666666666668
150.0   0.0   0.0
100.0   30.0   0.0
100.0   0.0   16.666666666666668
150.0   0.0   16.666666666666668
100.0   30.0   16.666666666666668
100.0   0.0   33.333333333333336
150.0   0.0   16.666666666666668
150.0   30.0   16.666666666666668
100.0   30.0   16.666666666666668
150.0   30.0   33.333333333333336
100.0   0.0   33.333333333333336
100.0   30.0   33.333333333333336
150.0   30.0   33.333333333333336
100.0   30.0   16.666666666666668
100.0   0.0   33.333333333333336
150.0   30.0   33.333333333333336
150.0   0.0   33.333333333333336
150.0   0.0   16.666666666666668
100.0   0.0   33.333333333333336
150.0   30.0   33.333333333333336
150.0   0.0   16.666666666666668
100.0   30.0   16.666666666666668
100.0   0.0   33.333333333333336
150.0   0.0   33.333333333333336
100.0   30.0   33.333333333333336
100.0   0.0   50.0
150.0   0.0   33.333333333333336
150.0   30.0   33.333333333333336
100.0   30.0   33.333333333333336
150.0   30.0   50.0
100.0   0.0   50.0
100.0   30.0   50.0
150.0   30.0   50.0
100.0   30.0   33.333333333333336
100.0   0.0   50.0
150.0   30.0   50.0
150.0   0.0   50.0
150.0   0.0   33.333333333333336
100.0   0.0   50.0
150.0   30.0   50.0
150.0   0.0   33.333333333333336
100.0   30.0   33.333333333333336
100.0   30.0   0.0
150.0   30.0   0.0
100.0   60.0   0.0
100.0   30.0   16.666666666666668
150.0   30.0   0.0
150.0   60.0   0.0
100.0   60.0   0.0
150.0   60.0   16.666666666666668
100.0   30.0   16.666666666666668
100.0   60.0   16.666666666666668
150.0   60.0   16.666666666666668
100.0   60.0   0.0
100.0   30.0   16.666666666666668
150.0   60.0   16.666666666666668
150.0   30.0   16.666666666666668
150.0   30.0   0.0
100.0   30.0   16.666666666666668
150.0   60.0   16.666666666666668
150.0   30.0   0.0
100.0   60.0   0.0
100.0   30.0   16.666666666666668
150.0   30.0   16.666666666666668
100.0   60.0   16.666666666666668
100.0   30.0   33.333333333333336
150.0   30.0   16.666666666666668
150.0   60.0   16.666666666666668
100.0   60.0   16.666666666666668
150.0   60.0   33.333333333333336
100.0   30.0   33.333333333333336
100.0   60.0   33.333333333333336
150.0   60.0   33.333333333333336
100.0   60.0   16.666666666666668
100.0   30.0   33.333333333333336
150.0   60.0   33.333333333333336
150.0   30.0   33.333333333333336
150.0   30.0   16.666666666666668
100.0   30.0   33.333333333333336
150.0   60.0   33.333333333333336
150.0   30.0   16.666666666666668
100.0   60.0   16.666666666666668
100.0   30.0   33.333333333333336
150.0   30.0   33.333333333333336
100.0   60.0   33.333333333333336
100.0   30.0   50.0
150.0   30.0   33.333333333333336
150.0   60.0   33.333333333333336
100.0   60.0   33.333333333333336
150.0   60.0   50.0
100.0   30.0   50.0
100.0   60.0   50.0
150.0   60.0   50.0
100.0   60.0   33.333333333333336
100.0   30.0   50.0
150.0   60.0   50.0
150.0   30.0   50.0
150.0   30.0   33.333333333333336
100.0   30.0   50.0
150.0   60.0   50.0
150.0   30.0   33.333333333333336
100.0   60.0   33.333333333333336
100.0   60.0   0.0
150.0   60.0   0.0
100.0   90.0   0.0
100.0   60.0   16.666666666666668
150.0   60.0   0.0
150.0   90.0   0.0
100.0   90.0   0.0
150.0   90.0   16.666666666666668
100.0   60.0   16.666666666666668
100.0   90.0   16.666666666666668
150.0   90.0   16.666666666666668
100.0   90.0   0.0
100.0   60.0   16.666666666666668
150.0   90.0   16.666666666666668
150.0   60.0   16.666666666666668
150.0   60.0   0.0
100.0   60.0   16.666666666666668
150.0   90.0   16.666666666666668
150.0   60.0   0.0
100.0   90.0   0.0
100.0   60.0   16.666666666666668
150.0   60.0   16.666666666666668
100.0   90.0   16.666666666666668
100.0   60.0   33.333333333333336
150.0   60.0   16.666666666666668
150.0   90.0   16.666666666666668
100.0   90.0   16.666666666666668
150.0   90.0   33.333333333333336
100.0   60.0   33.333333333333336
100.0   90.0   33.333333333333336
150.0   90.0   33.333333333333336
100.0   90.0   16.666666666666668
100.0   60.0   33.333333333333336
150.0   90.0   33.333333333333336
150.0   60.0   33.333333333333336
150.0   60.0   16.666666666666668
100.0   60.0   33.333333333333336
150.0   90.0   33.333333333333336
150.0   60.0   16.666666666666668
100.0   90.0   16.666666666666668
100.0   60.0   33.333333333333336
150.0   60.0   33.333333333333336
100.0   90.0   33.333333333333336
100.0   60.0   50.0
150.0   60.0   33.333333333333336
150.0   90.0   33.333333333333336
100.0   90.0   33.333333333333336
150.0   90.0   50.0
100.0   60.0   50.0
100.0   90.0   50.0
150.0   90.0   50.0
100.0   90.0   33.333333333333336
100.0   60.0   50.0
150.0   90.0   50.0
150.0   60.0   50.0
150.0   60.0   33.333333333333336
100.0   60.0   50.0
150.0   90.0   50.0
150.0   60.0   33.333333333333336
100.0   90.0   33.333333333333336
100.0   90.0   0.0
150.0   90.0   0.0
100.0   120.0   0.0
100.0   90.0   16.666666666666668
150.0   90.0   0.0
150.0   120.0   0.0
100.0   120.0   0.0
150.0   120.0   16.666666666666668
100.0   90.0   16.666666666666668
100.0   120.0   16.666666666666668
150.0   120.0   16.666666666666668
100.0   120.0   0.0
100.0   90.0   16.666666666666668
150.0   120.0   16.666666666666668
150.0   90.0   16.666666666666668
150.0   90.0   0.0
100.0   90.0   16.666666666666668
150.0   120.0   16.666666666666668
150.0   90.0   0.0
100.0   120.0   0.0
100.0   90.0   16.666666666666668
150.0   90.0   16.666666666666668
100.0   120.0   16.666666666666668
100.0   90.0   33.333333333333336
150.0   90.0   16.666666666666668
150.0   120.0   16.666666666666668
100.0   120.0   16.666666666666668
150.0   120.0   33.333333333333336
100.0   90.0   33.333333333333336
100.0   120.0   33.333333333333336
150.0   120.0   33.333333333333336
100.0   120.0   16.666666666666668
100.0   90.0   33.333333333333336
150.0   120.0   33.333333333333336
150.0   90.0   33.333333333333336
150.0   90.0   16.666666666666668
100.0   90.0   33.333333333333336
150.0   120.0   33.333333333333336
150.0   90.0   16.666666666666668
100.0   120.0   16.666666666666668
100.0   90.0   33.333333333333336
150.0   90.0   33.333333333333336
100.0   120.0   33.333333333333336
100.0   90.0   50.0
150.0   90.0   33.333333333333336
150.0   120.0   33.333333333333336
100.0   120.0   33.333333333333336
150.0   120.0   50.0
100.0   90.0   50.0
100.0   120.0   50.0
150.0   120.0   50.0
100.0   120.0   33.333333333333336
100.0   90.0   50.0
150.0   120.0   50.0
150.0   90.0   50.0
150.0   90.0   33.333333333333336
100.0   90.0   50.0
150.0   120.0   50.0
150.0   90.0   33.333333333333336
100.0   120.0   33.333333333333336
100.0   120.0   0.0
150.0   120.0   0.0
100.0   150.0   0.0
100.0   120.0   16.666666666666668
150.0   120.0   0.0
150.0   150.0   0.0
100.0   150.0   0.0
150.0   150.0   16.666666666666668
100.0   120.0   16.666666666666668
100.0   150.0   16.666666666666668
150.0   150.0   16.666666666666668
100.0   150.0   0.0
100.0   120.0   16.666666666666668
150.0   150.0   16.666666666666668
150.0   120.0   16.666666666666668
150.0   120.0   0.0
100.0   120.0   16.666666666666668
150.0   150.0   16.666666666666668
150.0   120.0   0.0
100.0   150.0   0.0
100.0   120.0   16.666666666666668
150.0   120.0   16.666666666666668
100.0   150.0   16.666666666666668
100.0   120.0   33.333333333333336
150.0   120.0   16.666666666666668
150.0   150.0   16.666666666666668
100.0   150.0   16.666666666666668
150.0   150.0   33.333333333333336
100.0   120.0   33.333333333333336
100.0   150.0   33.333333333333336
150.0   150.0   33.333333333333336
100.0   150.0   16.666666666666668
100.0   120.0   33.333333333333336
150.0   150.0   33.333333333333336
150.0   120.0   33.333333333333336
150.0   120.0   16.666666666666668
100.0   120.0   33.333333333333336
150.0   150.0   33.333333333333336
150.0   120.0   16.666666666666668
100.0   150.0   16.666666666666668
100.0   120.0   33.333333333333336
150.0   120.0   33.333333333333336
100.0   150.0   33.333333333333336
100.0   120.0   50.0
150.0   120.0   33.333333333333336
150.0   150.0   33.333333333333336
100.0   150.0   33.333333333333336
150.0   150.0   50.0
100.0   120.0   50.0
100.0   150.0   50.0
150.0   150.0   50.0
100.0   150.0   33.333333333333336
100.0   120.0   50.0
150.0   150.0   50.0
150.0   120.0   50.0
150.0   120.0   33.333333333333336
100.0   120.0   50.0
150.0   150.0   50.0
150.0   120.0   33.333333333333336
100.0   150.0   33.333333333333336
150.0   0.0   0.0
200.0   0.0   0.0
150.0   30.0   0.0
150.0   0.0   16.666666666666668
200.0   0.0   0.0
200.0   30.0   0.0
150.0   30.0   0.0
200.0   30.0   16.666666666666668
150.0   0.0   16.666666666666668
150.0   30.0   16.666666666666668
200.0   30.0   16.666666666666668
150.0   30.0   0.0
150.0   0.0   16.666666666666668
200.0   30.0   16.666666666666668
200.0   0.0   16.666666666666668
200.0   0.0   0.0
150.0   0.0   16.666666666666668
200.0   30.0   16.666666666666668
200.0   0.0   0.0
150.0   30.0   0.0
150.0   0.0   16.666666666666668
200.0   0.0   16.666666666666668
150.0   30.0   16.666666666666668
150.0   0.0   33.333333333333336
200.0   0.0   16.666666666666668
200.0   30.0   16.666666666666668
150.0   30.0   16.666666666666668
200.0   30.0   33.333333333333336
150.0   0.0   33.333333333333336
150.0   30.0   33.333333333333336
200.0   30.0   33.333333333333336
150.0   30.0   16.666666666666668
150.0   0.0   33.333333333333336
200.0   30.0   33.333333333333336
200.0   0.0   33.333333333333336
200.0   0.0   16.666666666666668
150.0   0.0   33.333333333333336
200.0   30.0   33.333333333333336
200.0   0.0   16.666666666666668
150.0   30.0   16.666666666666668
150.0   0.0   33.333333333333336
200.0   0.0   33.333333333333336
150.0   30.0   33.333333333333336
150.0   0.0   50.0
200.0   0.0   33.333333333333336
200.0   30.0   33.333333333333336
150.0   30.0   33.333333333333336
200.0   30.0   50.0
150.0   0.0   50.0
150.0   30.0   50.0
200.0   30.0   50.0
150.0   30.0   33.333333333333336
150.0   0.0   50.0
200.0   30.0   50.0
200.0   0.0   50.0
200.0   0.0   33.333333333333336
150.0   0.0   50.0
200.0   30.0   50.0
200.0   0.0   33.333333333333336
150.0   30.0   33.333333333333336
150.0   30.0   0.0
200.0   30.0   0.0
150.0   60.0   0.0
150.0   30.0   16.666666666666668
200.0   30.0   0.0
200.0   60.0   0.0
150.0   60.0   0.0
200.0   60.0   16.666666666666668
150.0   30.0   16.666666666666668
150.0   60.0   16.666666666666668
200.0   60.0   16.666666666666668
150.0   60.0   0.0
150.0   30.0   16.666666666666668
200.0   60.0   16.666666666666668
200.0   30.0   16.666666666666668
200.0   30.0   0.0
150.0   30.0   16.666666666666668
200.0   60.0   16.666666666666668
200.0   30.0   0.0
150.0   60.0   0.0
150.0   30.0   16.666666666666668
200.0   30.0   16.666666666666668
150.0   60.0   16.666666666666668
150.0   30.0   33.333333333333336
200.0   30.0   16.666666666666668
200.0   60.0   16.666666666666668
150.0   60.0   16.666666666666668
200.0   60.0   33.333333333333336
150.0   30.0   33.333333333333336
150.0   60.0   33.333333333333336
200.0   60.0   33.333333333333336
150.0   60.0   16.666666666666668
150.0   30.0   33.333333333333336
200.0   60.0   33.333333333333336
200.0   30.0   33.333333333333336
200.0   30.0   16.666666666666668
150.0   30.0   33.333333333333336
200.0   60.0   33.333333333333336
200.0   30.0   16.666666666666668
150.0   60.0   16.666666666666668
150.0   30.0   33.333333333333336
200.0   30.0   33.333333333333336
150.0   60.0   33.333333333333336
150.0   30.0   50.0
200.0   30.0   33.333333333333336
200.0   60.0   33.333333333333336
150.0   60.0   33.333333333333336
200.0   60.0   50.0
150.0   30.0   50.0
150.0   60.0   50.0
200.0   60.0   50.0
150.0   60.0   33.333333333333336
150.0   30.0   50.0
200.0   60.0   50.0
200.0   30.0   50.0
200.0   30.0   33.333333333333336
150.0   30.0   50.0
200.0   60.0   50.0
200.0   30.0   33.333333333333336
150.0   60.0   33.333333333333336
150.0   60.0   0.0
200.0   60.0   0.0
150.0   90.0   0.0
150.0   60.0   16.666666666666668
200.0   60.0   0.0
200.0   90.0   0.0
150.0   90.0   0.0
200.0   90.0   16.666666666666668
150.0   60.0   16.666666666666668
150.0   90.0   16.666666666666668
200.0   90.0   16.666666666666668
150.0   90.0   0.0
150.0   60.0   16.666666666666668
200.0   90.0   16.666666666666668
200.0   60.0   16.666666666666668
200.0   60.0   0.0
150.0   60.0   16.666666666666668
200.0   90.0   16.666666666666668
200.0   60.0   0.0
150.0   90.0   0.0
150.0   60.0   16.666666666666668
200.0   60.0   16.666666666666668
150.0   90.0   16.666666666666668
150.0   60.0   33.333333333333336
200.0   60.0   16.666666666666668
200.0   90.0   16.666666666666668
150.0   90.0   16.666666666666668
200.0   90.0   33.333333333333336
150.0   60.0   33.333333333333336
150.0   90.0   33.333333333333336
200.0   90.0   33.333333333333336
150.0   90.0   16.666666666666668
150.0   60.0   33.333333333333336
200.0   90.0   33.333333333333336
200.0   60.0   33.333333333333336
200.0   60.0   16.666666666666668
150.0   60.0   33.333333333333336
200.0   90.0   33.333333333333336
200.0   60.0   16.666666666666668
150.0   90.0   16.666666666666668
150.0   60.0   33.333333333333336
200.0   60.0   33.333333333333336
150.0   90.0   33.333333333333336
150.0   60.0   50.0
200.0   60.0   33.333333333333336
200.0   90.0   33.333333333333336
150.0   90.0   33.333333333333336
200.0   90.0   50.0
150.0   60.0   50.0
150.0   90.0   50.0
200.0   90.0   50.0
150.0   90.0   33.333333333333336
150.0   60.0   50.0
200.0   90.0   50.0
200.0   60.0   50.0
200.0   60.0   33.333333333333336
150.0   60.0   50.0
200.0   90.0   50.0
200.0   60.0   33.333333333333336
150.0   90.0   33.333333333333336
150.0   90.0   0.0
200.0   90.0   0.0
150.0   120.0   0.0
150.0   90.0   16.666666666666668
200.0   90.0   0.0
200.0   120.0   0.0
150.0   120.0   0.0
200.0   120.0   16.666666666666668
150.0   90.0   16.666666666666668
150.0   120.0   16.666666666666668
200.0   120.0   16.666666666666668
150.0   120.0   0.0
150.0   90.0   16.666666666666668
200.0   120.0   16.666666666666668
200.0   90.0   16.666666666666668
200.0   90.0   0.0
150.0   90.0   16.666666666666668
200.0   120.0   16.666666666666668
200.0   90.0   0.0
150.0   120.0   0.0
150.0   90.0   16.666666666666668
200.0   90.0   16.666666666666668
150.0   120.0   16.666666666666668
150.0   90.0   33.333333333333336
200.0   90.0   16.666666666666668
200.0   120.0   16.666666666666668
150.0   120.0   16.666666666666668
200.0   120.0   33.333333333333336
150.0   90.0   33.333333333333336
150.0   120.0   33.333333333333336
200.0   120.0   33.333333333333336
150.0   120.0   16.666666666666668
150.0   90.0   33.333333333333336
200.0   120.0   33.333333333333336
200.0   90.0   33.333333333333336
200.0   90.0   16.666666666666668
150.0   90.0   33.333333333333336
200.0   120.0   33.333333333333336
200.0   90.0   16.666666666666668
150.0   120.0   16.666666666666668
150.0   90.0   33.333333333333336
200.0   90.0   33.333333333333336
150.0   120.0   33.333333333333336
150.0   90.0   50.0
200.0   90.0   33.333333333333336
200.0   120.0   33.333333333333336
150.0   120.0   33.333333333333336
200.0   120.0   50.0
150.0   90.0   50.0
150.0   120.0   50.0
200.0   120.0   50.0
150.0   120.0   33.333333333333336
150.0   90.0   50.0
200.0   120.0   50.0
200.0   90.0   50.0
200.0   90.0   33.333333333333336
150.0   90.0   50.0
200.0   120.0   50.0
200.0   90.0   33.333333333333336
150.0   120.0   33.333333333333336
150.0   120.0   0.0
200.0   120.0   0.0
150.0   150.0   0.0
150.0   120.0   16.666666666666668
200.0   120.0   0.0
200.0   150.0   0.0
150.0   150.0   0.0
200.0   150.0   16.666666666666668
150.0   120.0   16.666666666666668
150.0   150.0   16.666666666666668
200.0   150.0   16.666666666666668
150.0   150.0   0.0
150.0   120.0   16.666666666666668
200.0   150.0   16.666666666666668
200.0   120.0   16.666666666666668
200.0   120.0   0.0
150.0   120.0   16.666666666666668
200.0   150.0   16.666666666666668
200.0   120.0   0.0
150.0   150.0   0.0
150.0   120.0   16.666666666666668
200.0   120.0   16.666666666666668
150.0   150.0   16.666666666666668
150.0   120.0   33.333333333333336
200.0   120.0   16.666666666666668
200.0   150.0   16.666666666666668
150.0   150.0   16.666666666666668
200.0   150.0   33.333333333333336
150.0   120.0   33.333333333333336
150.0   150.0   33.333333333333336
200.0   150.0   33.333333333333336
150.0   150.0   16.666666666666668
150.0   120.0   33.333333333333336
200.0   150.0   33.333333333333336
200.0   120.0   33.333333333333336
200.0   120.0   16.666666666666668
150.0   120.0   33.333333333333336
200.0   150.0   33.333333333333336
200.0   120.0   16.666666666666668
150.0   150.0   16.666666666666668
150.0   120.0   33.333333333333336
200.0   120.0   33.333333333333336
150.0   150.0   33.333333333333336
150.0   120.0   50.0
200.0   120.0   33.333333333333336
200.0   150.0   33.333333333333336
150.0   150.0   33.333333333333336
200.0   150.0   50.0
150.0   120.0   50.0
150.0   150.0   50.0
200.0   150.0   50.0
150.0   150.0   33.333333333333336
150.0   120.0   50.0
200.0   150.0   50.0
200.0   120.0   50.0
200.0   120.0   33.333333333333336
150.0   120.0   50.0
200.0   150.0   50.0
200.0   120.0   33.333333333333336
150.0   150.0   33.333333333333336
200.0   0.0   0.0
250.0   0.0   0.0
200.0   30.0   0.0
200.0   0.0   16.666666666666668
250.0   0.0   0.0
250.0   30.0   0.0
200.0   30.0   0.0
250.0   30.0   16.666666666666668
200.0   0.0   16.666666666666668
200.0   30.0   16.666666666666668
250.0   30.0   16.666666666666668
200.0   30.0   0.0
200.0   0.0   16.666666666666668
250.0   30.0   16.666666666666668
250.0   0.0   16.666666666666668
250.0   0.0   0.0
200.0   0.0   16.666666666666668
250.0   30.0   16.666666666666668
250.0   0.0   0.0
200.0   30.0   0.0
200.0   0.0   16.666666666666668
250.0   0.0   16.666666666666668
200.0   30.0   16.666666666666668
200.0   0.0   33.333333333333336
250.0   0.0   16.666666666666668
250.0   30.0   16.666666666666668
200.0   30.0   16.666666666666668
250.0   30.0   33.333333333333336
200.0   0.0   33.333333333333336
200.0   30.0   33.333333333333336
250.0   30.0   33.333333333333336
200.0   30.0   16.666666666666668
200.0   0.0   33.333333333333336
250.0   30.0   33.333333333333336
250.0   0.0   33.333333333333336
250.0   0.0   16.666666666666668
200.0   0.0   33.333333333333336
250.0   30.0   33.333333333333336
250.0   0.0   16.666666666666668
200.0   30.0   16.666666666666668
200.0   0.0   33.333333333333336
250.0   0.0   33.333333333333336
200.0   30.0   33.333333333333336
200.0   0.0   50.0
250.0   0.0   33.333333333333336
250.0   30.0   33.333333333333336
200.0   30.0   33.333333333333336
250.0   30.0   50.0
200.0   0.0   50.0
200.0   30.0   50.0
250.0   30.0   50.0
200.0   30.0   33.333333333333336
200.0   0.0   50.0
250.0   30.0   50.0
250.0   0.0   50.0
250.0   0.0   33.333333333333336
200.0   0.0   50.0
250.0   30.0   50.0
250.0   0.0   33.333333333333336
200.0   30.0   33.333333333333336
200.0   30.0   0.0
250.0   30.0   0.0
200.0   60.0   0.0
200.0   30.0   16.666666666666668
250.0   30.0   0.0
250.0   60.0   0.0
200.0   60.0   0.0
250.0   60.0   16.666666666666668
200.0   30.0   16.666666666666668
200.0   60.0   16.666666666666668
250.0   60.0   16.666666666666668
200.0   60.0   0.0
200.0   30.0   16.666666666666668
250.0   60.0   16.666666666666668
250.0   30.0   16.666666666666668
250.0   30.0   0.0
200.0   30.0   16.666666666666668
250.0   60.0   16.666666666666668
250.0   30.0   0.0
200.0   60.0   0.0
200.0   30.0   16.666666666666668
250.0   30.0   16.666666666666668
200.0   60.0   16.666666666666668
200.0   30.0   33.333333333333336
250.0   30.0   16.666666666666668
250.0   60.0   16.666666666666668
200.0   60.0   16.666666666666668
250.0   60.0   33.333333333333336
200.0   30.0   33.333333333333336
200.0   60.0   33.333333333333336
250.0   60.0   33.333333333333336
200.0   60.0   16.666666666666668
200.0   30.0   33.333333333333336
250.0   60.0   33.333333333333336
250.0   30.0   33.333333333333336
250.0   30.0   16.666666666666668
200.0   30.0   33.333333333333336
250.0   60.0   33.333333333333336
250.0   30.0   16.666666666666668
200.0   60.0   16.666666666666668
200.0   30.0   33.333333333333336
250.0   30.0   33.333333333333336
200.0   60.0   33.333333333333336
200.0   30.0   50.0
250.0   30.0   33.333333333333336
250.0   60.0   33.333333333333336
200.0   60.0   33.333333333333336
250.0   60.0   50.0
200.0   30.0   50.0
200.0   60.0   50.0
250.0   60.0   50.0
200.0   60.0   33.333333333333336
200.0   30.0   50.0
250.0   60.0   50.0
250.0   30.0   50.0
250.0   30.0   33.333333333333336
200.0   30.0   50.0
250.0   60.0   50.0
250.0   30.0   33.333333333333336
200.0   60.0   33.333333333333336
200.0   60.0   0.0
250.0   60.0   0.0
200.0   90.0   0.0
200.0   60.0   16.666666666666668
250.0   60.0   0.0
250.0   90.0   0.0
200.0   90.0   0.0
250.0   90.0   16.666666666666668
200.0   60.0   16.666666666666668
200.0   90.0   16.666666666666668
250.0   90.0   16.666666666666668
200.0   90.0   0.0
200.0   60.0   16.666666666666668
250.0   90.0   16.666666666666668
250.0   60.0   16.666666666666668
250.0   60.0   0.0
200.0   60.0   16.666666666666668
250.0   90.0   16.666666666666668
250.0   60.0   0.0
200.0   90.0   0.0
200.0   60.0   16.666666666666668
250.0   60.0   16.666666666666668
200.0   90.0   16.666666666666668
200.0   60.0   33.333333333333336
250.0   60.0   16.666666666666668
250.0   90.0   16.666666666666668
200.0   90.0   16.666666666666668
250.0   90.0   33.333333333333336
200.0   60.0   33.333333333333336
200.0   90.0   33.333333333333336
250.0   90.0   33.333333333333336
200.0   90.0   16.666666666666668
200.0   60.0   33.333333333333336
250.0   90.0   33.333333333333336
250.0   60.0   33.333333333333336
250.0   60.0   16.666666666666668
200.0   60.0   33.333333333333336
250.0   90.0   33.333333333333336
250.0   60.0   16.666666666666668
200.0   90.0   16.666666666666668
200.0   60.0   33.333333333333336
250.0   60.0   33.333333333333336
200.0   90.0   33.333333333333336
200.0   60.0   50.0
250.0   60.0   33.333333333333336
250.0   90.0   33.333333333333336
200.0   90.0   33.333333333333336
250.0   90.0   50.0
200.0   60.0   50.0
200.0   90.0   50.0
250.0   90.0   50.0
200.0   90.0   33.333333333333336
200.0   60.0   50.0
250.0   90.0   50.0
250.0   60.0   50.0
250.0   60.0   33.333333333333336
200.0   60.0   50.0
250.0   90.0   50.0
250.0   60.0   33.333333333333336
200.0   90.0   33.333333333333336
200.0   90.0   0.0
250.0   90.0   0.0
200.0   120.0   0.0
200.0   90.0   16.666666666666668
250.0   90.0   0.0
250.0   120.0   0.0
200.0   120.0   0.0
250.0   120.0   16.666666666666668
200.0   90.0   16.666666666666668
200.0   120.0   16.666666666666668
250.0   120.0   16.666666666666668
200.0   120.0   0.0
200.0   90.0   16.666666666666668
250.0   120.0   16.666666666666668
250.0   90.0   16.666666666666668
250.0   90.0   0.0
200.0   90.0   16.666666666666668
250.0   120.0   16.666666666666668
250.0   90.0   0.0
200.0   120.0   0.0
200.0   90.0   16.666666666666668
250.0   90.0   16.666666666666668
200.0   120.0   16.666666666666668
200.0   90.0   33.333333333333336
250.0   90.0   16.666666666666668
250.0   120.0   16.666666666666668
200.0   120.0   16.666666666666668
250.0   120.0   33.333333333333336
200.0   90.0   33.333333333333336
200.0   120.0   33.333333333333336
250.0   120.0   33.333333333333336
200.0   120.0   16.666666666666668
200.0   90.0   33.333333333333336
250.0   120.0   33.333333333333336
250.0   90.0   33.333333333333336
250.0   90.0   16.666666666666668
200.0   90.0   33.333333333333336
250.0   120.0   33.333333333333336
250.0   90.0   16.666666666666668
200.0   120.0   16.666666666666668
200.0   90.0   33.333333333333336
250.0   90.0   33.333333333333336
200.0   120.0   33.333333333333336
200.0   90.0   50.0
250.0   90.0   33.333333333333336
250.0   120.0   33.333333333333336
200.0   120.0   33.333333333333336
250.0   120.0   50.0
200.0   90.0   50.0
200.0   120.0   50.0
250.0   120.0   50.0
200.0   120.0   33.333333333333336
200.0   90.0   50.0
250.0   120.0   50.0
250.0   90.0   50.0
250.0   90.0   33.333333333333336
200.0   90.0   50.0
250.0   120.0   50.0
250.0   90.0   33.333333333333336
200.0   120.0   33.333333333333336
200.0   120.0   0.0
250.0   120.0   0.0
200.0   150.0   0.0
200.0   120.0   16.666666666666668
250.0   120.0   0.0
250.0   150.0   0.0
200.0   150.0   0.0
250.0   150.0   16.666666666666668
200.0   120.0   16.666666666666668
200.0   150.0   16.666666666666668
250.0   150.0   16.666666666666668
200.0   150.0   0.0
200.0   120.0   16.666666666666668
250.0   150.0   16.666666666666668
250.0   120.0   16.666666666666668
250.0   120.0   0.0
200.0   120.0   16.666666666666668
250.0   150.0   16.666666666666668
250.0   120.0   0.0
200.0   150.0   0.0
200.0   120.0   16.666666666666668
250.0   120.0   16.666666666666668
200.0   150.0   16.666666666666668
200.0   120.0   33.333333333333336
250.0   120.0   16.666666666666668
250.0   150.0   16.666666666666668
200.0   150.0   16.666666666666668
250.0   150.0   33.333333333333336
200.0   120.0   33.333333333333336
200.0   150.0   33.333333333333336
250.0   150.0   33.333333333333336
200.0   150.0   16.666666666666668
200.0   120.0   33.333333333333336
250.0   150.0   33.333333333333336
250.0   120.0   33.333333333333336
250.0   120.0   16.666666666666668
200.0   120.0   33.333333333333336
250.0   150.0   33.333333333333336
250.0   120.0   16.666666666666668
200.0   150.0   16.666666666666668
200.0   120.0   33.333333333333336
250.0   120.0   33.333333333333336
200.0   150.0   33.333333333333336
200.0   120.0   50.0
250.0   120.0   33.333333333333336
250.0   150.0   33.333333333333336
200.0   150.0   33.333333333333336
250.0   150.0   50.0
200.0   120.0   50.0
200.0   150.0   50.0
250.0   150.0   50.0
200.0   150.0   33.333333333333336
200.0   120.0   50.0
250.0   150.0   50.0
250.0   120.0   50.0
250.0   120.0   33.333333333333336
200.0   120.0   50.0
250.0   150.0   50.0
250.0   120.0   33.333333333333336
200.0   150.0   33.333333333333336
250.0   0.0   0.0
300.0   0.0   0.0
250.0   30.0   0.0
250.0   0.0   16.666666666666668
300.0   0.0   0.0
300.0   30.0   0.0
250.0   30.0   0.0
300.0   30.0   16.666666666666668
250.0   0.0   16.666666666666668
250.0   30.0   16.666666666666668
300.0   30.0   16.666666666666668
250.0   30.0   0.0
250.0   0.0   16.666666666666668
300.0   30.0   16.666666666666668
300.0   0.0   16.666666666666668
300.0   0.0   0.0
250.0   0.0   16.666666666666668
300.0   30.0   16.666666666666668
300.0   0.0   0.0
250.0   30.0   0.0
250.0   0.0   16.666666666666668
300.0   0.0   16.666666666666668
250.0   30.0   16.666666666666668
250.0   0.0   33.333333333333336
300.0   0.0   16.666666666666668
300.0   30.0   16.666666666666668
250.0   30.0   16.666666666666668
300.0   30.0   33.333333333333336
250.0   0.0   33.333333333333336
250.0   30.0   33.333333333333336
300.0   30.0   33.333333333333336
250.0   30.0   16.666666666666668
250.0   0.0   33.333333333333336
300.0   30.0   33.333333333333336
300.0   0.0   33.333333333333336
300.0   0.0   16.666666666666668
250.0   0.0   33.333333333333336
300.0   30.0   33.333333333333336
300.0   0.0   16.666666666666668
250.0   30.0   16.666666666666668
250.0   0.0   33.333333333333336
300.0   0.0   33.333333333333336
250.0   30.0   33.333333333333336
250.0   0.0   50.0
300.0   0.0   33.333333333333336
300.0   30.0   33.333333333333336
250.0   30.0   33.333333333333336
300.0   30.0   50.0
250.0   0.0   50.0
250.0   30.0   50.0
300.0   30.0   50.0
250.0   30.0   33.333333333333336
250.0   0.0   50.0
300.0   30.0   50.0
300.0   0.0   50.0
300.0   0.0   33.333333333333336
250.0   0.0   50.0
300.0   30.0   50.0
300.0   0.0   33.333333333333336
250.0   30.0   33.333333333333336
250.0   30.0   0.0
300.0   30.0   0.0
250.0   60.0   0.0
250.0   30.0   16.666666666666668
300.0   30.0   0.0
300.0   60.0   0.0
250.0   60.0   0.0
300.0   60.0   16.666666666666668
250.0   30.0   16.666666666666668
250.0   60.0   16.666666666666668
300.0   60.0   16.666666666666668
250.0   60.0   0.0
250.0   30.0   16.666666666666668
300.0   60.0   16.666666666666668
300.0   30.0   16.666666666666668
300.0   30.0   0.0
250.0   30.0   16.666666666666668
300.0   60.0   16.666666666666668
300.0   30.0   0.0
250.0   60.0   0.0
250.0   30.0   16.666666666666668
300.0   30.0   16.666666666666668
250.0   60.0   16.666666666666668
250.0   30.0   33.333333333333336
300.0   30.0   16.666666666666668
300.0   60.0   16.666666666666668
250.0   60.0   16.666666666666668
300.0   60.0   33.333333333333336
250.0   30.0   33.333333333333336
250.0   60.0   33.333333333333336
300.0   60.0   33.333333333333336
250.0   60.0   16.666666666666668
250.0   30.0   33.333333333333336
300.0   60.0   33.333333333333336
300.0   30.0   33.333333333333336
300.0   30.0   16.666666666666668
250.0   30.0   33.333333333333336
300.0   60.0   33.333333333333336
300.0   30.0   16.666666666666668
250.0   60.0   16.666666666666668
250.0   30.0   33.333333333333336
300.0   30.0   33.333333333333336
250.0   60.0   33.333333333333336
250.0   30.0   50.0
300.0   30.0   33.333333333333336
300.0   60.0   33.333333333333336
250.0   60.0   33.333333333333336
300.0   60.0   50.0
250.0   30.0   50.0
250.0   60.0   50.0
300.0   60.0   50.0
250.0   60.0   33.333333333333336
250.0   30.0   50.0
300.0   60.0   50.0
300.0   30.0   50.0
300.0   30.0   33.333333333333336
250.0   30.0   50.0
300.0   60.0   50.0
300.0   30.0   33.333333333333336
250.0   60.0   33.333333333333336
250.0   60.0   0.0
300.0   60.0   0.0
250.0   90.0   0.0
250.0   60.0   16.666666666666668
300.0   60.0   0.0
300.0   90.0   0.0
250.0   90.0   0.0
300.0   90.0   16.666666666666668
250.0   60.0   16.666666666666668
250.0   90.0   16.666666666666668
300.0   90.0   16.666666666666668
250.0   90.0   0.0
250.0   60.0   16.666666666666668
300.0   90.0   16.666666666666668
300.0   60.0   16.666666666666668
300.0   60.0   0.0
250.0   60.0   16.666666666666668
300.0   90.0   16.666666666666668
300.0   60.0   0.0
250.0   90.0   0.0
250.0   60.0   16.666666666666668
300.0   60.0   16.666666666666668
250.0   90.0   16.666666666666668
250.0   60.0   33.333333333333336
300.0   60.0   16.666666666666668
300.0   90.0   16.666666666666668
250.0   90.0   16.666666666666668
300.0   90.0   33.333333333333336
250.0   60.0   33.333333333333336
250.0   90.0   33.333333333333336
300.0   90.0   33.333333333333336
250.0   90.0   16.666666666666668
250.0   60.0   33.333333333333336
300.0   90.0   33.333333333333336
300.0   60.0   33.333333333333336
300.0   60.0   16.666666666666668
250.0   60.0   33.333333333333336
300.0   90.0   33.333333333333336
300.0   60.0   16.666666666666668
250.0   90.0   16.666666666666668
250.0   60.0   33.333333333333336
300.0   60.0   33.333333333333336
250.0   90.0   33.333333333333336
250.0   60.0   50.0
300.0   60.0   33.333333333333336
300.0   90.0   33.333333333333336
250.0   90.0   33.333333333333336
300.0   90.0   50.0
250.0   60.0   50.0
250.0   90.0   50.0
300.0   90.0   50.0
250.0   90.0   33.333333333333336
250.0   60.0   50.0
300.0   90.0   50.0
300.0   60.0   50.0
300.0   60.0   33.333333333333336
250.0   60.0   50.0
300.0   90.0   50.0
300.0   60.0   33.333333333333336
250.0   90.0   33.333333333333336
250.0   90.0   0.0
300.0   90.0   0.0
250.0   120.0   0.0
250.0   90.0   16.666666666666668
300.0   90.0   0.0
300.0   120.0   0.0
250.0   120.0   0.0
300.0   120.0   16.666666666666668
250.0   90.0   16.666666666666668
250.0   120.0   16.666666666666668
300.0   120.0   16.666666666666668
250.0   120.0   0.0
250.0   90.0   16.666666666666668
300.0   120.0   16.666666666666668
300.0   90.0   16.666666666666668
300.0   90.0   0.0
250.0   90.0   16.666666666666668
300.0   120.0   16.666666666666668
300.0   90.0   0.0
250.0   120.0   0.0
250.0   90.0   16.666666666666668
300.0   90.0   16.666666666666668
250.0   120.0   16.666666666666668
250.0   90.0   33.333333333333336
300.0   90.0   16.666666666666668
300.0   120.0   16.666666666666668
250.0   120.0   16.666666666666668
300.0   120.0   33.333333333333336
250.0   90.0   33.333333333333336
250.0   120.0   33.333333333333336
300.0   120.0   33.333333333333336
250.0   120.0   16.666666666666668
250.0   90.0   33.333333333333336
300.0   120.0   33.333333333333336
300.0   90.0   33.333333333333336
300.0   90.0   16.666666666666668
250.0   90.0   33.333333333333336
300.0   120.0   33.333333333333336
300.0   90.0   16.666666666666668
250.0   120.0   16.666666666666668
250.0   90.0   33.333333333333336
300.0   90.0   33.333333333333336
250.0   120.0   33.333333333333336
250.0   90.0   50.0
300.0   90.0   33.333333333333336
300.0   120.0   33.333333333333336
250.0   120.0   33.333333333333336
300.0   120.0   50.0
250.0   90.0   50.0
250.0   120.0   50.0
300.0   120.0   50.0
250.0   120.0   33.333333333333336
250.0   90.0   50.0
300.0   120.0   50.0
300.0   90.0   50.0
300.0   90.0   33.333333333333336
250.0   90.0   50.0
300.0   120.0   50.0
300.0   90.0   33.333333333333336
250.0   120.0   33.333333333333336
250.0   120.0   0.0
300.0   120.0   0.0
250.0   150.0   0.0
250.0   120.0   16.666666666666668
300.0   120.0   0.0
300.0   150.0   0.0
250.0   150.0   0.0
300.0   150.0   16.666666666666668
250.0   120.0   16.666666666666668
250.0   150.0   16.666666666666668
300.0   150.0   16.666666666666668
250.0   150.0   0.0
250.0   120.0   16.666666666666668
300.0   150.0   16.666666666666668
300.0   120.0   16.666666666666668
300.0   120.0   0.0
250.0   120.0   16.666666666666668
300.0   150.0   16.666666666666668
300.0   120.0   0.0
250.0   150.0   0.0
250.0   120.0   16.666666666666668
300.0   120.0   16.666666666666668
250.0   150.0   16.666666666666668
250.0   120.0   33.333333333333336
300.0   120.0   16.666666666666668
300.0   150.0   16.666666666666668
250.0   150.0   16.666666666666668
300.0   150.0   33.333333333333336
250.0   120.0   33.333333333333336
250.0   150.0   33.333333333333336
300.0   150.0   33.333333333333336
250.0   150.0   16.666666666666668
250.0   120.0   33.333333333333336
300.0   150.0   33.333333333333336
300.0   120.0   33.333333333333336
300.0   120.0   16.666666666666668
250.0   120.0   33.333333333333336
300.0   150.0   33.333333333333336
300.0   120.0   16.666666666666668
250.0   150.0   16.666666666666668
250.0   120.0   33.333333333333336
300.0   120.0   33.333333333333336
250.0   150.0   33.333333333333336
250.0   120.0   50.0
300.0   120.0   33.333333333333336
300.0   150.0   33.333333333333336
250.0   150.0   33.333333333333336
300.0   150.0   50.0
250.0   120.0   50.0
250.0   150.0   50.0
300.0   150.0   50.0
250.0   150.0   33.333333333333336
250.0   120.0   50.0
300.0   150.0   50.0
300.0   120.0   50.0
300.0   120.0   33.333333333333336
250.0   120.0   50.0
300.0   150.0   50.0
300.0   120.0   33.333333333333336
250.0   150.0   33.333333333333336
300.0   0.0   0.0
350.0   0.0   0.0
300.0   30.0   0.0
300.0   0.0   16.666666666666668
350.0   0.0   0.0
350.0   30.0   0.0
300.0   30.0   0.0
350.0   30.0   16.666666666666668
300.0   0.0   16.666666666666668
300.0   30.0   16.666666666666668
350.0   30.0   16.666666666666668
300.0   30.0   0.0
300.0   0.0   16.666666666666668
350.0   30.0   16.666666666666668
350.0   0.0   16.666666666666668
350.0   0.0   0.0
300.0   0.0   16.666666666666668
350.0   30.0   16.666666666666668
350.0   0.0   0.0
300.0   30.0   0.0
300.0   0.0   16.666666666666668
350.0   0.0   16.666666666666668
300.0   30.0   16.666666666666668
300.0   0.0   33.333333333333336
350.0   0.0   16.666666666666668
350.0   30.0   16.666666666666668
300.0   30.0   16.666666666666668
350.0   30.0   33.333333333333336
300.0   0.0   33.333333333333336
300.0   30.0   33.333333333333336
350.0   30.0   33.333333333333336
300.0   30.0   16.666666666666668
300.0   0.0   33.333333333333336
350.0   30.0   33.333333333333336
350.0   0.0   33.333333333333336
350.0   0.0   16.666666666666668
300.0   0.0   33.333333333333336
350.0   30.0   33.333333333333336
350.0   0.0   16.666666666666668
300.0   30.0   16.666666666666668
300.0   0.0   33.333333333333336
350.0   0.0   33.333333333333336
300.0   30.0   33.333333333333336
300.0   0.0   50.0
350.0   0.0   33.333333333333336
350.0   30.0   33.333333333333336
300.0   30.0   33.333333333333336
350.0   30.0   50.0
300.0   0.0   50.0
300.0   30.0   50.0
350.0   30.0   50.0
300.0   30.0   33.333333333333336
300.0   0.0   50.0
350.0   30.0   50.0
350.0   0.0   50.0
350.0   0.0   33.333333333333336
300.0   0.0   50.0
350.0   30.0   50.0
350.0   0.0   33.333333333333336
300.0   30.0   33.333333333333336
300.0   30.0   0.0
350.0   30.0   0.0
300.0   60.0   0.0
300.0   30.0   16.666666666666668
350.0   30.0   0.0
350.0   60.0   0.0
300.0   60.0   0.0
350.0   60.0   16.666666666666668
300.0   30.0   16.666666666666668
300.0   60.0   16.666666666666668
350.0   60.0   16.666666666666668
300.0   60.0   0.0
300.0   30.0   16.666666666666668
350.0   60.0   16.666666666666668
350.0   30.0   16.666666666666668
350.0   30.0   0.0
300.0   30.0   16.666666666666668
350.0   60.0   16.666666666666668
350.0   30.0   0.0
300.0   60.0   0.0
300.0   30.0   16.666666666666668
350.0   30.0   16.666666666666668
300.0   60.0   16.666666666666668
300.0   30.0   33.333333333333336
350.0   30.0   16.666666666666668
350.0   60.0   16.666666666666668
300.0   60.0   16.666666666666668
350.0   60.0   33.333333333333336
300.0   30.0   33.333333333333336
300.0   60.0   33.333333333333336
350.0   60.0   33.333333333333336
300.0   60.0   16.666666666666668
300.0   30.0   33.333333333333336
350.0   60.0   33.333333333333336
350.0   30.0   33.333333333333336
350.0   30.0   16.666666666666668
300.0   30.0   33.333333333333336
350.0   60.0   33.333333333333336
350.0   30.0   16.666666666666668
300.0   60.0   16.666666666666668
300.0   30.0   33.333333333333336
350.0   30.0   33.333333333333336
300.0   60.0   33.333333333333336
300.0   30.0   50.0
350.0   30.0   33.333333333333336
350.0   60.0   33.333333333333336
300.0   60.0   33.333333333333336
350.0   60.0   50.0
300.0   30.0   50.0
300.0   60.0   50.0
350.0   60.0   50.0
300.0   60.0   33.333333333333336
300.0   30.0   50.0
350.0   60.0   50.0
350.0   30.0   50.0
350.0   30.0   33.333333333333336
300.0   30.0   50.0
350.0   60.0   50.0
350.0   30.0   33.333333333333336
300.0   60.0   33.333333333333336
300.0   60.0   0.0
350.0   60.0   0.0
300.0   90.0   0.0
300.0   60.0   16.666666666666668
350.0   60.0   0.0
350.0   90.0   0.0
300.0   90.0   0.0
350.0   90.0   16.666666666666668
300.0   60.0   16.666666666666668
300.0   90.0   16.666666666666668
350.0   90.0   16.666666666666668
300.0   90.0   0.0
300.0   60.0   16.666666666666668
350.0   90.0   16.666666666666668
350.0   60.0   16.666666666666668
350.0   60.0   0.0
300.0   60.0   16.666666666666668
350.0   90.0   16.666666666666668
350.0   60.0   0.0
300.0   90.0   0.0
300.0   60.0   16.666666666666668
350.0   60.0   16.666666666666668
300.0   90.0   16.666666666666668
300.0   60.0   33.333333333333336
350.0   60.0   16.666666666666668
350.0   90.0   16.666666666666668
300.0   90.0   16.666666666666668
350.0   90.0   33.333333333333336
300.0   60.0   33.333333333333336
300.0   90.0   33.333333333333336
350.0   90.0   33.333333333333336
300.0   90.0   16.666666666666668
300.0   60.0   33.333333333333336
350.0   90.0   33.333333333333336
350.0   60.0   33.333333333333336
350.0   60.0   16.666666666666668
300.0   60.0   33.333333333333336
350.0   90.0   33.333333333333336
350.0   60.0   16.666666666666668
300.0   90.0   16.666666666666668
300.0   60.0   33.333333333333336
350.0   60.0   33.333333333333336
300.0   90.0   33.333333333333336
300.0   60.0   50.0
350.0   60.0   33.333333333333336
350.0   90.0   33.333333333333336
300.0   90.0   33.333333333333336
350.0   90.0   50.0
300.0   60.0   50.0
300.0   90.0   50.0
350.0   90.0   50.0
300.0   90.0   33.333333333333336
300.0   60.0   50.0
350.0   90.0   50.0
350.0   60.0   50.0
350.0   60.0   33.333333333333336
300.0   60.0   50.0
350.0   90.0   50.0
350.0   60.0   33.333333333333336
300.0   90.0   33.333333333333336
300.0   90.0   0.0
350.0   90.0   0.0
300.0   120.0   0.0
300.0   90.0   16.666666666666668
350.0   90.0   0.0
350.0   120.0   0.0
300.0   120.0   0.0
350.0   120.0   16.666666666666668
300.0   90.0   16.666666666666668
300.0   120.0   16.666666666666668
350.0   120.0   16.666666666666668
300.0   120.0   0.0
300.0   90.0   16.666666666666668
350.0   120.0   16.666666666666668
350.0   90.0   16.666666666666668
350.0   90.0   0.0
300.0   90.0   16.666666666666668
350.0   120.0   16.666666666666668
350.0   90.0   0.0
300.0   120.0   0.0
300.0   90.0   16.666666666666668
350.0   90.0   16.666666666666668
300.0   120.0   16.666666666666668
300.0   90.0   33.333333333333336
350.0   90.0   16.666666666666668
350.0   120.0   16.666666666666668
300.0   120.0   16.666666666666668
350.0   120.0   33.333333333333336
300.0   90.0   33.333333333333336
300.0   120.0   33.333333333333336
350.0   120.0   33.333333333333336
300.0   120.0   16.666666666666668
300.0   90.0   33.333333333333336
350.0   120.0   33.333333333333336
350.0   90.0   33.333333333333336
350.0   90.0   16.666666666666668
300.0   90.0   33.333333333333336
350.0   120.0   33.333333333333336
350.0   90.0   16.666666666666668
300.0   120.0   16.666666666666668
300.0   90.0   33.333333333333336
350.0   90.0   33.333333333333336
300.0   120.0   33.333333333333336
300.0   90.0   50.0
350.0   90.0   33.333333333333336
350.0   120.0   33.333333333333336
300.0   120.0   33.333333333333336
350.0   120.0   50.0
300.0   90.0   50.0
300.0   120.0   50.0
350.0   120.0   50.0
300.0   120.0   33.333333333333336
300.0   90.0   50.0
350.0   120.0   50.0
350.0   90.0   50.0
350.0   90.0   33.333333333333336
300.0   90.0   50.0
350.0   120.0   50.0
350.0   90.0   33.333333333333336
300.0   120.0   33.333333333333336
300.0   120.0   0.0
350.0   120.0   0.0
300.0   150.0   0.0
300.0   120.0   16.666666666666668
350.0   120.0   0.0
350.0   150.0   0.0
300.0   150.0   0.0
350.0   150.0   16.666666666666668
300.0   120.0   16.666666666666668
300.0   150.0   16.666666666666668
350.0   150.0   16.666666666666668
300.0   150.0   0.0
300.0   120.0   16.666666666666668
350.0   150.0   16.666666666666668
350.0   120.0   16.666666666666668
350.0   120.0   0.0
300.0   120.0   16.666666666666668
350.0   150.0   16.666666666666668
350.0   120.0   0.0
300.0   150.0   0.0
300.0   120.0   16.666666666666668
350.0   120.0   16.666666666666668
300.0   150.0   16.666666666666668
300.0   120.0   33.333333333333336
350.0   120.0   16.666666666666668
350.0   150.0   16.666666666666668
300.0   150.0   16.666666666666668
350.0   150.0   33.333333333333336
300.0   120.0   33.333333333333336
300.0   150.0   33.333333333333336
350.0   150.0   33.333333333333336
300.0   150.0   16.666666666666668
300.0   120.0   33.333333333333336
350.0   150.0   33.333333333333336
350.0   120.0   33.333333333333336
350.0   120.0   16.666666666666668
300.0   120.0   33.333333333333336
350.0   150.0   33.333333333333336
350.0   120.0   16.666666666666668
300.0   150.0   16.666666666666668
300.0   120.0   33.333333333333336
350.0   120.0   33.333333333333336
300.0   150.0   33.333333333333336
300.0   120.0   50.0
350.0   120.0   33.333333333333336
350.0   150.0   33.333333333333336
300.0   150.0   33.333333333333336
350.0   150.0   50.0
300.0   120.0   50.0
300.0   150.0   50.0
350.0   150.0   50.0
300.0   150.0   33.333333333333336
300.0   120.0   50.0
350.0   150.0   50.0
350.0   120.0   50.0
350.0   120.0   33.333333333333336
300.0   120.0   50.0
350.0   150.0   50.0
350.0   120.0   33.333333333333336
300.0   150.0   33.333333333333336
350.0   0.0   0.0
400.0   0.0   0.0
350.0   30.0   0.0
350.0   0.0   16.666666666666668
400.0   0.0   0.0
400.0   30.0   0.0
350.0   30.0   0.0
400.0   30.0   16.666666666666668
350.0   0.0   16.666666666666668
350.0   30.0   16.666666666666668
400.0   30.0   16.666666666666668
350.0   30.0   0.0
350.0   0.0   16.666666666666668
400.0   30.0   16.666666666666668
400.0   0.0   16.666666666666668
400.0   0.0   0.0
350.0   0.0   16.666666666666668
400.0   30.0   16.666666666666668
400.0   0.0   0.0
350.0   30.0   0.0
350.0   0.0   16.666666666666668
400.0   0.0   16.666666666666668
350.0   30.0   16.666666666666668
350.0   0.0   33.333333333333336
400.0   0.0   16.666666666666668
400.0   30.0   16.666666666666668
350.0   30.0   16.666666666666668
400.0   30.0   33.333333333333336
350.0   0.0   33.333333333333336
350.0   30.0   33.333333333333336
400.0   30.0   33.333333333333336
350.0   30.0   16.666666666666668
350.0   0.0   33.333333333333336
400.0   30.0   33.333333333333336
400.0   0.0   33.333333333333336
400.0   0.0   16.666666666666668
350.0   0.0   33.333333333333336
400.0   30.0   33.333333333333336
400.0   0.0   16.666666666666668
350.0   30.0   16.666666666666668
350.0   0.0   33.333333333333336
400.0   0.0   33.333333333333336
350.0   30.0   33.333333333333336
350.0   0.0   50.0
400.0   0.0   33.333333333333336
400.0   30.0   33.333333333333336
350.0   30.0   33.333333333333336
400.0   30.0   50.0
350.0   0.0   50.0
350.0   30.0   50.0
400.0   30.0   50.0
350.0   30.0   33.333333333333336
350.0   0.0   50.0
400.0   30.0   50.0
400.0   0.0   50.0
400.0   0.0   33.333333333333336
350.0   0.0   50.0
400.0   30.0   50.0
400.0   0.0   33.333333333333336
350.0   30.0   33.333333333333336
350.0   30.0   0.0
400.0   30.0   0.0
350.0   60.0   0.0
350.0   30.0   16.666666666666668
400.0   30.0   0.0
400.0   60.0   0.0
350.0   60.0   0.0
400.0   60.0   16.666666666666668
350.0   30.0   16.666666666666668
350.0   60.0   16.666666666666668
400.0   60.0   16.666666666666668
350.0   60.0   0.0
350.0   30.0   16.666666666666668
400.0   60.0   16.666666666666668
400.0   30.0   16.666666666666668
400.0   30.0   0.0
350.0   30.0   16.666666666666668
400.0   60.0   16.666666666666668
400.0   30.0   0.0
350.0   60.0   0.0
350.0   30.0   16.666666666666668
400.0   30.0   16.666666666666668
350.0   60.0   16.666666666666668
350.0   30.0   33.333333333333336
400.0   30.0   16.666666666666668
400.0   60.0   16.666666666666668
350.0   60.0   16.666666666666668
400.0   60.0   33.333333333333336
350.0   30.0   33.333333333333336
350.0   60.0   33.333333333333336
400.0   60.0   33.333333333333336
350.0   60.0   16.666666666666668
350.0   30.0   33.333333333333336
400.0   60.0   33.333333333333336
400.0   30.0   33.333333333333336
400.0   30.0   16.666666666666668
350.0   30.0   33.333333333333336
400.0   60.0   33.333333333333336
400.0   30.0   16.666666666666668
350.0   60.0   16.666666666666668
350.0   30.0   33.333333333333336
400.0   30.0   33.333333333333336
350.0   60.0   33.333333333333336
350.0   30.0   50.0
400.0   30.0   33.333333333333336
400.0   60.0   33.333333333333336
350.0   60.0   33.333333333333336
400.0   60.0   50.0
350.0   30.0   50.0
350.0   60.0   50.0
400.0   60.0   50.0
350.0   60.0   33.333333333333336
350.0   30.0   50.0
400.0   60.0   50.0
400.0   30.0   50.0
400.0   30.0   33.333333333333336
350.0   30.0   50.0
400.0   60.0   50.0
400.0   30.0   33.333333333333336
350.0   60.0   33.333333333333336
350.0   60.0   0.0
400.0   60.0   0.0
350.0   90.0   0.0
350.0   60.0   16.666666666666668
400.0   60.0   0.0
400.0   90.0   0.0
350.0   90.0   0.0
400.0   90.0   16.666666666666668
350.0   60.0   16.666666666666668
350.0   90.0   16.666666666666668
400.0   90.0   16.666666666666668
350.0   90.0   0.0
350.0   60.0   16.666666666666668
400.0   90.0   16.666666666666668
400.0   60.0   16.666666666666668
400.0   60.0   0.0
350.0   60.0   16.666666666666668
400.0   90.0   16.666666666666668
400.0   60.0   0.0
350.0   90.0   0.0
350.0   60.0   16.666666666666668
400.0   60.0   16.666666666666668
350.0   90.0   16.666666666666668
350.0   60.0   33.333333333333336
400.0   60.0   16.666666666666668
400.0   90.0   16.666666666666668
350.0   90.0   16.666666666666668
400.0   90.0   33.333333333333336
350.0   60.0   33.333333333333336
350.0   90.0   33.333333333333336
400.0   90.0   33.333333333333336
350.0   90.0   16.666666666666668
350.0   60.0   33.333333333333336
400.0   90.0   33.333333333333336
400.0   60.0   33.333333333333336
400.0   60.0   16.666666666666668
350.0   60.0   33.333333333333336
400.0   90.0   33.333333333333336
400.0   60.0   16.666666666666668
350.0   90.0   16.666666666666668
350.0   60.0   33.333333333333336
400.0   60.0   33.333333333333336
350.0   90.0   33.333333333333336
350.0   60.0   50.0
400.0   60.0   33.333333333333336
400.0   90.0   33.333333333333336
350.0   90.0   33.333333333333336
400.0   90.0   50.0
350.0   60.0   50.0
350.0   90.0   50.0
400.0   90.0   50.0
350.0   90.0   33.333333333333336
350.0   60.0   50.0
400.0   90.0   50.0
400.0   60.0   50.0
400.0   60.0   33.333333333333336
350.0   60.0   50.0
400.0   90.0   50.0
400.0   60.0   33.333333333333336
350.0   90.0   33.333333333333336
350.0   90.0   0.0
400.0   90.0   0.0
350.0   120.0   0.0
350.0   90.0   16.666666666666668
400.0   90.0   0.0
400.0   120.0   0.0
350.0   120.0   0.0
400.0   120.0   16.666666666666668
350.0   90.0   16.666666666666668
350.0   120.0   16.666666666666668
400.0   120.0   16.666666666666668
350.0   120.0   0.0
350.0   90.0   16.666666666666668
400.0   120.0   16.666666666666668
400.0   90.0   16.666666666666668
400.0   90.0   0.0
350.0   90.0   16.666666666666668
400.0   120.0   16.666666666666668
400.0   90.0   0.0
350.0   120.0   0.0
350.0   90.0   16.666666666666668
400.0   90.0   16.666666666666668
350.0   120.0   16.666666666666668
350.0   90.0   33.333333333333336
400.0   90.0   16.666666666666668
400.0   120.0   16.666666666666668
350.0   120.0   16.666666666666668
400.0   120.0   33.333333333333336
350.0   90.0   33.333333333333336
350.0   120.0   33.333333333333336
400.0   120.0   33.333333333333336
350.0   120.0   16.666666666666668
350.0   90.0   33.333333333333336
400.0   120.0   33.333333333333336
400.0   90.0   33.333333333333336
400.0   90.0   16.666666666666668
350.0   90.0   33.333333333333336
400.0   120.0   33.333333333333336
400.0   90.0   16.666666666666668
350.0   120.0   16.666666666666668
350.0   90.0   33.333333333333336
400.0   90.0   33.333333333333336
350.0   120.0   33.333333333333336
350.0   90.0   50.0
400.0   90.0   33.333333333333336
400.0   120.0   33.333333333333336
350.0   120.0   33.333333333333336
400.0   120.0   50.0
350.0   90.0   50.0
350.0   120.0   50.0
400.0   120.0   50.0
350.0   120.0   33.333333333333336
350.0   90.0   50.0
400.0   120.0   50.0
400.0   90.0   50.0
400.0   90.0   33.333333333333336
350.0   90.0   50.0
400.0   120.0   50.0
400.0   90.0   33.333333333333336
350.0   120.0   33.333333333333336
350.0   120.0   0.0
400.0   120.0   0.0
350.0   150.0   0.0
350.0   120.0   16.666666666666668
400.0   120.0   0.0
400.0   150.0   0.0
350.0   150.0   0.0
400.0   150.0   16.666666666666668
350.0   120.0   16.666666666666668
350.0   150.0   16.666666666666668
400.0   150.0   16.666666666666668
350.0   150.0   0.0
350.0   120.0   16.666666666666668
400.0   150.0   16.666666666666668
400.0   120.0   16.666666666666668
400.0   120.0   0.0
350.0   120.0   16.666666666666668
400.0   150.0   16.666666666666668
400.0   120.0   0.0
350.0   150.0   0.0
350.0   120.0   16.666666666666668
400.0   120.0   16.666666666666668
350.0   150.0   16.666666666666668
350.0   120.0   33.333333333333336
400.0   120.0   16.666666666666668
400.0   150.0   16.666666666666668
350.0   150.0   16.666666666666668
400.0   150.0   33.333333333333336
350.0   120.0   33.333333333333336
350.0   150.0   33.333333333333336
400.0   150.0   33.333333333333336
350.0   150.0   16.666666666666668
350.0   120.0   33.333333333333336
400.0   150.0   33.333333333333336
400.0   120.0   33.333333333333336
400.0   120.0   16.666666666666668
350.0   120.0   33.333333333333336
400.0   150.0   33.333333333333336
400.0   120.0   16.666666666666668
350.0   150.0   16.666666666666668
350.0   120.0   33.333333333333336
400.0   120.0   33.333333333333336
350.0   150.0   33.333333333333336
350.0   120.0   50.0
400.0   120.0   33.333333333333336
400.0   150.0   33.333333333333336
350.0   150.0   33.333333333333336
400.0   150.0   50.0
350.0   120.0   50.0
350.0   150.0   50.0
400.0   150.0   50.0
350.0   150.0   33.333333333333336
350.0   120.0   50.0
400.0   150.0   50.0
400.0   120.0   50.0
400.0   120.0   33.333333333333336
350.0   120.0   50.0
400.0   150.0   50.0
400.0   120.0   33.333333333333336
350.0   150.0   33.333333333333336
400.0   0.0   0.0
450.0   0.0   0.0
400.0   30.0   0.0
400.0   0.0   16.666666666666668
450.0   0.0   0.0
450.0   30.0   0.0
400.0   30.0   0.0
450.0   30.0   16.666666666666668
400.0   0.0   16.666666666666668
400.0   30.0   16.666666666666668
450.0   30.0   16.666666666666668
400.0   30.0   0.0
400.0   0.0   16.666666666666668
450.0   30.0   16.666666666666668
450.0   0.0   16.666666666666668
450.0   0.0   0.0
400.0   0.0   16.666666666666668
450.0   30.0   16.666666666666668
450.0   0.0   0.0
400.0   30.0   0.0
400.0   0.0   16.666666666666668
450.0   0.0   16.666666666666668
400.0   30.0   16.666666666666668
400.0   0.0   33.333333333333336
450.0   0.0   16.666666666666668
450.0   30.0   16.666666666666668
400.0   30.0   16.666666666666668
450.0   30.0   33.333333333333336
400.0   0.0   33.333333333333336
400.0   30.0   33.333333333333336
450.0   30.0   33.333333333333336
400.0   30.0   16.666666666666668
400.0   0.0   33.333333333333336
450.0   30.0   33.333333333333336
450.0   0.0   33.333333333333336
450.0   0.0   16.666666666666668
400.0   0.0   33.333333333333336
450.0   30.0   33.333333333333336
450.0   0.0   16.666666666666668
400.0   30.0   16.666666666666668
400.0   0.0   33.333333333333336
450.0   0.0   33.333333333333336
400.0   30.0   33.333333333333336
400.0   0.0   50.0
450.0   0.0   33.333333333333336
450.0   30.0   33.333333333333336
400.0   30.0   33.333333333333336
450.0   30.0   50.0
400.0   0.0   50.0
400.0   30.0   50.0
450.0   30.0   50.0
400.0   30.0   33.333333333333336
400.0   0.0   50.0
450.0   30.0   50.0
450.0   0.0   50.0
450.0   0.0   33.333333333333336
400.0   0.0   50.0
450.0   30.0   50.0
450.0   0.0   33.333333333333336
400.0   30.0   33.333333333333336
400.0   30.0   0.0
450.0   30.0   0.0
400.0   60.0   0.0
400.0   30.0   16.666666666666668
450.0   30.0   0.0
450.0   60.0   0.0
400.0   60.0   0.0
450.0   60.0   16.666666666666668
400.0   30.0   16.666666666666668
400.0   60.0   16.666666666666668
450.0   60.0   16.666666666666668
400.0   60.0   0.0
400.0   30.0   16.666666666666668
450.0   60.0   16.666666666666668
450.0   30.0   16.666666666666668
450.0   30.0   0.0
400.0   30.0   16.666666666666668
450.0   60.0   16.666666666666668
450.0   30.0   0.0
400.0   60.0   0.0
400.0   30.0   16.666666666666668
450.0   30.0   16.666666666666668
400.0   60.0   16.666666666666668
400.0   30.0   33.333333333333336
450.0   30.0   16.666666666666668
450.0   60.0   16.666666666666668
400.0   60.0   16.666666666666668
450.0   60.0   33.333333333333336
400.0   30.0   33.333333333333336
400.0   60.0   33.333333333333336
450.0   60.0   33.333333333333336
400.0   60.0   16.666666666666668
400.0   30.0   33.333333333333336
450.0   60.0   33.333333333333336
450.0   30.0   33.333333333333336
450.0   30.0   16.666666666666668
400.0   30.0   33.333333333333336
450.0   60.0   33.333333333333336
450.0   30.0   16.666666666666668
400.0   60.0   16.666666666666668
400.0   30.0   33.333333333333336
450.0   30.0   33.333333333333336
400.0   60.0   33.333333333333336
400.0   30.0   50.0
450.0   30.0   33.333333333333336
450.0   60.0   33.333333333333336
400.0   60.0   33.333333333333336
450.0   60.0   50.0
400.0   30.0   50.0
400.0   60.0   50.0
450.0   60.0   50.0
400.0   60.0   33.333333333333336
400.0   30.0   50.0
450.0   60.0   50.0
450.0   30.0   50.0
450.0   30.0   33.333333333333336
400.0   30.0   50.0
450.0   60.0   50.0
450.0   30.0   33.333333333333336
400.0   60.0   33.333333333333336
400.0   60.0   0.0
450.0   60.0   0.0
400.0   90.0   0.0
400.0   60.0   16.666666666666668
450.0   60.0   0.0
450.0   90.0   0.0
400.0   90.0   0.0
450.0   90.0   16.666666666666668
400.0   60.0   16.666666666666668
400.0   90.0   16.666666666666668
450.0   90.0   16.666666666666668
400.0   90.0   0.0
400.0   60.0   16.666666666666668
450.0   90.0   16.666666666666668
450.0   60.0   16.666666666666668
450.0   60.0   0.0
400.0   60.0   16.666666666666668
450.0   90.0   16.666666666666668
450.0   60.0   0.0
400.0   90.0   0.0
400.0   60.0   16.666666666666668
450.0   60.0   16.666666666666668
400.0   90.0   16.666666666666668
400.0   60.0   33.333333333333336
450.0   60.0   16.666666666666668
450.0   90.0   16.666666666666668
400.0   90.0   16.666666666666668
450.0   90.0   33.333333333333336
400.0   60.0   33.333333333333336
400.0   90.0   33.333333333333336
450.0   90.0   33.333333333333336
400.0   90.0   16.666666666666668
400.0   60.0   33.333333333333336
450.0   90.0   33.333333333333336
450.0   60.0   33.333333333333336
450.0   60.0   16.666666666666668
400.0   60.0   33.333333333333336
450.0   90.0   33.333333333333336
450.0   60.0   16.666666666666668
400.0   90.0   16.666666666666668
400.0   60.0   33.333333333333336
450.0   60.0   33.333333333333336
400.0   90.0   33.333333333333336
400.0   60.0   50.0
450.0   60.0   33.333333333333336
450.0   90.0   33.333333333333336
400.0   90.0   33.333333333333336
450.0   90.0   50.0
400.0   60.0   50.0
400.0   90.0   50.0
450.0   90.0   50.0
400.0   90.0   33.333333333333336
400.0   60.0   50.0
450.0   90.0   50.0
450.0   60.0   50.0
450.0   60.0   33.333333333333336
400.0   60.0   50.0
450.0   90.0   50.0
450.0   60.0   33.333333333333336
400.0   90.0   33.333333333333336
400.0   90.0   0.0
450.0   90.0   0.0
400.0   120.0   0.0
400.0   90.0   16.666666666666668
450.0   90.0   0.0
450.0   120.0   0.0
400.0   120.0   0.0
450.0   120.0   16.666666666666668
400.0   90.0   16.666666666666668
400.0   120.0   16.666666666666668
450.0   120.0   16.666666666666668
400.0   120.0   0.0
400.0   90.0   16.666666666666668
450.0   120.0   16.666666666666668
450.0   90.0   16.666666666666668
450.0   90.0   0.0
400.0   90.0   16.666666666666668
450.0   120.0   16.666666666666668
450.0   90.0   0.0
400.0   120.0   0.0
400.0   90.0   16.666666666666668
450.0   90.0   16.666666666666668
400.0   120.0   16.666666666666668
400.0   90.0   33.333333333333336
450.0   90.0   16.666666666666668
450.0   120.0   16.666666666666668
400.0   120.0   16.666666666666668
450.0   120.0   33.333333333333336
400.0   90.0   33.333333333333336
400.0   120.0   33.333333333333336
450.0   120.0   33.333333333333336
400.0   120.0   16.666666666666668
400.0   90.0   33.333333333333336
450.0   120.0   33.333333333333336
450.0   90.0   33.333333333333336
450.0   90.0   16.666666666666668
400.0   90.0   33.333333333333336
450.0   120.0   33.333333333333336
450.0   90.0   16.666666666666668
400.0   120.0   16.666666666666668
400.0   90.0   33.333333333333336
450.0   90.0   33.333333333333336
400.0   120.0   33.333333333333336
400.0   90.0   50.0
450.0   90.0   33.333333333333336
450.0   120.0   33.333333333333336
400.0   120.0   33.333333333333336
450.0   120.0   50.0
400.0   90.0   50.0
400.0   120.0   50.0
450.0   120.0   50.0
400.0   120.0   33.333333333333336
400.0   90.0   50.0
450.0   120.0   50.0
450.0   90.0   50.0
450.0   90.0   33.333333333333336
400.0   90.0   50.0
450.0   120.0   50.0
450.0   90.0   33.333333333333336
400.0   120.0   33.333333333333336
400.0   120.0   0.0
450.0   120.0   0.0
400.0   150.0   0.0
400.0   120.0   16.666666666666668
450.0   120.0   0.0
450.0   150.0   0.0
400.0   150.0   0.0
450.0   150.0   16.666666666666668
400.0   120.0   16.666666666666668
400.0   150.0   16.666666666666668
450.0   150.0   16.666666666666668
400.0   150.0   0.0
400.0   120.0   16.666666666666668
450.0   150.0   16.666666666666668
450.0   120.0   16.666666666666668
450.0   120.0   0.0
400.0   120.0   16.666666666666668
450.0   150.0   16.666666666666668
450.0   120.0   0.0
400.0   150.0   0.0
400.0   120.0   16.666666666666668
450.0   120.0   16.666666666666668
400.0   150.0   16.666666666666668
400.0   120.0   33.333333333333336
450.0   120.0   16.666666666666668
450.0   150.0   16.666666666666668
400.0   150.0   16.666666666666668
450.0   150.0   33.333333333333336
400.0   120.0   33.333333333333336
400.0   150.0   33.333333333333336
450.0   150.0   33.333333333333336
400.0   150.0   16.666666666666668
400.0   120.0   33.333333333333336
450.0   150.0   33.333333333333336
450.0   120.0   33.333333333333336
450.0   120.0   16.666666666666668
400.0   120.0   33.333333333333336
450.0   150.0   33.333333333333336
450.0   120.0   16.666666666666668
400.0   150.0   16.666666666666668
400.0   120.0   33.333333333333336
450.0   120.0   33.333333333333336
400.0   150.0   33.333333333333336
400.0   120.0   50.0
450.0   120.0   33.333333333333336
450.0   150.0   33.333333333333336
400.0   150.0   33.333333333333336
450.0   150.0   50.0
400.0   120.0   50.0
400.0   150.0   50.0
450.0   150.0   50.0
400.0   150.0   33.333333333333336
400.0   120.0   50.0
450.0   150.0   50.0
450.0   120.0   50.0
450.0   120.0   33.333333333333336
400.0   120.0   50.0
450.0   150.0   50.0
450.0   120.0   33.333333333333336
400.0   150.0   33.333333333333336
450.0   0.0   0.0
500.0   0.0   0.0
450.0   30.0   0.0
450.0   0.0   16.666666666666668
500.0   0.0   0.0
500.0   30.0   0.0
450.0   30.0   0.0
500.0   30.0   16.666666666666668
450.0   0.0   16.666666666666668
450.0   30.0   16.666666666666668
500.0   30.0   16.666666666666668
450.0   30.0   0.0
450.0   0.0   16.666666666666668
500.0   30.0   16.666666666666668
500.0   0.0   16.666666666666668
500.0   0.0   0.0
450.0   0.0   16.666666666666668
500.0   30.0   16.666666666666668
500.0   0.0   0.0
450.0   30.0   0.0
450.0   0.0   16.666666666666668
500.0   0.0   16.666666666666668
450.0   30.0   16.666666666666668
450.0   0.0   33.333333333333336
500.0   0.0   16.666666666666668
500.0   30.0   16.666666666666668
450.0   30.0   16.666666666666668
500.0   30.0   33.333333333333336
450.0   0.0   33.333333333333336
450.0   30.0   33.333333333333336
500.0   30.0   33.333333333333336
450.0   30.0   16.666666666666668
450.0   0.0   33.333333333333336
500.0   30.0   33.333333333333336
500.0   0.0   33.333333333333336
500.0   0.0   16.666666666666668
450.0   0.0   33.333333333333336
500.0   30.0   33.333333333333336
500.0   0.0   16.666666666666668
450.0   30.0   16.666666666666668
450.0   0.0   33.333333333333336
500.0   0.0   33.333333333333336
450.0   30.0   33.333333333333336
450.0   0.0   50.0
500.0   0.0   33.333333333333336
500.0   30.0   33.333333333333336
450.0   30.0   33.333333333333336
500.0   30.0   50.0
450.0   0.0   50.0
450.0   30.0   50.0
500.0   30.0   50.0
450.0   30.0   33.333333333333336
450.0   0.0   50.0
500.0   30.0   50.0
500.0   0.0   50.0
500.0   0.0   33.333333333333336
450.0   0.0   50.0
500.0   30.0   50.0
500.0   0.0   33.333333333333336
450.0   30.0   33.333333333333336
450.0   30.0   0.0
500.0   30.0   0.0
450.0   60.0   0.0
450.0   30.0   16.666666666666668
500.0   30.0   0.0
500.0   60.0   0.0
450.0   60.0   0.0
500.0   60.0   16.666666666666668
450.0   30.0   16.666666666666668
450.0   60.0   16.666666666666668
500.0   60.0   16.666666666666668
450.0   60.0   0.0
450.0   30.0   16.666666666666668
500.0   60.0   16.666666666666668
500.0   30.0   16.666666666666668
500.0   30.0   0.0
450.0   30.0   16.666666666666668
500.0   60.0   16.666666666666668
500.0   30.0   0.0
450.0   60.0   0.0
450.0   30.0   16.666666666666668
500.0   30.0   16.666666666666668
450.0   60.0   16.666666666666668
450.0   30.0   33.333333333333336
500.0   30.0   16.666666666666668
500.0   60.0   16.666666666666668
450.0   60.0   16.666666666666668
500.0   60.0   33.333333333333336
450.0   30.0   33.333333333333336
450.0   60.0   33.333333333333336
500.0   60.0   33.333333333333336
450.0   60.0   16.666666666666668
450.0   30.0   33.333333333333336
500.0   60.0   33.333333333333336
500.0   30.0   33.333333333333336
500.0   30.0   16.666666666666668
450.0   30.0   33.333333333333336
500.0   60.0   33.333333333333336
500.0   30.0   16.666666666666668
450.0   60.0   16.666666666666668
450.0   30.0   33.333333333333336
500.0   30.0   33.333333333333336
450.0   60.0   33.333333333333336
450.0   30.0   50.0
500.0   30.0   33.333333333333336
500.0   60.0   33.333333333333336
450.0   60.0   33.333333333333336
500.0   60.0   50.0
450.0   30.0   50.0
450.0   60.0   50.0
500.0   60.0   50.0
450.0   60.0   33.333333333333336
450.0   30.0   50.0
500.0   60.0   50.0
500.0   30.0   50.0
500.0   30.0   33.333333333333336
450.0   30.0   50.0
500.0   60.0   50.0
500.0   30.0   33.333333333333336
450.0   60.0   33.333333333333336
450.0   60.0   0.0
500.0   60.0   0.0
450.0   90.0   0.0
450.0   60.0   16.666666666666668
500.0   60.0   0.0
500.0   90.0   0.0
450.0   90.0   0.0
500.0   90.0   16.666666666666668
450.0   60.0   16.666666666666668
450.0   90.0   16.666666666666668
500.0   90.0   16.666666666666668
450.0   90.0   0.0
450.0   60.0   16.666666666666668
500.0   90.0   16.666666666666668
500.0   60.0   16.666666666666668
500.0   60.0   0.0
450.0   60.0   16.666666666666668
500.0   90.0   16.666666666666668
500.0   60.0   0.0
450.0   90.0   0.0
450.0   60.0   16.666666666666668
500.0   60.0   16.666666666666668
450.0   90.0   16.666666666666668
450.0   60.0   33.333333333333336
500.0   60.0   16.666666666666668
500.0   90.0   16.666666666666668
450.0   90.0   16.666666666666668
500.0   90.0   33.333333333333336
450.0   60.0   33.333333333333336
450.0   90.0   33.333333333333336
500.0   90.0   33.333333333333336
450.0   90.0   16.666666666666668
450.0   60.0   33.333333333333336
500.0   90.0   33.333333333333336
500.0   60.0   33.333333333333336
500.0   60.0   16.666666666666668
450.0   60.0   33.333333333333336
500.0   90.0   33.333333333333336
500.0   60.0   16.666666666666668
450.0   90.0   16.666666666666668
450.0   60.0   33.333333333333336
500.0   60.0   33.333333333333336
450.0   90.0   33.333333333333336
450.0   60.0   50.0
500.0   60.0   33.333333333333336
500.0   90.0   33.333333333333336
450.0   90.0   33.333333333333336
500.0   90.0   50.0
450.0   60.0   50.0
450.0   90.0   50.0
500.0   90.0   50.0
450.0   90.0   33.333333333333336
450.0   60.0   50.0
500.0   90.0   50.0
500.0   60.0   50.0
500.0   60.0   33.333333333333336
450.0   60.0   50.0
500.0   90.0   50.0
500.0   60.0   33.333333333333336
450.0   90.0   33.333333333333336
450.0   90.0   0.0
500.0   90.0   0.0
450.0   120.0   0.0
450.0   90.0   16.666666666666668
500.0   90.0   0.0
500.0   120.0   0.0
450.0   120.0   0.0
500.0   120.0   16.666666666666668
450.0   90.0   16.666666666666668
450.0   120.0   16.666666666666668
500.0   120.0   16.666666666666668
450.0   120.0   0.0
450.0   90.0   16.666666666666668
500.0   120.0   16.666666666666668
500.0   90.0   16.666666666666668
500.0   90.0   0.0
450.0   90.0   16.666666666666668
500.0   120.0   16.666666666666668
500.0   90.0   0.0
450.0   120.0   0.0
450.0   90.0   16.666666666666668
500.0   90.0   16.666666666666668
450.0   120.0   16.666666666666668
450.0   90.0   33.333333333333336
500.0   90.0   16.666666666666668
500.0   120.0   16.666666666666668
450.0   120.0   16.666666666666668
500.0   120.0   33.333333333333336
450.0   90.0   33.333333333333336
450.0   120.0   33.333333333333336
500.0   120.0   33.333333333333336
450.0   120.0   16.666666666666668
450.0   90.0   33.333333333333336
500.0   120.0   33.333333333333336
500.0   90.0   33.333333333333336
500.0   90.0   16.666666666666668
450.0   90.0   33.333333333333336
500.0   120.0   33.333333333333336
500.0   90.0   16.666666666666668
450.0   120.0   16.666666666666668
450.0   90.0   33.333333333333336
500.0   90.0   33.333333333333336
450.0   120.0   33.333333333333336
450.0   90.0   50.0
500.0   90.0   33.333333333333336
500.0   120.0   33.333333333333336
450.0   120.0   33.333333333333336
500.0   120.0   50.0
450.0   90.0   50.0
450.0   120.0   50.0
500.0   120.0   50.0
450.0   120.0   33.333333333333336
450.0   90.0   50.0
500.0   120.0   50.0
500.0   90.0   50.0
500.0   90.0   33.333333333333336
450.0   90.0   50.0
500.0   120.0   50.0
500.0   90.0   33.333333333333336
450.0   120.0   33.333333333333336
450.0   120.0   0.0
500.0   120.0   0.0
450.0   150.0   0.0
450.0   120.0   16.666666666666668
500.0   120.0   0.0
500.0   150.0   0.0
450.0   150.0   0.0
500.0   150.0   16.666666666666668
450.0   120.0   16.666666666666668
450.0   150.0   16.666666666666668
500.0   150.0   16.666666666666668
450.0   150.0   0.0
450.0   120.0   16.666666666666668
500.0   150.0   16.666666666666668
500.0   120.0   16.666666666666668
500.0   120.0   0.0
450.0   120.0   16.666666666666668
500.0   150.0   16.666666666666668
500.0   120.0   0.0
450.0   150.0   0.0
450.0   120.0   16.666666666666668
500.0   120.0   16.666666666666668
450.0   150.0   16.666666666666668
450.0   120.0   33.333333333333336
500.0   120.0   16.666666666666668
500.0   150.0   16.666666666666668
450.0   150.0   16.666666666666668
500.0   150.0   33.333333333333336
450.0   120.0   33.333333333333336
450.0   150.0   33.333333333333336
500.0   150.0   33.333333333333336
450.0   150.0   16.666666666666668
450.0   120.0   33.333333333333336
500.0   150.0   33.333333333333336
500.0   120.0   33.333333333333336
500.0   120.0   16.666666666666668
450.0   120.0   33.333333333333336
500.0   150.0   33.333333333333336
500.0   120.0   16.666666666666668
450.0   150.0   16.666666666666668
450.0   120.0   33.333333333333336
500.0   120.0   33.333333333333336
450.0   150.0   33.333333333333336
450.0   120.0   50.0
500.0   120.0   33.333333333333336
500.0   150.0   33.333333333333336
450.0   150.0   33.333333333333336
500.0   150.0   50.0
450.0   120.0   50.0
450.0   150.0   50.0
500.0   150.0   50.0
450.0   150.0   33.333333333333336
450.0   120.0   50.0
500.0   150.0   50.0
500.0   120.0   50.0
500.0   120.0   33.333333333333336
450.0   120.0   50.0
500.0   150.0   50.0
500.0   120.0   33.333333333333336
450.0   150.0   33.333333333333336
             </DataArray>   
          </Points>  
          <Cells>  
             <DataArray type="Int32" Name="connectivity" format="ascii">   
0   1   2   3
4   5   6   7
8   9   10   11
12   13   14   15
16   17   18   19
20   21   22   23
24   25   26   27
28   29   30   31
32   33   34   35
36   37   38   39
40   41   42   43
44   45   46   47
48   49   50   51
52   53   54   55
56   57   58   59
60   61   62   63
64   65   66   67
68   69   70   71
72   73   74   75
76   77   78   79
80   81   82   83
84   85   86   87
88   89   90   91
92   93   94   95
96   97   98   99
100   101   102   103
104   105   106   107
108   109   110   111
112   113   114   115
116   117   118   119
120   121   122   123
124   125   126   127
128   129   130   131
132   133   134   135
136   137   138   139
140   141   142   143
144   145   146   147
148   149   150   151
152   153   154   155
156   157   158   159
160   161   162   163
164   165   166   167
168   169   170   171
172   173   174   175
176   177   178   179
180   181   182   183
184   185   186   187
188   189   190   191
192   193   194   195
196   197   198   199
200   201   202   203
204   205   206   207
208   209   210   211
212   213   214   215
216   217   218   219
220   221   222   223
224   225   226   227
228   229   230   231
232   233   234   235
236   237   238   239
240   241   242   243
244   245   246   247
248   249   250   251
252   253   254   255
256   257   258   259
260   261   262   263
264   265   266   267
268   269   270   271
272   273   274   275
276   277   278   279
280   281   282   283
284   285   286   287
288   289   290   291
292   293   294   295
296   297   298   299
300   301   302   303
304   305   306   307
308   309   310   311
312   313   314   315
316   317   318   319
320   321   322   323
324   325   326   327
328   329   330   331
332   333   334   335
336   337   338   339
340   341   342   343
344   345   346   347
348   349   350   351
352   353   354   355
356   357   358   359
360   361   362   363
364   365   366   367
368   369   370   371
372   373   374   375
376   377   378   379
380   381   382   383
384   385   386   387
388   389   390   391
392   393   394   395
396   397   398   399
400   401   402   403
404   405   406   407
408   409   410   411
412   413   414   415
416   417   418   419
420   421   422   423
424   425   426   427
428   429   430   431
432   433   434   435
436   437   438   439
440   441   442   443
444   445   446   447
448   449   450   451
452   453   454   455
456   457   458   459
460   461   462   463
464   465   466   467
468   469   470   471
472   473   474   475
476   477   478   479
480   481   482   483
484   485   486   487
488   489   490   491
492   493   494   495
496   497   498   499
500   501   502   503
504   505   506   507
508   509   510   511
512   513   514   515
516   517   518   519
520   521   522   523
524   525   526   527
528   529   530   531
532   533   534   535
536   537   538   539
540   541   542   543
544   545   546   547
548   549   550   551
552   553   554   555
556   557   558   559
560   561   562   563
564   565   566   567
568   569   570   571
572   573   574   575
576   577   578   579
580   581   582   583
584   585   586   587
588   589   590   591
592   593   594   595
596   597   598   599
600   601   602   603
604   605   606   607
608   609   610   611
612   613   614   615
616   617   618   619
620   621   622   623
624   625   626   627
628   629   630   631
632   633   634   635
636   637   638   639
640   641   642   643
644   645   646   647
648   649   650   651
652   653   654   655
656   657   658   659
660   661   662   663
664   665   666   667
668   669   670   671
672   673   674   675
676   677   678   679
680   681   682   683
684   685   686   687
688   689   690   691
692   693   694   695
696   697   698   699
700   701   702   703
704   705   706   707
708   709   710   711
712   713   714   715
716   717   718   719
720   721   722   723
724   725   726   727
728   729   730   731
732   733   734   735
736   737   738   739
740   741   742   743
744   745   746   747
748   749   750   751
752   753   754   755
756   757   758   759
760   761   762   763
764   765   766   767
768   769   770   771
772   773   774   775
776   777   778   779
780   781   782   783
784   785   786   787
788   789   790   791
792   793   794   795
796   797   798   799
800   801   802   803
804   805   806   807
808   809   810   811
812   813   814   815
816   817   818   819
820   821   822   823
824   825   826   827
828   829   830   831
832   833   834   835
836   837   838   839
840   841   842   843
844   845   846   847
848   849   850   851
852   853   854   855
856   857   858   859
860   861   862   863
864   865   866   867
868   869   870   871
872   873   874   875
876   877   878   879
880   881   882   883
884   885   886   887
888   889   890   891
892   893   894   895
896   897   898   899
900   901   902   903
904   905   906   907
908   909   910   911
912   913   914   915
916   917   918   919
920   921   922   923
924   925   926   927
928   929   930   931
932   933   934   935
936   937   938   939
940   941   942   943
944   945   946   947
948   949   950   951
952   953   954   955
956   957   958   959
960   961   962   963
964   965   966   967
968   969   970   971
972   973   974   975
976   977   978   979
980   981   982   983
984   985   986   987
988   989   990   991
992   993   994   995
996   997   998   999
1000   1001   1002   1003
1004   1005   1006   1007
1008   1009   1010   1011
1012   1013   1014   1015
1016   1017   1018   1019
1020   1021   1022   1023
1024   1025   1026   1027
1028   1029   1030   1031
1032   1033   1034   1035
1036   1037   1038   1039
1040   1041   1042   1043
1044   1045   1046   1047
1048   1049   1050   1051
1052   1053   1054   1055
1056   1057   1058   1059
1060   1061   1062   1063
1064   1065   1066   1067
1068   1069   1070   1071
1072   1073   1074   1075
1076   1077   1078   1079
1080   1081   1082   1083
1084   1085   1086   1087
1088   1089   1090   1091
1092   1093   1094   1095
1096   1097   1098   1099
1100   1101   1102   1103
1104   1105   1106   1107
1108   1109   1110   1111
1112   1113   1114   1115
1116   1117   1118   1119
1120   1121   1122   1123
1124   1125   1126   1127
1128   1129   1130   1131
1132   1133   1134   1135
1136   1137   1138   1139
1140   1141   1142   1143
1144   1145   1146   1147
1148   1149   1150   1151
1152   1153   1154   1155
1156   1157   1158   1159
1160   1161   1162   1163
1164   1165   1166   1167
1168   1169   1170   1171
1172   1173   1174   1175
1176   1177   1178   1179
1180   1181   1182   1183
1184   1185   1186   1187
1188   1189   1190   1191
1192   1193   1194   1195
1196   1197   1198   1199
1200   1201   1202   1203
1204   1205   1206   1207
1208   1209   1210   1211
1212   1213   1214   1215
1216   1217   1218   1219
1220   1221   1222   1223
1224   1225   1226   1227
1228   1229   1230   1231
1232   1233   1234   1235
1236   1237   1238   1239
1240   1241   1242   1243
1244   1245   1246   1247
1248   1249   1250   1251
1252   1253   1254   1255
1256   1257   1258   1259
1260   1261   1262   1263
1264   1265   1266   1267
1268   1269   1270   1271
1272   1273   1274   1275
1276   1277   1278   1279
1280   1281   1282   1283
1284   1285   1286   1287
1288   1289   1290   1291
1292   1293   1294   1295
1296   1297   1298   1299
1300   1301   1302   1303
1304   1305   1306   1307
1308   1309   1310   1311
1312   1313   1314   1315
1316   1317   1318   1319
1320   1321   1322   1323
1324   1325   1326   1327
1328   1329   1330   1331
1332   1333   1334   1335
1336   1337   1338   1339
1340   1341   1342   1343
1344   1345   1346   1347
1348   1349   1350   1351
1352   1353   1354   1355
1356   1357   1358   1359
1360   1361   1362   1363
1364   1365   1366   1367
1368   1369   1370   1371
1372   1373   1374   1375
1376   1377   1378   1379
1380   1381   1382   1383
1384   1385   1386   1387
1388   1389   1390   1391
1392   1393   1394   1395
1396   1397   1398   1399
1400   1401   1402   1403
1404   1405   1406   1407
1408   1409   1410   1411
1412   1413   1414   1415
1416   1417   1418   1419
1420   1421   1422   1423
1424   1425   1426   1427
1428   1429   1430   1431
1432   1433   1434   1435
1436   1437   1438   1439
1440   1441   1442   1443
1444   1445   1446   1447
1448   1449   1450   1451
1452   1453   1454   1455
1456   1457   1458   1459
1460   1461   1462   1463
1464   1465   1466   1467
1468   1469   1470   1471
1472   1473   1474   1475
1476   1477   1478   1479
1480   1481   1482   1483
1484   1485   1486   1487
1488   1489   1490   1491
1492   1493   1494   1495
1496   1497   1498   1499
1500   1501   1502   1503
1504   1505   1506   1507
1508   1509   1510   1511
1512   1513   1514   1515
1516   1517   1518   1519
1520   1521   1522   1523
1524   1525   1526   1527
1528   1529   1530   1531
1532   1533   1534   1535
1536   1537   1538   1539
1540   1541   1542   1543
1544   1545   1546   1547
1548   1549   1550   1551
1552   1553   1554   1555
1556   1557   1558   1559
1560   1561   1562   1563
1564   1565   1566   1567
1568   1569   1570   1571
1572   1573   1574   1575
1576   1577   1578   1579
1580   1581   1582   1583
1584   1585   1586   1587
1588   1589   1590   1591
1592   1593   1594   1595
1596   1597   1598   1599
1600   1601   1602   1603
1604   1605   1606   1607
1608   1609   1610   1611
1612   1613   1614   1615
1616   1617   1618   1619
1620   1621   1622   1623
1624   1625   1626   1627
1628   1629   1630   1631
1632   1633   1634   1635
1636   1637   1638   1639
1640   1641   1642   1643
1644   1645   1646   1647
1648   1649   1650   1651
1652   1653   1654   1655
1656   1657   1658   1659
1660   1661   1662   1663
1664   1665   1666   1667
1668   1669   1670   1671
1672   1673   1674   1675
1676   1677   1678   1679
1680   1681   1682   1683
1684   1685   1686   1687
1688   1689   1690   1691
1692   1693   1694   1695
1696   1697   1698   1699
1700   1701   1702   1703
1704   1705   1706   1707
1708   1709   1710   1711
1712   1713   1714   1715
1716   1717   1718   1719
1720   1721   1722   1723
1724   1725   1726   1727
1728   1729   1730   1731
1732   1733   1734   1735
1736   1737   1738   1739
1740   1741   1742   1743
1744   1745   1746   1747
1748   1749   1750   1751
1752   1753   1754   1755
1756   1757   1758   1759
1760   1761   1762   1763
1764   1765   1766   1767
1768   1769   1770   1771
1772   1773   1774   1775
1776   1777   1778   1779
1780   1781   1782   1783
1784   1785   1786   1787
1788   1789   1790   1791
1792   1793   1794   1795
1796   1797   1798   1799
1800   1801   1802   1803
1804   1805   1806   1807
1808   1809   1810   1811
1812   1813   1814   1815
1816   1817   1818   1819
1820   1821   1822   1823
1824   1825   1826   1827
1828   1829   1830   1831
1832   1833   1834   1835
1836   1837   1838   1839
1840   1841   1842   1843
1844   1845   1846   1847
1848   1849   1850   1851
1852   1853   1854   1855
1856   1857   1858   1859
1860   1861   1862   1863
1864   1865   1866   1867
1868   1869   1870   1871
1872   1873   1874   1875
1876   1877   1878   1879
1880   1881   1882   1883
1884   1885   1886   1887
1888   1889   1890   1891
1892   1893   1894   1895
1896   1897   1898   1899
1900   1901   1902   1903
1904   1905   1906   1907
1908   1909   1910   1911
1912   1913   1914   1915
1916   1917   1918   1919
1920   1921   1922   1923
1924   1925   1926   1927
1928   1929   1930   1931
1932   1933   1934   1935
1936   1937   1938   1939
1940   1941   1942   1943
1944   1945   1946   1947
1948   1949   1950   1951
1952   1953   1954   1955
1956   1957   1958   1959
1960   1961   1962   1963
1964   1965   1966   1967
1968   1969   1970   1971
1972   1973   1974   1975
1976   1977   1978   1979
1980   1981   1982   1983
1984   1985   1986   1987
1988   1989   1990   1991
1992   1993   1994   1995
1996   1997   1998   1999
2000   2001   2002   2003
2004   2005   2006   2007
2008   2009   2010   2011
2012   2013   2014   2015
2016   2017   2018   2019
2020   2021   2022   2023
2024   2025   2026   2027
2028   2029   2030   2031
2032   2033   2034   2035
2036   2037   2038   2039
2040   2041   2042   2043
2044   2045   2046   2047
2048   2049   2050   2051
2052   2053   2054   2055
2056   2057   2058   2059
2060   2061   2062   2063
2064   2065   2066   2067
2068   2069   2070   2071
2072   2073   2074   2075
2076   2077   2078   2079
2080   2081   2082   2083
2084   2085   2086   2087
2088   2089   2090   2091
2092   2093   2094   2095
2096   2097   2098   2099
2100   2101   2102   2103
2104   2105   2106   2107
2108   2109   2110   2111
2112   2113   2114   2115
2116   2117   2118   2119
2120   2121   2122   2123
2124   2125   2126   2127
2128   2129   2130   2131
2132   2133   2134   2135
2136   2137   2138   2139
2140   2141   2142   2143
2144   2145   2146   2147
2148   2149   2150   2151
2152   2153   2154   2155
2156   2157   2158   2159
2160   2161   2162   2163
2164   2165   2166   2167
2168   2169   2170   2171
2172   2173   2174   2175
2176   2177   2178   2179
2180   2181   2182   2183
2184   2185   2186   2187
2188   2189   2190   2191
2192   2193   2194   2195
2196   2197   2198   2199
2200   2201   2202   2203
2204   2205   2206   2207
2208   2209   2210   2211
2212   2213   2214   2215
2216   2217   2218   2219
2220   2221   2222   2223
2224   2225   2226   2227
2228   2229   2230   2231
2232   2233   2234   2235
2236   2237   2238   2239
2240   2241   2242   2243
2244   2245   2246   2247
2248   2249   2250   2251
2252   2253   2254   2255
2256   2257   2258   2259
2260   2261   2262   2263
2264   2265   2266   2267
2268   2269   2270   2271
2272   2273   2274   2275
2276   2277   2278   2279
2280   2281   2282   2283
2284   2285   2286   2287
2288   2289   2290   2291
2292   2293   2294   2295
2296   2297   2298   2299
2300   2301   2302   2303
2304   2305   2306   2307
2308   2309   2310   2311
2312   2313   2314   2315
2316   2317   2318   2319
2320   2321   2322   2323
2324   2325   2326   2327
2328   2329   2330   2331
2332   2333   2334   2335
2336   2337   2338   2339
2340   2341   2342   2343
2344   2345   2346   2347
2348   2349   2350   2351
2352   2353   2354   2355
2356   2357   2358   2359
2360   2361   2362   2363
2364   2365   2366   2367
2368   2369   2370   2371
2372   2373   2374   2375
2376   2377   2378   2379
2380   2381   2382   2383
2384   2385   2386   2387
2388   2389   2390   2391
2392   2393   2394   2395
2396   2397   2398   2399
2400   2401   2402   2403
2404   2405   2406   2407
2408   2409   2410   2411
2412   2413   2414   2415
2416   2417   2418   2419
2420   2421   2422   2423
2424   2425   2426   2427
2428   2429   2430   2431
2432   2433   2434   2435
2436   2437   2438   2439
2440   2441   2442   2443
2444   2445   2446   2447
2448   2449   2450   2451
2452   2453   2454   2455
2456   2457   2458   2459
2460   2461   2462   2463
2464   2465   2466   2467
2468   2469   2470   2471
2472   2473   2474   2475
2476   2477   2478   2479
2480   2481   2482   2483
2484   2485   2486   2487
2488   2489   2490   2491
2492   2493   2494   2495
2496   2497   2498   2499
2500   2501   2502   2503
2504   2505   2506   2507
2508   2509   2510   2511
2512   2513   2514   2515
2516   2517   2518   2519
2520   2521   2522   2523
2524   2525   2526   2527
2528   2529   2530   2531
2532   2533   2534   2535
2536   2537   2538   2539
2540   2541   2542   2543
2544   2545   2546   2547
2548   2549   2550   2551
2552   2553   2554   2555
2556   2557   2558   2559
2560   2561   2562   2563
2564   2565   2566   2567
2568   2569   2570   2571
2572   2573   2574   2575
2576   2577   2578   2579
2580   2581   2582   2583
2584   2585   2586   2587
2588   2589   2590   2591
2592   2593   2594   2595
2596   2597   2598   2599
2600   2601   2602   2603
2604   2605   2606   2607
2608   2609   2610   2611
2612   2613   2614   2615
2616   2617   2618   2619
2620   2621   2622   2623
2624   2625   2626   2627
2628   2629   2630   2631
2632   2633   2634   2635
2636   2637   2638   2639
2640   2641   2642   2643
2644   2645   2646   2647
2648   2649   2650   2651
2652   2653   2654   2655
2656   2657   2658   2659
2660   2661   2662   2663
2664   2665   2666   2667
2668   2669   2670   2671
2672   2673   2674   2675
2676   2677   2678   2679
2680   2681   2682   2683
2684   2685   2686   2687
2688   2689   2690   2691
2692   2693   2694   2695
2696   2697   2698   2699
2700   2701   2702   2703
2704   2705   2706   2707
2708   2709   2710   2711
2712   2713   2714   2715
2716   2717   2718   2719
2720   2721   2722   2723
2724   2725   2726   2727
2728   2729   2730   2731
2732   2733   2734   2735
2736   2737   2738   2739
2740   2741   2742   2743
2744   2745   2746   2747
2748   2749   2750   2751
2752   2753   2754   2755
2756   2757   2758   2759
2760   2761   2762   2763
2764   2765   2766   2767
2768   2769   2770   2771
2772   2773   2774   2775
2776   2777   2778   2779
2780   2781   2782   2783
2784   2785   2786   2787
2788   2789   2790   2791
2792   2793   2794   2795
2796   2797   2798   2799
2800   2801   2802   2803
2804   2805   2806   2807
2808   2809   2810   2811
2812   2813   2814   2815
2816   2817   2818   2819
2820   2821   2822   2823
2824   2825   2826   2827
2828   2829   2830   2831
2832   2833   2834   2835
2836   2837   2838   2839
2840   2841   2842   2843
2844   2845   2846   2847
2848   2849   2850   2851
2852   2853   2854   2855
2856   2857   2858   2859
2860   2861   2862   2863
2864   2865   2866   2867
2868   2869   2870   2871
2872   2873   2874   2875
2876   2877   2878   2879
2880   2881   2882   2883
2884   2885   2886   2887
2888   2889   2890   2891
2892   2893   2894   2895
2896   2897   2898   2899
2900   2901   2902   2903
2904   2905   2906   2907
2908   2909   2910   2911
2912   2913   2914   2915
2916   2917   2918   2919
2920   2921   2922   2923
2924   2925   2926   2927
2928   2929   2930   2931
2932   2933   2934   2935
2936   2937   2938   2939
2940   2941   2942   2943
2944   2945   2946   2947
2948   2949   2950   2951
2952   2953   2954   2955
2956   2957   2958   2959
2960   2961   2962   2963
2964   2965   2966   2967
2968   2969   2970   2971
2972   2973   2974   2975
2976   2977   2978   2979
2980   2981   2982   2983
2984   2985   2986   2987
2988   2989   2990   2991
2992   2993   2994   2995
2996   2997   2998   2999
3000   3001   3002   3003
3004   3005   3006   3007
3008   3009   3010   3011
3012   3013   3014   3015
3016   3017   3018   3019
3020   3021   3022   3023
3024   3025   3026   3027
3028   3029   3030   3031
3032   3033   3034   3035
3036   3037   3038   3039
3040   3041   3042   3043
3044   3045   3046   3047
3048   3049   3050   3051
3052   3053   3054   3055
3056   3057   3058   3059
3060   3061   3062   3063
3064   3065   3066   3067
3068   3069   3070   3071
3072   3073   3074   3075
3076   3077   3078   3079
3080   3081   3082   3083
3084   3085   3086   3087
3088   3089   3090   3091
3092   3093   3094   3095
3096   3097   3098   3099
3100   3101   3102   3103
3104   3105   3106   3107
3108   3109   3110   3111
3112   3113   3114   3115
3116   3117   3118   3119
3120   3121   3122   3123
3124   3125   3126   3127
3128   3129   3130   3131
3132   3133   3134   3135
3136   3137   3138   3139
3140   3141   3142   3143
3144   3145   3146   3147
3148   3149   3150   3151
3152   3153   3154   3155
3156   3157   3158   3159
3160   3161   3162   3163
3164   3165   3166   3167
3168   3169   3170   3171
3172   3173   3174   3175
3176   3177   3178   3179
3180   3181   3182   3183
3184   3185   3186   3187
3188   3189   3190   3191
3192   3193   3194   3195
3196   3197   3198   3199
3200   3201   3202   3203
3204   3205   3206   3207
3208   3209   3210   3211
3212   3213   3214   3215
3216   3217   3218   3219
3220   3221   3222   3223
3224   3225   3226   3227
3228   3229   3230   3231
3232   3233   3234   3235
3236   3237   3238   3239
3240   3241   3242   3243
3244   3245   3246   3247
3248   3249   3250   3251
3252   3253   3254   3255
3256   3257   3258   3259
3260   3261   3262   3263
3264   3265   3266   3267
3268   3269   3270   3271
3272   3273   3274   3275
3276   3277   3278   3279
3280   3281   3282   3283
3284   3285   3286   3287
3288   3289   3290   3291
3292   3293   3294   3295
3296   3297   3298   3299
3300   3301   3302   3303
3304   3305   3306   3307
3308   3309   3310   3311
3312   3313   3314   3315
3316   3317   3318   3319
3320   3321   3322   3323
3324   3325   3326   3327
3328   3329   3330   3331
3332   3333   3334   3335
3336   3337   3338   3339
3340   3341   3342   3343
3344   3345   3346   3347
3348   3349   3350   3351
3352   3353   3354   3355
3356   3357   3358   3359
3360   3361   3362   3363
3364   3365   3366   3367
3368   3369   3370   3371
3372   3373   3374   3375
3376   3377   3378   3379
3380   3381   3382   3383
3384   3385   3386   3387
3388   3389   3390   3391
3392   3393   3394   3395
3396   3397   3398   3399
3400   3401   3402   3403
3404   3405   3406   3407
3408   3409   3410   3411
3412   3413   3414   3415
3416   3417   3418   3419
3420   3421   3422   3423
3424   3425   3426   3427
3428   3429   3430   3431
3432   3433   3434   3435
3436   3437   3438   3439
3440   3441   3442   3443
3444   3445   3446   3447
3448   3449   3450   3451
3452   3453   3454   3455
3456   3457   3458   3459
3460   3461   3462   3463
3464   3465   3466   3467
3468   3469   3470   3471
3472   3473   3474   3475
3476   3477   3478   3479
3480   3481   3482   3483
3484   3485   3486   3487
3488   3489   3490   3491
3492   3493   3494   3495
3496   3497   3498   3499
3500   3501   3502   3503
3504   3505   3506   3507
3508   3509   3510   3511
3512   3513   3514   3515
3516   3517   3518   3519
3520   3521   3522   3523
3524   3525   3526   3527
3528   3529   3530   3531
3532   3533   3534   3535
3536   3537   3538   3539
3540   3541   3542   3543
3544   3545   3546   3547
3548   3549   3550   3551
3552   3553   3554   3555
3556   3557   3558   3559
3560   3561   3562   3563
3564   3565   3566   3567
3568   3569   3570   3571
3572   3573   3574   3575
3576   3577   3578   3579
3580   3581   3582   3583
3584   3585   3586   3587
3588   3589   3590   3591
3592   3593   3594   3595
3596   3597   3598   3599
3600   3601   3602   3603
3604   3605   3606   3607
3608   3609   3610   3611
3612   3613   3614   3615
3616   3617   3618   3619
3620   3621   3622   3623
3624   3625   3626   3627
3628   3629   3630   3631
3632   3633   3634   3635
3636   3637   3638   3639
3640   3641   3642   3643
3644   3645   3646   3647
3648   3649   3650   3651
3652   3653   3654   3655
3656   3657   3658   3659
3660   3661   3662   3663
3664   3665   3666   3667
3668   3669   3670   3671
3672   3673   3674   3675
3676   3677   3678   3679
3680   3681   3682   3683
3684   3685   3686   3687
3688   3689   3690   3691
3692   3693   3694   3695
3696   3697   3698   3699
3700   3701   3702   3703
3704   3705   3706   3707
3708   3709   3710   3711
3712   3713   3714   3715
3716   3717   3718   3719
3720   3721   3722   3723
3724   3725   3726   3727
3728   3729   3730   3731
3732   3733   3734   3735
3736   3737   3738   3739
3740   3741   3742   3743
3744   3745   3746   3747
3748   3749   3750   3751
3752   3753   3754   3755
3756   3757   3758   3759
3760   3761   3762   3763
3764   3765   3766   3767
3768   3769   3770   3771
3772   3773   3774   3775
3776   3777   3778   3779
3780   3781   3782   3783
3784   3785   3786   3787
3788   3789   3790   3791
3792   3793   3794   3795
3796   3797   3798   3799
3800   3801   3802   3803
3804   3805   3806   3807
3808   3809   3810   3811
3812   3813   3814   3815
3816   3817   3818   3819
3820   3821   3822   3823
3824   3825   3826   3827
3828   3829   3830   3831
3832   3833   3834   3835
3836   3837   3838   3839
3840   3841   3842   3843
3844   3845   3846   3847
3848   3849   3850   3851
3852   3853   3854   3855
3856   3857   3858   3859
3860   3861   3862   3863
3864   3865   3866   3867
3868   3869   3870   3871
3872   3873   3874   3875
3876   3877   3878   3879
3880   3881   3882   3883
3884   3885   3886   3887
3888   3889   3890   3891
3892   3893   3894   3895
3896   3897   3898   3899
3900   3901   3902   3903
3904   3905   3906   3907
3908   3909   3910   3911
3912   3913   3914   3915
3916   3917   3918   3919
3920   3921   3922   3923
3924   3925   3926   3927
3928   3929   3930   3931
3932   3933   3934   3935
3936   3937   3938   3939
3940   3941   3942   3943
3944   3945   3946   3947
3948   3949   3950   3951
3952   3953   3954   3955
3956   3957   3958   3959
3960   3961   3962   3963
3964   3965   3966   3967
3968   3969   3970   3971
3972   3973   3974   3975
3976   3977   3978   3979
3980   3981   3982   3983
3984   3985   3986   3987
3988   3989   3990   3991
3992   3993   3994   3995
3996   3997   3998   3999
4000   4001   4002   4003
4004   4005   4006   4007
4008   4009   4010   4011
4012   4013   4014   4015
4016   4017   4018   4019
4020   4021   4022   4023
4024   4025   4026   4027
4028   4029   4030   4031
4032   4033   4034   4035
4036   4037   4038   4039
4040   4041   4042   4043
4044   4045   4046   4047
4048   4049   4050   4051
4052   4053   4054   4055
4056   4057   4058   4059
4060   4061   4062   4063
4064   4065   4066   4067
4068   4069   4070   4071
4072   4073   4074   4075
4076   4077   4078   4079
4080   4081   4082   4083
4084   4085   4086   4087
4088   4089   4090   4091
4092   4093   4094   4095
4096   4097   4098   4099
4100   4101   4102   4103
4104   4105   4106   4107
4108   4109   4110   4111
4112   4113   4114   4115
4116   4117   4118   4119
4120   4121   4122   4123
4124   4125   4126   4127
4128   4129   4130   4131
4132   4133   4134   4135
4136   4137   4138   4139
4140   4141   4142   4143
4144   4145   4146   4147
4148   4149   4150   4151
4152   4153   4154   4155
4156   4157   4158   4159
4160   4161   4162   4163
4164   4165   4166   4167
4168   4169   4170   4171
4172   4173   4174   4175
4176   4177   4178   4179
4180   4181   4182   4183
4184   4185   4186   4187
4188   4189   4190   4191
4192   4193   4194   4195
4196   4197   4198   4199
4200   4201   4202   4203
4204   4205   4206   4207
4208   4209   4210   4211
4212   4213   4214   4215
4216   4217   4218   4219
4220   4221   4222   4223
4224   4225   4226   4227
4228   4229   4230   4231
4232   4233   4234   4235
4236   4237   4238   4239
4240   4241   4242   4243
4244   4245   4246   4247
4248   4249   4250   4251
4252   4253   4254   4255
4256   4257   4258   4259
4260   4261   4262   4263
4264   4265   4266   4267
4268   4269   4270   4271
4272   4273   4274   4275
4276   4277   4278   4279
4280   4281   4282   4283
4284   4285   4286   4287
4288   4289   4290   4291
4292   4293   4294   4295
4296   4297   4298   4299
4300   4301   4302   4303
4304   4305   4306   4307
4308   4309   4310   4311
4312   4313   4314   4315
4316   4317   4318   4319
4320   4321   4322   4323
4324   4325   4326   4327
4328   4329   4330   4331
4332   4333   4334   4335
4336   4337   4338   4339
4340   4341   4342   4343
4344   4345   4346   4347
4348   4349   4350   4351
4352   4353   4354   4355
4356   4357   4358   4359
4360   4361   4362   4363
4364   4365   4366   4367
4368   4369   4370   4371
4372   4373   4374   4375
4376   4377   4378   4379
4380   4381   4382   4383
4384   4385   4386   4387
4388   4389   4390   4391
4392   4393   4394   4395
4396   4397   4398   4399
4400   4401   4402   4403
4404   4405   4406   4407
4408   4409   4410   4411
4412   4413   4414   4415
4416   4417   4418   4419
4420   4421   4422   4423
4424   4425   4426   4427
4428   4429   4430   4431
4432   4433   4434   4435
4436   4437   4438   4439
4440   4441   4442   4443
4444   4445   4446   4447
4448   4449   4450   4451
4452   4453   4454   4455
4456   4457   4458   4459
4460   4461   4462   4463
4464   4465   4466   4467
4468   4469   4470   4471
4472   4473   4474   4475
4476   4477   4478   4479
4480   4481   4482   4483
4484   4485   4486   4487
4488   4489   4490   4491
4492   4493   4494   4495
4496   4497   4498   4499
4500   4501   4502   4503
4504   4505   4506   4507
4508   4509   4510   4511
4512   4513   4514   4515
4516   4517   4518   4519
4520   4521   4522   4523
4524   4525   4526   4527
4528   4529   4530   4531
4532   4533   4534   4535
4536   4537   4538   4539
4540   4541   4542   4543
4544   4545   4546   4547
4548   4549   4550   4551
4552   4553   4554   4555
4556   4557   4558   4559
4560   4561   4562   4563
4564   4565   4566   4567
4568   4569   4570   4571
4572   4573   4574   4575
4576   4577   4578   4579
4580   4581   4582   4583
4584   4585   4586   4587
4588   4589   4590   4591
4592   4593   4594   4595
4596   4597   4598   4599
4600   4601   4602   4603
4604   4605   4606   4607
4608   4609   4610   4611
4612   4613   4614   4615
4616   4617   4618   4619
4620   4621   4622   4623
4624   4625   4626   4627
4628   4629   4630   4631
4632   4633   4634   4635
4636   4637   4638   4639
4640   4641   4642   4643
4644   4645   4646   4647
4648   4649   4650   4651
4652   4653   4654   4655
4656   4657   4658   4659
4660   4661   4662   4663
4664   4665   4666   4667
4668   4669   4670   4671
4672   4673   4674   4675
4676   4677   4678   4679
4680   4681   4682   4683
4684   4685   4686   4687
4688   4689   4690   4691
4692   4693   4694   4695
4696   4697   4698   4699
4700   4701   4702   4703
4704   4705   4706   4707
4708   4709   4710   4711
4712   4713   4714   4715
4716   4717   4718   4719
4720   4721   4722   4723
4724   4725   4726   4727
4728   4729   4730   4731
4732   4733   4734   4735
4736   4737   4738   4739
4740   4741   4742   4743
4744   4745   4746   4747
4748   4749   4750   4751
4752   4753   4754   4755
4756   4757   4758   4759
4760   4761   4762   4763
4764   4765   4766   4767
4768   4769   4770   4771
4772   4773   4774   4775
4776   4777   4778   4779
4780   4781   4782   4783
4784   4785   4786   4787
4788   4789   4790   4791
4792   4793   4794   4795
4796   4797   4798   4799
4800   4801   4802   4803
4804   4805   4806   4807
4808   4809   4810   4811
4812   4813   4814   4815
4816   4817   4818   4819
4820   4821   4822   4823
4824   4825   4826   4827
4828   4829   4830   4831
4832   4833   4834   4835
4836   4837   4838   4839
4840   4841   4842   4843
4844   4845   4846   4847
4848   4849   4850   4851
4852   4853   4854   4855
4856   4857   4858   4859
4860   4861   4862   4863
4864   4865   4866   4867
4868   4869   4870   4871
4872   4873   4874   4875
4876   4877   4878   4879
4880   4881   4882   4883
4884   4885   4886   4887
4888   4889   4890   4891
4892   4893   4894   4895
4896   4897   4898   4899
4900   4901   4902   4903
4904   4905   4906   4907
4908   4909   4910   4911
4912   4913   4914   4915
4916   4917   4918   4919
4920   4921   4922   4923
4924   4925   4926   4927
4928   4929   4930   4931
4932   4933   4934   4935
4936   4937   4938   4939
4940   4941   4942   4943
4944   4945   4946   4947
4948   4949   4950   4951
4952   4953   4954   4955
4956   4957   4958   4959
4960   4961   4962   4963
4964   4965   4966   4967
4968   4969   4970   4971
4972   4973   4974   4975
4976   4977   4978   4979
4980   4981   4982   4983
4984   4985   4986   4987
4988   4989   4990   4991
4992   4993   4994   4995
4996   4997   4998   4999
5000   5001   5002   5003
5004   5005   5006   5007
5008   5009   5010   5011
5012   5013   5014   5015
5016   5017   5018   5019
5020   5021   5022   5023
5024   5025   5026   5027
5028   5029   5030   5031
5032   5033   5034   5035
5036   5037   5038   5039
5040   5041   5042   5043
5044   5045   5046   5047
5048   5049   5050   5051
5052   5053   5054   5055
5056   5057   5058   5059
5060   5061   5062   5063
5064   5065   5066   5067
5068   5069   5070   5071
5072   5073   5074   5075
5076   5077   5078   5079
5080   5081   5082   5083
5084   5085   5086   5087
5088   5089   5090   5091
5092   5093   5094   5095
5096   5097   5098   5099
5100   5101   5102   5103
5104   5105   5106   5107
5108   5109   5110   5111
5112   5113   5114   5115
5116   5117   5118   5119
5120   5121   5122   5123
5124   5125   5126   5127
5128   5129   5130   5131
5132   5133   5134   5135
5136   5137   5138   5139
5140   5141   5142   5143
5144   5145   5146   5147
5148   5149   5150   5151
5152   5153   5154   5155
5156   5157   5158   5159
5160   5161   5162   5163
5164   5165   5166   5167
5168   5169   5170   5171
5172   5173   5174   5175
5176   5177   5178   5179
5180   5181   5182   5183
5184   5185   5186   5187
5188   5189   5190   5191
5192   5193   5194   5195
5196   5197   5198   5199
5200   5201   5202   5203
5204   5205   5206   5207
5208   5209   5210   5211
5212   5213   5214   5215
5216   5217   5218   5219
5220   5221   5222   5223
5224   5225   5226   5227
5228   5229   5230   5231
5232   5233   5234   5235
5236   5237   5238   5239
5240   5241   5242   5243
5244   5245   5246   5247
5248   5249   5250   5251
5252   5253   5254   5255
5256   5257   5258   5259
5260   5261   5262   5263
5264   5265   5266   5267
5268   5269   5270   5271
5272   5273   5274   5275
5276   5277   5278   5279
5280   5281   5282   5283
5284   5285   5286   5287
5288   5289   5290   5291
5292   5293   5294   5295
5296   5297   5298   5299
5300   5301   5302   5303
5304   5305   5306   5307
5308   5309   5310   5311
5312   5313   5314   5315
5316   5317   5318   5319
5320   5321   5322   5323
5324   5325   5326   5327
5328   5329   5330   5331
5332   5333   5334   5335
5336   5337   5338   5339
5340   5341   5342   5343
5344   5345   5346   5347
5348   5349   5350   5351
5352   5353   5354   5355
5356   5357   5358   5359
5360   5361   5362   5363
5364   5365   5366   5367
5368   5369   5370   5371
5372   5373   5374   5375
5376   5377   5378   5379
5380   5381   5382   5383
5384   5385   5386   5387
5388   5389   5390   5391
5392   5393   5394   5395
5396   5397   5398   5399
5400   5401   5402   5403
5404   5405   5406   5407
5408   5409   5410   5411
5412   5413   5414   5415
5416   5417   5418   5419
5420   5421   5422   5423
5424   5425   5426   5427
5428   5429   5430   5431
5432   5433   5434   5435
5436   5437   5438   5439
5440   5441   5442   5443
5444   5445   5446   5447
5448   5449   5450   5451
5452   5453   5454   5455
5456   5457   5458   5459
5460   5461   5462   5463
5464   5465   5466   5467
5468   5469   5470   5471
5472   5473   5474   5475
5476   5477   5478   5479
5480   5481   5482   5483
5484   5485   5486   5487
5488   5489   5490   5491
5492   5493   5494   5495
5496   5497   5498   5499
5500   5501   5502   5503
5504   5505   5506   5507
5508   5509   5510   5511
5512   5513   5514   5515
5516   5517   5518   5519
5520   5521   5522   5523
5524   5525   5526   5527
5528   5529   5530   5531
5532   5533   5534   5535
5536   5537   5538   5539
5540   5541   5542   5543
5544   5545   5546   5547
5548   5549   5550   5551
5552   5553   5554   5555
5556   5557   5558   5559
5560   5561   5562   5563
5564   5565   5566   5567
5568   5569   5570   5571
5572   5573   5574   5575
5576   5577   5578   5579
5580   5581   5582   5583
5584   5585   5586   5587
5588   5589   5590   5591
5592   5593   5594   5595
5596   5597   5598   5599
5600   5601   5602   5603
5604   5605   5606   5607
5608   5609   5610   5611
5612   5613   5614   5615
5616   5617   5618   5619
5620   5621   5622   5623
5624   5625   5626   5627
5628   5629   5630   5631
5632   5633   5634   5635
5636   5637   5638   5639
5640   5641   5642   5643
5644   5645   5646   5647
5648   5649   5650   5651
5652   5653   5654   5655
5656   5657   5658   5659
5660   5661   5662   5663
5664   5665   5666   5667
5668   5669   5670   5671
5672   5673   5674   5675
5676   5677   5678   5679
5680   5681   5682   5683
5684   5685   5686   5687
5688   5689   5690   5691
5692   5693   5694   5695
5696   5697   5698   5699
5700   5701   5702   5703
5704   5705   5706   5707
5708   5709   5710   5711
5712   5713   5714   5715
5716   5717   5718   5719
5720   5721   5722   5723
5724   5725   5726   5727
5728   5729   5730   5731
5732   5733   5734   5735
5736   5737   5738   5739
5740   5741   5742   5743
5744   5745   5746   5747
5748   5749   5750   5751
5752   5753   5754   5755
5756   5757   5758   5759
5760   5761   5762   5763
5764   5765   5766   5767
5768   5769   5770   5771
5772   5773   5774   5775
5776   5777   5778   5779
5780   5781   5782   5783
5784   5785   5786   5787
5788   5789   5790   5791
5792   5793   5794   5795
5796   5797   5798   5799
5800   5801   5802   5803
5804   5805   5806   5807
5808   5809   5810   5811
5812   5813   5814   5815
5816   5817   5818   5819
5820   5821   5822   5823
5824   5825   5826   5827
5828   5829   5830   5831
5832   5833   5834   5835
5836   5837   5838   5839
5840   5841   5842   5843
5844   5845   5846   5847
5848   5849   5850   5851
5852   5853   5854   5855
5856   5857   5858   5859
5860   5861   5862   5863
5864   5865   5866   5867
5868   5869   5870   5871
5872   5873   5874   5875
5876   5877   5878   5879
5880   5881   5882   5883
5884   5885   5886   5887
5888   5889   5890   5891
5892   5893   5894   5895
5896   5897   5898   5899
5900   5901   5902   5903
5904   5905   5906   5907
5908   5909   5910   5911
5912   5913   5914   5915
5916   5917   5918   5919
5920   5921   5922   5923
5924   5925   5926   5927
5928   5929   5930   5931
5932   5933   5934   5935
5936   5937   5938   5939
5940   5941   5942   5943
5944   5945   5946   5947
5948   5949   5950   5951
5952   5953   5954   5955
5956   5957   5958   5959
5960   5961   5962   5963
5964   5965   5966   5967
5968   5969   5970   5971
5972   5973   5974   5975
5976   5977   5978   5979
5980   5981   5982   5983
5984   5985   5986   5987
5988   5989   5990   5991
5992   5993   5994   5995
5996   5997   5998   5999
              </DataArray>   
              <DataArray type="Int32" Name="offsets" format="ascii">   
4
8
12
16
20
24
28
32
36
40
44
48
52
56
60
64
68
72
76
80
84
88
92
96
100
104
108
112
116
120
124
128
132
136
140
144
148
152
156
160
164
168
172
176
180
184
188
192
196
200
204
208
212
216
220
224
228
232
236
240
244
248
252
256
260
264
268
272
276
280
284
288
292
296
300
304
308
312
316
320
324
328
332
336
340
344
348
352
356
360
364
368
372
376
380
384
388
392
396
400
404
408
412
416
420
424
428
432
436
440
444
448
452
456
460
464
468
472
476
480
484
488
492
496
500
504
508
512
516
520
524
528
532
536
540
544
548
552
556
560
564
568
572
576
580
584
588
592
596
600
604
608
612
616
620
624
628
632
636
640
644
648
652
656
660
664
668
672
676
680
684
688
692
696
700
704
708
712
716
720
724
728
732
736
740
744
748
752
756
760
764
768
772
776
780
784
788
792
796
800
804
808
812
816
820
824
828
832
836
840
844
848
852
856
860
864
868
872
876
880
884
888
892
896
900
904
908
912
916
920
924
928
932
936
940
944
948
952
956
960
964
968
972
976
980
984
988
992
996
1000
1004
1008
1012
1016
1020
1024
1028
1032
1036
1040
1044
1048
1052
1056
1060
1064
1068
1072
1076
1080
1084
1088
1092
1096
1100
1104
1108
1112
1116
1120
1124
1128
1132
1136
1140
1144
1148
1152
1156
1160
1164
1168
1172
1176
1180
1184
1188
1192
1196
1200
1204
1208
1212
1216
1220
1224
1228
1232
1236
1240
1244
1248
1252
1256
1260
1264
1268
1272
1276
1280
1284
1288
1292
1296
1300
1304
1308
1312
1316
1320
1324
1328
1332
1336
1340
1344
1348
1352
1356
1360
1364
1368
1372
1376
1380
1384
1388
1392
1396
1400
1404
1408
1412
1416
1420
1424
1428
1432
1436
1440
1444
1448
1452
1456
1460
1464
1468
1472
1476
1480
1484
1488
1492
1496
1500
1504
1508
1512
1516
1520
1524
1528
1532
1536
1540
1544
1548
1552
1556
1560
1564
1568
1572
1576
1580
1584
1588
1592
1596
1600
1604
1608
1612
1616
1620
1624
1628
1632
1636
1640
1644
1648
1652
1656
1660
1664
1668
1672
1676
1680
1684
1688
1692
1696
1700
1704
1708
1712
1716
1720
1724
1728
1732
1736
1740
1744
1748
1752
1756
1760
1764
1768
1772
1776
1780
1784
1788
1792
1796
1800
1804
1808
1812
1816
1820
1824
1828
1832
1836
1840
1844
1848
1852
1856
1860
1864
1868
1872
1876
1880
1884
1888
1892
1896
1900
1904
1908
1912
1916
1920
1924
1928
1932
1936
1940
1944
1948
1952
1956
1960
1964
1968
1972
1976
1980
1984
1988
1992
1996
2000
2004
2008
2012
2016
2020
2024
2028
2032
2036
2040
2044
2048
2052
2056
2060
2064
2068
2072
2076
2080
2084
2088
2092
2096
2100
2104
2108
2112
2116
2120
2124
2128
2132
2136
2140
2144
2148
2152
2156
2160
2164
2168
2172
2176
2180
2184
2188
2192
2196
2200
2204
2208
2212
2216
2220
2224
2228
2232
2236
2240
2244
2248
2252
2256
2260
2264
2268
2272
2276
2280
2284
2288
2292
2296
2300
2304
2308
2312
2316
2320
2324
2328
2332
2336
2340
2344
2348
2352
2356
2360
2364
2368
2372
2376
2380
2384
2388
2392
2396
2400
2404
2408
2412
2416
2420
2424
2428
2432
2436
2440
2444
2448
2452
2456
2460
2464
2468
2472
2476
2480
2484
2488
2492
2496
2500
2504
2508
2512
2516
2520
2524
2528
2532
2536
2540
2544
2548
2552
2556
2560
2564
2568
2572
2576
2580
2584
2588
2592
2596
2600
2604
2608
2612
2616
2620
2624
2628
2632
2636
2640
2644
2648
2652
2656
2660
2664
2668
2672
2676
2680
2684
2688
2692
2696
2700
2704
2708
2712
2716
2720
2724
2728
2732
2736
2740
2744
2748
2752
2756
2760
2764
2768
2772
2776
2780
2784
2788
2792
2796
2800
2804
2808
2812
2816
2820
2824
2828
2832
2836
2840
2844
2848
2852
2856
2860
2864
2868
2872
2876
2880
2884
2888
2892
2896
2900
2904
2908
2912
2916
2920
2924
2928
2932
2936
2940
2944
2948
2952
2956
2960
2964
2968
2972
2976
2980
2984
2988
2992
2996
3000
3004
3008
3012
3016
3020
3024
3028
3032
3036
3040
3044
3048
3052
3056
3060
3064
3068
3072
3076
3080
3084
3088
3092
3096
3100
3104
3108
3112
3116
3120
3124
3128
3132
3136
3140
3144
3148
3152
3156
3160
3164
3168
3172
3176
3180
3184
3188
3192
3196
3200
3204
3208
3212
3216
3220
3224
3228
3232
3236
3240
3244
3248
3252
3256
3260
3264
3268
3272
3276
3280
3284
3288
3292
3296
3300
3304
3308
3312
3316
3320
3324
3328
3332
3336
3340
3344
3348
3352
3356
3360
3364
3368
3372
3376
3380
3384
3388
3392
3396
3400
3404
3408
3412
3416
3420
3424
3428
3432
3436
3440
3444
3448
3452
3456
3460
3464
3468
3472
3476
3480
3484
3488
3492
3496
3500
3504
3508
3512
3516
3520
3524
3528
3532
3536
3540
3544
3548
3552
3556
3560
3564
3568
3572
3576
3580
3584
3588
3592
3596
3600
3604
3608
3612
3616
3620
3624
3628
3632
3636
3640
3644
3648
3652
3656
3660
3664
3668
3672
3676
3680
3684
3688
3692
3696
3700
3704
3708
3712
3716
3720
3724
3728
3732
3736
3740
3744
3748
3752
3756
3760
3764
3768
3772
3776
3780
3784
3788
3792
3796
3800
3804
3808
3812
3816
3820
3824
3828
3832
3836
3840
3844
3848
3852
3856
3860
3864
3868
3872
3876
3880
3884
3888
3892
3896
3900
3904
3908
3912
3916
3920
3924
3928
3932
3936
3940
3944
3948
3952
3956
3960
3964
3968
3972
3976
3980
3984
3988
3992
3996
4000
4004
4008
4012
4016
4020
4024
4028
4032
4036
4040
4044
4048
4052
4056
4060
4064
4068
4072
4076
4080
4084
4088
4092
4096
4100
4104
4108
4112
4116
4120
4124
4128
4132
4136
4140
4144
4148
4152
4156
4160
4164
4168
4172
4176
4180
4184
4188
4192
4196
4200
4204
4208
4212
4216
4220
4224
4228
4232
4236
4240
4244
4248
4252
4256
4260
4264
4268
4272
4276
4280
4284
4288
4292
4296
4300
4304
4308
4312
4316
4320
4324
4328
4332
4336
4340
4344
4348
4352
4356
4360
4364
4368
4372
4376
4380
4384
4388
4392
4396
4400
4404
4408
4412
4416
4420
4424
4428
4432
4436
4440
4444
4448
4452
4456
4460
4464
4468
4472
4476
4480
4484
4488
4492
4496
4500
4504
4508
4512
4516
4520
4524
4528
4532
4536
4540
4544
4548
4552
4556
4560
4564
4568
4572
4576
4580
4584
4588
4592
4596
4600
4604
4608
4612
4616
4620
4624
4628
4632
4636
4640
4644
4648
4652
4656
4660
4664
4668
4672
4676
4680
4684
4688
4692
4696
4700
4704
4708
4712
4716
4720
4724
4728
4732
4736
4740
4744
4748
4752
4756
4760
4764
4768
4772
4776
4780
4784
4788
4792
4796
4800
4804
4808
4812
4816
4820
4824
4828
4832
4836
4840
4844
4848
4852
4856
4860
4864
4868
4872
4876
4880
4884
4888
4892
4896
4900
4904
4908
4912
4916
4920
4924
4928
4932
4936
4940
4944
4948
4952
4956
4960
4964
4968
4972
4976
4980
4984
4988
4992
4996
5000
5004
5008
5012
5016
5020
5024
5028
5032
5036
5040
5044
5048
5052
5056
5060
5064
5068
5072
5076
5080
5084
5088
5092
5096
5100
5104
5108
5112
5116
5120
5124
5128
5132
5136
5140
5144
5148
5152
5156
5160
5164
5168
5172
5176
5180
5184
5188
5192
5196
5200
5204
5208
5212
5216
5220
5224
5228
5232
5236
5240
5244
5248
5252
5256
5260
5264
5268
5272
5276
5280
5284
5288
5292
5296
5300
5304
5308
5312
5316
5320
5324
5328
5332
5336
5340
5344
5348
5352
5356
5360
5364
5368
5372
5376
5380
5384
5388
5392
5396
5400
5404
5408
5412
5416
5420
5424
5428
5432
5436
5440
5444
5448
5452
5456
5460
5464
5468
5472
5476
5480
5484
5488
5492
5496
5500
5504
5508
5512
5516
5520
5524
5528
5532
5536
5540
5544
5548
5552
5556
5560
5564
5568
5572
5576
5580
5584
5588
5592
5596
5600
5604
5608
5612
5616
5620
5624
5628
5632
5636
5640
5644
5648
5652
5656
5660
5664
5668
5672
5676
5680
5684
5688
5692
5696
5700
5704
5708
5712
5716
5720
5724
5728
5732
5736
5740
5744
5748
5752
5756
5760
5764
5768
5772
5776
5780
5784
5788
5792
5796
5800
5804
5808
5812
5816
5820
5824
5828
5832
5836
5840
5844
5848
5852
5856
5860
5864
5868
5872
5876
5880
5884
5888
5892
5896
5900
5904
5908
5912
5916
5920
5924
5928
5932
5936
5940
5944
5948
5952
5956
5960
5964
5968
5972
5976
5980
5984
5988
5992
5996
6000
              </DataArray>   
              <DataArray type="UInt8" Name="types" format="ascii">   
10
10
10
10
10
10
10
10
10
10
10
10
10
10
10
10
10
10
10
10
10
10
10
10
10
10
10
10
10
10
10
10
10
10
10
10
10
10
10
10
10
10
10
10
10
10
10
10
10
10
10
10
10
10
10
10
10
10
10
10
10
10
10
10
10
10
10
10
10
10
10
10
10
10
10
10
10
10
10
10
10
10
10
10
10
10
10
10
10
10
10
10
10
10
10
10
10
10
10
10
10
10
10
10
10
10
10
10
10
10
10
10
10
10
10
10
10
10
10
10
10
10
10
10
10
10
10
10
10
10
10
10
10
10
10
10
10
10
10
10
10
10
10
10
10
10
10
10
10
10
10
10
10
10
10
10
10
10
10
10
10
10
10
10
10
10
10
10
10
10
10
10
10
10
10
10
10
10
10
10
10
10
10
10
10
10
10
10
10
10
10
10
10
10
10
10
10
10
10
10
10
10
10
10
10
10
10
10
10
10
10
10
10
10
10
10
10
10
10
10
10
10
10
10
10
10
10
10
10
10
10
10
10
10
10
10
10
10
10
10
10
10
10
10
10
10
10
10
10
10
10
10
10
10
10
10
10
10
10
10
10
10
10
10
10
10
10
10
10
10
10
10
10
10
10
10
10
10
10
10
10
10
10
10
10
10
10
10
10
10
10
10
10
10
10
10
10
10
10
10
10
10
10
10
10
10
10
10
10
10
10
10
10
10
10
10
10
10
10
10
10
10
10
10
10
10
10
10
10
10
10
10
10
10
10
10
10
10
10
10
10
10
10
10
10
10
10
10
10
10
10
10
10
10
10
10
10
10
10
10
10
10
10
10
10
10
10
10
10
10
10
10
10
10
10
10
10
10
10
10
10
10
10
10
10
10
10
10
10
10
10
10
10
10
10
10
10
10
10
10
10
10
10
10
10
10
10
10
10
10
10
10
10
10
10
10
10
10
10
10
10
10
10
10
10
10
10
10
10
10
10
10
10
10
10
10
10
10
10
10
10
10
10
10
10
10
10
10
10
10
10
10
10
10
10
10
10
10
10
10
10
10
10
10
10
10
10
10
10
10
10
10
10
10
10
10
10
10
10
10
10
10
10
10
10
10
10
10
10
10
10
10
10
10
10
10
10
10
10
10
10
10
10
10
10
10
10
10
10
10
10
10
10
10
10
10
10
10
10
10
10
10
10
10
10
10
10
10
10
10
10
10
10
10
10
10
10
10
10
10
10
10
10
10
10
10
10
10
10
10
10
10
10
10
10
10
10
10
10
10
10
10
10
10
10
10
10
10
10
10
10
10
10
10
10
10
10
10
10
10
10
10
10
10
10
10
10
10
10
10
10
10
10
10
10
10
10
10
10
10
10
10
10
10
10
10
10
10
10
10
10
10
10
10
10
10
10
10
10
10
10
10
10
10
10
10
10
10
10
10
10
10
10
10
10
10
10
10
10
10
10
10
10
10
10
10
10
10
10
10
10
10
10
10
10
10
10
10
10
10
10
10
10
10
10
10
10
10
10
10
10
10
10
10
10
10
10
10
10
10
10
10
10
10
10
10
10
10
10
10
10
10
10
10
10
10
10
10
10
10
10
10
10
10
10
10
10
10
10
10
10
10
10
10
10
10
10
10
10
10
10
10
10
10
10
10
10
10
10
10
10
10
10
10
10
10
10
10
10
10
10
10
10
10
10
10
10
10
10
10
10
10
10
10
10
10
10
10
10
10
10
10
10
10
10
10
10
10
10
10
10
10
10
10
10
10
10
10
10
10
10
10
10
10
10
10
10
10
10
10
10
10
10
10
10
10
10
10
10
10
10
10
10
10
10
10
10
10
10
10
10
10
10
10
10
10
10
10
10
10
10
10
10
10
10
10
10
10
10
10
10
10
10
10
10
10
10
10
10
10
10
10
10
10
10
10
10
10
10
10
10
10
10
10
10
10
10
10
10
10
10
10
10
10
10
10
10
10
10
10
10
10
10
10
10
10
10
10
10
10
10
10
10
10
10
10
10
10
10
10
10
10
10
10
10
10
10
10
10
10
10
10
10
10
10
10
10
10
10
10
10
10
10
10
10
10
10
10
10
10
10
10
10
10
10
10
10
10
10
10
10
10
10
10
10
10
10
10
10
10
10
10
10
10
10
10
10
10
10
10
10
10
10
10
10
10
10
10
10
10
10
10
10
10
10
10
10
10
10
10
10
10
10
10
10
10
10
10
10
10
10
10
10
10
10
10
10
10
10
10
10
10
10
10
10
10
10
10
10
10
10
10
10
10
10
10
10
10
10
10
10
10
10
10
10
10
10
10
10
10
10
10
10
10
10
10
10
10
10
10
10
10
10
10
10
10
10
10
10
10
10
10
10
10
10
10
10
10
10
10
10
10
10
10
10
10
10
10
10
10
10
10
10
10
10
10
10
10
10
10
10
10
10
10
10
10
10
10
10
10
10
10
10
10
10
10
10
10
10
10
10
10
10
10
10
10
10
10
10
10
10
10
10
10
10
10
10
10
10
10
10
10
10
10
10
10
10
10
10
10
10
10
10
10
10
10
10
10
10
10
10
10
10
10
10
10
10
10
10
10
10
10
10
10
10
10
10
10
10
10
10
10
10
10
10
10
10
10
10
10
10
10
10
10
10
10
10
10
10
10
10
10
10
10
10
10
10
10
10
10
10
10
10
10
10
10
10
10
10
10
10
10
10
10
10
10
10
10
10
10
10
10
10
10
10
10
10
10
10
10
10
10
10
10
10
10
10
10
10
10
10
10
10
10
10
10
10
10
10
10
10
10
10
10
10
10
10
10
10
10
10
10
10
10
10
10
10
10
10
10
10
10
10
10
10
10
10
10
10
10
10
10
10
10
10
10
10
10
10
10
10
10
10
10
10
10
10
10
10
10
10
10
10
10
10
10
10
10
10
10
10
10
10
10
10
10
10
10
10
10
10
10
10
10
10
10
10
10
10
10
10
10
10
10
10
10
10
10
10
10
10
10
10
10
10
10
10
10
10
10
10
10
10
10
10
10
10
10
10
10
10
10
10
10
10
10
10
10
10
10
10
10
10
10
10
10
10
10
10
10
10
10
10
10
10
10
10
10
10
10
10
10
10
10
10
10
10
10
10
10
10
10
10
10
10
10
10
10
10
10
10
10
10
10
10
10
10
10
10
10
10
10
10
10
10
10
10
10
10
10
10
10
10
10
10
10
10
10
10
10
10
10
10
10
10
10
10
10
10
10
10
10
10
10
10
10
10
10
10
10
10
10
10
10
10
10
10
10
10
10
10
10
10
10
10
10
10
10
10
10
10
10
10
10
10
10
10
10
10
10
10
10
10
10
10
10
10
10
10
10
10
10
10
10
10
10
10
10
10
10
10
10
10
10
10
10
10
10
10
10
              </DataArray>   
          </Cells>  
          <PointData>  
             <DataArray type="Float64" NumberOfComponents="3" Name="Strains" format="ascii">   
-0.000563767921193166   0.0   -0.00036870167682272843
-0.000563767921193166   0.0   -0.00036870167682272843
-0.000563767921193166   0.0   -0.00036870167682272843
-0.000563767921193166   0.0   -0.00036870167682272843
-0.0003588650669587132   6.262719887295521e-05   1.037939955846512e-05
-0.0003588650669587132   6.262719887295521e-05   1.037939955846512e-05
-0.0003588650669587132   6.262719887295521e-05   1.037939955846512e-05
-0.0003588650669587132   6.262719887295521e-05   1.037939955846512e-05
-0.00035185788652747184   0.0   -0.00034781040373975885
-0.00035185788652747184   0.0   -0.00034781040373975885
-0.00035185788652747184   0.0   -0.00034781040373975885
-0.00035185788652747184   0.0   -0.00034781040373975885
-0.0005901211164790437   7.507351436074751e-05   4.250870896414143e-06
-0.0005901211164790437   7.507351436074751e-05   4.250870896414143e-06
-0.0005901211164790437   7.507351436074751e-05   4.250870896414143e-06
-0.0005901211164790437   7.507351436074751e-05   4.250870896414143e-06
-0.0004578129038603181   1.740939423580792e-05   -0.0001816643447264981
-0.0004578129038603181   1.740939423580792e-05   -0.0001816643447264981
-0.0004578129038603181   1.740939423580792e-05   -0.0001816643447264981
-0.0004578129038603181   1.740939423580792e-05   -0.0001816643447264981
-0.0005901211164790448   0.0   -0.0003928545123562074
-0.0005901211164790448   0.0   -0.0003928545123562074
-0.0005901211164790448   0.0   -0.0003928545123562074
-0.0005901211164790448   0.0   -0.0003928545123562074
-0.00035185788652747184   7.507351436074762e-05   4.9294979512862496e-05
-0.00035185788652747184   7.507351436074762e-05   4.9294979512862496e-05
-0.00035185788652747184   7.507351436074762e-05   4.9294979512862496e-05
-0.00035185788652747184   7.507351436074762e-05   4.9294979512862496e-05
-0.0003529475175696467   0.0   -0.0003563497777079254
-0.0003529475175696467   0.0   -0.0003563497777079254
-0.0003529475175696467   0.0   -0.0003563497777079254
-0.0003529475175696467   0.0   -0.0003563497777079254
-0.0006086733893699571   8.04075318194175e-05   2.1615489534276182e-05
-0.0006086733893699571   8.04075318194175e-05   2.1615489534276182e-05
-0.0006086733893699571   8.04075318194175e-05   2.1615489534276182e-05
-0.0006086733893699571   8.04075318194175e-05   2.1615489534276182e-05
-0.00047153431702434494   3.0420612206901625e-05   -0.00017695747927423423
-0.00047153431702434494   3.0420612206901625e-05   -0.00017695747927423423
-0.00047153431702434494   3.0420612206901625e-05   -0.00017695747927423423
-0.00047153431702434494   3.0420612206901625e-05   -0.00017695747927423423
-0.000608673389369958   0.0   -0.00040459429679957595
-0.000608673389369958   0.0   -0.00040459429679957595
-0.000608673389369958   0.0   -0.00040459429679957595
-0.000608673389369958   0.0   -0.00040459429679957595
-0.0003529475175696467   8.040753181941761e-05   6.986000862592694e-05
-0.0003529475175696467   8.040753181941761e-05   6.986000862592694e-05
-0.0003529475175696467   8.040753181941761e-05   6.986000862592694e-05
-0.0003529475175696467   8.040753181941761e-05   6.986000862592694e-05
-0.000352871718133417   0.0   -0.00035852870839680627
-0.000352871718133417   0.0   -0.00035852870839680627
-0.000352871718133417   0.0   -0.00035852870839680627
-0.000352871718133417   0.0   -0.00035852870839680627
-0.0006485435072581338   9.153063530755595e-05   7.933922562652299e-05
-0.0006485435072581338   9.153063530755595e-05   7.933922562652299e-05
-0.0006485435072581338   9.153063530755595e-05   7.933922562652299e-05
-0.0006485435072581338   9.153063530755595e-05   7.933922562652299e-05
-0.00048077255375168673   3.838799033564137e-05   -0.0001683934432344064
-0.00048077255375168673   3.838799033564137e-05   -0.0001683934432344064
-0.00048077255375168673   3.838799033564137e-05   -0.0001683934432344064
-0.00048077255375168673   3.838799033564137e-05   -0.0001683934432344064
-0.00035886506695871384   0.0   -0.00033112535749895523
-0.00035886506695871384   0.0   -0.00033112535749895523
-0.00035886506695871384   0.0   -0.00033112535749895523
-0.00035886506695871384   0.0   -0.00033112535749895523
-0.0001633165375697708   2.300248133074766e-05   8.590346947731501e-06
-0.0001633165375697708   2.300248133074766e-05   8.590346947731501e-06
-0.0001633165375697708   2.300248133074766e-05   8.590346947731501e-06
-0.0001633165375697708   2.300248133074766e-05   8.590346947731501e-06
-0.00015717039645542653   0.0   -0.00032819545935957114
-0.00015717039645542653   0.0   -0.00032819545935957114
-0.00015717039645542653   0.0   -0.00032819545935957114
-0.00015717039645542653   0.0   -0.00032819545935957114
-0.00035185788652747184   3.269157396697947e-05   -2.333125361968344e-05
-0.00035185788652747184   3.269157396697947e-05   -2.333125361968344e-05
-0.00035185788652747184   3.269157396697947e-05   -2.333125361968344e-05
-0.00035185788652747184   3.269157396697947e-05   -2.333125361968344e-05
-0.00025801773170706975   2.4415817828200522e-06   -0.0001615815163431901
-0.00025801773170706975   2.4415817828200522e-06   -0.0001615815163431901
-0.00025801773170706975   2.4415817828200522e-06   -0.0001615815163431901
-0.00025801773170706975   2.4415817828200522e-06   -0.0001615815163431901
-0.00035185788652747157   0.0   -0.0003478104037397585
-0.00035185788652747157   0.0   -0.0003478104037397585
-0.00035185788652747157   0.0   -0.0003478104037397585
-0.00035185788652747157   0.0   -0.0003478104037397585
-0.00015717039645542653   3.269157396697947e-05   -3.7163092394956808e-06
-0.00015717039645542653   3.269157396697947e-05   -3.7163092394956808e-06
-0.00015717039645542653   3.269157396697947e-05   -3.7163092394956808e-06
-0.00015717039645542653   3.269157396697947e-05   -3.7163092394956808e-06
-0.0001537583202358451   0.0   -0.00033233532569772715
-0.0001537583202358451   0.0   -0.00033233532569772715
-0.0001537583202358451   0.0   -0.00033233532569772715
-0.0001537583202358451   0.0   -0.00033233532569772715
-0.0003529475175696467   4.002408668366366e-05   -2.4367782151589338e-05
-0.0003529475175696467   4.002408668366366e-05   -2.4367782151589338e-05
-0.0003529475175696467   4.002408668366366e-05   -2.4367782151589338e-05
-0.0003529475175696467   4.002408668366366e-05   -2.4367782151589338e-05
-0.000252808103381658   1.2895898368359756e-05   -0.00017498989280905348
-0.000252808103381658   1.2895898368359756e-05   -0.00017498989280905348
-0.000252808103381658   1.2895898368359756e-05   -0.00017498989280905348
-0.000252808103381658   1.2895898368359756e-05   -0.00017498989280905348
-0.0003529475175696467   0.0   -0.0003563497777079254
-0.0003529475175696467   0.0   -0.0003563497777079254
-0.0003529475175696467   0.0   -0.0003563497777079254
-0.0003529475175696467   0.0   -0.0003563497777079254
-0.0001537583202358451   4.002408668366366e-05   -3.5333014139114164e-07
-0.0001537583202358451   4.002408668366366e-05   -3.5333014139114164e-07
-0.0001537583202358451   4.002408668366366e-05   -3.5333014139114164e-07
-0.0001537583202358451   4.002408668366366e-05   -3.5333014139114164e-07
-0.00015066743586865215   0.0   -0.00033059894261523113
-0.00015066743586865215   0.0   -0.00033059894261523113
-0.00015066743586865215   0.0   -0.00033059894261523113
-0.00015066743586865215   0.0   -0.00033059894261523113
-0.00035287171813341606   4.654960963595804e-05   -2.152157128886478e-05
-0.00035287171813341606   4.654960963595804e-05   -2.152157128886478e-05
-0.00035287171813341606   4.654960963595804e-05   -2.152157128886478e-05
-0.00035287171813341606   4.654960963595804e-05   -2.152157128886478e-05
-0.00025180747671914934   2.1459029243911694e-05   -0.00017490762541074942
-0.00025180747671914934   2.1459029243911694e-05   -0.00017490762541074942
-0.00025180747671914934   2.1459029243911694e-05   -0.00017490762541074942
-0.00025180747671914934   2.1459029243911694e-05   -0.00017490762541074942
-0.0001633165375697711   0.0   -0.0003173238687005066
-0.0001633165375697711   0.0   -0.0003173238687005066
-0.0001633165375697711   0.0   -0.0003173238687005066
-0.0001633165375697711   0.0   -0.0003173238687005066
2.1523268860699892e-05   -2.921902102144525e-06   -1.1010665911008096e-05
2.1523268860699892e-05   -2.921902102144525e-06   -1.1010665911008096e-05
2.1523268860699892e-05   -2.921902102144525e-06   -1.1010665911008096e-05
2.1523268860699892e-05   -2.921902102144525e-06   -1.1010665911008096e-05
2.5401222913815556e-05   0.0   -0.0003247246077364835
2.5401222913815556e-05   0.0   -0.0003247246077364835
2.5401222913815556e-05   0.0   -0.0003247246077364835
2.5401222913815556e-05   0.0   -0.0003247246077364835
-0.00015717039645542653   5.784752705144196e-06   -2.3909427077500878e-05
-0.00015717039645542653   5.784752705144196e-06   -2.3909427077500878e-05
-0.00015717039645542653   5.784752705144196e-06   -2.3909427077500878e-05
-0.00015717039645542653   5.784752705144196e-06   -2.3909427077500878e-05
-6.895765732797761e-05   -6.16728252998168e-06   -0.00016375943781550626
-6.895765732797761e-05   -6.16728252998168e-06   -0.00016375943781550626
-6.895765732797761e-05   -6.16728252998168e-06   -0.00016375943781550626
-6.895765732797761e-05   -6.16728252998168e-06   -0.00016375943781550626
-0.00015717039645542653   0.0   -0.00032819545935957114
-0.00015717039645542653   0.0   -0.00032819545935957114
-0.00015717039645542653   0.0   -0.00032819545935957114
-0.00015717039645542653   0.0   -0.00032819545935957114
2.54012229138156e-05   5.784752705144088e-06   -2.043857545441428e-05
2.54012229138156e-05   5.784752705144088e-06   -2.043857545441428e-05
2.54012229138156e-05   5.784752705144088e-06   -2.043857545441428e-05
2.54012229138156e-05   5.784752705144088e-06   -2.043857545441428e-05
2.844908559898466e-05   0.0   -0.00032426751446408943
2.844908559898466e-05   0.0   -0.00032426751446408943
2.844908559898466e-05   0.0   -0.00032426751446408943
2.844908559898466e-05   0.0   -0.00032426751446408943
-0.00015375832023584483   1.3446352056061895e-05   -2.8656315973010836e-05
-0.00015375832023584483   1.3446352056061895e-05   -2.8656315973010836e-05
-0.00015375832023584483   1.3446352056061895e-05   -2.8656315973010836e-05
-0.00015375832023584483   1.3446352056061895e-05   -2.8656315973010836e-05
-6.436065542822091e-05   3.2732874129009137e-06   -0.0001715485851998211
-6.436065542822091e-05   3.2732874129009137e-06   -0.0001715485851998211
-6.436065542822091e-05   3.2732874129009137e-06   -0.0001715485851998211
-6.436065542822091e-05   3.2732874129009137e-06   -0.0001715485851998211
-0.0001537583202358451   0.0   -0.00033233532569772715
-0.0001537583202358451   0.0   -0.00033233532569772715
-0.0001537583202358451   0.0   -0.00033233532569772715
-0.0001537583202358451   0.0   -0.00033233532569772715
2.8449085598984706e-05   1.3446352056062003e-05   -2.0588504739373744e-05
2.8449085598984706e-05   1.3446352056062003e-05   -2.0588504739373744e-05
2.8449085598984706e-05   1.3446352056062003e-05   -2.0588504739373744e-05
2.8449085598984706e-05   1.3446352056062003e-05   -2.0588504739373744e-05
3.2582308538572344e-05   0.0   -0.0003172032084478792
3.2582308538572344e-05   0.0   -0.0003172032084478792
3.2582308538572344e-05   0.0   -0.0003172032084478792
3.2582308538572344e-05   0.0   -0.0003172032084478792
-0.00015066743586865204   2.232622361225266e-05   -2.5182701936523613e-05
-0.00015066743586865204   2.232622361225266e-05   -2.5182701936523613e-05
-0.00015066743586865204   2.232622361225266e-05   -2.5182701936523613e-05
-0.00015066743586865204   2.232622361225266e-05   -2.5182701936523613e-05
-6.058800584863624e-05   1.261009770820614e-05   -0.00016948540976078849
-6.058800584863624e-05   1.261009770820614e-05   -0.00016948540976078849
-6.058800584863624e-05   1.261009770820614e-05   -0.00016948540976078849
-6.058800584863624e-05   1.261009770820614e-05   -0.00016948540976078849
2.152326886069993e-05   0.0   -0.00031907700996179335
2.152326886069993e-05   0.0   -0.00031907700996179335
2.152326886069993e-05   0.0   -0.00031907700996179335
2.152326886069993e-05   0.0   -0.00031907700996179335
0.0002220812764089981   -2.6047352537757846e-05   -4.420755706175468e-07
0.0002220812764089981   -2.6047352537757846e-05   -4.420755706175468e-07
0.0002220812764089981   -2.6047352537757846e-05   -4.420755706175468e-07
0.0002220812764089981   -2.6047352537757846e-05   -4.420755706175468e-07
0.00022235051585568107   0.0   -0.0003365228225056746
0.00022235051585568107   0.0   -0.0003365228225056746
0.00022235051585568107   0.0   -0.0003365228225056746
0.00022235051585568107   0.0   -0.0003365228225056746
2.5401222913815644e-05   -1.966369128198332e-05   3.5242138332909878e-06
2.5401222913815644e-05   -1.966369128198332e-05   3.5242138332909878e-06
2.5401222913815644e-05   -1.966369128198332e-05   3.5242138332909878e-06
2.5401222913815644e-05   -1.966369128198332e-05   3.5242138332909878e-06
0.0001219368923581905   -1.4538177119901078e-05   -0.00016044387707124958
0.0001219368923581905   -1.4538177119901078e-05   -0.00016044387707124958
0.0001219368923581905   -1.4538177119901078e-05   -0.00016044387707124958
0.0001219368923581905   -1.4538177119901078e-05   -0.00016044387707124958
2.5401222913815644e-05   0.0   -0.00032472460773648465
2.5401222913815644e-05   0.0   -0.00032472460773648465
2.5401222913815644e-05   0.0   -0.00032472460773648465
2.5401222913815644e-05   0.0   -0.00032472460773648465
0.00022235051585568107   -1.966369128198332e-05   -8.274000935898937e-06
0.00022235051585568107   -1.966369128198332e-05   -8.274000935898937e-06
0.00022235051585568107   -1.966369128198332e-05   -8.274000935898937e-06
0.00022235051585568107   -1.966369128198332e-05   -8.274000935898937e-06
0.00022128993079840144   0.0   -0.00033171650342582335
0.00022128993079840144   0.0   -0.00033171650342582335
0.00022128993079840144   0.0   -0.00033171650342582335
0.00022128993079840144   0.0   -0.00033171650342582335
2.8449085598984706e-05   -1.2414981602888904e-05   -2.8661057983955327e-06
2.8449085598984706e-05   -1.2414981602888904e-05   -2.8661057983955327e-06
2.8449085598984706e-05   -1.2414981602888904e-05   -2.8661057983955327e-06
2.8449085598984706e-05   -1.2414981602888904e-05   -2.8661057983955327e-06
0.00012334557685610853   -5.826579741115582e-06   -0.0001649799656773324
0.00012334557685610853   -5.826579741115582e-06   -0.0001649799656773324
0.00012334557685610853   -5.826579741115582e-06   -0.0001649799656773324
0.00012334557685610853   -5.826579741115582e-06   -0.0001649799656773324
2.8449085598984682e-05   0.0   -0.0003242675144640897
2.8449085598984682e-05   0.0   -0.0003242675144640897
2.8449085598984682e-05   0.0   -0.0003242675144640897
2.8449085598984682e-05   0.0   -0.0003242675144640897
0.00022128993079840144   -1.2414981602888904e-05   -1.0315094760128833e-05
0.00022128993079840144   -1.2414981602888904e-05   -1.0315094760128833e-05
0.00022128993079840144   -1.2414981602888904e-05   -1.0315094760128833e-05
0.00022128993079840144   -1.2414981602888904e-05   -1.0315094760128833e-05
0.00022547159853414988   0.0   -0.0003188038496104303
0.00022547159853414988   0.0   -0.0003188038496104303
0.00022547159853414988   0.0   -0.0003188038496104303
0.00022547159853414988   0.0   -0.0003188038496104303
3.25823085385724e-05   -2.6677352709176443e-06   4.278941544749368e-06
3.25823085385724e-05   -2.6677352709176443e-06   4.278941544749368e-06
3.25823085385724e-05   -2.6677352709176443e-06   4.278941544749368e-06
3.25823085385724e-05   -2.6677352709176443e-06   4.278941544749368e-06
0.0001269603420665672   4.553054044716424e-06   -0.00015735025459128892
0.0001269603420665672   4.553054044716424e-06   -0.00015735025459128892
0.0001269603420665672   4.553054044716424e-06   -0.00015735025459128892
0.0001269603420665672   4.553054044716424e-06   -0.00015735025459128892
0.0002220812764089981   0.0   -0.000334705421484448
0.0002220812764089981   0.0   -0.000334705421484448
0.0002220812764089981   0.0   -0.000334705421484448
0.0002220812764089981   0.0   -0.000334705421484448
0.0005007157892869187   -6.594538320619289e-05   9.011820338837334e-05
0.0005007157892869187   -6.594538320619289e-05   9.011820338837334e-05
0.0005007157892869187   -6.594538320619289e-05   9.011820338837334e-05
0.0005007157892869187   -6.594538320619289e-05   9.011820338837334e-05
0.00047008970976216   0.0   -0.0003702280606661178
0.00047008970976216   0.0   -0.0003702280606661178
0.00047008970976216   0.0   -0.0003702280606661178
0.00047008970976216   0.0   -0.0003702280606661178
0.00022235051585568107   -5.617539693407198e-05   7.637583400512359e-05
0.00022235051585568107   -5.617539693407198e-05   7.637583400512359e-05
0.00022235051585568107   -5.617539693407198e-05   7.637583400512359e-05
0.00022235051585568107   -5.617539693407198e-05   7.637583400512359e-05
0.00034608549308557903   -2.96021993180582e-05   -0.0001457930466143145
0.00034608549308557903   -2.96021993180582e-05   -0.0001457930466143145
0.00034608549308557903   -2.96021993180582e-05   -0.0001457930466143145
0.00034608549308557903   -2.96021993180582e-05   -0.0001457930466143145
0.00022235051585568088   0.0   -0.0003365228225056743
0.00022235051585568088   0.0   -0.0003365228225056743
0.00022235051585568088   0.0   -0.0003365228225056743
0.00022235051585568088   0.0   -0.0003365228225056743
0.00047008970976215837   -5.617539693407187e-05   4.2670595844680206e-05
0.00047008970976215837   -5.617539693407187e-05   4.2670595844680206e-05
0.00047008970976215837   -5.617539693407187e-05   4.2670595844680206e-05
0.00047008970976215837   -5.617539693407187e-05   4.2670595844680206e-05
0.00045591788640506184   0.0   -0.00036252962959779745
0.00045591788640506184   0.0   -0.00036252962959779745
0.00045591788640506184   0.0   -0.00036252962959779745
0.00045591788640506184   0.0   -0.00036252962959779745
0.00022128993079840144   -5.135521028662351e-05   5.933008925194396e-05
0.00022128993079840144   -5.135521028662351e-05   5.933008925194396e-05
0.00022128993079840144   -5.135521028662351e-05   5.933008925194396e-05
0.00022128993079840144   -5.135521028662351e-05   5.933008925194396e-05
0.00033913420113037125   -2.167233924343573e-05   -0.00015488675059391837
0.00033913420113037125   -2.167233924343573e-05   -0.00015488675059391837
0.00033913420113037125   -2.167233924343573e-05   -0.00015488675059391837
0.00033913420113037125   -2.167233924343573e-05   -0.00015488675059391837
0.00022128993079840144   0.0   -0.00033171650342582335
0.00022128993079840144   0.0   -0.00033171650342582335
0.00022128993079840144   0.0   -0.00033171650342582335
0.00022128993079840144   0.0   -0.00033171650342582335
0.00045591788640506027   -5.135521028662329e-05   2.8516963079969638e-05
0.00045591788640506027   -5.135521028662329e-05   2.8516963079969638e-05
0.00045591788640506027   -5.135521028662329e-05   2.8516963079969638e-05
0.00045591788640506027   -5.135521028662329e-05   2.8516963079969638e-05
0.00043489571630714714   0.0   -0.00034279936024709303
0.00043489571630714714   0.0   -0.00034279936024709303
0.00043489571630714714   0.0   -0.00034279936024709303
0.00043489571630714714   0.0   -0.00034279936024709303
0.00022547159853414988   -3.99925177277722e-05   3.0236346677899712e-05
0.00022547159853414988   -3.99925177277722e-05   3.0236346677899712e-05
0.00022547159853414988   -3.99925177277722e-05   3.0236346677899712e-05
0.00022547159853414988   -3.99925177277722e-05   3.0236346677899712e-05
0.0003280928235527747   -9.235714017725278e-06   -0.0001592531105791697
0.0003280928235527747   -9.235714017725278e-06   -0.0001592531105791697
0.0003280928235527747   -9.235714017725278e-06   -0.0001592531105791697
0.0003280928235527747   -9.235714017725278e-06   -0.0001592531105791697
-0.0004901113460948955   6.26271988729551e-05   -0.00032071166177613953
-0.0004901113460948955   6.26271988729551e-05   -0.00032071166177613953
-0.0004901113460948955   6.26271988729551e-05   -0.00032071166177613953
-0.0004901113460948955   6.26271988729551e-05   -0.00032071166177613953
-0.0003138257662437404   5.637784285787467e-05   -3.0651975633262576e-05
-0.0003138257662437404   5.637784285787467e-05   -3.0651975633262576e-05
-0.0003138257662437404   5.637784285787467e-05   -3.0651975633262576e-05
-0.0003138257662437404   5.637784285787467e-05   -3.0651975633262576e-05
-0.0003217754972528551   7.50735143607474e-05   -0.0002692642174639624
-0.0003217754972528551   7.50735143607474e-05   -0.0002692642174639624
-0.0003217754972528551   7.50735143607474e-05   -0.0002692642174639624
-0.0003217754972528551   7.50735143607474e-05   -0.0002692642174639624
-0.0004955294041883172   6.76131985131959e-05   2.4801816937006617e-05
-0.0004955294041883172   6.76131985131959e-05   2.4801816937006617e-05
-0.0004955294041883172   6.76131985131959e-05   2.4801816937006617e-05
-0.0004955294041883172   6.76131985131959e-05   2.4801816937006617e-05
-0.0003892632338153156   6.538937171433109e-05   -0.00015097417093868
-0.0003892632338153156   6.538937171433109e-05   -0.00015097417093868
-0.0003892632338153156   6.538937171433109e-05   -0.00015097417093868
-0.0003892632338153156   6.538937171433109e-05   -0.00015097417093868
-0.0004955294041883172   7.50735143607474e-05   -0.00026478802795543133
-0.0004955294041883172   7.50735143607474e-05   -0.00026478802795543133
-0.0004955294041883172   7.50735143607474e-05   -0.00026478802795543133
-0.0004955294041883172   7.50735143607474e-05   -0.00026478802795543133
-0.0003217754972528562   6.761319851319612e-05   2.0325627428475568e-05
-0.0003217754972528562   6.761319851319612e-05   2.0325627428475568e-05
-0.0003217754972528562   6.761319851319612e-05   2.0325627428475568e-05
-0.0003217754972528562   6.761319851319612e-05   2.0325627428475568e-05
-0.0003234977610079179   8.04075318194174e-05   -0.00024202428619133883
-0.0003234977610079179   8.04075318194174e-05   -0.00024202428619133883
-0.0003234977610079179   8.04075318194174e-05   -0.00024202428619133883
-0.0003234977610079179   8.04075318194174e-05   -0.00024202428619133883
-0.0004991139250232879   7.268197142150943e-05   5.530465673968775e-05
-0.0004991139250232879   7.268197142150943e-05   5.530465673968775e-05
-0.0004991139250232879   7.268197142150943e-05   5.530465673968775e-05
-0.0004991139250232879   7.268197142150943e-05   5.530465673968775e-05
-0.00040078226167374905   7.245663865913451e-05   -0.00010844624918545059
-0.00040078226167374905   7.245663865913451e-05   -0.00010844624918545059
-0.00040078226167374905   7.245663865913451e-05   -0.00010844624918545059
-0.00040078226167374905   7.245663865913451e-05   -0.00010844624918545059
-0.0004991139250232871   8.04075318194174e-05   -0.00023738894995259423
-0.0004991139250232871   8.04075318194174e-05   -0.00023738894995259423
-0.0004991139250232871   8.04075318194174e-05   -0.00023738894995259423
-0.0004991139250232871   8.04075318194174e-05   -0.00023738894995259423
-0.00032349776100791837   7.268197142150943e-05   5.066932050094288e-05
-0.00032349776100791837   7.268197142150943e-05   5.066932050094288e-05
-0.00032349776100791837   7.268197142150943e-05   5.066932050094288e-05
-0.00032349776100791837   7.268197142150943e-05   5.066932050094288e-05
-0.00032172303127424   9.153063530755574e-05   -0.00017864528538902714
-0.00032172303127424   9.153063530755574e-05   -0.00017864528538902714
-0.00032172303127424   9.153063530755574e-05   -0.00017864528538902714
-0.00032172303127424   9.153063530755574e-05   -0.00017864528538902714
-0.00048541538876923913   7.668405530084641e-05   0.00010308325843999544
-0.00048541538876923913   7.668405530084641e-05   0.00010308325843999544
-0.00048541538876923913   7.668405530084641e-05   0.00010308325843999544
-0.00048541538876923913   7.668405530084641e-05   0.00010308325843999544
-0.000390445519486561   7.944169663811696e-05   -5.685444183349672e-05
-0.000390445519486561   7.944169663811696e-05   -5.685444183349672e-05
-0.000390445519486561   7.944169663811696e-05   -5.685444183349672e-05
-0.000390445519486561   7.944169663811696e-05   -5.685444183349672e-05
-0.0003138257662437404   2.300248133074766e-05   -0.00034005181679437006
-0.0003138257662437404   2.300248133074766e-05   -0.00034005181679437006
-0.0003138257662437404   2.300248133074766e-05   -0.00034005181679437006
-0.0003138257662437404   2.300248133074766e-05   -0.00034005181679437006
-0.00014855398230371558   2.6231649781530272e-05   -6.26613424905254e-05
-0.00014855398230371558   2.6231649781530272e-05   -6.26613424905254e-05
-0.00014855398230371558   2.6231649781530272e-05   -6.26613424905254e-05
-0.00014855398230371558   2.6231649781530272e-05   -6.26613424905254e-05
-0.00015216046707448882   3.269157396697947e-05   -0.0003395666731119218
-0.00015216046707448882   3.269157396697947e-05   -0.0003395666731119218
-0.00015216046707448882   3.269157396697947e-05   -0.0003395666731119218
-0.00015216046707448882   3.269157396697947e-05   -0.0003395666731119218
-0.0003217754972528551   3.6564536441289824e-05   -5.919873363256366e-05
-0.0003217754972528551   3.6564536441289824e-05   -5.919873363256366e-05
-0.0003217754972528551   3.6564536441289824e-05   -5.919873363256366e-05
-0.0003217754972528551   3.6564536441289824e-05   -5.919873363256366e-05
-0.00023342363631756374   2.944720199103885e-05   -0.00020218143452123383
-0.00023342363631756374   2.944720199103885e-05   -0.00020218143452123383
-0.00023342363631756374   2.944720199103885e-05   -0.00020218143452123383
-0.00023342363631756374   2.944720199103885e-05   -0.00020218143452123383
-0.0003217754972528548   3.269157396697947e-05   -0.0003418904505965076
-0.0003217754972528548   3.269157396697947e-05   -0.0003418904505965076
-0.0003217754972528548   3.269157396697947e-05   -0.0003418904505965076
-0.0003217754972528548   3.269157396697947e-05   -0.0003418904505965076
-0.0001521604670744891   3.656453644129004e-05   -5.687495614797725e-05
-0.0001521604670744891   3.656453644129004e-05   -5.687495614797725e-05
-0.0001521604670744891   3.656453644129004e-05   -5.687495614797725e-05
-0.0001521604670744891   3.656453644129004e-05   -5.687495614797725e-05
-0.00015333900131800588   4.002408668366355e-05   -0.0003332000118244599
-0.00015333900131800588   4.002408668366355e-05   -0.0003332000118244599
-0.00015333900131800588   4.002408668366355e-05   -0.0003332000118244599
-0.00015333900131800588   4.002408668366355e-05   -0.0003332000118244599
-0.0003234977610079179   4.511086192432196e-05   -5.26541441523351e-05
-0.0003234977610079179   4.511086192432196e-05   -5.26541441523351e-05
-0.0003234977610079179   4.511086192432196e-05   -5.26541441523351e-05
-0.0003234977610079179   4.511086192432196e-05   -5.26541441523351e-05
-0.00023530639565455262   3.734749143847853e-05   -0.00019498173078310384
-0.00023530639565455262   3.734749143847853e-05   -0.00019498173078310384
-0.00023530639565455262   3.734749143847853e-05   -0.00019498173078310384
-0.00023530639565455262   3.734749143847853e-05   -0.00019498173078310384
-0.0003234977610079179   4.002408668366355e-05   -0.0003362520769688548
-0.0003234977610079179   4.002408668366355e-05   -0.0003362520769688548
-0.0003234977610079179   4.002408668366355e-05   -0.0003362520769688548
-0.0003234977610079179   4.002408668366355e-05   -0.0003362520769688548
-0.00015333900131800636   4.511086192432196e-05   -4.9602079007940426e-05
-0.00015333900131800636   4.511086192432196e-05   -4.9602079007940426e-05
-0.00015333900131800636   4.511086192432196e-05   -4.9602079007940426e-05
-0.00015333900131800636   4.511086192432196e-05   -4.9602079007940426e-05
-0.00015302635006531802   4.654960963595804e-05   -0.00032977373223100315
-0.00015302635006531802   4.654960963595804e-05   -0.00032977373223100315
-0.00015302635006531802   4.654960963595804e-05   -0.00032977373223100315
-0.00015302635006531802   4.654960963595804e-05   -0.00032977373223100315
-0.00032172303127423976   5.4300828399199896e-05   -5.326332814074549e-05
-0.00032172303127423976   5.4300828399199896e-05   -5.326332814074549e-05
-0.00032172303127423976   5.4300828399199896e-05   -5.326332814074549e-05
-0.00032172303127423976   5.4300828399199896e-05   -5.326332814074549e-05
-0.00023675451307113667   4.4497850815015776e-05   -0.000188995738595408
-0.00023675451307113667   4.4497850815015776e-05   -0.000188995738595408
-0.00023675451307113667   4.4497850815015776e-05   -0.000188995738595408
-0.00023675451307113667   4.4497850815015776e-05   -0.000188995738595408
-0.0001485539823037153   -2.921902102144525e-06   -0.00035596218732135334
-0.0001485539823037153   -2.921902102144525e-06   -0.00035596218732135334
-0.0001485539823037153   -2.921902102144525e-06   -0.00035596218732135334
-0.0001485539823037153   -2.921902102144525e-06   -0.00035596218732135334
1.4642821800097224e-05   -7.659233623635766e-07   -8.267392657113033e-05
1.4642821800097224e-05   -7.659233623635766e-07   -8.267392657113033e-05
1.4642821800097224e-05   -7.659233623635766e-07   -8.267392657113033e-05
1.4642821800097224e-05   -7.659233623635766e-07   -8.267392657113033e-05
1.3912714856808115e-05   5.784752705144196e-06   -0.00035797982644938866
1.3912714856808115e-05   5.784752705144196e-06   -0.00035797982644938866
1.3912714856808115e-05   5.784752705144196e-06   -0.00035797982644938866
1.3912714856808115e-05   5.784752705144196e-06   -0.00035797982644938866
-0.00015216046707448882   8.751360206042495e-06   -8.297115439776458e-05
-0.00015216046707448882   8.751360206042495e-06   -8.297115439776458e-05
-0.00015216046707448882   8.751360206042495e-06   -8.297115439776458e-05
-0.00015216046707448882   8.751360206042495e-06   -8.297115439776458e-05
-6.845472725406803e-05   2.9003191687330173e-06   -0.00021897009614274787
-6.845472725406803e-05   2.9003191687330173e-06   -0.00021897009614274787
-6.845472725406803e-05   2.9003191687330173e-06   -0.00021897009614274787
-6.845472725406803e-05   2.9003191687330173e-06   -0.00021897009614274787
-0.00015216046707448882   5.784752705144088e-06   -0.00035975979094992683
-0.00015216046707448882   5.784752705144088e-06   -0.00035975979094992683
-0.00015216046707448882   5.784752705144088e-06   -0.00035975979094992683
-0.00015216046707448882   5.784752705144088e-06   -0.00035975979094992683
1.3912714856808115e-05   8.751360206042495e-06   -8.119118989722597e-05
1.3912714856808115e-05   8.751360206042495e-06   -8.119118989722597e-05
1.3912714856808115e-05   8.751360206042495e-06   -8.119118989722597e-05
1.3912714856808115e-05   8.751360206042495e-06   -8.119118989722597e-05
1.2934960652480597e-05   1.3446352056061895e-05   -0.0003587417213138358
1.2934960652480597e-05   1.3446352056061895e-05   -0.0003587417213138358
1.2934960652480597e-05   1.3446352056061895e-05   -0.0003587417213138358
1.2934960652480597e-05   1.3446352056061895e-05   -0.0003587417213138358
-0.00015333900131800588   1.8048479293134804e-05   -8.437972770526908e-05
-0.00015333900131800588   1.8048479293134804e-05   -8.437972770526908e-05
-0.00015333900131800588   1.8048479293134804e-05   -8.437972770526908e-05
-0.00015333900131800588   1.8048479293134804e-05   -8.437972770526908e-05
-6.97948599782103e-05   1.0969795875141394e-05   -0.00021937275322079792
-6.97948599782103e-05   1.0969795875141394e-05   -0.00021937275322079792
-6.97948599782103e-05   1.0969795875141394e-05   -0.00021937275322079792
-6.97948599782103e-05   1.0969795875141394e-05   -0.00021937275322079792
-0.00015333900131800588   1.3446352056061895e-05   -0.00036150299765607953
-0.00015333900131800588   1.3446352056061895e-05   -0.00036150299765607953
-0.00015333900131800588   1.3446352056061895e-05   -0.00036150299765607953
-0.00015333900131800588   1.3446352056061895e-05   -0.00036150299765607953
1.293496065248062e-05   1.804847929313502e-05   -8.161845136302529e-05
1.293496065248062e-05   1.804847929313502e-05   -8.161845136302529e-05
1.293496065248062e-05   1.804847929313502e-05   -8.161845136302529e-05
1.293496065248062e-05   1.804847929313502e-05   -8.161845136302529e-05
1.1033905060012945e-05   2.232622361225266e-05   -0.00035811785919524915
1.1033905060012945e-05   2.232622361225266e-05   -0.00035811785919524915
1.1033905060012945e-05   2.232622361225266e-05   -0.00035811785919524915
1.1033905060012945e-05   2.232622361225266e-05   -0.00035811785919524915
-0.00015302635006531816   2.7737506053898773e-05   -8.793087011801893e-05
-0.00015302635006531816   2.7737506053898773e-05   -8.793087011801893e-05
-0.00015302635006531816   2.7737506053898773e-05   -8.793087011801893e-05
-0.00015302635006531816   2.7737506053898773e-05   -8.793087011801893e-05
-7.063137884279902e-05   1.9259544089856272e-05   -0.00022016904497712487
-7.063137884279902e-05   1.9259544089856272e-05   -0.00022016904497712487
-7.063137884279902e-05   1.9259544089856272e-05   -0.00022016904497712487
-7.063137884279902e-05   1.9259544089856272e-05   -0.00022016904497712487
1.4642821800097224e-05   -2.6047352537757738e-05   -0.00032847159821443957
1.4642821800097224e-05   -2.6047352537757738e-05   -0.00032847159821443957
1.4642821800097224e-05   -2.6047352537757738e-05   -0.00032847159821443957
1.4642821800097224e-05   -2.6047352537757738e-05   -0.00032847159821443957
0.00018282236540369807   -2.678408461247346e-05   -4.861439811993393e-05
0.00018282236540369807   -2.678408461247346e-05   -4.861439811993393e-05
0.00018282236540369807   -2.678408461247346e-05   -4.861439811993393e-05
0.00018282236540369807   -2.678408461247346e-05   -4.861439811993393e-05
0.00018425009459328043   -1.9663691281983212e-05   -0.0003331071635059705
0.00018425009459328043   -1.9663691281983212e-05   -0.0003331071635059705
0.00018425009459328043   -1.9663691281983212e-05   -0.0003331071635059705
0.00018425009459328043   -1.9663691281983212e-05   -0.0003331071635059705
1.3912714856808115e-05   -1.8147235189130582e-05   -5.012140426756112e-05
1.3912714856808115e-05   -1.8147235189130582e-05   -5.012140426756112e-05
1.3912714856808115e-05   -1.8147235189130582e-05   -5.012140426756112e-05
1.3912714856808115e-05   -1.8147235189130582e-05   -5.012140426756112e-05
9.764210089347261e-05   -2.1706389366101453e-05   -0.00018753488848915307
9.764210089347261e-05   -2.1706389366101453e-05   -0.00018753488848915307
9.764210089347261e-05   -2.1706389366101453e-05   -0.00018753488848915307
9.764210089347261e-05   -2.1706389366101453e-05   -0.00018753488848915307
1.3912714856808092e-05   -1.9663691281983212e-05   -0.00033401703716168273
1.3912714856808092e-05   -1.9663691281983212e-05   -0.00033401703716168273
1.3912714856808092e-05   -1.9663691281983212e-05   -0.00033401703716168273
1.3912714856808092e-05   -1.9663691281983212e-05   -0.00033401703716168273
0.00018425009459328075   -1.8147235189130365e-05   -4.921153061184912e-05
0.00018425009459328075   -1.8147235189130365e-05   -4.921153061184912e-05
0.00018425009459328075   -1.8147235189130365e-05   -4.921153061184912e-05
0.00018425009459328075   -1.8147235189130365e-05   -4.921153061184912e-05
0.00018326487909365753   -1.2414981602888796e-05   -0.00033937858696647335
0.00018326487909365753   -1.2414981602888796e-05   -0.00033937858696647335
0.00018326487909365753   -1.2414981602888796e-05   -0.00033937858696647335
0.00018326487909365753   -1.2414981602888796e-05   -0.00033937858696647335
1.2934960652480597e-05   -9.680422592249363e-06   -5.7136124970895845e-05
1.2934960652480597e-05   -9.680422592249363e-06   -5.7136124970895845e-05
1.2934960652480597e-05   -9.680422592249363e-06   -5.7136124970895845e-05
1.2934960652480597e-05   -9.680422592249363e-06   -5.7136124970895845e-05
9.653457310400865e-05   -1.4801117193027251e-05   -0.00019339639562964198
9.653457310400865e-05   -1.4801117193027251e-05   -0.00019339639562964198
9.653457310400865e-05   -1.4801117193027251e-05   -0.00019339639562964198
9.653457310400865e-05   -1.4801117193027251e-05   -0.00019339639562964198
1.2934960652480587e-05   -1.2414981602888796e-05   -0.0003410193223728568
1.2934960652480587e-05   -1.2414981602888796e-05   -0.0003410193223728568
1.2934960652480587e-05   -1.2414981602888796e-05   -0.0003410193223728568
1.2934960652480587e-05   -1.2414981602888796e-05   -0.0003410193223728568
0.00018326487909365818   -9.68042259224958e-06   -5.54953895645124e-05
0.00018326487909365818   -9.68042259224958e-06   -5.54953895645124e-05
0.00018326487909365818   -9.68042259224958e-06   -5.54953895645124e-05
0.00018326487909365818   -9.68042259224958e-06   -5.54953895645124e-05
0.00017785030138567468   -2.667735270917536e-06   -0.00033997118070009497
0.00017785030138567468   -2.667735270917536e-06   -0.00033997118070009497
0.00017785030138567468   -2.667735270917536e-06   -0.00033997118070009497
0.00017785030138567468   -2.667735270917536e-06   -0.00033997118070009497
1.1033905060012945e-05   8.002133644697748e-07   -6.402462267189153e-05
1.1033905060012945e-05   8.002133644697748e-07   -6.402462267189153e-05
1.1033905060012945e-05   8.002133644697748e-07   -6.402462267189153e-05
1.1033905060012945e-05   8.002133644697748e-07   -6.402462267189153e-05
9.541685341715817e-05   -6.735191482047133e-06   -0.0002001416270258898
9.541685341715817e-05   -6.735191482047133e-06   -0.0002001416270258898
9.541685341715817e-05   -6.735191482047133e-06   -0.0002001416270258898
9.541685341715817e-05   -6.735191482047133e-06   -0.0002001416270258898
0.00018282236540369807   -6.594538320619289e-05   -0.00019878612857656243
0.00018282236540369807   -6.594538320619289e-05   -0.00019878612857656243
0.00018282236540369807   -6.594538320619289e-05   -0.00019878612857656243
0.00018282236540369807   -6.594538320619289e-05   -0.00019878612857656243
0.000348932477756888   -4.983414075128184e-05   8.773080415170036e-05
0.000348932477756888   -4.983414075128184e-05   8.773080415170036e-05
0.000348932477756888   -4.983414075128184e-05   8.773080415170036e-05
0.000348932477756888   -4.983414075128184e-05   8.773080415170036e-05
0.00036202817112392544   -5.617539693407198e-05   -0.0002419085910849228
0.00036202817112392544   -5.617539693407198e-05   -0.0002419085910849228
0.00036202817112392544   -5.617539693407198e-05   -0.0002419085910849228
0.00036202817112392544   -5.617539693407198e-05   -0.0002419085910849228
0.00018425009459328105   -4.526083446736162e-05   4.783946565279219e-05
0.00018425009459328105   -4.526083446736162e-05   4.783946565279219e-05
0.00018425009459328105   -4.526083446736162e-05   4.783946565279219e-05
0.00018425009459328105   -4.526083446736162e-05   4.783946565279219e-05
0.00025697760877809025   -5.4085610255650424e-05   -6.80781925155834e-05
0.00025697760877809025   -5.4085610255650424e-05   -6.80781925155834e-05
0.00025697760877809025   -5.4085610255650424e-05   -6.80781925155834e-05
0.00025697760877809025   -5.4085610255650424e-05   -6.80781925155834e-05
0.00018425009459328062   -5.617539693407176e-05   -0.0002484573285649484
0.00018425009459328062   -5.617539693407176e-05   -0.0002484573285649484
0.00018425009459328062   -5.617539693407176e-05   -0.0002484573285649484
0.00018425009459328062   -5.617539693407176e-05   -0.0002484573285649484
0.00036202817112392544   -4.526083446736162e-05   5.438820313281856e-05
0.00036202817112392544   -4.526083446736162e-05   5.438820313281856e-05
0.00036202817112392544   -4.526083446736162e-05   5.438820313281856e-05
0.00036202817112392544   -4.526083446736162e-05   5.438820313281856e-05
0.0003605542674093522   -5.13552102866234e-05   -0.00026315247173715157
0.0003605542674093522   -5.13552102866234e-05   -0.00026315247173715157
0.0003605542674093522   -5.13552102866234e-05   -0.00026315247173715157
0.0003605542674093522   -5.13552102866234e-05   -0.00026315247173715157
0.00018326487909365818   -4.038699159120639e-05   2.574891090508793e-05
0.00018326487909365818   -4.038699159120639e-05   2.574891090508793e-05
0.00018326487909365818   -4.038699159120639e-05   2.574891090508793e-05
0.00018326487909365818   -4.038699159120639e-05   2.574891090508793e-05
0.00026584656185140706   -4.7801203059656856e-05   -0.00010743870014342301
0.00026584656185140706   -4.7801203059656856e-05   -0.00010743870014342301
0.00026584656185140706   -4.7801203059656856e-05   -0.00010743870014342301
0.00026584656185140706   -4.7801203059656856e-05   -0.00010743870014342301
0.00018326487909365785   -5.13552102866234e-05   -0.00026973340295440154
0.00018326487909365785   -5.13552102866234e-05   -0.00026973340295440154
0.00018326487909365785   -5.13552102866234e-05   -0.00026973340295440154
0.00018326487909365785   -5.13552102866234e-05   -0.00026973340295440154
0.0003605542674093522   -4.038699159120639e-05   3.232984212233822e-05
0.0003605542674093522   -4.038699159120639e-05   3.232984212233822e-05
0.0003605542674093522   -4.038699159120639e-05   3.232984212233822e-05
0.0003605542674093522   -4.038699159120639e-05   3.232984212233822e-05
0.0003582359284376619   -3.99925177277722e-05   -0.00030635401841441946
0.0003582359284376619   -3.99925177277722e-05   -0.00030635401841441946
0.0003582359284376619   -3.99925177277722e-05   -0.00030635401841441946
0.0003582359284376619   -3.99925177277722e-05   -0.00030635401841441946
0.0001778503013856753   -2.9893991077812503e-05   -1.1770422651084518e-05
0.0001778503013856753   -2.9893991077812503e-05   -1.1770422651084518e-05
0.0001778503013856753   -2.9893991077812503e-05   -1.1770422651084518e-05
0.0001778503013856753   -2.9893991077812503e-05   -1.1770422651084518e-05
0.0002581484848488289   -4.118571323268147e-05   -0.00013882569513008552
0.0002581484848488289   -4.118571323268147e-05   -0.00013882569513008552
0.0002581484848488289   -4.118571323268147e-05   -0.00013882569513008552
0.0002581484848488289   -4.118571323268147e-05   -0.00013882569513008552
-0.00039120986101845705   5.637784285787489e-05   -0.0002694344939430499
-0.00039120986101845705   5.637784285787489e-05   -0.0002694344939430499
-0.00039120986101845705   5.637784285787489e-05   -0.0002694344939430499
-0.00039120986101845705   5.637784285787489e-05   -0.0002694344939430499
-0.0002562825953478376   4.3146967093911446e-05   -5.2494243283729035e-05
-0.0002562825953478376   4.3146967093911446e-05   -5.2494243283729035e-05
-0.0002562825953478376   4.3146967093911446e-05   -5.2494243283729035e-05
-0.0002562825953478376   4.3146967093911446e-05   -5.2494243283729035e-05
-0.0002575549951404513   6.76131985131959e-05   -0.0002236766572351009
-0.0002575549951404513   6.76131985131959e-05   -0.0002236766572351009
-0.0002575549951404513   6.76131985131959e-05   -0.0002236766572351009
-0.0002575549951404513   6.76131985131959e-05   -0.0002236766572351009
-0.00038537985144838894   5.215830927239942e-05   -1.3622965107269736e-06
-0.00038537985144838894   5.215830927239942e-05   -1.3622965107269736e-06
-0.00038537985144838894   5.215830927239942e-05   -1.3622965107269736e-06
-0.00038537985144838894   5.215830927239942e-05   -1.3622965107269736e-06
-0.0003089680766787408   5.730940849573178e-05   -0.00013180591399414147
-0.0003089680766787408   5.730940849573178e-05   -0.00013180591399414147
-0.0003089680766787408   5.730940849573178e-05   -0.00013180591399414147
-0.0003089680766787408   5.730940849573178e-05   -0.00013180591399414147
-0.00038537985144838894   6.76131985131959e-05   -0.00021440372369062322
-0.00038537985144838894   6.76131985131959e-05   -0.00021440372369062322
-0.00038537985144838894   6.76131985131959e-05   -0.00021440372369062322
-0.00038537985144838894   6.76131985131959e-05   -0.00021440372369062322
-0.0002575549951404513   5.215830927239899e-05   -1.0635230055204212e-05
-0.0002575549951404513   5.215830927239899e-05   -1.0635230055204212e-05
-0.0002575549951404513   5.215830927239899e-05   -1.0635230055204212e-05
-0.0002575549951404513   5.215830927239899e-05   -1.0635230055204212e-05
-0.00025732965604873654   7.268197142150943e-05   -0.00019133195449074067
-0.00025732965604873654   7.268197142150943e-05   -0.00019133195449074067
-0.00025732965604873654   7.268197142150943e-05   -0.00019133195449074067
-0.00025732965604873654   7.268197142150943e-05   -0.00019133195449074067
-0.00037967845527759627   5.61110692209061e-05   2.2525252211053493e-05
-0.00037967845527759627   5.61110692209061e-05   2.2525252211053493e-05
-0.00037967845527759627   5.61110692209061e-05   2.2525252211053493e-05
-0.00037967845527759627   5.61110692209061e-05   2.2525252211053493e-05
-0.00031169230428423997   6.253392189969334e-05   -9.46387110518092e-05
-0.00031169230428423997   6.253392189969334e-05   -9.46387110518092e-05
-0.00031169230428423997   6.253392189969334e-05   -9.46387110518092e-05
-0.00031169230428423997   6.253392189969334e-05   -9.46387110518092e-05
-0.00037967845527759627   7.268197142150943e-05   -0.00018138941317037867
-0.00037967845527759627   7.268197142150943e-05   -0.00018138941317037867
-0.00037967845527759627   7.268197142150943e-05   -0.00018138941317037867
-0.00037967845527759627   7.268197142150943e-05   -0.00018138941317037867
-0.00025732965604873697   5.61110692209061e-05   1.2582710890693231e-05
-0.00025732965604873697   5.61110692209061e-05   1.2582710890693231e-05
-0.00025732965604873697   5.61110692209061e-05   1.2582710890693231e-05
-0.00025732965604873697   5.61110692209061e-05   1.2582710890693231e-05
-0.0002576181726529047   7.668405530084641e-05   -0.00014598593025877795
-0.0002576181726529047   7.668405530084641e-05   -0.00014598593025877795
-0.0002576181726529047   7.668405530084641e-05   -0.00014598593025877795
-0.0002576181726529047   7.668405530084641e-05   -0.00014598593025877795
-0.0003722071663826382   5.99806108503775e-05   5.501779262772309e-05
-0.0003722071663826382   5.99806108503775e-05   5.501779262772309e-05
-0.0003722071663826382   5.99806108503775e-05   5.501779262772309e-05
-0.0003722071663826382   5.99806108503775e-05   5.501779262772309e-05
-0.00030463725856323275   6.52663174485744e-05   -6.0770144363532985e-05
-0.00030463725856323275   6.52663174485744e-05   -6.0770144363532985e-05
-0.00030463725856323275   6.52663174485744e-05   -6.0770144363532985e-05
-0.00030463725856323275   6.52663174485744e-05   -6.0770144363532985e-05
-0.0002562825953478376   2.6231649781530055e-05   -0.00031131988732916024
-0.0002562825953478376   2.6231649781530055e-05   -0.00031131988732916024
-0.0002562825953478376   2.6231649781530055e-05   -0.00031131988732916024
-0.0002562825953478376   2.6231649781530055e-05   -0.00031131988732916024
-0.0001302308226960595   2.1488486990641018e-05   -0.00010407949725072994
-0.0001302308226960595   2.1488486990641018e-05   -0.00010407949725072994
-0.0001302308226960595   2.1488486990641018e-05   -0.00010407949725072994
-0.0001302308226960595   2.1488486990641018e-05   -0.00010407949725072994
-0.00013184049253774321   3.6564536441289824e-05   -0.00030693241098336387
-0.00013184049253774321   3.6564536441289824e-05   -0.00030693241098336387
-0.00013184049253774321   3.6564536441289824e-05   -0.00030693241098336387
-0.00013184049253774321   3.6564536441289824e-05   -0.00030693241098336387
-0.00025755499514045085   3.034554862925117e-05   -9.367684729162662e-05
-0.00025755499514045085   3.034554862925117e-05   -9.367684729162662e-05
-0.00025755499514045085   3.034554862925117e-05   -9.367684729162662e-05
-0.00025755499514045085   3.034554862925117e-05   -9.367684729162662e-05
-0.0001923204404820685   3.0217924897568173e-05   -0.00020232453081658885
-0.0001923204404820685   3.0217924897568173e-05   -0.00020232453081658885
-0.0001923204404820685   3.0217924897568173e-05   -0.00020232453081658885
-0.0001923204404820685   3.0217924897568173e-05   -0.00020232453081658885
-0.00025755499514045117   3.6564536441289824e-05   -0.00030320101829613946
-0.00025755499514045117   3.6564536441289824e-05   -0.00030320101829613946
-0.00025755499514045117   3.6564536441289824e-05   -0.00030320101829613946
-0.00025755499514045117   3.6564536441289824e-05   -0.00030320101829613946
-0.00013184049253774343   3.034554862925117e-05   -9.740823997884973e-05
-0.00013184049253774343   3.034554862925117e-05   -9.740823997884973e-05
-0.00013184049253774343   3.034554862925117e-05   -9.740823997884973e-05
-0.00013184049253774343   3.034554862925117e-05   -9.740823997884973e-05
-0.00013289396026051355   4.511086192432196e-05   -0.0002987982385603016
-0.00013289396026051355   4.511086192432196e-05   -0.0002987982385603016
-0.00013289396026051355   4.511086192432196e-05   -0.0002987982385603016
-0.00013289396026051355   4.511086192432196e-05   -0.0002987982385603016
-0.00025732965604873654   3.820616289718342e-05   -8.726259283031485e-05
-0.00025732965604873654   3.820616289718342e-05   -8.726259283031485e-05
-0.00025732965604873654   3.820616289718342e-05   -8.726259283031485e-05
-0.00025732965604873654   3.820616289718342e-05   -8.726259283031485e-05
-0.00019270175931383139   3.7499131221975426e-05   -0.00019455153505002864
-0.00019270175931383139   3.7499131221975426e-05   -0.00019455153505002864
-0.00019270175931383139   3.7499131221975426e-05   -0.00019455153505002864
-0.00019270175931383139   3.7499131221975426e-05   -0.00019455153505002864
-0.00025732965604873654   4.511086192432196e-05   -0.00029465541914401854
-0.00025732965604873654   4.511086192432196e-05   -0.00029465541914401854
-0.00025732965604873654   4.511086192432196e-05   -0.00029465541914401854
-0.00025732965604873654   4.511086192432196e-05   -0.00029465541914401854
-0.00013289396026051404   3.820616289718385e-05   -9.140541224659691e-05
-0.00013289396026051404   3.820616289718385e-05   -9.140541224659691e-05
-0.00013289396026051404   3.820616289718385e-05   -9.140541224659691e-05
-0.00013289396026051404   3.820616289718385e-05   -9.140541224659691e-05
-0.00013424677720404654   5.430082839920011e-05   -0.00029806950101001666
-0.00013424677720404654   5.430082839920011e-05   -0.00029806950101001666
-0.00013424677720404654   5.430082839920011e-05   -0.00029806950101001666
-0.00013424677720404654   5.430082839920011e-05   -0.00029806950101001666
-0.0002576181726529045   4.655927477499513e-05   -8.780557642073064e-05
-0.0002576181726529045   4.655927477499513e-05   -8.780557642073064e-05
-0.0002576181726529045   4.655927477499513e-05   -8.780557642073064e-05
-0.0002576181726529045   4.655927477499513e-05   -8.780557642073064e-05
-0.00019501171340140477   4.47038235373569e-05   -0.000191036404430645
-0.00019501171340140477   4.47038235373569e-05   -0.000191036404430645
-0.00019501171340140477   4.47038235373569e-05   -0.000191036404430645
-0.00019501171340140477   4.47038235373569e-05   -0.000191036404430645
-0.00013023082269605929   -7.659233623633598e-07   -0.00033547195632816743
-0.00013023082269605929   -7.659233623633598e-07   -0.00033547195632816743
-0.00013023082269605929   -7.659233623633598e-07   -0.00033547195632816743
-0.00013023082269605929   -7.659233623633598e-07   -0.00033547195632816743
-5.619088661400407e-06   1.1389655444468336e-06   -0.00012664279959298313
-5.619088661400407e-06   1.1389655444468336e-06   -0.00012664279959298313
-5.619088661400407e-06   1.1389655444468336e-06   -0.00012664279959298313
-5.619088661400407e-06   1.1389655444468336e-06   -0.00012664279959298313
-6.914162852687629e-06   8.751360206042278e-06   -0.00033236942499871927
-6.914162852687629e-06   8.751360206042278e-06   -0.00033236942499871927
-6.914162852687629e-06   8.751360206042278e-06   -0.00033236942499871927
-6.914162852687629e-06   8.751360206042278e-06   -0.00033236942499871927
-0.00013184049253774321   9.850000596761839e-06   -0.0001248180597580587
-0.00013184049253774321   9.850000596761839e-06   -0.0001248180597580587
-0.00013184049253774321   9.850000596761839e-06   -0.0001248180597580587
-0.00013184049253774321   9.850000596761839e-06   -0.0001248180597580587
-6.82683973912457e-05   5.7334517988023165e-06   -0.00022830162239011209
-6.82683973912457e-05   5.7334517988023165e-06   -0.00022830162239011209
-6.82683973912457e-05   5.7334517988023165e-06   -0.00022830162239011209
-6.82683973912457e-05   5.7334517988023165e-06   -0.00022830162239011209
-0.00013184049253774321   8.751360206042495e-06   -0.0003330286092331513
-0.00013184049253774321   8.751360206042495e-06   -0.0003330286092331513
-0.00013184049253774321   8.751360206042495e-06   -0.0003330286092331513
-0.00013184049253774321   8.751360206042495e-06   -0.0003330286092331513
-6.914162852687643e-06   9.850000596761839e-06   -0.00012415887552362634
-6.914162852687643e-06   9.850000596761839e-06   -0.00012415887552362634
-6.914162852687643e-06   9.850000596761839e-06   -0.00012415887552362634
-6.914162852687643e-06   9.850000596761839e-06   -0.00012415887552362634
-7.859679512891654e-06   1.8048479293134804e-05   -0.00033328438832693516
-7.859679512891654e-06   1.8048479293134804e-05   -0.00033328438832693516
-7.859679512891654e-06   1.8048479293134804e-05   -0.00033328438832693516
-7.859679512891654e-06   1.8048479293134804e-05   -0.00033328438832693516
-0.00013289396026051382   1.853431084429362e-05   -0.00012518541934492813
-0.00013289396026051382   1.853431084429362e-05   -0.00012518541934492813
-0.00013289396026051382   1.853431084429362e-05   -0.00012518541934492813
-0.00013289396026051382   1.853431084429362e-05   -0.00012518541934492813
-6.993180277292888e-05   1.3413761470357135e-05   -0.0002270500188665392
-6.993180277292888e-05   1.3413761470357135e-05   -0.0002270500188665392
-6.993180277292888e-05   1.3413761470357135e-05   -0.0002270500188665392
-6.993180277292888e-05   1.3413761470357135e-05   -0.0002270500188665392
-0.00013289396026051382   1.804847929313502e-05   -0.0003335758872576309
-0.00013289396026051382   1.804847929313502e-05   -0.0003335758872576309
-0.00013289396026051382   1.804847929313502e-05   -0.0003335758872576309
-0.00013289396026051382   1.804847929313502e-05   -0.0003335758872576309
-7.859679512891668e-06   1.853431084429362e-05   -0.00012489392041423143
-7.859679512891668e-06   1.853431084429362e-05   -0.00012489392041423143
-7.859679512891668e-06   1.853431084429362e-05   -0.00012489392041423143
-7.859679512891668e-06   1.853431084429362e-05   -0.00012489392041423143
-9.329364003260793e-06   2.7737506053898773e-05   -0.00033757748124384223
-9.329364003260793e-06   2.7737506053898773e-05   -0.00033757748124384223
-9.329364003260793e-06   2.7737506053898773e-05   -0.00033757748124384223
-9.329364003260793e-06   2.7737506053898773e-05   -0.00033757748124384223
-0.00013424677720404643   2.742132772288585e-05   -0.00012919208557725967
-0.00013424677720404643   2.742132772288585e-05   -0.00012919208557725967
-0.00013424677720404643   2.742132772288585e-05   -0.00012919208557725967
-0.00013424677720404643   2.742132772288585e-05   -0.00012919208557725967
-7.169734626826752e-05   2.1185231397176114e-05   -0.00022969947934146315
-7.169734626826752e-05   2.1185231397176114e-05   -0.00022969947934146315
-7.169734626826752e-05   2.1185231397176114e-05   -0.00022969947934146315
-7.169734626826752e-05   2.1185231397176114e-05   -0.00022969947934146315
-5.619088661400414e-06   -2.6784084612473677e-05   -0.00029982745528805564
-5.619088661400414e-06   -2.6784084612473677e-05   -0.00029982745528805564
-5.619088661400414e-06   -2.6784084612473677e-05   -0.00029982745528805564
-5.619088661400414e-06   -2.6784084612473677e-05   -0.00029982745528805564
0.00011841490119432387   -1.8003564490148144e-05   -8.783582678845419e-05
0.00011841490119432387   -1.8003564490148144e-05   -8.783582678845419e-05
0.00011841490119432387   -1.8003564490148144e-05   -8.783582678845419e-05
0.00011841490119432387   -1.8003564490148144e-05   -8.783582678845419e-05
0.0001182962733743989   -1.8147235189130582e-05   -0.0002964288796410173
0.0001182962733743989   -1.8147235189130582e-05   -0.0002964288796410173
0.0001182962733743989   -1.8147235189130582e-05   -0.0002964288796410173
0.0001182962733743989   -1.8147235189130582e-05   -0.0002964288796410173
-6.914162852687643e-06   -1.0029302309067477e-05   -9.261557899057735e-05
-6.914162852687643e-06   -1.0029302309067477e-05   -9.261557899057735e-05
-6.914162852687643e-06   -1.0029302309067477e-05   -9.261557899057735e-05
-6.914162852687643e-06   -1.0029302309067477e-05   -9.261557899057735e-05
5.561315311971864e-05   -1.7618404537212817e-05   -0.00019227431094103392
5.561315311971864e-05   -1.7618404537212817e-05   -0.00019227431094103392
5.561315311971864e-05   -1.7618404537212817e-05   -0.00019227431094103392
5.561315311971864e-05   -1.7618404537212817e-05   -0.00019227431094103392
-6.914162852687643e-06   -1.8147235189130365e-05   -0.00030129963936905454
-6.914162852687643e-06   -1.8147235189130365e-05   -0.00030129963936905454
-6.914162852687643e-06   -1.8147235189130365e-05   -0.00030129963936905454
-6.914162852687643e-06   -1.8147235189130365e-05   -0.00030129963936905454
0.0001182962733743989   -1.0029302309067043e-05   -8.774481926253895e-05
0.0001182962733743989   -1.0029302309067043e-05   -8.774481926253895e-05
0.0001182962733743989   -1.0029302309067043e-05   -8.774481926253895e-05
0.0001182962733743989   -1.0029302309067043e-05   -8.774481926253895e-05
0.00011881465100717549   -9.680422592249363e-06   -0.0003043045685078436
0.00011881465100717549   -9.680422592249363e-06   -0.0003043045685078436
0.00011881465100717549   -9.680422592249363e-06   -0.0003043045685078436
0.00011881465100717549   -9.680422592249363e-06   -0.0003043045685078436
-7.859679512891681e-06   -2.184600213977171e-06   -9.767817773469564e-05
-7.859679512891681e-06   -2.184600213977171e-06   -9.767817773469564e-05
-7.859679512891681e-06   -2.184600213977171e-06   -9.767817773469564e-05
-7.859679512891681e-06   -2.184600213977171e-06   -9.767817773469564e-05
5.389228955837175e-05   -1.0701396176145388e-05   -0.00019548804860949892
5.389228955837175e-05   -1.0701396176145388e-05   -0.00019548804860949892
5.389228955837175e-05   -1.0701396176145388e-05   -0.00019548804860949892
5.389228955837175e-05   -1.0701396176145388e-05   -0.00019548804860949892
-7.859679512891661e-06   -9.68042259224958e-06   -0.00030880206193480554
-7.859679512891661e-06   -9.68042259224958e-06   -0.00030880206193480554
-7.859679512891661e-06   -9.68042259224958e-06   -0.00030880206193480554
-7.859679512891661e-06   -9.68042259224958e-06   -0.00030880206193480554
0.00011881465100717549   -2.184600213977605e-06   -9.318068430773114e-05
0.00011881465100717549   -2.184600213977605e-06   -9.318068430773114e-05
0.00011881465100717549   -2.184600213977605e-06   -9.318068430773114e-05
0.00011881465100717549   -2.184600213977605e-06   -9.318068430773114e-05
0.0001178707250082732   8.002133644697748e-07   -0.0003131999120743247
0.0001178707250082732   8.002133644697748e-07   -0.0003131999120743247
0.0001178707250082732   8.002133644697748e-07   -0.0003131999120743247
0.0001178707250082732   8.002133644697748e-07   -0.0003131999120743247
-9.329364003260806e-06   6.997032011768142e-06   -0.00010491785491014766
-9.329364003260806e-06   6.997032011768142e-06   -0.00010491785491014766
-9.329364003260806e-06   6.997032011768142e-06   -0.00010491785491014766
-9.329364003260806e-06   6.997032011768142e-06   -0.00010491785491014766
5.3272984088013255e-05   -3.292372342161235e-06   -0.00020308145911657893
5.3272984088013255e-05   -3.292372342161235e-06   -0.00020308145911657893
5.3272984088013255e-05   -3.292372342161235e-06   -0.00020308145911657893
5.3272984088013255e-05   -3.292372342161235e-06   -0.00020308145911657893
0.00011841490119432371   -4.9834140751281626e-05   -0.00016788068641597335
0.00011841490119432371   -4.9834140751281626e-05   -0.00016788068641597335
0.00011841490119432371   -4.9834140751281626e-05   -0.00016788068641597335
0.00011841490119432371   -4.9834140751281626e-05   -0.00016788068641597335
0.00023476058352933323   -3.271917334515123e-05   3.6297764586054864e-05
0.00023476058352933323   -3.271917334515123e-05   3.6297764586054864e-05
0.00023476058352933323   -3.271917334515123e-05   3.6297764586054864e-05
0.00023476058352933323   -3.271917334515123e-05   3.6297764586054864e-05
0.00024257226045563474   -4.526083446736162e-05   -0.00018910562337049928
0.00024257226045563474   -4.526083446736162e-05   -0.00018910562337049928
0.00024257226045563474   -4.526083446736162e-05   -0.00018910562337049928
0.00024257226045563474   -4.526083446736162e-05   -0.00018910562337049928
0.00011829627337439863   -2.8140401124234805e-05   7.748761759018407e-06
0.00011829627337439863   -2.8140401124234805e-05   7.748761759018407e-06
0.00011829627337439863   -2.8140401124234805e-05   7.748761759018407e-06
0.00011829627337439863   -2.8140401124234805e-05   7.748761759018407e-06
0.00017087990342798485   -3.853027563533156e-05   -7.365669695696725e-05
0.00017087990342798485   -3.853027563533156e-05   -7.365669695696725e-05
0.00017087990342798485   -3.853027563533156e-05   -7.365669695696725e-05
0.00017087990342798485   -3.853027563533156e-05   -7.365669695696725e-05
0.00011829627337439852   -4.526083446736162e-05   -0.00019937788337637458
0.00011829627337439852   -4.526083446736162e-05   -0.00019937788337637458
0.00011829627337439852   -4.526083446736162e-05   -0.00019937788337637458
0.00011829627337439852   -4.526083446736162e-05   -0.00019937788337637458
0.00024257226045563474   -2.8140401124234805e-05   1.8021021764895017e-05
0.00024257226045563474   -2.8140401124234805e-05   1.8021021764895017e-05
0.00024257226045563474   -2.8140401124234805e-05   1.8021021764895017e-05
0.00024257226045563474   -2.8140401124234805e-05   1.8021021764895017e-05
0.0002485567687849239   -4.038699159120639e-05   -0.00021334484581400366
0.0002485567687849239   -4.038699159120639e-05   -0.00021334484581400366
0.0002485567687849239   -4.038699159120639e-05   -0.00021334484581400366
0.0002485567687849239   -4.038699159120639e-05   -0.00021334484581400366
0.00011881465100717505   -2.4194621217474548e-05   -6.823405075329059e-06
0.00011881465100717505   -2.4194621217474548e-05   -6.823405075329059e-06
0.00011881465100717505   -2.4194621217474548e-05   -6.823405075329059e-06
0.00011881465100717505   -2.4194621217474548e-05   -6.823405075329059e-06
0.0001766265578222763   -3.557426156790451e-05   -9.634879889023912e-05
0.0001766265578222763   -3.557426156790451e-05   -9.634879889023912e-05
0.0001766265578222763   -3.557426156790451e-05   -9.634879889023912e-05
0.0001766265578222763   -3.557426156790451e-05   -9.634879889023912e-05
0.00011881465100717521   -4.038699159120639e-05   -0.0002230602680382424
0.00011881465100717521   -4.038699159120639e-05   -0.0002230602680382424
0.00011881465100717521   -4.038699159120639e-05   -0.0002230602680382424
0.00011881465100717521   -4.038699159120639e-05   -0.0002230602680382424
0.00024855676878492335   -2.4194621217474982e-05   2.8920171489116298e-06
0.00024855676878492335   -2.4194621217474982e-05   2.8920171489116298e-06
0.00024855676878492335   -2.4194621217474982e-05   2.8920171489116298e-06
0.00024855676878492335   -2.4194621217474982e-05   2.8920171489116298e-06
0.0002549173445498944   -2.9893991077812503e-05   -0.00025454048621063906
0.0002549173445498944   -2.9893991077812503e-05   -0.00025454048621063906
0.0002549173445498944   -2.9893991077812503e-05   -0.00025454048621063906
0.0002549173445498944   -2.9893991077812503e-05   -0.00025454048621063906
0.00011787072500827277   -1.57506660376284e-05   -3.46154486653811e-05
0.00011787072500827277   -1.57506660376284e-05   -3.46154486653811e-05
0.00011787072500827277   -1.57506660376284e-05   -3.46154486653811e-05
0.00011787072500827277   -1.57506660376284e-05   -3.46154486653811e-05
0.0001758121982298499   -3.066900773182439e-05   -0.0001222335656848243
0.0001758121982298499   -3.066900773182439e-05   -0.0001222335656848243
0.0001758121982298499   -3.066900773182439e-05   -0.0001222335656848243
0.0001758121982298499   -3.066900773182439e-05   -0.0001222335656848243
-0.00028179455881996527   4.3146967093911446e-05   -0.00021395632866538436
-0.00028179455881996527   4.3146967093911446e-05   -0.00021395632866538436
-0.00028179455881996527   4.3146967093911446e-05   -0.00021395632866538436
-0.00028179455881996527   4.3146967093911446e-05   -0.00021395632866538436
-0.00019161603821268858   2.7510928937723306e-05   -7.30404172136353e-05
-0.00019161603821268858   2.7510928937723306e-05   -7.30404172136353e-05
-0.00019161603821268858   2.7510928937723306e-05   -7.30404172136353e-05
-0.00019161603821268858   2.7510928937723306e-05   -7.30404172136353e-05
-0.00019092360632893743   5.215830927239942e-05   -0.0001817522853644173
-0.00019092360632893743   5.215830927239942e-05   -0.0001817522853644173
-0.00019092360632893743   5.215830927239942e-05   -0.0001817522853644173
-0.00019092360632893743   5.215830927239942e-05   -0.0001817522853644173
-0.0002734274962671321   3.49843324805978e-05   -3.3941416059011034e-05
-0.0002734274962671321   3.49843324805978e-05   -3.3941416059011034e-05
-0.0002734274962671321   3.49843324805978e-05   -3.3941416059011034e-05
-0.0002734274962671321   3.49843324805978e-05   -3.3941416059011034e-05
-0.00022449593585507829   4.1536155602369534e-05   -0.00011942511061883076
-0.00022449593585507829   4.1536155602369534e-05   -0.00011942511061883076
-0.00022449593585507829   4.1536155602369534e-05   -0.00011942511061883076
-0.00022449593585507829   4.1536155602369534e-05   -0.00011942511061883076
-0.0002734274962671321   5.215830927239942e-05   -0.00017144789928933563
-0.0002734274962671321   5.215830927239942e-05   -0.00017144789928933563
-0.0002734274962671321   5.215830927239942e-05   -0.00017144789928933563
-0.0002734274962671321   5.215830927239942e-05   -0.00017144789928933563
-0.00019092360632893776   3.49843324805978e-05   -4.4245802134092486e-05
-0.00019092360632893776   3.49843324805978e-05   -4.4245802134092486e-05
-0.00019092360632893776   3.49843324805978e-05   -4.4245802134092486e-05
-0.00019092360632893776   3.49843324805978e-05   -4.4245802134092486e-05
-0.0001894791042712946   5.61110692209061e-05   -0.000158482703540911
-0.0001894791042712946   5.61110692209061e-05   -0.000158482703540911
-0.0001894791042712946   5.61110692209061e-05   -0.000158482703540911
-0.0001894791042712946   5.61110692209061e-05   -0.000158482703540911
-0.0002671621377094114   3.845771144156754e-05   -1.8418966476446263e-05
-0.0002671621377094114   3.845771144156754e-05   -1.8418966476446263e-05
-0.0002671621377094114   3.845771144156754e-05   -1.8418966476446263e-05
-0.0002671621377094114   3.845771144156754e-05   -1.8418966476446263e-05
-0.00022452887934442983   4.5704516468163085e-05   -9.382248010070607e-05
-0.00022452887934442983   4.5704516468163085e-05   -9.382248010070607e-05
-0.00022452887934442983   4.5704516468163085e-05   -9.382248010070607e-05
-0.00022452887934442983   4.5704516468163085e-05   -9.382248010070607e-05
-0.0002671621377094114   5.61110692209061e-05   -0.00014789068887330727
-0.0002671621377094114   5.61110692209061e-05   -0.00014789068887330727
-0.0002671621377094114   5.61110692209061e-05   -0.00014789068887330727
-0.0002671621377094114   5.61110692209061e-05   -0.00014789068887330727
-0.00018947910427129493   3.8457711441568405e-05   -2.901098114404849e-05
-0.00018947910427129493   3.8457711441568405e-05   -2.901098114404849e-05
-0.00018947910427129493   3.8457711441568405e-05   -2.901098114404849e-05
-0.00018947910427129493   3.8457711441568405e-05   -2.901098114404849e-05
-0.00018889384270163025   5.998061085037707e-05   -0.00012623921053072588
-0.00018889384270163025   5.998061085037707e-05   -0.00012623921053072588
-0.00018889384270163025   5.998061085037707e-05   -0.00012623921053072588
-0.00018889384270163025   5.998061085037707e-05   -0.00012623921053072588
-0.0002589519357309076   4.28120983385627e-05   8.25385358493684e-07
-0.0002589519357309076   4.28120983385627e-05   8.25385358493684e-07
-0.0002589519357309076   4.28120983385627e-05   8.25385358493684e-07
-0.0002589519357309076   4.28120983385627e-05   8.25385358493684e-07
-0.00021789683755306654   4.794664795319901e-05   -7.068050804002373e-05
-0.00021789683755306654   4.794664795319901e-05   -7.068050804002373e-05
-0.00021789683755306654   4.794664795319901e-05   -7.068050804002373e-05
-0.00021789683755306654   4.794664795319901e-05   -7.068050804002373e-05
-0.00019161603821268825   2.1488486990641018e-05   -0.00027207730785156403
-0.00019161603821268825   2.1488486990641018e-05   -0.00027207730785156403
-0.00019161603821268825   2.1488486990641018e-05   -0.00027207730785156403
-0.00019161603821268825   2.1488486990641018e-05   -0.00027207730785156403
-0.00010995746750145562   1.4181215828808214e-05   -0.00014036405269661012
-0.00010995746750145562   1.4181215828808214e-05   -0.00014036405269661012
-0.00010995746750145562   1.4181215828808214e-05   -0.00014036405269661012
-0.00010995746750145562   1.4181215828808214e-05   -0.00014036405269661012
-0.00011000840055182124   3.034554862925117e-05   -0.0002697621453041292
-0.00011000840055182124   3.034554862925117e-05   -0.0002697621453041292
-0.00011000840055182124   3.034554862925117e-05   -0.0002697621453041292
-0.00011000840055182124   3.034554862925117e-05   -0.0002697621453041292
-0.00019092360632893743   2.2065144123766672e-05   -0.00012993522630564444
-0.00019092360632893743   2.2065144123766672e-05   -0.00012993522630564444
-0.00019092360632893743   2.2065144123766672e-05   -0.00012993522630564444
-0.00019092360632893743   2.2065144123766672e-05   -0.00012993522630564444
-0.00014923975094606812   2.34783520545118e-05   -0.00020025624336887475
-0.00014923975094606812   2.34783520545118e-05   -0.00020025624336887475
-0.00014923975094606812   2.34783520545118e-05   -0.00020025624336887475
-0.00014923975094606812   2.34783520545118e-05   -0.00020025624336887475
-0.0001909236063289371   3.0345548629250735e-05   -0.0002647939026008373
-0.0001909236063289371   3.0345548629250735e-05   -0.0002647939026008373
-0.0001909236063289371   3.0345548629250735e-05   -0.0002647939026008373
-0.0001909236063289371   3.0345548629250735e-05   -0.0002647939026008373
-0.00011000840055182124   2.2065144123766672e-05   -0.00013490346900893544
-0.00011000840055182124   2.2065144123766672e-05   -0.00013490346900893544
-0.00011000840055182124   2.2065144123766672e-05   -0.00013490346900893544
-0.00011000840055182124   2.2065144123766672e-05   -0.00013490346900893544
-0.00010992327033193018   3.820616289718342e-05   -0.0002637135110325267
-0.00010992327033193018   3.820616289718342e-05   -0.0002637135110325267
-0.00010992327033193018   3.820616289718342e-05   -0.0002637135110325267
-0.00010992327033193018   3.820616289718342e-05   -0.0002637135110325267
-0.0001894791042712946   2.9230323279500273e-05   -0.00012573495069630983
-0.0001894791042712946   2.9230323279500273e-05   -0.00012573495069630983
-0.0001894791042712946   2.9230323279500273e-05   -0.00012573495069630983
-0.0001894791042712946   2.9230323279500273e-05   -0.00012573495069630983
-0.0001485401233510253   2.9944751571787075e-05   -0.0001943952425387959
-0.0001485401233510253   2.9944751571787075e-05   -0.0001943952425387959
-0.0001485401233510253   2.9944751571787075e-05   -0.0001943952425387959
-0.0001485401233510253   2.9944751571787075e-05   -0.0001943952425387959
-0.0001894791042712946   3.820616289718342e-05   -0.00025832800726191736
-0.0001894791042712946   3.820616289718342e-05   -0.00025832800726191736
-0.0001894791042712946   3.820616289718342e-05   -0.00025832800726191736
-0.0001894791042712946   3.820616289718342e-05   -0.00025832800726191736
-0.0001099232703319304   2.9230323279499405e-05   -0.00013112045446691937
-0.0001099232703319304   2.9230323279499405e-05   -0.00013112045446691937
-0.0001099232703319304   2.9230323279499405e-05   -0.00013112045446691937
-0.0001099232703319304   2.9230323279499405e-05   -0.00013112045446691937
-0.00011000559189207522   4.655927477499513e-05   -0.0002647734416877357
-0.00011000559189207522   4.655927477499513e-05   -0.0002647734416877357
-0.00011000559189207522   4.655927477499513e-05   -0.0002647734416877357
-0.00011000559189207522   4.655927477499513e-05   -0.0002647734416877357
-0.00018889384270163036   3.700439347693353e-05   -0.00012756009489297226
-0.00018889384270163036   3.700439347693353e-05   -0.00012756009489297226
-0.00018889384270163036   3.700439347693353e-05   -0.00012756009489297226
-0.00018889384270163036   3.700439347693353e-05   -0.00012756009489297226
-0.00014949799502638028   3.6332764994284096e-05   -0.00019281686392879954
-0.00014949799502638028   3.6332764994284096e-05   -0.00019281686392879954
-0.00014949799502638028   3.6332764994284096e-05   -0.00019281686392879954
-0.00014949799502638028   3.6332764994284096e-05   -0.00019281686392879954
-0.0001099574675014554   1.1389655444468336e-06   -0.000300167906235004
-0.0001099574675014554   1.1389655444468336e-06   -0.000300167906235004
-0.0001099574675014554   1.1389655444468336e-06   -0.000300167906235004
-0.0001099574675014554   1.1389655444468336e-06   -0.000300167906235004
-2.9472187670805e-05   2.415321429676681e-06   -0.00016525995965278135
-2.9472187670805e-05   2.415321429676681e-06   -0.00016525995965278135
-2.9472187670805e-05   2.415321429676681e-06   -0.00016525995965278135
-2.9472187670805e-05   2.415321429676681e-06   -0.00016525995965278135
-2.9523955878067246e-05   9.850000596761839e-06   -0.00029688218549617316
-2.9523955878067246e-05   9.850000596761839e-06   -0.00029688218549617316
-2.9523955878067246e-05   9.850000596761839e-06   -0.00029688218549617316
-2.9523955878067246e-05   9.850000596761839e-06   -0.00029688218549617316
-0.00011000840055182102   1.0332966575368405e-05   -0.00016303122396041435
-0.00011000840055182102   1.0332966575368405e-05   -0.00016303122396041435
-0.00011000840055182102   1.0332966575368405e-05   -0.00016303122396041435
-0.00011000840055182102   1.0332966575368405e-05   -0.00016303122396041435
-6.92793184814352e-05   6.950935885391245e-06   -0.00022888380899707054
-6.92793184814352e-05   6.950935885391245e-06   -0.00022888380899707054
-6.92793184814352e-05   6.950935885391245e-06   -0.00022888380899707054
-6.92793184814352e-05   6.950935885391245e-06   -0.00022888380899707054
-0.00011000840055182102   9.850000596761839e-06   -0.0002971719650833376
-0.00011000840055182102   9.850000596761839e-06   -0.0002971719650833376
-0.00011000840055182102   9.850000596761839e-06   -0.0002971719650833376
-0.00011000840055182102   9.850000596761839e-06   -0.0002971719650833376
-2.9523955878067246e-05   1.0332966575368405e-05   -0.0001627414443732499
-2.9523955878067246e-05   1.0332966575368405e-05   -0.0001627414443732499
-2.9523955878067246e-05   1.0332966575368405e-05   -0.0001627414443732499
-2.9523955878067246e-05   1.0332966575368405e-05   -0.0001627414443732499
-2.9415218717402536e-05   1.853431084429362e-05   -0.0002976486362394398
-2.9415218717402536e-05   1.853431084429362e-05   -0.0002976486362394398
-2.9415218717402536e-05   1.853431084429362e-05   -0.0002976486362394398
-2.9415218717402536e-05   1.853431084429362e-05   -0.0002976486362394398
-0.00010992327033193018   1.827578066332207e-05   -0.0001633134321066443
-0.00010992327033193018   1.827578066332207e-05   -0.0001633134321066443
-0.00010992327033193018   1.827578066332207e-05   -0.0001633134321066443
-0.00010992327033193018   1.827578066332207e-05   -0.0001633134321066443
-6.973955085093995e-05   1.3871988691353983e-05   -0.00022764402272511394
-6.973955085093995e-05   1.3871988691353983e-05   -0.00022764402272511394
-6.973955085093995e-05   1.3871988691353983e-05   -0.00022764402272511394
-6.973955085093995e-05   1.3871988691353983e-05   -0.00022764402272511394
-0.00010992327033193018   1.853431084429362e-05   -0.00029749351813085725
-0.00010992327033193018   1.853431084429362e-05   -0.00029749351813085725
-0.00010992327033193018   1.853431084429362e-05   -0.00029749351813085725
-0.00010992327033193018   1.853431084429362e-05   -0.00029749351813085725
-2.941521871740259e-05   1.827578066332207e-05   -0.00016346855021522663
-2.941521871740259e-05   1.827578066332207e-05   -0.00016346855021522663
-2.941521871740259e-05   1.827578066332207e-05   -0.00016346855021522663
-2.941521871740259e-05   1.827578066332207e-05   -0.00016346855021522663
-2.9459908601871716e-05   2.742132772288585e-05   -0.0003021533320361732
-2.9459908601871716e-05   2.742132772288585e-05   -0.0003021533320361732
-2.9459908601871716e-05   2.742132772288585e-05   -0.0003021533320361732
-2.9459908601871716e-05   2.742132772288585e-05   -0.0003021533320361732
-0.00011000559189207516   2.6357472112168226e-05   -0.0001672722131860684
-0.00011000559189207516   2.6357472112168226e-05   -0.0001672722131860684
-0.00011000559189207516   2.6357472112168226e-05   -0.0001672722131860684
-0.00011000559189207516   2.6357472112168226e-05   -0.0001672722131860684
-7.03357073766994e-05   2.0883857445267752e-05   -0.00023010451857822145
-7.03357073766994e-05   2.0883857445267752e-05   -0.00023010451857822145
-7.03357073766994e-05   2.0883857445267752e-05   -0.00023010451857822145
-7.03357073766994e-05   2.0883857445267752e-05   -0.00023010451857822145
-2.947218767080495e-05   -1.8003564490148578e-05   -0.00026586343197273045
-2.947218767080495e-05   -1.8003564490148578e-05   -0.00026586343197273045
-2.947218767080495e-05   -1.8003564490148578e-05   -0.00026586343197273045
-2.947218767080495e-05   -1.8003564490148578e-05   -0.00026586343197273045
4.9901171545135934e-05   -8.352464806641625e-06   -0.00012778384013605905
4.9901171545135934e-05   -8.352464806641625e-06   -0.00012778384013605905
4.9901171545135934e-05   -8.352464806641625e-06   -0.00012778384013605905
4.9901171545135934e-05   -8.352464806641625e-06   -0.00012778384013605905
5.055138289307101e-05   -1.0029302309067043e-05   -0.00025986371172670203
5.055138289307101e-05   -1.0029302309067043e-05   -0.00025986371172670203
5.055138289307101e-05   -1.0029302309067043e-05   -0.00025986371172670203
5.055138289307101e-05   -1.0029302309067043e-05   -0.00025986371172670203
-2.9523955878067246e-05   -9.04006915032271e-07   -0.0001318799910112263
-2.9523955878067246e-05   -9.04006915032271e-07   -0.0001318799910112263
-2.9523955878067246e-05   -9.04006915032271e-07   -0.0001318799910112263
-2.9523955878067246e-05   -9.04006915032271e-07   -0.0001318799910112263
1.0402381560033687e-05   -8.635510830419524e-06   -0.0001937849843921621
1.0402381560033687e-05   -8.635510830419524e-06   -0.0001937849843921621
1.0402381560033687e-05   -8.635510830419524e-06   -0.0001937849843921621
1.0402381560033687e-05   -8.635510830419524e-06   -0.0001937849843921621
-2.9523955878067246e-05   -1.0029302309067477e-05   -0.00026533888896312333
-2.9523955878067246e-05   -1.0029302309067477e-05   -0.00026533888896312333
-2.9523955878067246e-05   -1.0029302309067477e-05   -0.00026533888896312333
-2.9523955878067246e-05   -1.0029302309067477e-05   -0.00026533888896312333
5.0551382893071115e-05   -9.04006915032271e-07   -0.0001264048137748059
5.0551382893071115e-05   -9.04006915032271e-07   -0.0001264048137748059
5.0551382893071115e-05   -9.04006915032271e-07   -0.0001264048137748059
5.0551382893071115e-05   -9.04006915032271e-07   -0.0001264048137748059
5.206894276090011e-05   -2.184600213977605e-06   -0.0002653600371048609
5.206894276090011e-05   -2.184600213977605e-06   -0.0002653600371048609
5.206894276090011e-05   -2.184600213977605e-06   -0.0002653600371048609
5.206894276090011e-05   -2.184600213977605e-06   -0.0002653600371048609
-2.941521871740259e-05   6.270160544424169e-06   -0.00013462595776273152
-2.941521871740259e-05   6.270160544424169e-06   -0.00013462595776273152
-2.941521871740259e-05   6.270160544424169e-06   -0.00013462595776273152
-2.941521871740259e-05   6.270160544424169e-06   -0.00013462595776273152
9.946486069034756e-06   -2.4412209007982494e-06   -0.00019500197020632585
9.946486069034756e-06   -2.4412209007982494e-06   -0.00019500197020632585
9.946486069034756e-06   -2.4412209007982494e-06   -0.00019500197020632585
9.946486069034756e-06   -2.4412209007982494e-06   -0.00019500197020632585
-2.9415218717402566e-05   -2.184600213977605e-06   -0.00027043289355990156
-2.9415218717402566e-05   -2.184600213977605e-06   -0.00027043289355990156
-2.9415218717402566e-05   -2.184600213977605e-06   -0.00027043289355990156
-2.9415218717402566e-05   -2.184600213977605e-06   -0.00027043289355990156
5.206894276090033e-05   6.270160544425037e-06   -0.00012955310130768937
5.206894276090033e-05   6.270160544425037e-06   -0.00012955310130768937
5.206894276090033e-05   6.270160544425037e-06   -0.00012955310130768937
5.206894276090033e-05   6.270160544425037e-06   -0.00012955310130768937
5.280787781192784e-05   6.997032011768142e-06   -0.00027318625750582127
5.280787781192784e-05   6.997032011768142e-06   -0.00027318625750582127
5.280787781192784e-05   6.997032011768142e-06   -0.00027318625750582127
5.280787781192784e-05   6.997032011768142e-06   -0.00027318625750582127
-2.9459908601871662e-05   1.4502260119486285e-05   -0.0001405764170141192
-2.9459908601871662e-05   1.4502260119486285e-05   -0.0001405764170141192
-2.9459908601871662e-05   1.4502260119486285e-05   -0.0001405764170141192
-2.9459908601871662e-05   1.4502260119486285e-05   -0.0001405764170141192
1.0226670133318604e-05   4.1941332049174815e-06   -0.0002005358387573611
1.0226670133318604e-05   4.1941332049174815e-06   -0.0002005358387573611
1.0226670133318604e-05   4.1941332049174815e-06   -0.0002005358387573611
1.0226670133318604e-05   4.1941332049174815e-06   -0.0002005358387573611
4.9901171545135826e-05   -3.271917334515123e-05   -0.0001462081612317958
4.9901171545135826e-05   -3.271917334515123e-05   -0.0001462081612317958
4.9901171545135826e-05   -3.271917334515123e-05   -0.0001462081612317958
4.9901171545135826e-05   -3.271917334515123e-05   -0.0001462081612317958
0.0001206176222280904   -1.5400701532758583e-05   -1.7956327006103147e-05
0.0001206176222280904   -1.5400701532758583e-05   -1.7956327006103147e-05
0.0001206176222280904   -1.5400701532758583e-05   -1.7956327006103147e-05
0.0001206176222280904   -1.5400701532758583e-05   -1.7956327006103147e-05
0.00012893804702479605   -2.814040112423524e-05   -0.00015370643176710946
0.00012893804702479605   -2.814040112423524e-05   -0.00015370643176710946
0.00012893804702479605   -2.814040112423524e-05   -0.00015370643176710946
0.00012893804702479605   -2.814040112423524e-05   -0.00015370643176710946
5.0551382893071115e-05   -1.0367569560842775e-05   -3.372569048560334e-05
5.0551382893071115e-05   -1.0367569560842775e-05   -3.372569048560334e-05
5.0551382893071115e-05   -1.0367569560842775e-05   -3.372569048560334e-05
5.0551382893071115e-05   -1.0367569560842775e-05   -3.372569048560334e-05
8.377108426108488e-05   -2.098799872556241e-05   -8.271960193346117e-05
8.377108426108488e-05   -2.098799872556241e-05   -8.271960193346117e-05
8.377108426108488e-05   -2.098799872556241e-05   -8.271960193346117e-05
8.377108426108488e-05   -2.098799872556241e-05   -8.271960193346117e-05
5.055138289307101e-05   -2.8140401124234805e-05   -0.00016437013070514338
5.055138289307101e-05   -2.8140401124234805e-05   -0.00016437013070514338
5.055138289307101e-05   -2.8140401124234805e-05   -0.00016437013070514338
5.055138289307101e-05   -2.8140401124234805e-05   -0.00016437013070514338
0.00012893804702479562   -1.0367569560842775e-05   -2.306199154756758e-05
0.00012893804702479562   -1.0367569560842775e-05   -2.306199154756758e-05
0.00012893804702479562   -1.0367569560842775e-05   -2.306199154756758e-05
0.00012893804702479562   -1.0367569560842775e-05   -2.306199154756758e-05
0.00013533296097291295   -2.4194621217474982e-05   -0.0001686153513637829
0.00013533296097291295   -2.4194621217474982e-05   -0.0001686153513637829
0.00013533296097291295   -2.4194621217474982e-05   -0.0001686153513637829
0.00013533296097291295   -2.4194621217474982e-05   -0.0001686153513637829
5.206894276090033e-05   -6.882277036349312e-06   -4.0229394185770854e-05
5.206894276090033e-05   -6.882277036349312e-06   -4.0229394185770854e-05
5.206894276090033e-05   -6.882277036349312e-06   -4.0229394185770854e-05
5.206894276090033e-05   -6.882277036349312e-06   -4.0229394185770854e-05
8.887527402386299e-05   -1.840825641658602e-05   -9.465769199589955e-05
8.887527402386299e-05   -1.840825641658602e-05   -9.465769199589955e-05
8.887527402386299e-05   -1.840825641658602e-05   -9.465769199589955e-05
8.887527402386299e-05   -1.840825641658602e-05   -9.465769199589955e-05
5.206894276090022e-05   -2.4194621217474548e-05   -0.0001790027578724581
5.206894276090022e-05   -2.4194621217474548e-05   -0.0001790027578724581
5.206894276090022e-05   -2.4194621217474548e-05   -0.0001790027578724581
5.206894276090022e-05   -2.4194621217474548e-05   -0.0001790027578724581
0.00013533296097291252   -6.882277036348444e-06   -2.9841987677094693e-05
0.00013533296097291252   -6.882277036348444e-06   -2.9841987677094693e-05
0.00013533296097291252   -6.882277036348444e-06   -2.9841987677094693e-05
0.00013533296097291252   -6.882277036348444e-06   -2.9841987677094693e-05
0.00014381807060121475   -1.57506660376284e-05   -0.00019715794249447536
0.00014381807060121475   -1.57506660376284e-05   -0.00019715794249447536
0.00014381807060121475   -1.57506660376284e-05   -0.00019715794249447536
0.00014381807060121475   -1.57506660376284e-05   -0.00019715794249447536
5.280787781192795e-05   -1.066611269619211e-08   -5.491828780062257e-05
5.280787781192795e-05   -1.066611269619211e-08   -5.491828780062257e-05
5.280787781192795e-05   -1.066611269619211e-08   -5.491828780062257e-05
5.280787781192795e-05   -1.066611269619211e-08   -5.491828780062257e-05
9.054195801430913e-05   -1.4542106738264261e-05   -0.00010908955709591707
9.054195801430913e-05   -1.4542106738264261e-05   -0.00010908955709591707
9.054195801430913e-05   -1.4542106738264261e-05   -0.00010908955709591707
9.054195801430913e-05   -1.4542106738264261e-05   -0.00010908955709591707
-0.00017115512261605477   2.751092893772244e-05   -0.00016001622854019395
-0.00017115512261605477   2.751092893772244e-05   -0.00016001622854019395
-0.00017115512261605477   2.751092893772244e-05   -0.00016001622854019395
-0.00017115512261605477   2.751092893772244e-05   -0.00016001622854019395
-0.00012604800395770864   1.1263891418455615e-05   -9.458591995451047e-05
-0.00012604800395770864   1.1263891418455615e-05   -9.458591995451047e-05
-0.00012604800395770864   1.1263891418455615e-05   -9.458591995451047e-05
-0.00012604800395770864   1.1263891418455615e-05   -9.458591995451047e-05
-0.00012417582436193616   3.49843324805978e-05   -0.00014116111011161156
-0.00012417582436193616   3.49843324805978e-05   -0.00014116111011161156
-0.00012417582436193616   3.49843324805978e-05   -0.00014116111011161156
-0.00012417582436193616   3.49843324805978e-05   -0.00014116111011161156
-0.00016189567767001083   1.7494317800711805e-05   -6.780067912355494e-05
-0.00016189567767001083   1.7494317800711805e-05   -6.780067912355494e-05
-0.00016189567767001083   1.7494317800711805e-05   -6.780067912355494e-05
-0.00016189567767001083   1.7494317800711805e-05   -6.780067912355494e-05
-0.0001396396421041639   2.4666253330663315e-05   -0.00010919723305127761
-0.0001396396421041639   2.4666253330663315e-05   -0.00010919723305127761
-0.0001396396421041639   2.4666253330663315e-05   -0.00010919723305127761
-0.0001396396421041639   2.4666253330663315e-05   -0.00010919723305127761
-0.00016189567767001083   3.49843324805978e-05   -0.00013066710130368083
-0.00016189567767001083   3.49843324805978e-05   -0.00013066710130368083
-0.00016189567767001083   3.49843324805978e-05   -0.00013066710130368083
-0.00016189567767001083   3.49843324805978e-05   -0.00013066710130368083
-0.00012417582436193638   1.7494317800711805e-05   -7.82946879314874e-05
-0.00012417582436193638   1.7494317800711805e-05   -7.82946879314874e-05
-0.00012417582436193638   1.7494317800711805e-05   -7.82946879314874e-05
-0.00012417582436193638   1.7494317800711805e-05   -7.82946879314874e-05
-0.00012150939699187612   3.845771144156754e-05   -0.00012605692384794111
-0.00012150939699187612   3.845771144156754e-05   -0.00012605692384794111
-0.00012150939699187612   3.845771144156754e-05   -0.00012605692384794111
-0.00012150939699187612   3.845771144156754e-05   -0.00012605692384794111
-0.00015449338723523488   2.0632032324082242e-05   -6.038819930518453e-05
-0.00015449338723523488   2.0632032324082242e-05   -6.038819930518453e-05
-0.00015449338723523488   2.0632032324082242e-05   -6.038819930518453e-05
-0.00015449338723523488   2.0632032324082242e-05   -6.038819930518453e-05
-0.00013718854465619883   2.8023967966574366e-05   -9.366476498907364e-05
-0.00013718854465619883   2.8023967966574366e-05   -9.366476498907364e-05
-0.00013718854465619883   2.8023967966574366e-05   -9.366476498907364e-05
-0.00013718854465619883   2.8023967966574366e-05   -9.366476498907364e-05
-0.00015449338723523445   3.845771144156754e-05   -0.00011536151637745037
-0.00015449338723523445   3.845771144156754e-05   -0.00011536151637745037
-0.00015449338723523445   3.845771144156754e-05   -0.00011536151637745037
-0.00015449338723523445   3.845771144156754e-05   -0.00011536151637745037
-0.00012150939699187633   2.0632032324082242e-05   -7.108360677567571e-05
-0.00012150939699187633   2.0632032324082242e-05   -7.108360677567571e-05
-0.00012150939699187633   2.0632032324082242e-05   -7.108360677567571e-05
-0.00012150939699187633   2.0632032324082242e-05   -7.108360677567571e-05
-0.00011967809529108277   4.281209833856183e-05   -0.00010665822722991276
-0.00011967809529108277   4.281209833856183e-05   -0.00010665822722991276
-0.00011967809529108277   4.281209833856183e-05   -0.00010665822722991276
-0.00011967809529108277   4.281209833856183e-05   -0.00010665822722991276
-0.00014506363977605588   2.559729346228619e-05   -5.402010349585826e-05
-0.00014506363977605588   2.559729346228619e-05   -5.402010349585826e-05
-0.00014506363977605588   2.559729346228619e-05   -5.402010349585826e-05
-0.00014506363977605588   2.559729346228619e-05   -5.402010349585826e-05
-0.00013076705881512427   3.0335750157358364e-05   -8.069081244779092e-05
-0.00013076705881512427   3.0335750157358364e-05   -8.069081244779092e-05
-0.00013076705881512427   3.0335750157358364e-05   -8.069081244779092e-05
-0.00013076705881512427   3.0335750157358364e-05   -8.069081244779092e-05
-0.00012604800395770864   1.4181215828808214e-05   -0.0002327037238376282
-0.00012604800395770864   1.4181215828808214e-05   -0.0002327037238376282
-0.00012604800395770864   1.4181215828808214e-05   -0.0002327037238376282
-0.00012604800395770864   1.4181215828808214e-05   -0.0002327037238376282
-8.943806845572249e-05   6.411703895256755e-06   -0.0001763488718277825
-8.943806845572249e-05   6.411703895256755e-06   -0.0001763488718277825
-8.943806845572249e-05   6.411703895256755e-06   -0.0001763488718277825
-8.943806845572249e-05   6.411703895256755e-06   -0.0001763488718277825
-8.819968022895288e-05   2.2065144123766672e-05   -0.0002319594538579238
-8.819968022895288e-05   2.2065144123766672e-05   -0.0002319594538579238
-8.819968022895288e-05   2.2065144123766672e-05   -0.0002319594538579238
-8.819968022895288e-05   2.2065144123766672e-05   -0.0002319594538579238
-0.0001241758243619366   1.3550278165833443e-05   -0.0001668902940615228
-0.0001241758243619366   1.3550278165833443e-05   -0.0001668902940615228
-0.0001241758243619366   1.3550278165833443e-05   -0.0001668902940615228
-0.0001241758243619366   1.3550278165833443e-05   -0.0001668902940615228
-0.0001059230561242023   1.540788837845787e-05   -0.0001984261405853266
-0.0001059230561242023   1.540788837845787e-05   -0.0001984261405853266
-0.0001059230561242023   1.540788837845787e-05   -0.0001984261405853266
-0.0001059230561242023   1.540788837845787e-05   -0.0001984261405853266
-0.00012417582436193616   2.2065144123765805e-05   -0.00022685053428316265
-0.00012417582436193616   2.2065144123765805e-05   -0.00022685053428316265
-0.00012417582436193616   2.2065144123765805e-05   -0.00022685053428316265
-0.00012417582436193616   2.2065144123765805e-05   -0.00022685053428316265
-8.819968022895288e-05   1.3550278165833443e-05   -0.0001719992136362833
-8.819968022895288e-05   1.3550278165833443e-05   -0.0001719992136362833
-8.819968022895288e-05   1.3550278165833443e-05   -0.0001719992136362833
-8.819968022895288e-05   1.3550278165833443e-05   -0.0001719992136362833
-8.683370968142195e-05   2.9230323279500273e-05   -0.00022821141420876784
-8.683370968142195e-05   2.9230323279500273e-05   -0.00022821141420876784
-8.683370968142195e-05   2.9230323279500273e-05   -0.00022821141420876784
-8.683370968142195e-05   2.9230323279500273e-05   -0.00022821141420876784
-0.00012150939699187655   2.0179455265225202e-05   -0.0001649880812161107
-0.00012150939699187655   2.0179455265225202e-05   -0.0001649880812161107
-0.00012150939699187655   2.0179455265225202e-05   -0.0001649880812161107
-0.00012150939699187655   2.0179455265225202e-05   -0.0001649880812161107
-0.00010430113796114669   2.1170253039930198e-05   -0.00019426299159881473
-0.00010430113796114669   2.1170253039930198e-05   -0.00019426299159881473
-0.00010430113796114669   2.1170253039930198e-05   -0.00019426299159881473
-0.00010430113796114669   2.1170253039930198e-05   -0.00019426299159881473
-0.00012150939699187612   2.9230323279499405e-05   -0.0002227808934002016
-0.00012150939699187612   2.9230323279499405e-05   -0.0002227808934002016
-0.00012150939699187612   2.9230323279499405e-05   -0.0002227808934002016
-0.00012150939699187612   2.9230323279499405e-05   -0.0002227808934002016
-8.683370968142173e-05   2.0179455265225202e-05   -0.00017041860202467478
-8.683370968142173e-05   2.0179455265225202e-05   -0.00017041860202467478
-8.683370968142173e-05   2.0179455265225202e-05   -0.00017041860202467478
-8.683370968142173e-05   2.0179455265225202e-05   -0.00017041860202467478
-8.561403777266935e-05   3.700439347693353e-05   -0.00023042290625339707
-8.561403777266935e-05   3.700439347693353e-05   -0.00023042290625339707
-8.561403777266935e-05   3.700439347693353e-05   -0.00023042290625339707
-8.561403777266935e-05   3.700439347693353e-05   -0.00023042290625339707
-0.00011967809529108298   2.7537216345089634e-05   -0.00016796917077693298
-0.00011967809529108298   2.7537216345089634e-05   -0.00016796917077693298
-0.00011967809529108298   2.7537216345089634e-05   -0.00016796917077693298
-0.00011967809529108298   2.7537216345089634e-05   -0.00016796917077693298
-0.00010365115589187288   2.6997454638330413e-05   -0.00019435687941823
-0.00010365115589187288   2.6997454638330413e-05   -0.00019435687941823
-0.00010365115589187288   2.6997454638330413e-05   -0.00019435687941823
-0.00010365115589187288   2.6997454638330413e-05   -0.00019435687941823
-8.943806845572216e-05   2.415321429676681e-06   -0.00026302715148507
-8.943806845572216e-05   2.415321429676681e-06   -0.00026302715148507
-8.943806845572216e-05   2.415321429676681e-06   -0.00026302715148507
-8.943806845572216e-05   2.415321429676681e-06   -0.00026302715148507
-5.3797593021022235e-05   3.6381562098682096e-06   -0.0002028926582257895
-5.3797593021022235e-05   3.6381562098682096e-06   -0.0002028926582257895
-5.3797593021022235e-05   3.6381562098682096e-06   -0.0002028926582257895
-5.3797593021022235e-05   3.6381562098682096e-06   -0.0002028926582257895
-5.2587694998096186e-05   1.0332966575368405e-05   -0.00025974740964043947
-5.2587694998096186e-05   1.0332966575368405e-05   -0.00025974740964043947
-5.2587694998096186e-05   1.0332966575368405e-05   -0.00025974740964043947
-5.2587694998096186e-05   1.0332966575368405e-05   -0.00025974740964043947
-8.819968022895288e-05   1.0899298523643283e-05   -0.00020073390009130707
-8.819968022895288e-05   1.0899298523643283e-05   -0.00020073390009130707
-8.819968022895288e-05   1.0899298523643283e-05   -0.00020073390009130707
-8.819968022895288e-05   1.0899298523643283e-05   -0.00020073390009130707
-7.055190609703155e-05   7.826774345606573e-06   -0.0002283033424710254
-7.055190609703155e-05   7.826774345606573e-06   -0.0002283033424710254
-7.055190609703155e-05   7.826774345606573e-06   -0.0002283033424710254
-7.055190609703155e-05   7.826774345606573e-06   -0.0002283033424710254
-8.819968022895266e-05   1.0332966575369272e-05   -0.0002600872088094029
-8.819968022895266e-05   1.0332966575369272e-05   -0.0002600872088094029
-8.819968022895266e-05   1.0332966575369272e-05   -0.0002600872088094029
-8.819968022895266e-05   1.0332966575369272e-05   -0.0002600872088094029
-5.2587694998096186e-05   1.0899298523643283e-05   -0.00020039410092234427
-5.2587694998096186e-05   1.0899298523643283e-05   -0.00020039410092234427
-5.2587694998096186e-05   1.0899298523643283e-05   -0.00020039410092234427
-5.2587694998096186e-05   1.0899298523643283e-05   -0.00020039410092234427
-5.123187113302541e-05   1.827578066332207e-05   -0.0002604351648050223
-5.123187113302541e-05   1.827578066332207e-05   -0.0002604351648050223
-5.123187113302541e-05   1.827578066332207e-05   -0.0002604351648050223
-5.123187113302541e-05   1.827578066332207e-05   -0.0002604351648050223
-8.683370968142173e-05   1.8224492402437245e-05   -0.0002010679942678296
-8.683370968142173e-05   1.8224492402437245e-05   -0.0002010679942678296
-8.683370968142173e-05   1.8224492402437245e-05   -0.0002010679942678296
-8.683370968142173e-05   1.8224492402437245e-05   -0.0002010679942678296
-6.973171342693038e-05   1.4058681806166165e-05   -0.00022707183500088692
-6.973171342693038e-05   1.4058681806166165e-05   -0.00022707183500088692
-6.973171342693038e-05   1.4058681806166165e-05   -0.00022707183500088692
-6.973171342693038e-05   1.4058681806166165e-05   -0.00022707183500088692
-8.683370968142162e-05   1.827578066332207e-05   -0.00026040439184849126
-8.683370968142162e-05   1.827578066332207e-05   -0.00026040439184849126
-8.683370968142162e-05   1.827578066332207e-05   -0.00026040439184849126
-8.683370968142162e-05   1.827578066332207e-05   -0.00026040439184849126
-5.1231871133025495e-05   1.8224492402437245e-05   -0.00020109876722436068
-5.1231871133025495e-05   1.8224492402437245e-05   -0.00020109876722436068
-5.1231871133025495e-05   1.8224492402437245e-05   -0.00020109876722436068
-5.1231871133025495e-05   1.8224492402437245e-05   -0.00020109876722436068
-5.001220967807684e-05   2.635747211216736e-05   -0.00026482074456794357
-5.001220967807684e-05   2.635747211216736e-05   -0.00026482074456794357
-5.001220967807684e-05   2.635747211216736e-05   -0.00026482074456794357
-5.001220967807684e-05   2.635747211216736e-05   -0.00026482074456794357
-8.561403777266935e-05   2.5659724111688938e-05   -0.00020506571561000088
-8.561403777266935e-05   2.5659724111688938e-05   -0.00020506571561000088
-8.561403777266935e-05   2.5659724111688938e-05   -0.00020506571561000088
-8.561403777266935e-05   2.5659724111688938e-05   -0.00020506571561000088
-6.904826175170976e-05   2.0373282654756984e-05   -0.00022950347743744216
-6.904826175170976e-05   2.0373282654756984e-05   -0.00022950347743744216
-6.904826175170976e-05   2.0373282654756984e-05   -0.00022950347743744216
-6.904826175170976e-05   2.0373282654756984e-05   -0.00022950347743744216
-5.3797593021022045e-05   -8.352464806641625e-06   -0.00023060799091033715
-5.3797593021022045e-05   -8.352464806641625e-06   -0.00023060799091033715
-5.3797593021022045e-05   -8.352464806641625e-06   -0.00023060799091033715
-5.3797593021022045e-05   -8.352464806641625e-06   -0.00023060799091033715
-1.9166970702292566e-05   1.4894956082787264e-06   -0.00016698511079683582
-1.9166970702292566e-05   1.4894956082787264e-06   -0.00016698511079683582
-1.9166970702292566e-05   1.4894956082787264e-06   -0.00016698511079683582
-1.9166970702292566e-05   1.4894956082787264e-06   -0.00016698511079683582
-1.7372159184057194e-05   -9.04006915032271e-07   -0.00022323415892839182
-1.7372159184057194e-05   -9.04006915032271e-07   -0.00022323415892839182
-1.7372159184057194e-05   -9.04006915032271e-07   -0.00022323415892839182
-1.7372159184057194e-05   -9.04006915032271e-07   -0.00022323415892839182
-5.258769499809609e-05   8.515655335005617e-06   -0.0001701933965883478
-5.258769499809609e-05   8.515655335005617e-06   -0.0001701933965883478
-5.258769499809609e-05   8.515655335005617e-06   -0.0001701933965883478
-5.258769499809609e-05   8.515655335005617e-06   -0.0001701933965883478
-3.537110237604027e-05   9.228082171689606e-07   -0.00019433200935440958
-3.537110237604027e-05   9.228082171689606e-07   -0.00019433200935440958
-3.537110237604027e-05   9.228082171689606e-07   -0.00019433200935440958
-3.537110237604027e-05   9.228082171689606e-07   -0.00019433200935440958
-5.2587694998095996e-05   -9.04006915032271e-07   -0.00022888595627841481
-5.2587694998095996e-05   -9.04006915032271e-07   -0.00022888595627841481
-5.2587694998095996e-05   -9.04006915032271e-07   -0.00022888595627841481
-5.2587694998095996e-05   -9.04006915032271e-07   -0.00022888595627841481
-1.7372159184057194e-05   8.515655335006485e-06   -0.00016454159923832631
-1.7372159184057194e-05   8.515655335006485e-06   -0.00016454159923832631
-1.7372159184057194e-05   8.515655335006485e-06   -0.00016454159923832631
-1.7372159184057194e-05   8.515655335006485e-06   -0.00016454159923832631
-1.4728388190681624e-05   6.270160544425037e-06   -0.0002262681826596816
-1.4728388190681624e-05   6.270160544425037e-06   -0.0002262681826596816
-1.4728388190681624e-05   6.270160544425037e-06   -0.0002262681826596816
-1.4728388190681624e-05   6.270160544425037e-06   -0.0002262681826596816
-5.123187113302541e-05   1.514414336583128e-05   -0.00017075343411528544
-5.123187113302541e-05   1.514414336583128e-05   -0.00017075343411528544
-5.123187113302541e-05   1.514414336583128e-05   -0.00017075343411528544
-5.123187113302541e-05   1.514414336583128e-05   -0.00017075343411528544
-3.4279637613188364e-05   6.591210438082994e-06   -0.00019387539689169896
-3.4279637613188364e-05   6.591210438082994e-06   -0.00019387539689169896
-3.4279637613188364e-05   6.591210438082994e-06   -0.00019387539689169896
-3.4279637613188364e-05   6.591210438082994e-06   -0.00019387539689169896
-5.123187113302527e-05   6.270160544425037e-06   -0.00023159257235252396
-5.123187113302527e-05   6.270160544425037e-06   -0.00023159257235252396
-5.123187113302527e-05   6.270160544425037e-06   -0.00023159257235252396
-5.123187113302527e-05   6.270160544425037e-06   -0.00023159257235252396
-1.4728388190681733e-05   1.5144143365830413e-05   -0.0001654290444224422
-1.4728388190681733e-05   1.5144143365830413e-05   -0.0001654290444224422
-1.4728388190681733e-05   1.5144143365830413e-05   -0.0001654290444224422
-1.4728388190681733e-05   1.5144143365830413e-05   -0.0001654290444224422
-1.2878944858757879e-05   1.4502260119487152e-05   -0.00023259882305609473
-1.2878944858757879e-05   1.4502260119487152e-05   -0.00023259882305609473
-1.2878944858757879e-05   1.4502260119487152e-05   -0.00023259882305609473
-1.2878944858757879e-05   1.4502260119487152e-05   -0.00023259882305609473
-5.001220967807684e-05   2.2648613408600936e-05   -0.00017559786033069633
-5.001220967807684e-05   2.2648613408600936e-05   -0.00017559786033069633
-5.001220967807684e-05   2.2648613408600936e-05   -0.00017559786033069633
-5.001220967807684e-05   2.2648613408600936e-05   -0.00017559786033069633
-3.313325494208727e-05   1.2541687373967235e-05   -0.00019766529593656619
-3.313325494208727e-05   1.2541687373967235e-05   -0.00019766529593656619
-3.313325494208727e-05   1.2541687373967235e-05   -0.00019766529593656619
-3.313325494208727e-05   1.2541687373967235e-05   -0.00019766529593656619
-1.9166970702292566e-05   -1.5400701532757716e-05   -0.00012526638461886385
-1.9166970702292566e-05   -1.5400701532757716e-05   -0.00012526638461886385
-1.9166970702292566e-05   -1.5400701532757716e-05   -0.00012526638461886385
-1.9166970702292566e-05   -1.5400701532757716e-05   -0.00012526638461886385
6.717315256302234e-06   1.9921529046335387e-06   -7.169019535877095e-05
6.717315256302234e-06   1.9921529046335387e-06   -7.169019535877095e-05
6.717315256302234e-06   1.9921529046335387e-06   -7.169019535877095e-05
6.717315256302234e-06   1.9921529046335387e-06   -7.169019535877095e-05
1.6051376381601666e-05   -1.0367569560842775e-05   -0.00011981274465583175
1.6051376381601666e-05   -1.0367569560842775e-05   -0.00011981274465583175
1.6051376381601666e-05   -1.0367569560842775e-05   -0.00011981274465583175
1.6051376381601666e-05   -1.0367569560842775e-05   -0.00011981274465583175
-1.7372159184057194e-05   7.536248744752921e-06   -7.484914302975534e-05
-1.7372159184057194e-05   7.536248744752921e-06   -7.484914302975534e-05
-1.7372159184057194e-05   7.536248744752921e-06   -7.484914302975534e-05
-1.7372159184057194e-05   7.536248744752921e-06   -7.484914302975534e-05
-3.3712154598414344e-06   -3.3021625234566643e-06   -9.168100247585994e-05
-3.3712154598414344e-06   -3.3021625234566643e-06   -9.168100247585994e-05
-3.3712154598414344e-06   -3.3021625234566643e-06   -9.168100247585994e-05
-3.3712154598414344e-06   -3.3021625234566643e-06   -9.168100247585994e-05
-1.7372159184057194e-05   -1.0367569560842775e-05   -0.0001305550356391883
-1.7372159184057194e-05   -1.0367569560842775e-05   -0.0001305550356391883
-1.7372159184057194e-05   -1.0367569560842775e-05   -0.0001305550356391883
-1.7372159184057194e-05   -1.0367569560842775e-05   -0.0001305550356391883
1.6051376381601666e-05   7.536248744752054e-06   -6.410685204639999e-05
1.6051376381601666e-05   7.536248744752054e-06   -6.410685204639999e-05
1.6051376381601666e-05   7.536248744752054e-06   -6.410685204639999e-05
1.6051376381601666e-05   7.536248744752054e-06   -6.410685204639999e-05
2.3418366506734343e-05   -6.882277036349312e-06   -0.00012641965395219362
2.3418366506734343e-05   -6.882277036349312e-06   -0.00012641965395219362
2.3418366506734343e-05   -6.882277036349312e-06   -0.00012641965395219362
2.3418366506734343e-05   -6.882277036349312e-06   -0.00012641965395219362
-1.4728388190681624e-05   1.0659092272932887e-05   -7.33665510420688e-05
-1.4728388190681624e-05   1.0659092272932887e-05   -7.33665510420688e-05
-1.4728388190681624e-05   1.0659092272932887e-05   -7.33665510420688e-05
-1.4728388190681624e-05   1.0659092272932887e-05   -7.33665510420688e-05
1.3948827923535348e-06   -6.55936145586844e-07   -9.344965229601452e-05
1.3948827923535348e-06   -6.55936145586844e-07   -9.344965229601452e-05
1.3948827923535348e-06   -6.55936145586844e-07   -9.344965229601452e-05
1.3948827923535348e-06   -6.55936145586844e-07   -9.344965229601452e-05
-1.4728388190681624e-05   -6.882277036349312e-06   -0.0001369444755377632
-1.4728388190681624e-05   -6.882277036349312e-06   -0.0001369444755377632
-1.4728388190681624e-05   -6.882277036349312e-06   -0.0001369444755377632
-1.4728388190681624e-05   -6.882277036349312e-06   -0.0001369444755377632
2.3418366506734343e-05   1.0659092272933754e-05   -6.284172945649966e-05
2.3418366506734343e-05   1.0659092272933754e-05   -6.284172945649966e-05
2.3418366506734343e-05   1.0659092272933754e-05   -6.284172945649966e-05
2.3418366506734343e-05   1.0659092272933754e-05   -6.284172945649966e-05
3.269473356126403e-05   -1.0666112697059471e-08   -0.00014170559502866414
3.269473356126403e-05   -1.0666112697059471e-08   -0.00014170559502866414
3.269473356126403e-05   -1.0666112697059471e-08   -0.00014170559502866414
3.269473356126403e-05   -1.0666112697059471e-08   -0.00014170559502866414
-1.2878944858757879e-05   1.6219726684911506e-05   -7.54877000071904e-05
-1.2878944858757879e-05   1.6219726684911506e-05   -7.54877000071904e-05
-1.2878944858757879e-05   1.6219726684911506e-05   -7.54877000071904e-05
-1.2878944858757879e-05   1.6219726684911506e-05   -7.54877000071904e-05
5.454711307179938e-06   2.3872104555891158e-06   -9.774428387949573e-05
5.454711307179938e-06   2.3872104555891158e-06   -9.774428387949573e-05
5.454711307179938e-06   2.3872104555891158e-06   -9.774428387949573e-05
5.454711307179938e-06   2.3872104555891158e-06   -9.774428387949573e-05
-6.022996362541749e-05   1.1263891418455615e-05   -0.00010712101511110936
-6.022996362541749e-05   1.1263891418455615e-05   -0.00010712101511110936
-6.022996362541749e-05   1.1263891418455615e-05   -0.00010712101511110936
-6.022996362541749e-05   1.1263891418455615e-05   -0.00010712101511110936
-6.045876342232145e-05   -5.150375986114411e-06   -0.00011735090854869245
-6.045876342232145e-05   -5.150375986114411e-06   -0.00011735090854869245
-6.045876342232145e-05   -5.150375986114411e-06   -0.00011735090854869245
-6.045876342232145e-05   -5.150375986114411e-06   -0.00011735090854869245
-5.7396677327137876e-05   1.7494317800712672e-05   -0.0001006337196773309
-5.7396677327137876e-05   1.7494317800712672e-05   -0.0001006337196773309
-5.7396677327137876e-05   1.7494317800712672e-05   -0.0001006337196773309
-5.7396677327137876e-05   1.7494317800712672e-05   -0.0001006337196773309
-4.981022774015113e-05   -9.878635364064803e-08   -0.00010272193982969503
-4.981022774015113e-05   -9.878635364064803e-08   -0.00010272193982969503
-4.981022774015113e-05   -9.878635364064803e-08   -0.00010272193982969503
-4.981022774015113e-05   -9.878635364064803e-08   -0.00010272193982969503
-5.448112176658173e-05   7.75129883301938e-06   -9.964716756431097e-05
-5.448112176658173e-05   7.75129883301938e-06   -9.964716756431097e-05
-5.448112176658173e-05   7.75129883301938e-06   -9.964716756431097e-05
-5.448112176658173e-05   7.75129883301938e-06   -9.964716756431097e-05
-4.9810227740150915e-05   1.7494317800712672e-05   -9.007785718471734e-05
-4.9810227740150915e-05   1.7494317800712672e-05   -9.007785718471734e-05
-4.9810227740150915e-05   1.7494317800712672e-05   -9.007785718471734e-05
-4.9810227740150915e-05   1.7494317800712672e-05   -9.007785718471734e-05
-5.7396677327137876e-05   -9.878635364238275e-08   -0.00011327780232230772
-5.7396677327137876e-05   -9.878635364238275e-08   -0.00011327780232230772
-5.7396677327137876e-05   -9.878635364238275e-08   -0.00011327780232230772
-5.7396677327137876e-05   -9.878635364238275e-08   -0.00011327780232230772
-5.3541045492201634e-05   2.0632032324082242e-05   -9.339415219769553e-05
-5.3541045492201634e-05   2.0632032324082242e-05   -9.339415219769553e-05
-5.3541045492201634e-05   2.0632032324082242e-05   -9.339415219769553e-05
-5.3541045492201634e-05   2.0632032324082242e-05   -9.339415219769553e-05
-4.117399986300579e-05   2.7470590466781297e-06   -0.00010327491094657814
-4.117399986300579e-05   2.7470590466781297e-06   -0.00010327491094657814
-4.117399986300579e-05   2.7470590466781297e-06   -0.00010327491094657814
-4.117399986300579e-05   2.7470590466781297e-06   -0.00010327491094657814
-4.9529575473789586e-05   1.033831493383805e-05   -9.3903705127572e-05
-4.9529575473789586e-05   1.033831493383805e-05   -9.3903705127572e-05
-4.9529575473789586e-05   1.033831493383805e-05   -9.3903705127572e-05
-4.9529575473789586e-05   1.033831493383805e-05   -9.3903705127572e-05
-4.1173999863005576e-05   2.0632032324082242e-05   -8.266316823125203e-05
-4.1173999863005576e-05   2.0632032324082242e-05   -8.266316823125203e-05
-4.1173999863005576e-05   2.0632032324082242e-05   -8.266316823125203e-05
-4.1173999863005576e-05   2.0632032324082242e-05   -8.266316823125203e-05
-5.3541045492201634e-05   2.7470590466781297e-06   -0.00011400589491302078
-5.3541045492201634e-05   2.7470590466781297e-06   -0.00011400589491302078
-5.3541045492201634e-05   2.7470590466781297e-06   -0.00011400589491302078
-5.3541045492201634e-05   2.7470590466781297e-06   -0.00011400589491302078
-5.051751518518133e-05   2.5597293462287056e-05   -8.663938259840468e-05
-5.051751518518133e-05   2.5597293462287056e-05   -8.663938259840468e-05
-5.051751518518133e-05   2.5597293462287056e-05   -8.663938259840468e-05
-5.051751518518133e-05   2.5597293462287056e-05   -8.663938259840468e-05
-3.051105858699419e-05   8.426993129596536e-06   -0.00010968129672910129
-3.051105858699419e-05   8.426993129596536e-06   -0.00010968129672910129
-3.051105858699419e-05   8.426993129596536e-06   -0.00010968129672910129
-3.051105858699419e-05   8.426993129596536e-06   -0.00010968129672910129
-4.3326297955251724e-05   1.2802652118219793e-05   -9.094795984184627e-05
-4.3326297955251724e-05   1.2802652118219793e-05   -9.094795984184627e-05
-4.3326297955251724e-05   1.2802652118219793e-05   -9.094795984184627e-05
-4.3326297955251724e-05   1.2802652118219793e-05   -9.094795984184627e-05
-6.045876342232123e-05   6.411703895256755e-06   -0.00019407082026699253
-6.045876342232123e-05   6.411703895256755e-06   -0.00019407082026699253
-6.045876342232123e-05   6.411703895256755e-06   -0.00019407082026699253
-6.045876342232123e-05   6.411703895256755e-06   -0.00019407082026699253
-6.921098736023957e-05   -1.1541428987359853e-06   -0.0002131973682399195
-6.921098736023957e-05   -1.1541428987359853e-06   -0.0002131973682399195
-6.921098736023957e-05   -1.1541428987359853e-06   -0.0002131973682399195
-6.921098736023957e-05   -1.1541428987359853e-06   -0.0002131973682399195
-6.67240046354847e-05   1.3550278165833443e-05   -0.0001942322819597159
-6.67240046354847e-05   1.3550278165833443e-05   -0.0001942322819597159
-6.67240046354847e-05   1.3550278165833443e-05   -0.0001942322819597159
-6.67240046354847e-05   1.3550278165833443e-05   -0.0001942322819597159
-5.739667732713809e-05   5.212017911919442e-06   -0.00020477487132127686
-5.739667732713809e-05   5.212017911919442e-06   -0.00020477487132127686
-5.739667732713809e-05   5.212017911919442e-06   -0.00020477487132127686
-5.739667732713809e-05   5.212017911919442e-06   -0.00020477487132127686
-6.2707493744276e-05   7.391188829308781e-06   -0.00019723101317648505
-6.2707493744276e-05   7.391188829308781e-06   -0.00019723101317648505
-6.2707493744276e-05   7.391188829308781e-06   -0.00019723101317648505
-6.2707493744276e-05   7.391188829308781e-06   -0.00019723101317648505
-5.739667732713766e-05   1.3550278165833443e-05   -0.0001892293258073663
-5.739667732713766e-05   1.3550278165833443e-05   -0.0001892293258073663
-5.739667732713766e-05   1.3550278165833443e-05   -0.0001892293258073663
-5.739667732713766e-05   1.3550278165833443e-05   -0.0001892293258073663
-6.672400463548448e-05   5.212017911919442e-06   -0.0002097778274736269
-6.672400463548448e-05   5.212017911919442e-06   -0.0002097778274736269
-6.672400463548448e-05   5.212017911919442e-06   -0.0002097778274736269
-6.672400463548448e-05   5.212017911919442e-06   -0.0002097778274736269
-6.413856646623507e-05   2.0179455265225202e-05   -0.0001926062325763823
-6.413856646623507e-05   2.0179455265225202e-05   -0.0001926062325763823
-6.413856646623507e-05   2.0179455265225202e-05   -0.0001926062325763823
-6.413856646623507e-05   2.0179455265225202e-05   -0.0001926062325763823
-5.354104549220185e-05   1.133344536813699e-05   -0.00020496116159484995
-5.354104549220185e-05   1.133344536813699e-05   -0.00020496116159484995
-5.354104549220185e-05   1.133344536813699e-05   -0.00020496116159484995
-5.354104549220185e-05   1.133344536813699e-05   -0.00020496116159484995
-6.021422124741845e-05   1.2513553715603337e-05   -0.00019454726701130282
-6.021422124741845e-05   1.2513553715603337e-05   -0.00019454726701130282
-6.021422124741845e-05   1.2513553715603337e-05   -0.00019454726701130282
-6.021422124741845e-05   1.2513553715603337e-05   -0.00019454726701130282
-5.3541045492201634e-05   2.0179455265225202e-05   -0.0001872986266381292
-5.3541045492201634e-05   2.0179455265225202e-05   -0.0001872986266381292
-5.3541045492201634e-05   2.0179455265225202e-05   -0.0001872986266381292
-5.3541045492201634e-05   2.0179455265225202e-05   -0.0001872986266381292
-6.413856646623486e-05   1.133344536813699e-05   -0.0002102687675331026
-6.413856646623486e-05   1.133344536813699e-05   -0.0002102687675331026
-6.413856646623486e-05   1.133344536813699e-05   -0.0002102687675331026
-6.413856646623486e-05   1.133344536813699e-05   -0.0002102687675331026
-6.169905128420271e-05   2.7537216345088766e-05   -0.00019579261161552664
-6.169905128420271e-05   2.7537216345088766e-05   -0.00019579261161552664
-6.169905128420271e-05   2.7537216345088766e-05   -0.00019579261161552664
-6.169905128420271e-05   2.7537216345088766e-05   -0.00019579261161552664
-5.051751518518155e-05   1.8315475242065837e-05   -0.00020889546045207985
-5.051751518518155e-05   1.8315475242065837e-05   -0.00020889546045207985
-5.051751518518155e-05   1.8315475242065837e-05   -0.00020889546045207985
-5.051751518518155e-05   1.8315475242065837e-05   -0.00020889546045207985
-5.8015301793822916e-05   1.7877941117384888e-05   -0.00019613662896286895
-5.8015301793822916e-05   1.7877941117384888e-05   -0.00019613662896286895
-5.8015301793822916e-05   1.7877941117384888e-05   -0.00019613662896286895
-5.8015301793822916e-05   1.7877941117384888e-05   -0.00019613662896286895
-6.921098736023935e-05   3.6381562098682096e-06   -0.0002258878156095089
-6.921098736023935e-05   3.6381562098682096e-06   -0.0002258878156095089
-6.921098736023935e-05   3.6381562098682096e-06   -0.0002258878156095089
-6.921098736023935e-05   3.6381562098682096e-06   -0.0002258878156095089
-7.848841272699014e-05   5.225945592032821e-06   -0.0002403975175914617
-7.848841272699014e-05   5.225945592032821e-06   -0.0002403975175914617
-7.848841272699014e-05   5.225945592032821e-06   -0.0002403975175914617
-7.848841272699014e-05   5.225945592032821e-06   -0.0002403975175914617
-7.604126254571864e-05   1.0899298523643283e-05   -0.00022242902020641955
-7.604126254571864e-05   1.0899298523643283e-05   -0.00022242902020641955
-7.604126254571864e-05   1.0899298523643283e-05   -0.00022242902020641955
-7.604126254571864e-05   1.0899298523643283e-05   -0.00022242902020641955
-6.67240046354847e-05   1.1795878870844365e-05   -0.0002384957315984637
-6.67240046354847e-05   1.1795878870844365e-05   -0.0002384957315984637
-6.67240046354847e-05   1.1795878870844365e-05   -0.0002384957315984637
-6.67240046354847e-05   1.1795878870844365e-05   -0.0002384957315984637
-7.2179394425023e-05   8.910138736117207e-06   -0.0002276719712017318
-7.2179394425023e-05   8.910138736117207e-06   -0.0002276719712017318
-7.2179394425023e-05   8.910138736117207e-06   -0.0002276719712017318
-7.2179394425023e-05   8.910138736117207e-06   -0.0002276719712017318
-6.672400463548448e-05   1.0899298523643283e-05   -0.00022296696841473881
-6.672400463548448e-05   1.0899298523643283e-05   -0.00022296696841473881
-6.672400463548448e-05   1.0899298523643283e-05   -0.00022296696841473881
-6.672400463548448e-05   1.0899298523643283e-05   -0.00022296696841473881
-7.604126254571877e-05   1.1795878870844365e-05   -0.00023795778339014313
-7.604126254571877e-05   1.1795878870844365e-05   -0.00023795778339014313
-7.604126254571877e-05   1.1795878870844365e-05   -0.00023795778339014313
-7.604126254571877e-05   1.1795878870844365e-05   -0.00023795778339014313
-7.347198805591474e-05   1.8224492402437245e-05   -0.00022308322295200387
-7.347198805591474e-05   1.8224492402437245e-05   -0.00022308322295200387
-7.347198805591474e-05   1.8224492402437245e-05   -0.00022308322295200387
-7.347198805591474e-05   1.8224492402437245e-05   -0.00022308322295200387
-6.413856646623507e-05   1.8511828848325612e-05   -0.00023881132746900223
-6.413856646623507e-05   1.8511828848325612e-05   -0.00023881132746900223
-6.413856646623507e-05   1.8511828848325612e-05   -0.00023881132746900223
-6.413856646623507e-05   1.8511828848325612e-05   -0.00023881132746900223
-7.011900743287113e-05   1.4523380813015463e-05   -0.0002264508570367585
-7.011900743287113e-05   1.4523380813015463e-05   -0.0002264508570367585
-7.011900743287113e-05   1.4523380813015463e-05   -0.0002264508570367585
-7.011900743287113e-05   1.4523380813015463e-05   -0.0002264508570367585
-6.413856646623486e-05   1.8224492402437245e-05   -0.00022325562481953585
-6.413856646623486e-05   1.8224492402437245e-05   -0.00022325562481953585
-6.413856646623486e-05   1.8224492402437245e-05   -0.00022325562481953585
-6.413856646623486e-05   1.8224492402437245e-05   -0.00022325562481953585
-7.347198805591474e-05   1.8511828848325612e-05   -0.00023863892560146895
-7.347198805591474e-05   1.8511828848325612e-05   -0.00023863892560146895
-7.347198805591474e-05   1.8511828848325612e-05   -0.00023863892560146895
-7.347198805591474e-05   1.8511828848325612e-05   -0.00023863892560146895
-7.104761967942258e-05   2.5659724111688938e-05   -0.000227412712425136
-7.104761967942258e-05   2.5659724111688938e-05   -0.000227412712425136
-7.104761967942258e-05   2.5659724111688938e-05   -0.000227412712425136
-7.104761967942258e-05   2.5659724111688938e-05   -0.000227412712425136
-6.169905128420271e-05   2.5319953685607258e-05   -0.0002427897974948529
-6.169905128420271e-05   2.5319953685607258e-05   -0.0002427897974948529
-6.169905128420271e-05   2.5319953685607258e-05   -0.0002427897974948529
-6.169905128420271e-05   2.5319953685607258e-05   -0.0002427897974948529
-6.82184003716913e-05   2.021483330479426e-05   -0.00022886114345388334
-6.82184003716913e-05   2.021483330479426e-05   -0.00022886114345388334
-6.82184003716913e-05   2.021483330479426e-05   -0.00022886114345388334
-6.82184003716913e-05   2.021483330479426e-05   -0.00022886114345388334
-7.848841272698986e-05   1.4894956082795938e-06   -0.00019493277080020934
-7.848841272698986e-05   1.4894956082795938e-06   -0.00019493277080020934
-7.848841272698986e-05   1.4894956082795938e-06   -0.00019493277080020934
-7.848841272698986e-05   1.4894956082795938e-06   -0.00019493277080020934
-8.824172343428326e-05   1.1636724166728951e-05   -0.00020509995151062922
-8.824172343428326e-05   1.1636724166728951e-05   -0.00020509995151062922
-8.824172343428326e-05   1.1636724166728951e-05   -0.00020509995151062922
-8.824172343428326e-05   1.1636724166728951e-05   -0.00020509995151062922
-8.52896700695194e-05   8.515655335006485e-06   -0.00018640358670606212
-8.52896700695194e-05   8.515655335006485e-06   -0.00018640358670606212
-8.52896700695194e-05   8.515655335006485e-06   -0.00018640358670606212
-8.52896700695194e-05   8.515655335006485e-06   -0.00018640358670606212
-7.604126254571864e-05   1.8223537278948265e-05   -0.00020764232841209257
-7.604126254571864e-05   1.8223537278948265e-05   -0.00020764232841209257
-7.604126254571864e-05   1.8223537278948265e-05   -0.00020764232841209257
-7.604126254571864e-05   1.8223537278948265e-05   -0.00020764232841209257
-8.138281092410072e-05   1.070403312189265e-05   -0.000194228045287225
-8.138281092410072e-05   1.070403312189265e-05   -0.000194228045287225
-8.138281092410072e-05   1.070403312189265e-05   -0.000194228045287225
-8.138281092410072e-05   1.070403312189265e-05   -0.000194228045287225
-7.604126254571851e-05   8.515655335006485e-06   -0.0001922283158724246
-7.604126254571851e-05   8.515655335006485e-06   -0.0001922283158724246
-7.604126254571851e-05   8.515655335006485e-06   -0.0001922283158724246
-7.604126254571851e-05   8.515655335006485e-06   -0.0001922283158724246
-8.52896700695194e-05   1.8223537278948265e-05   -0.0002018175992457294
-8.52896700695194e-05   1.8223537278948265e-05   -0.0002018175992457294
-8.52896700695194e-05   1.8223537278948265e-05   -0.0002018175992457294
-8.52896700695194e-05   1.8223537278948265e-05   -0.0002018175992457294
-8.149523731545397e-05   1.5144143365830413e-05   -0.00018724053098498946
-8.149523731545397e-05   1.5144143365830413e-05   -0.00018724053098498946
-8.149523731545397e-05   1.5144143365830413e-05   -0.00018724053098498946
-8.149523731545397e-05   1.5144143365830413e-05   -0.00018724053098498946
-7.347198805591462e-05   2.4306408129061777e-05   -0.00020610997194215878
-7.347198805591462e-05   2.4306408129061777e-05   -0.00020610997194215878
-7.347198805591462e-05   2.4306408129061777e-05   -0.00020610997194215878
-7.347198805591462e-05   2.4306408129061777e-05   -0.00020610997194215878
-7.874587238523337e-05   1.5924226908407488e-05   -0.0001922908559942391
-7.874587238523337e-05   1.5924226908407488e-05   -0.0001922908559942391
-7.874587238523337e-05   1.5924226908407488e-05   -0.0001922908559942391
-7.874587238523337e-05   1.5924226908407488e-05   -0.0001922908559942391
-7.347198805591443e-05   1.5144143365830413e-05   -0.0001927378898429269
-7.347198805591443e-05   1.5144143365830413e-05   -0.0001927378898429269
-7.347198805591443e-05   1.5144143365830413e-05   -0.0001927378898429269
-7.347198805591443e-05   1.5144143365830413e-05   -0.0001927378898429269
-8.149523731545408e-05   2.4306408129061777e-05   -0.00020061261308422073
-8.149523731545408e-05   2.4306408129061777e-05   -0.00020061261308422073
-8.149523731545408e-05   2.4306408129061777e-05   -0.00020061261308422073
-8.149523731545408e-05   2.4306408129061777e-05   -0.00020061261308422073
-7.85091544495856e-05   2.2648613408600936e-05   -0.0001924352433044542
-7.85091544495856e-05   2.2648613408600936e-05   -0.0001924352433044542
-7.85091544495856e-05   2.2648613408600936e-05   -0.0001924352433044542
-7.85091544495856e-05   2.2648613408600936e-05   -0.0001924352433044542
-7.104761967942258e-05   3.1133555143753044e-05   -0.00020996209962915
-7.104761967942258e-05   3.1133555143753044e-05   -0.00020996209962915
-7.104761967942258e-05   3.1133555143753044e-05   -0.00020996209962915
-7.104761967942258e-05   3.1133555143753044e-05   -0.00020996209962915
-7.675352726045813e-05   2.1267906079576113e-05   -0.00019453286422224962
-7.675352726045813e-05   2.1267906079576113e-05   -0.00019453286422224962
-7.675352726045813e-05   2.1267906079576113e-05   -0.00019453286422224962
-7.675352726045813e-05   2.1267906079576113e-05   -0.00019453286422224962
-8.824172343428294e-05   1.9921529046335387e-06   -0.00010398523088951152
-8.824172343428294e-05   1.9921529046335387e-06   -0.00010398523088951152
-8.824172343428294e-05   1.9921529046335387e-06   -0.00010398523088951152
-8.824172343428294e-05   1.9921529046335387e-06   -0.00010398523088951152
-0.00010648716250878914   1.9515069183151726e-05   -0.0001238805462465773
-0.00010648716250878914   1.9515069183151726e-05   -0.0001238805462465773
-0.00010648716250878914   1.9515069183151726e-05   -0.0001238805462465773
-0.00010648716250878914   1.9515069183151726e-05   -0.0001238805462465773
-9.613409101093284e-05   7.536248744752921e-06   -8.594623590486156e-05
-9.613409101093284e-05   7.536248744752921e-06   -8.594623590486156e-05
-9.613409101093284e-05   7.536248744752921e-06   -8.594623590486156e-05
-9.613409101093284e-05   7.536248744752921e-06   -8.594623590486156e-05
-8.528967006951924e-05   2.5477739732469168e-05   -0.000114785165399846
-8.528967006951924e-05   2.5477739732469168e-05   -0.000114785165399846
-8.528967006951924e-05   2.5477739732469168e-05   -0.000114785165399846
-8.528967006951924e-05   2.5477739732469168e-05   -0.000114785165399846
-9.023170071857192e-05   1.4362789689574551e-05   -9.987947762569028e-05
-9.023170071857192e-05   1.4362789689574551e-05   -9.987947762569028e-05
-9.023170071857192e-05   1.4362789689574551e-05   -9.987947762569028e-05
-9.023170071857192e-05   1.4362789689574551e-05   -9.987947762569028e-05
-8.528967006951897e-05   7.536248744752054e-06   -9.671113049749061e-05
-8.528967006951897e-05   7.536248744752054e-06   -9.671113049749061e-05
-8.528967006951897e-05   7.536248744752054e-06   -9.671113049749061e-05
-8.528967006951897e-05   7.536248744752054e-06   -9.671113049749061e-05
-9.613409101093262e-05   2.5477739732469168e-05   -0.00010402027080721674
-9.613409101093262e-05   2.5477739732469168e-05   -0.00010402027080721674
-9.613409101093262e-05   2.5477739732469168e-05   -0.00010402027080721674
-9.613409101093262e-05   2.5477739732469168e-05   -0.00010402027080721674
-8.771330138967462e-05   1.0659092272933754e-05   -8.464828158491044e-05
-8.771330138967462e-05   1.0659092272933754e-05   -8.464828158491044e-05
-8.771330138967462e-05   1.0659092272933754e-05   -8.464828158491044e-05
-8.771330138967462e-05   1.0659092272933754e-05   -8.464828158491044e-05
-8.149523731545397e-05   2.8208685639109776e-05   -0.00010554147772831731
-8.149523731545397e-05   2.8208685639109776e-05   -0.00010554147772831731
-8.149523731545397e-05   2.8208685639109776e-05   -0.00010554147772831731
-8.149523731545397e-05   2.8208685639109776e-05   -0.00010554147772831731
-8.576809703270352e-05   1.71128537779508e-05   -9.176254574953932e-05
-8.576809703270352e-05   1.71128537779508e-05   -9.176254574953932e-05
-8.576809703270352e-05   1.71128537779508e-05   -9.176254574953932e-05
-8.576809703270352e-05   1.71128537779508e-05   -9.176254574953932e-05
-8.14952373154538e-05   1.0659092272933754e-05   -9.517803760461692e-05
-8.14952373154538e-05   1.0659092272933754e-05   -9.517803760461692e-05
-8.14952373154538e-05   1.0659092272933754e-05   -9.517803760461692e-05
-8.14952373154538e-05   1.0659092272933754e-05   -9.517803760461692e-05
-8.771330138967462e-05   2.8208685639109776e-05   -9.501172170861116e-05
-8.771330138967462e-05   2.8208685639109776e-05   -9.501172170861116e-05
-8.771330138967462e-05   2.8208685639109776e-05   -9.501172170861116e-05
-8.771330138967462e-05   2.8208685639109776e-05   -9.501172170861116e-05
-7.743643338486506e-05   1.621972668491064e-05   -8.746570019788286e-05
-7.743643338486506e-05   1.621972668491064e-05   -8.746570019788286e-05
-7.743643338486506e-05   1.621972668491064e-05   -8.746570019788286e-05
-7.743643338486506e-05   1.621972668491064e-05   -8.746570019788286e-05
-7.850915444958549e-05   3.24650512791326e-05   -9.542502651321426e-05
-7.850915444958549e-05   3.24650512791326e-05   -9.542502651321426e-05
-7.850915444958549e-05   3.24650512791326e-05   -9.542502651321426e-05
-7.850915444958549e-05   3.24650512791326e-05   -9.542502651321426e-05
-7.928083486696792e-05   1.9352467086779235e-05   -8.627134196883255e-05
-7.928083486696792e-05   1.9352467086779235e-05   -8.627134196883255e-05
-7.928083486696792e-05   1.9352467086779235e-05   -8.627134196883255e-05
-7.928083486696792e-05   1.9352467086779235e-05   -8.627134196883255e-05
5.1939263959772204e-05   -5.150375986114411e-06   -5.477839628049985e-05
5.1939263959772204e-05   -5.150375986114411e-06   -5.477839628049985e-05
5.1939263959772204e-05   -5.150375986114411e-06   -5.477839628049985e-05
5.1939263959772204e-05   -5.150375986114411e-06   -5.477839628049985e-05
5.222117641910792e-06   -2.1910804109870688e-05   -0.00014269656368452212
5.222117641910792e-06   -2.1910804109870688e-05   -0.00014269656368452212
5.222117641910792e-06   -2.1910804109870688e-05   -0.00014269656368452212
5.222117641910792e-06   -2.1910804109870688e-05   -0.00014269656368452212
9.428203837677333e-06   -9.878635364238275e-08   -6.039134171399556e-05
9.428203837677333e-06   -9.878635364238275e-08   -6.039134171399556e-05
9.428203837677333e-06   -9.878635364238275e-08   -6.039134171399556e-05
9.428203837677333e-06   -9.878635364238275e-08   -6.039134171399556e-05
6.357882920621314e-05   -1.7991652224890603e-05   -0.000139906664472137
6.357882920621314e-05   -1.7991652224890603e-05   -0.000139906664472137
6.357882920621314e-05   -1.7991652224890603e-05   -0.000139906664472137
6.357882920621314e-05   -1.7991652224890603e-05   -0.000139906664472137
3.1337107713379e-05   -9.116962960718095e-06   -9.1495275542584e-05
3.1337107713379e-05   -9.116962960718095e-06   -9.1495275542584e-05
3.1337107713379e-05   -9.116962960718095e-06   -9.1495275542584e-05
3.1337107713379e-05   -9.116962960718095e-06   -9.1495275542584e-05
6.357882920621336e-05   -9.878635364238275e-08   -4.965562219124472e-05
6.357882920621336e-05   -9.878635364238275e-08   -4.965562219124472e-05
6.357882920621336e-05   -9.878635364238275e-08   -4.965562219124472e-05
6.357882920621336e-05   -9.878635364238275e-08   -4.965562219124472e-05
9.428203837677116e-06   -1.7991652224890603e-05   -0.00015064238399488785
9.428203837677116e-06   -1.7991652224890603e-05   -0.00015064238399488785
9.428203837677116e-06   -1.7991652224890603e-05   -0.00015064238399488785
9.428203837677116e-06   -1.7991652224890603e-05   -0.00015064238399488785
1.4380293159732636e-05   2.7470590466781297e-06   -6.08117179610318e-05
1.4380293159732636e-05   2.7470590466781297e-06   -6.08117179610318e-05
1.4380293159732636e-05   2.7470590466781297e-06   -6.08117179610318e-05
1.4380293159732636e-05   2.7470590466781297e-06   -6.08117179610318e-05
7.343790099450555e-05   -1.5392549879001197e-05   -0.00014835729899691273
7.343790099450555e-05   -1.5392549879001197e-05   -0.00014835729899691273
7.343790099450555e-05   -1.5392549879001197e-05   -0.00014835729899691273
7.343790099450555e-05   -1.5392549879001197e-05   -0.00014835729899691273
3.873532430425492e-05   -7.294174354093366e-06   -9.537869649477735e-05
3.873532430425492e-05   -7.294174354093366e-06   -9.537869649477735e-05
3.873532430425492e-05   -7.294174354093366e-06   -9.537869649477735e-05
3.873532430425492e-05   -7.294174354093366e-06   -9.537869649477735e-05
7.343790099450576e-05   2.7470590466781297e-06   -4.992795260562455e-05
7.343790099450576e-05   2.7470590466781297e-06   -4.992795260562455e-05
7.343790099450576e-05   2.7470590466781297e-06   -4.992795260562455e-05
7.343790099450576e-05   2.7470590466781297e-06   -4.992795260562455e-05
1.4380293159732419e-05   -1.5392549879001197e-05   -0.00015924106435231998
1.4380293159732419e-05   -1.5392549879001197e-05   -0.00015924106435231998
1.4380293159732419e-05   -1.5392549879001197e-05   -0.00015924106435231998
1.4380293159732419e-05   -1.5392549879001197e-05   -0.00015924106435231998
1.847270570356379e-05   8.426993129596536e-06   -6.65218960750405e-05
1.847270570356379e-05   8.426993129596536e-06   -6.65218960750405e-05
1.847270570356379e-05   8.426993129596536e-06   -6.65218960750405e-05
1.847270570356379e-05   8.426993129596536e-06   -6.65218960750405e-05
8.527934230898797e-05   -8.830062274072653e-06   -0.00016751205717521409
8.527934230898797e-05   -8.830062274072653e-06   -0.00016751205717521409
8.527934230898797e-05   -8.830062274072653e-06   -0.00016751205717521409
8.527934230898797e-05   -8.830062274072653e-06   -0.00016751205717521409
4.465505743338064e-05   -4.629465926230675e-06   -0.00010232527352457745
4.465505743338064e-05   -4.629465926230675e-06   -0.00010232527352457745
4.465505743338064e-05   -4.629465926230675e-06   -0.00010232527352457745
4.465505743338064e-05   -4.629465926230675e-06   -0.00010232527352457745
5.222117641911009e-06   -1.15414289873772e-06   -0.00015614160476958537
5.222117641911009e-06   -1.15414289873772e-06   -0.00015614160476958537
5.222117641911009e-06   -1.15414289873772e-06   -0.00015614160476958537
5.222117641911009e-06   -1.15414289873772e-06   -0.00015614160476958537
-4.955118255914792e-05   -8.723262401172382e-06   -0.0002519719101394778
-4.955118255914792e-05   -8.723262401172382e-06   -0.0002519719101394778
-4.955118255914792e-05   -8.723262401172382e-06   -0.0002519719101394778
-4.955118255914792e-05   -8.723262401172382e-06   -0.0002519719101394778
-4.584981727198364e-05   5.212017911917707e-06   -0.00015703461285347664
-4.584981727198364e-05   5.212017911917707e-06   -0.00015703461285347664
-4.584981727198364e-05   5.212017911917707e-06   -0.00015703461285347664
-4.584981727198364e-05   5.212017911917707e-06   -0.00015703461285347664
9.428203837677116e-06   -3.3649856556027674e-06   -0.00024401844589573216
9.428203837677116e-06   -3.3649856556027674e-06   -0.00024401844589573216
9.428203837677116e-06   -3.3649856556027674e-06   -0.00024401844589573216
9.428203837677116e-06   -3.3649856556027674e-06   -0.00024401844589573216
-1.971751121562353e-05   -3.71732006131803e-07   -0.00019723820632991276
-1.971751121562353e-05   -3.71732006131803e-07   -0.00019723820632991276
-1.971751121562353e-05   -3.71732006131803e-07   -0.00019723820632991276
-1.971751121562353e-05   -3.71732006131803e-07   -0.00019723820632991276
9.428203837677116e-06   5.212017911919442e-06   -0.00015188841071296297
9.428203837677116e-06   5.212017911919442e-06   -0.00015188841071296297
9.428203837677116e-06   5.212017911919442e-06   -0.00015188841071296297
9.428203837677116e-06   5.212017911919442e-06   -0.00015188841071296297
-4.584981727198364e-05   -3.3649856556010327e-06   -0.00024916464803624496
-4.584981727198364e-05   -3.3649856556010327e-06   -0.00024916464803624496
-4.584981727198364e-05   -3.3649856556010327e-06   -0.00024916464803624496
-4.584981727198364e-05   -3.3649856556010327e-06   -0.00024916464803624496
-4.2127841147102476e-05   1.133344536813699e-05   -0.00015726459148891845
-4.2127841147102476e-05   1.133344536813699e-05   -0.00015726459148891845
-4.2127841147102476e-05   1.133344536813699e-05   -0.00015726459148891845
-4.2127841147102476e-05   1.133344536813699e-05   -0.00015726459148891845
1.4380293159732636e-05   2.17076729137379e-06   -0.00024594720848758597
1.4380293159732636e-05   2.17076729137379e-06   -0.00024594720848758597
1.4380293159732636e-05   2.17076729137379e-06   -0.00024594720848758597
1.4380293159732636e-05   2.17076729137379e-06   -0.00024594720848758597
-1.6431514838287906e-05   4.019514836658619e-06   -0.00019570344368472414
-1.6431514838287906e-05   4.019514836658619e-06   -0.00019570344368472414
-1.6431514838287906e-05   4.019514836658619e-06   -0.00019570344368472414
-1.6431514838287906e-05   4.019514836658619e-06   -0.00019570344368472414
1.4380293159732636e-05   1.133344536813699e-05   -0.00015176698464286053
1.4380293159732636e-05   1.133344536813699e-05   -0.00015176698464286053
1.4380293159732636e-05   1.133344536813699e-05   -0.00015176698464286053
1.4380293159732636e-05   1.133344536813699e-05   -0.00015176698464286053
-4.2127841147102476e-05   2.17076729137379e-06   -0.0002514448153336452
-4.2127841147102476e-05   2.17076729137379e-06   -0.0002514448153336452
-4.2127841147102476e-05   2.17076729137379e-06   -0.0002514448153336452
-4.2127841147102476e-05   2.17076729137379e-06   -0.0002514448153336452
-3.85674068750536e-05   1.8315475242065837e-05   -0.00016119171076258657
-3.85674068750536e-05   1.8315475242065837e-05   -0.00016119171076258657
-3.85674068750536e-05   1.8315475242065837e-05   -0.00016119171076258657
-3.85674068750536e-05   1.8315475242065837e-05   -0.00016119171076258657
1.8472705703563574e-05   8.719089968429322e-06   -0.0002505007338961
1.8472705703563574e-05   8.719089968429322e-06   -0.0002505007338961
1.8472705703563574e-05   8.719089968429322e-06   -0.0002505007338961
1.8472705703563574e-05   8.719089968429322e-06   -0.0002505007338961
-1.2780817825775088e-05   8.879580116753077e-06   -0.0001985078221028683
-1.2780817825775088e-05   8.879580116753077e-06   -0.0001985078221028683
-1.2780817825775088e-05   8.879580116753077e-06   -0.0001985078221028683
-1.2780817825775088e-05   8.879580116753077e-06   -0.0001985078221028683
-4.955118255914803e-05   5.225945592034556e-06   -0.00018883589945188888
-4.955118255914803e-05   5.225945592034556e-06   -0.00018883589945188888
-4.955118255914803e-05   5.225945592034556e-06   -0.00018883589945188888
-4.955118255914803e-05   5.225945592034556e-06   -0.00018883589945188888
-0.00010387077807990917   6.591158176255316e-06   -0.00027854943110262355
-0.00010387077807990917   6.591158176255316e-06   -0.00027854943110262355
-0.00010387077807990917   6.591158176255316e-06   -0.00027854943110262355
-0.00010387077807990917   6.591158176255316e-06   -0.00027854943110262355
-0.00010014045312451073   1.1795878870844365e-05   -0.000185479633970689
-0.00010014045312451073   1.1795878870844365e-05   -0.000185479633970689
-0.00010014045312451073   1.1795878870844365e-05   -0.000185479633970689
-0.00010014045312451073   1.1795878870844365e-05   -0.000185479633970689
-4.584981727198364e-05   1.2250683883550592e-05   -0.0002762369100658584
-4.584981727198364e-05   1.2250683883550592e-05   -0.0002762369100658584
-4.584981727198364e-05   1.2250683883550592e-05   -0.0002762369100658584
-4.584981727198364e-05   1.2250683883550592e-05   -0.0002762369100658584
-7.441900358561516e-05   1.0122204976287241e-05   -0.00022734451219878055
-7.441900358561516e-05   1.0122204976287241e-05   -0.00022734451219878055
-7.441900358561516e-05   1.0122204976287241e-05   -0.00022734451219878055
-7.441900358561516e-05   1.0122204976287241e-05   -0.00022734451219878055
-4.584981727198364e-05   1.1795878870844365e-05   -0.00018575251697831342
-4.584981727198364e-05   1.1795878870844365e-05   -0.00018575251697831342
-4.584981727198364e-05   1.1795878870844365e-05   -0.00018575251697831342
-4.584981727198364e-05   1.1795878870844365e-05   -0.00018575251697831342
-0.00010014045312451073   1.2250683883550592e-05   -0.00027596402705823506
-0.00010014045312451073   1.2250683883550592e-05   -0.00027596402705823506
-0.00010014045312451073   1.2250683883550592e-05   -0.00027596402705823506
-0.00010014045312451073   1.2250683883550592e-05   -0.00027596402705823506
-9.635396717262047e-05   1.8511828848325612e-05   -0.00018596607612118236
-9.635396717262047e-05   1.8511828848325612e-05   -0.00018596607612118236
-9.635396717262047e-05   1.8511828848325612e-05   -0.00018596607612118236
-9.635396717262047e-05   1.8511828848325612e-05   -0.00018596607612118236
-4.2127841147102585e-05   1.8246954354383255e-05   -0.0002761840281340145
-4.2127841147102585e-05   1.8246954354383255e-05   -0.0002761840281340145
-4.2127841147102585e-05   1.8246954354383255e-05   -0.0002761840281340145
-4.2127841147102585e-05   1.8246954354383255e-05   -0.0002761840281340145
-7.113098514919626e-05   1.5056701593007052e-05   -0.00022593130314036802
-7.113098514919626e-05   1.5056701593007052e-05   -0.00022593130314036802
-7.113098514919626e-05   1.5056701593007052e-05   -0.00022593130314036802
-7.113098514919626e-05   1.5056701593007052e-05   -0.00022593130314036802
-4.2127841147102585e-05   1.8511828848325612e-05   -0.0001858071514248185
-4.2127841147102585e-05   1.8511828848325612e-05   -0.0001858071514248185
-4.2127841147102585e-05   1.8511828848325612e-05   -0.0001858071514248185
-4.2127841147102585e-05   1.8511828848325612e-05   -0.0001858071514248185
-9.635396717262032e-05   1.8246954354383255e-05   -0.0002763429528303803
-9.635396717262032e-05   1.8246954354383255e-05   -0.0002763429528303803
-9.635396717262032e-05   1.8246954354383255e-05   -0.0002763429528303803
-9.635396717262032e-05   1.8246954354383255e-05   -0.0002763429528303803
-9.274260801009063e-05   2.5319953685607258e-05   -0.0001901371503489728
-9.274260801009063e-05   2.5319953685607258e-05   -0.0001901371503489728
-9.274260801009063e-05   2.5319953685607258e-05   -0.0001901371503489728
-9.274260801009063e-05   2.5319953685607258e-05   -0.0001901371503489728
-3.85674068750536e-05   2.4346375009897878e-05   -0.00027984500503527507
-3.85674068750536e-05   2.4346375009897878e-05   -0.00027984500503527507
-3.85674068750536e-05   2.4346375009897878e-05   -0.00027984500503527507
-3.85674068750536e-05   2.4346375009897878e-05   -0.00027984500503527507
-6.806810528022918e-05   2.006556077914501e-05   -0.00022810868582153474
-6.806810528022918e-05   2.006556077914501e-05   -0.00022810868582153474
-6.806810528022918e-05   2.006556077914501e-05   -0.00022810868582153474
-6.806810528022918e-05   2.006556077914501e-05   -0.00022810868582153474
-0.00010387077807990933   1.1636724166728951e-05   -0.00015880754295559147
-0.00010387077807990933   1.1636724166728951e-05   -0.00015880754295559147
-0.00010387077807990933   1.1636724166728951e-05   -0.00015880754295559147
-0.00010387077807990933   1.1636724166728951e-05   -0.00015880754295559147
-0.00015745944455018164   2.1430705028795127e-05   -0.00024224559855547285
-0.00015745944455018164   2.1430705028795127e-05   -0.00024224559855547285
-0.00015745944455018164   2.1430705028795127e-05   -0.00024224559855547285
-0.00015745944455018164   2.1430705028795127e-05   -0.00024224559855547285
-0.0001532038035029792   1.8223537278948265e-05   -0.00014961574369479636
-0.0001532038035029792   1.8223537278948265e-05   -0.00014961574369479636
-0.0001532038035029792   1.8223537278948265e-05   -0.00014961574369479636
-0.0001532038035029792   1.8223537278948265e-05   -0.00014961574369479636
-0.00010014045312451073   2.74709294420198e-05   -0.0002436030962900866
-0.00010014045312451073   2.74709294420198e-05   -0.0002436030962900866
-0.00010014045312451073   2.74709294420198e-05   -0.0002436030962900866
-0.00010014045312451073   2.74709294420198e-05   -0.0002436030962900866
-0.00012777860872554387   2.048251325711091e-05   -0.00019334645391075355
-0.00012777860872554387   2.048251325711091e-05   -0.00019334645391075355
-0.00012777860872554387   2.048251325711091e-05   -0.00019334645391075355
-0.00012777860872554387   2.048251325711091e-05   -0.00019334645391075355
-0.0001001404531245109   1.822353727894653e-05   -0.0001551641789926386
-0.0001001404531245109   1.822353727894653e-05   -0.0001551641789926386
-0.0001001404531245109   1.822353727894653e-05   -0.0001551641789926386
-0.0001001404531245109   1.822353727894653e-05   -0.0001551641789926386
-0.00015320380350297946   2.74709294420198e-05   -0.00023805466099224414
-0.00015320380350297946   2.74709294420198e-05   -0.00023805466099224414
-0.00015320380350297946   2.74709294420198e-05   -0.00023805466099224414
-0.00015320380350297946   2.74709294420198e-05   -0.00023805466099224414
-0.00014812705032462903   2.4306408129061777e-05   -0.00014827084062898378
-0.00014812705032462903   2.4306408129061777e-05   -0.00014827084062898378
-0.00014812705032462903   2.4306408129061777e-05   -0.00014827084062898378
-0.00014812705032462903   2.4306408129061777e-05   -0.00014827084062898378
-9.635396717262047e-05   3.2916877850546616e-05   -0.00023972559438188723
-9.635396717262047e-05   3.2916877850546616e-05   -0.00023972559438188723
-9.635396717262047e-05   3.2916877850546616e-05   -0.00023972559438188723
-9.635396717262047e-05   3.2916877850546616e-05   -0.00023972559438188723
-0.00012349879504708637   2.524565279181379e-05   -0.0001898814795558754
-0.00012349879504708637   2.524565279181379e-05   -0.0001898814795558754
-0.00012349879504708637   2.524565279181379e-05   -0.0001898814795558754
-0.00012349879504708637   2.524565279181379e-05   -0.0001898814795558754
-9.63539671726204e-05   2.4306408129061777e-05   -0.00015343712246187243
-9.63539671726204e-05   2.4306408129061777e-05   -0.00015343712246187243
-9.63539671726204e-05   2.4306408129061777e-05   -0.00015343712246187243
-9.63539671726204e-05   2.4306408129061777e-05   -0.00015343712246187243
-0.00014812705032462903   3.291687785054488e-05   -0.00023455931254899934
-0.00014812705032462903   3.291687785054488e-05   -0.00023455931254899934
-0.00014812705032462903   3.291687785054488e-05   -0.00023455931254899934
-0.00014812705032462903   3.291687785054488e-05   -0.00023455931254899934
-0.000143892697407833   3.1133555143753044e-05   -0.00015237291631008988
-0.000143892697407833   3.1133555143753044e-05   -0.00015237291631008988
-0.000143892697407833   3.1133555143753044e-05   -0.00015237291631008988
-0.000143892697407833   3.1133555143753044e-05   -0.00015237291631008988
-9.274260801009063e-05   3.9021345006303235e-05   -0.0002423557392238573
-9.274260801009063e-05   3.9021345006303235e-05   -0.0002423557392238573
-9.274260801009063e-05   3.9021345006303235e-05   -0.0002423557392238573
-9.274260801009063e-05   3.9021345006303235e-05   -0.0002423557392238573
-0.00012060543105324639   2.9945983326833125e-05   -0.00019047248381091523
-0.00012060543105324639   2.9945983326833125e-05   -0.00019047248381091523
-0.00012060543105324639   2.9945983326833125e-05   -0.00019047248381091523
-0.00012060543105324639   2.9945983326833125e-05   -0.00019047248381091523
-0.00015745944455018164   1.9515069183151726e-05   -8.22254989414125e-05
-0.00015745944455018164   1.9515069183151726e-05   -8.22254989414125e-05
-0.00015745944455018164   1.9515069183151726e-05   -8.22254989414125e-05
-0.00015745944455018164   1.9515069183151726e-05   -8.22254989414125e-05
-0.0002184422390954625   3.682852235222661e-05   -0.00017347541794876953
-0.0002184422390954625   3.682852235222661e-05   -0.00017347541794876953
-0.0002184422390954625   3.682852235222661e-05   -0.00017347541794876953
-0.0002184422390954625   3.682852235222661e-05   -0.00017347541794876953
-0.0002068629309801821   2.5477739732470903e-05   -5.2015732867454964e-05
-0.0002068629309801821   2.5477739732470903e-05   -5.2015732867454964e-05
-0.0002068629309801821   2.5477739732470903e-05   -5.2015732867454964e-05
-0.0002068629309801821   2.5477739732470903e-05   -5.2015732867454964e-05
-0.0001532038035029792   4.309036803490547e-05   -0.00015201518897758643
-0.0001532038035029792   4.309036803490547e-05   -0.00015201518897758643
-0.0001532038035029792   4.309036803490547e-05   -0.00015201518897758643
-0.0001532038035029792   4.309036803490547e-05   -0.00015201518897758643
-0.0001765044721945995   3.195811071226781e-05   -0.00010650138676463828
-0.0001765044721945995   3.195811071226781e-05   -0.00010650138676463828
-0.0001765044721945995   3.195811071226781e-05   -0.00010650138676463828
-0.0001765044721945995   3.195811071226781e-05   -0.00010650138676463828
-0.00015320380350297935   2.5477739732470903e-05   -6.258330984891536e-05
-0.00015320380350297935   2.5477739732470903e-05   -6.258330984891536e-05
-0.00015320380350297935   2.5477739732470903e-05   -6.258330984891536e-05
-0.00015320380350297935   2.5477739732470903e-05   -6.258330984891536e-05
-0.00020686293098018133   4.309036803490547e-05   -0.00014144761199612593
-0.00020686293098018133   4.309036803490547e-05   -0.00014144761199612593
-0.00020686293098018133   4.309036803490547e-05   -0.00014144761199612593
-0.00020686293098018133   4.309036803490547e-05   -0.00014144761199612593
-0.0001972917663101906   2.8208685639109776e-05   -4.2926294212962575e-05
-0.0001972917663101906   2.8208685639109776e-05   -4.2926294212962575e-05
-0.0001972917663101906   2.8208685639109776e-05   -4.2926294212962575e-05
-0.0001972917663101906   2.8208685639109776e-05   -4.2926294212962575e-05
-0.00014812705032462875   4.53310374059733e-05   -0.00013514089858234922
-0.00014812705032462875   4.53310374059733e-05   -0.00013514089858234922
-0.00014812705032462875   4.53310374059733e-05   -0.00013514089858234922
-0.00014812705032462875   4.53310374059733e-05   -0.00013514089858234922
-0.00017220121777609485   3.476137257549597e-05   -8.867548726495243e-05
-0.00017220121777609485   3.476137257549597e-05   -8.867548726495243e-05
-0.00017220121777609485   3.476137257549597e-05   -8.867548726495243e-05
-0.00017220121777609485   3.476137257549597e-05   -8.867548726495243e-05
-0.00014812705032462903   2.8208685639109776e-05   -5.319970527307982e-05
-0.00014812705032462903   2.8208685639109776e-05   -5.319970527307982e-05
-0.00014812705032462903   2.8208685639109776e-05   -5.319970527307982e-05
-0.00014812705032462903   2.8208685639109776e-05   -5.319970527307982e-05
-0.00019729176631019026   4.53310374059733e-05   -0.00012486748752223338
-0.00019729176631019026   4.53310374059733e-05   -0.00012486748752223338
-0.00019729176631019026   4.53310374059733e-05   -0.00012486748752223338
-0.00019729176631019026   4.53310374059733e-05   -0.00012486748752223338
-0.00018599699290728277   3.24650512791326e-05   -3.3486206172996316e-05
-0.00018599699290728277   3.24650512791326e-05   -3.3486206172996316e-05
-0.00018599699290728277   3.24650512791326e-05   -3.3486206172996316e-05
-0.00018599699290728277   3.24650512791326e-05   -3.3486206172996316e-05
-0.000143892697407833   4.819938804955133e-05   -0.00011310063406766251
-0.000143892697407833   4.819938804955133e-05   -0.00011310063406766251
-0.000143892697407833   4.819938804955133e-05   -0.00011310063406766251
-0.000143892697407833   4.819938804955133e-05   -0.00011310063406766251
-0.0001632316285632933   3.6124803674014716e-05   -7.362433151657504e-05
-0.0001632316285632933   3.6124803674014716e-05   -7.362433151657504e-05
-0.0001632316285632933   3.6124803674014716e-05   -7.362433151657504e-05
-0.0001632316285632933   3.6124803674014716e-05   -7.362433151657504e-05
0.0001667398362980928   -2.1910804109870688e-05   -2.198679444869421e-06
0.0001667398362980928   -2.1910804109870688e-05   -2.198679444869421e-06
0.0001667398362980928   -2.1910804109870688e-05   -2.198679444869421e-06
0.0001667398362980928   -2.1910804109870688e-05   -2.198679444869421e-06
7.122551460571943e-05   -3.9649047132417e-05   -0.00017203216141235302
7.122551460571943e-05   -3.9649047132417e-05   -0.00017203216141235302
7.122551460571943e-05   -3.9649047132417e-05   -0.00017203216141235302
7.122551460571943e-05   -3.9649047132417e-05   -0.00017203216141235302
7.636160529879811e-05   -1.7991652224892338e-05   -1.9778117045600452e-05
7.636160529879811e-05   -1.7991652224892338e-05   -1.9778117045600452e-05
7.636160529879811e-05   -1.7991652224892338e-05   -1.9778117045600452e-05
7.636160529879811e-05   -1.7991652224892338e-05   -1.9778117045600452e-05
0.00017950529473512817   -3.68594368407079e-05   -0.0001803635953366604
0.00017950529473512817   -3.68594368407079e-05   -0.0001803635953366604
0.00017950529473512817   -3.68594368407079e-05   -0.0001803635953366604
0.00017950529473512817   -3.68594368407079e-05   -0.0001803635953366604
0.00011848735508776238   -2.609141030498162e-05   -8.51278451791536e-05
0.00011848735508776238   -2.609141030498162e-05   -8.51278451791536e-05
0.00011848735508776238   -2.609141030498162e-05   -8.51278451791536e-05
0.00011848735508776238   -2.609141030498162e-05   -8.51278451791536e-05
0.0001795052947351284   -1.7991652224892338e-05   -8.457446276109726e-06
0.0001795052947351284   -1.7991652224892338e-05   -8.457446276109726e-06
0.0001795052947351284   -1.7991652224892338e-05   -8.457446276109726e-06
0.0001795052947351284   -1.7991652224892338e-05   -8.457446276109726e-06
7.63616052987979e-05   -3.68594368407079e-05   -0.0001916842661061494
7.63616052987979e-05   -3.68594368407079e-05   -0.0001916842661061494
7.63616052987979e-05   -3.68594368407079e-05   -0.0001916842661061494
7.63616052987979e-05   -3.68594368407079e-05   -0.0001916842661061494
8.204646668319915e-05   -1.5392549878999462e-05   -2.7459599653419445e-05
8.204646668319915e-05   -1.5392549878999462e-05   -2.7459599653419445e-05
8.204646668319915e-05   -1.5392549878999462e-05   -2.7459599653419445e-05
8.204646668319915e-05   -1.5392549878999462e-05   -2.7459599653419445e-05
0.00019024850658586425   -3.448017129305085e-05   -0.0001963437599760984
0.00019024850658586425   -3.448017129305085e-05   -0.0001963437599760984
0.00019024850658586425   -3.448017129305085e-05   -0.0001963437599760984
0.00019024850658586425   -3.448017129305085e-05   -0.0001963437599760984
0.00012807815259732714   -2.5033539666824076e-05   -9.839448230427195e-05
0.00012807815259732714   -2.5033539666824076e-05   -9.839448230427195e-05
0.00012807815259732714   -2.5033539666824076e-05   -9.839448230427195e-05
0.00012807815259732714   -2.5033539666824076e-05   -9.839448230427195e-05
0.00019024850658586469   -1.5392549878999462e-05   -1.6007026804988958e-05
0.00019024850658586469   -1.5392549878999462e-05   -1.6007026804988958e-05
0.00019024850658586469   -1.5392549878999462e-05   -1.6007026804988958e-05
0.00019024850658586469   -1.5392549878999462e-05   -1.6007026804988958e-05
8.204646668319893e-05   -3.448017129305085e-05   -0.00020779633282452976
8.204646668319893e-05   -3.448017129305085e-05   -0.00020779633282452976
8.204646668319893e-05   -3.448017129305085e-05   -0.00020779633282452976
8.204646668319893e-05   -3.448017129305085e-05   -0.00020779633282452976
8.676093107394772e-05   -8.830062274072653e-06   -4.5247852096322316e-05
8.676093107394772e-05   -8.830062274072653e-06   -4.5247852096322316e-05
8.676093107394772e-05   -8.830062274072653e-06   -4.5247852096322316e-05
8.676093107394772e-05   -8.830062274072653e-06   -4.5247852096322316e-05
0.00020271980340009132   -2.693555505885875e-05   -0.00022764934363568882
0.00020271980340009132   -2.693555505885875e-05   -0.00022764934363568882
0.00020271980340009132   -2.693555505885875e-05   -0.00022764934363568882
0.00020271980340009132   -2.693555505885875e-05   -0.00022764934363568882
0.00013332995852892643   -2.2104326316597228e-05   -0.00011489833942910895
0.00013332995852892643   -2.2104326316597228e-05   -0.00011489833942910895
0.00013332995852892643   -2.2104326316597228e-05   -0.00011489833942910895
0.00013332995852892643   -2.2104326316597228e-05   -0.00011489833942910895
7.122551460571943e-05   -8.723262401172382e-06   -0.0001175755000118921
7.122551460571943e-05   -8.723262401172382e-06   -0.0001175755000118921
7.122551460571943e-05   -8.723262401172382e-06   -0.0001175755000118921
7.122551460571943e-05   -8.723262401172382e-06   -0.0001175755000118921
-3.0056710248498454e-05   -1.8662318145696438e-05   -0.00029234264154896945
-3.0056710248498454e-05   -1.8662318145696438e-05   -0.00029234264154896945
-3.0056710248498454e-05   -1.8662318145696438e-05   -0.00029234264154896945
-3.0056710248498454e-05   -1.8662318145696438e-05   -0.00029234264154896945
-2.5267052096485912e-05   -3.3649856556010327e-06   -0.00012002519517154836
-2.5267052096485912e-05   -3.3649856556010327e-06   -0.00012002519517154836
-2.5267052096485912e-05   -3.3649856556010327e-06   -0.00012002519517154836
-2.5267052096485912e-05   -3.3649856556010327e-06   -0.00012002519517154836
7.636160529879811e-05   -1.4816679364102261e-05   -0.0002825352746052517
7.636160529879811e-05   -1.4816679364102261e-05   -0.0002825352746052517
7.636160529879811e-05   -1.4816679364102261e-05   -0.0002825352746052517
7.636160529879811e-05   -1.4816679364102261e-05   -0.0002825352746052517
2.332320939972863e-05   -9.041031508966874e-06   -0.00019760333681988532
2.332320939972863e-05   -9.041031508966874e-06   -0.00019760333681988532
2.332320939972863e-05   -9.041031508966874e-06   -0.00019760333681988532
2.332320939972863e-05   -9.041031508966874e-06   -0.00019760333681988532
7.636160529879811e-05   -3.3649856556010327e-06   -0.0001131541789464452
7.636160529879811e-05   -3.3649856556010327e-06   -0.0001131541789464452
7.636160529879811e-05   -3.3649856556010327e-06   -0.0001131541789464452
7.636160529879811e-05   -3.3649856556010327e-06   -0.0001131541789464452
-2.5267052096485912e-05   -1.4816679364102261e-05   -0.0002894062908303527
-2.5267052096485912e-05   -1.4816679364102261e-05   -0.0002894062908303527
-2.5267052096485912e-05   -1.4816679364102261e-05   -0.0002894062908303527
-2.5267052096485912e-05   -1.4816679364102261e-05   -0.0002894062908303527
-2.069352109500364e-05   2.17076729137379e-06   -0.00012153612997960715
-2.069352109500364e-05   2.17076729137379e-06   -0.00012153612997960715
-2.069352109500364e-05   2.17076729137379e-06   -0.00012153612997960715
-2.069352109500364e-05   2.17076729137379e-06   -0.00012153612997960715
8.204646668319893e-05   -1.0113209693496036e-05   -0.0002853990567523567
8.204646668319893e-05   -1.0113209693496036e-05   -0.0002853990567523567
8.204646668319893e-05   -1.0113209693496036e-05   -0.0002853990567523567
8.204646668319893e-05   -1.0113209693496036e-05   -0.0002853990567523567
2.713728931973494e-05   -5.6466439815189284e-06   -0.00019656370057376574
2.713728931973494e-05   -5.6466439815189284e-06   -0.00019656370057376574
2.713728931973494e-05   -5.6466439815189284e-06   -0.00019656370057376574
2.713728931973494e-05   -5.6466439815189284e-06   -0.00019656370057376574
8.204646668319915e-05   2.17076729137379e-06   -0.0001141657437886863
8.204646668319915e-05   2.17076729137379e-06   -0.0001141657437886863
8.204646668319915e-05   2.17076729137379e-06   -0.0001141657437886863
8.204646668319915e-05   2.17076729137379e-06   -0.0001141657437886863
-2.069352109500364e-05   -1.0113209693497771e-05   -0.0002927694429432793
-2.069352109500364e-05   -1.0113209693497771e-05   -0.0002927694429432793
-2.069352109500364e-05   -1.0113209693497771e-05   -0.0002927694429432793
-2.069352109500364e-05   -1.0113209693497771e-05   -0.0002927694429432793
-1.6393630971851987e-05   8.719089968427587e-06   -0.00012563458676965664
-1.6393630971851987e-05   8.719089968427587e-06   -0.00012563458676965664
-1.6393630971851987e-05   8.719089968427587e-06   -0.00012563458676965664
-1.6393630971851987e-05   8.719089968427587e-06   -0.00012563458676965664
8.676093107394772e-05   -4.201395355986348e-06   -0.00028980656565134226
8.676093107394772e-05   -4.201395355986348e-06   -0.00028980656565134226
8.676093107394772e-05   -4.201395355986348e-06   -0.00028980656565134226
8.676093107394772e-05   -4.201395355986348e-06   -0.00028980656565134226
3.187316775166778e-05   -1.4645235653434896e-06   -0.00019996908318859873
3.187316775166778e-05   -1.4645235653434896e-06   -0.00019996908318859873
3.187316775166778e-05   -1.4645235653434896e-06   -0.00019996908318859873
3.187316775166778e-05   -1.4645235653434896e-06   -0.00019996908318859873
-3.0056710248498562e-05   6.591158176255316e-06   -0.00015093558197228508
-3.0056710248498562e-05   6.591158176255316e-06   -0.00015093558197228508
-3.0056710248498562e-05   6.591158176255316e-06   -0.00015093558197228508
-3.0056710248498562e-05   6.591158176255316e-06   -0.00015093558197228508
-0.00012955569678935742   3.210373712144582e-06   -0.00031879569688551563
-0.00012955569678935742   3.210373712144582e-06   -0.00031879569688551563
-0.00012955569678935742   3.210373712144582e-06   -0.00031879569688551563
-0.00012955569678935742   3.210373712144582e-06   -0.00031879569688551563
-0.00012439892756196805   1.2250683883550592e-05   -0.00014993426276793762
-0.00012439892756196805   1.2250683883550592e-05   -0.00014993426276793762
-0.00012439892756196805   1.2250683883550592e-05   -0.00014993426276793762
-0.00012439892756196805   1.2250683883550592e-05   -0.00014993426276793762
-2.5267052096485912e-05   7.5226746055860605e-06   -0.0003123172496436299
-2.5267052096485912e-05   7.5226746055860605e-06   -0.0003123172496436299
-2.5267052096485912e-05   7.5226746055860605e-06   -0.0003123172496436299
-2.5267052096485912e-05   7.5226746055860605e-06   -0.0003123172496436299
-7.678652481490194e-05   9.029536782603417e-06   -0.00022735557908581385
-7.678652481490194e-05   9.029536782603417e-06   -0.00022735557908581385
-7.678652481490194e-05   9.029536782603417e-06   -0.00022735557908581385
-7.678652481490194e-05   9.029536782603417e-06   -0.00022735557908581385
-2.5267052096485912e-05   1.2250683883550592e-05   -0.0001470974572011603
-2.5267052096485912e-05   1.2250683883550592e-05   -0.0001470974572011603
-2.5267052096485912e-05   1.2250683883550592e-05   -0.0001470974572011603
-2.5267052096485912e-05   1.2250683883550592e-05   -0.0001470974572011603
-0.00012439892756196805   7.5226746055860605e-06   -0.00031515405521040894
-0.00012439892756196805   7.5226746055860605e-06   -0.00031515405521040894
-0.00012439892756196805   7.5226746055860605e-06   -0.00031515405521040894
-0.00012439892756196805   7.5226746055860605e-06   -0.00031515405521040894
-0.00011942758394196991   1.824695435438499e-05   -0.00014970759268365455
-0.00011942758394196991   1.824695435438499e-05   -0.00014970759268365455
-0.00011942758394196991   1.824695435438499e-05   -0.00014970759268365455
-0.00011942758394196991   1.824695435438499e-05   -0.00014970759268365455
-2.069352109500364e-05   1.2526537848257802e-05   -0.0003108321141915885
-2.069352109500364e-05   1.2526537848257802e-05   -0.0003108321141915885
-2.069352109500364e-05   1.2526537848257802e-05   -0.0003108321141915885
-2.069352109500364e-05   1.2526537848257802e-05   -0.0003108321141915885
-7.234415603261745e-05   1.3064922920750371e-05   -0.00022507075367239312
-7.234415603261745e-05   1.3064922920750371e-05   -0.00022507075367239312
-7.234415603261745e-05   1.3064922920750371e-05   -0.00022507075367239312
-7.234415603261745e-05   1.3064922920750371e-05   -0.00022507075367239312
-2.069352109500364e-05   1.8246954354383255e-05   -0.0001462753427799784
-2.069352109500364e-05   1.8246954354383255e-05   -0.0001462753427799784
-2.069352109500364e-05   1.8246954354383255e-05   -0.0001462753427799784
-2.069352109500364e-05   1.8246954354383255e-05   -0.0001462753427799784
-0.00011942758394196991   1.2526537848259536e-05   -0.00031426436409526595
-0.00011942758394196991   1.2526537848259536e-05   -0.00031426436409526595
-0.00011942758394196991   1.2526537848259536e-05   -0.00031426436409526595
-0.00011942758394196991   1.2526537848259536e-05   -0.00031426436409526595
-0.00011483337405879943   2.4346375009899612e-05   -0.0001532089817897703
-0.00011483337405879943   2.4346375009899612e-05   -0.0001532089817897703
-0.00011483337405879943   2.4346375009899612e-05   -0.0001532089817897703
-0.00011483337405879943   2.4346375009899612e-05   -0.0001532089817897703
-1.6393630971852096e-05   1.7699783268031524e-05   -0.00031328726522289506
-1.6393630971852096e-05   1.7699783268031524e-05   -0.00031328726522289506
-1.6393630971852096e-05   1.7699783268031524e-05   -0.00031328726522289506
-1.6393630971852096e-05   1.7699783268031524e-05   -0.00031328726522289506
-6.837086583329369e-05   1.720590510839899e-05   -0.00022636221355805007
-6.837086583329369e-05   1.720590510839899e-05   -0.00022636221355805007
-6.837086583329369e-05   1.720590510839899e-05   -0.00022636221355805007
-6.837086583329369e-05   1.720590510839899e-05   -0.00022636221355805007
-0.00012955569678935766   2.1430705028795127e-05   -0.00012253660862083984
-0.00012955569678935766   2.1430705028795127e-05   -0.00012253660862083984
-0.00012955569678935766   2.1430705028795127e-05   -0.00012253660862083984
-0.00012955569678935766   2.1430705028795127e-05   -0.00012253660862083984
-0.00022710458762022326   2.586197325835267e-05   -0.00028245933240121385
-0.00022710458762022326   2.586197325835267e-05   -0.00028245933240121385
-0.00022710458762022326   2.586197325835267e-05   -0.00028245933240121385
-0.00022710458762022326   2.586197325835267e-05   -0.00028245933240121385
-0.00022089581854662605   2.74709294420198e-05   -0.00011524540193063714
-0.00022089581854662605   2.74709294420198e-05   -0.00011524540193063714
-0.00022089581854662605   2.74709294420198e-05   -0.00011524540193063714
-0.00022089581854662605   2.74709294420198e-05   -0.00011524540193063714
-0.00012439892756196827   3.1350812890608426e-05   -0.00027840148364088814
-0.00012439892756196827   3.1350812890608426e-05   -0.00027840148364088814
-0.00012439892756196827   3.1350812890608426e-05   -0.00027840148364088814
-0.00012439892756196827   3.1350812890608426e-05   -0.00027840148364088814
-0.00017420441755618986   2.7689766944458474e-05   -0.00019319570608282834
-0.00017420441755618986   2.7689766944458474e-05   -0.00019319570608282834
-0.00017420441755618986   2.7689766944458474e-05   -0.00019319570608282834
-0.00017420441755618986   2.7689766944458474e-05   -0.00019319570608282834
-0.00012439892756196827   2.7470929442018066e-05   -0.00011757333199979153
-0.00012439892756196827   2.7470929442018066e-05   -0.00011757333199979153
-0.00012439892756196827   2.7470929442018066e-05   -0.00011757333199979153
-0.00012439892756196827   2.7470929442018066e-05   -0.00011757333199979153
-0.0002208958185466264   3.1350812890608426e-05   -0.0002760735535717344
-0.0002208958185466264   3.1350812890608426e-05   -0.0002760735535717344
-0.0002208958185466264   3.1350812890608426e-05   -0.0002760735535717344
-0.0002208958185466264   3.1350812890608426e-05   -0.0002760735535717344
-0.00021404041638635392   3.2916877850546616e-05   -0.00011119252739359362
-0.00021404041638635392   3.2916877850546616e-05   -0.00011119252739359362
-0.00021404041638635392   3.2916877850546616e-05   -0.00011119252739359362
-0.00021404041638635392   3.2916877850546616e-05   -0.00011119252739359362
-0.00011942758394197016   3.607972258649374e-05   -0.00027077828830913595
-0.00011942758394197016   3.607972258649374e-05   -0.00027077828830913595
-0.00011942758394197016   3.607972258649374e-05   -0.00027077828830913595
-0.00011942758394197016   3.607972258649374e-05   -0.00027077828830913595
-0.0001679395816834475   3.195543445501901e-05   -0.00018745038586112254
-0.0001679395816834475   3.195543445501901e-05   -0.00018745038586112254
-0.0001679395816834475   3.195543445501901e-05   -0.00018745038586112254
-0.0001679395816834475   3.195543445501901e-05   -0.00018745038586112254
-0.00011942758394197   3.2916877850546616e-05   -0.00011309023423516137
-0.00011942758394197   3.2916877850546616e-05   -0.00011309023423516137
-0.00011942758394197   3.2916877850546616e-05   -0.00011309023423516137
-0.00011942758394197   3.2916877850546616e-05   -0.00011309023423516137
-0.00021404041638635392   3.607972258649374e-05   -0.0002688805814675668
-0.00021404041638635392   3.607972258649374e-05   -0.0002688805814675668
-0.00021404041638635392   3.607972258649374e-05   -0.0002688805814675668
-0.00021404041638635392   3.607972258649374e-05   -0.0002688805814675668
-0.0002082436989247919   3.9021345006303235e-05   -0.00011375562004883617
-0.0002082436989247919   3.9021345006303235e-05   -0.00011375562004883617
-0.0002082436989247919   3.9021345006303235e-05   -0.00011375562004883617
-0.0002082436989247919   3.9021345006303235e-05   -0.00011375562004883617
-0.00011483337405879962   4.1321259546454187e-05   -0.0002708194435495807
-0.00011483337405879962   4.1321259546454187e-05   -0.0002708194435495807
-0.00011483337405879962   4.1321259546454187e-05   -0.0002708194435495807
-0.00011483337405879962   4.1321259546454187e-05   -0.0002708194435495807
-0.0001640062433192677   3.588851737781895e-05   -0.0001856050161476205
-0.0001640062433192677   3.588851737781895e-05   -0.0001856050161476205
-0.0001640062433192677   3.588851737781895e-05   -0.0001856050161476205
-0.0001640062433192677   3.588851737781895e-05   -0.0001856050161476205
-0.00022710458762022326   3.682852235222661e-05   -6.149573897784675e-05
-0.00022710458762022326   3.682852235222661e-05   -6.149573897784675e-05
-0.00022710458762022326   3.682852235222661e-05   -6.149573897784675e-05
-0.00022710458762022326   3.682852235222661e-05   -6.149573897784675e-05
-0.00032970813619044917   5.097887568979165e-05   -0.00022401144125901943
-0.00032970813619044917   5.097887568979165e-05   -0.00022401144125901943
-0.00032970813619044917   5.097887568979165e-05   -0.00022401144125901943
-0.00032970813619044917   5.097887568979165e-05   -0.00022401144125901943
-0.0003155512751364793   4.309036803490547e-05   -2.0098218979839114e-05
-0.0003155512751364793   4.309036803490547e-05   -2.0098218979839114e-05
-0.0003155512751364793   4.309036803490547e-05   -2.0098218979839114e-05
-0.0003155512751364793   4.309036803490547e-05   -2.0098218979839114e-05
-0.00022089581854662605   5.826988626180668e-05   -0.00018696502423240147
-0.00022089581854662605   5.826988626180668e-05   -0.00018696502423240147
-0.00022089581854662605   5.826988626180668e-05   -0.00018696502423240147
-0.00022089581854662605   5.826988626180668e-05   -0.00018696502423240147
-0.0002620093822737292   4.8572519901288885e-05   -0.0001126239982042525
-0.0002620093822737292   4.8572519901288885e-05   -0.0001126239982042525
-0.0002620093822737292   4.8572519901288885e-05   -0.0001126239982042525
-0.0002620093822737292   4.8572519901288885e-05   -0.0001126239982042525
-0.00022089581854662624   4.3090368034907206e-05   -2.920592991597845e-05
-0.00022089581854662624   4.3090368034907206e-05   -2.920592991597845e-05
-0.00022089581854662624   4.3090368034907206e-05   -2.920592991597845e-05
-0.00022089581854662624   4.3090368034907206e-05   -2.920592991597845e-05
-0.0003155512751364789   5.826988626180668e-05   -0.00017785731329626134
-0.0003155512751364789   5.826988626180668e-05   -0.00017785731329626134
-0.0003155512751364789   5.826988626180668e-05   -0.00017785731329626134
-0.0003155512751364789   5.826988626180668e-05   -0.00017785731329626134
-0.00030389963118702013   4.53310374059733e-05   -2.863591561964862e-06
-0.00030389963118702013   4.53310374059733e-05   -2.863591561964862e-06
-0.00030389963118702013   4.53310374059733e-05   -2.863591561964862e-06
-0.00030389963118702013   4.53310374059733e-05   -2.863591561964862e-06
-0.00021404041638635392   6.018190718094091e-05   -0.00016153947142805527
-0.00021404041638635392   6.018190718094091e-05   -0.00016153947142805527
-0.00021404041638635392   6.018190718094091e-05   -0.00016153947142805527
-0.00021404041638635392   6.018190718094091e-05   -0.00016153947142805527
-0.00025710395199051274   5.1457726692367284e-05   -8.453240379464378e-05
-0.00025710395199051274   5.1457726692367284e-05   -8.453240379464378e-05
-0.00025710395199051274   5.1457726692367284e-05   -8.453240379464378e-05
-0.00025710395199051274   5.1457726692367284e-05   -8.453240379464378e-05
-0.00021404041638635392   4.53310374059733e-05   -1.1774113426944906e-05
-0.00021404041638635392   4.53310374059733e-05   -1.1774113426944906e-05
-0.00021404041638635392   4.53310374059733e-05   -1.1774113426944906e-05
-0.00021404041638635392   4.53310374059733e-05   -1.1774113426944906e-05
-0.00030389963118701905   6.018190718093917e-05   -0.000152628949563075
-0.00030389963118701905   6.018190718093917e-05   -0.000152628949563075
-0.00030389963118701905   6.018190718093917e-05   -0.000152628949563075
-0.00030389963118701905   6.018190718093917e-05   -0.000152628949563075
-0.00029135567246924335   4.819938804955133e-05   1.896302106705293e-05
-0.00029135567246924335   4.819938804955133e-05   1.896302106705293e-05
-0.00029135567246924335   4.819938804955133e-05   1.896302106705293e-05
-0.00029135567246924335   4.819938804955133e-05   1.896302106705293e-05
-0.0002082436989247919   6.185973784492323e-05   -0.00012775314471759065
-0.0002082436989247919   6.185973784492323e-05   -0.00012775314471759065
-0.0002082436989247919   6.185973784492323e-05   -0.00012775314471759065
-0.0002082436989247919   6.185973784492323e-05   -0.00012775314471759065
-0.00024533744113207974   5.19333712068696e-05   -5.997442105594691e-05
-0.00024533744113207974   5.19333712068696e-05   -5.997442105594691e-05
-0.00024533744113207974   5.19333712068696e-05   -5.997442105594691e-05
-0.00024533744113207974   5.19333712068696e-05   -5.997442105594691e-05
0.000283947826787545   -3.9649047132417e-05   5.5353215331511475e-05
0.000283947826787545   -3.9649047132417e-05   5.5353215331511475e-05
0.000283947826787545   -3.9649047132417e-05   5.5353215331511475e-05
0.000283947826787545   -3.9649047132417e-05   5.5353215331511475e-05
0.00013704946925119713   -5.885110312276419e-05   -0.0002009986141566101
0.00013704946925119713   -5.885110312276419e-05   -0.0002009986141566101
0.00013704946925119713   -5.885110312276419e-05   -0.0002009986141566101
0.00013704946925119713   -5.885110312276419e-05   -0.0002009986141566101
0.00014274740778581394   -3.68594368407079e-05   2.6198101406492424e-05
0.00014274740778581394   -3.68594368407079e-05   2.6198101406492424e-05
0.00014274740778581394   -3.68594368407079e-05   2.6198101406492424e-05
0.00014274740778581394   -3.68594368407079e-05   2.6198101406492424e-05
0.00029709230054951376   -5.745992147888207e-05   -0.0002186830957501035
0.00029709230054951376   -5.745992147888207e-05   -0.0002186830957501035
0.00029709230054951376   -5.745992147888207e-05   -0.0002186830957501035
0.00029709230054951376   -5.745992147888207e-05   -0.0002186830957501035
0.00020646956770401772   -4.3444476972239604e-05   -7.605447437826224e-05
0.00020646956770401772   -4.3444476972239604e-05   -7.605447437826224e-05
0.00020646956770401772   -4.3444476972239604e-05   -7.605447437826224e-05
0.00020646956770401772   -4.3444476972239604e-05   -7.605447437826224e-05
0.0002970923005495142   -3.68594368407079e-05   3.855839218939571e-05
0.0002970923005495142   -3.68594368407079e-05   3.855839218939571e-05
0.0002970923005495142   -3.68594368407079e-05   3.855839218939571e-05
0.0002970923005495142   -3.68594368407079e-05   3.855839218939571e-05
0.0001427474077858135   -5.745992147888207e-05   -0.00023104338653300895
0.0001427474077858135   -5.745992147888207e-05   -0.00023104338653300895
0.0001427474077858135   -5.745992147888207e-05   -0.00023104338653300895
0.0001427474077858135   -5.745992147888207e-05   -0.00023104338653300895
0.00014841334745928966   -3.448017129305085e-05   1.197357837527148e-05
0.00014841334745928966   -3.448017129305085e-05   1.197357837527148e-05
0.00014841334745928966   -3.448017129305085e-05   1.197357837527148e-05
0.00014841334745928966   -3.448017129305085e-05   1.197357837527148e-05
0.0003071945194393971   -5.5470732448052035e-05   -0.0002400673715652413
0.0003071945194393971   -5.5470732448052035e-05   -0.0002400673715652413
0.0003071945194393971   -5.5470732448052035e-05   -0.0002400673715652413
0.0003071945194393971   -5.5470732448052035e-05   -0.0002400673715652413
0.00021752592065939788   -4.330463962030559e-05   -9.791936262855665e-05
0.00021752592065939788   -4.330463962030559e-05   -9.791936262855665e-05
0.00021752592065939788   -4.330463962030559e-05   -9.791936262855665e-05
0.00021752592065939788   -4.330463962030559e-05   -9.791936262855665e-05
0.0003071945194393971   -3.448017129305085e-05   2.45679150682708e-05
0.0003071945194393971   -3.448017129305085e-05   2.45679150682708e-05
0.0003071945194393971   -3.448017129305085e-05   2.45679150682708e-05
0.0003071945194393971   -3.448017129305085e-05   2.45679150682708e-05
0.00014841334745928966   -5.54707324480503e-05   -0.00025266170825824063
0.00014841334745928966   -5.54707324480503e-05   -0.00025266170825824063
0.00014841334745928966   -5.54707324480503e-05   -0.00025266170825824063
0.00014841334745928966   -5.54707324480503e-05   -0.00025266170825824063
0.0001522760743379566   -2.6935555058860486e-05   -1.6744355433436983e-05
0.0001522760743379566   -2.6935555058860486e-05   -1.6744355433436983e-05
0.0001522760743379566   -2.6935555058860486e-05   -1.6744355433436983e-05
0.0001522760743379566   -2.6935555058860486e-05   -1.6744355433436983e-05
0.0003178722144566734   -4.76914362779364e-05   -0.0002802843935665188
0.0003178722144566734   -4.76914362779364e-05   -0.0002802843935665188
0.0003178722144566734   -4.76914362779364e-05   -0.0002802843935665188
0.0003178722144566734   -4.76914362779364e-05   -0.0002802843935665188
0.00022068212037595848   -3.998704272538747e-05   -0.0001229235395635254
0.00022068212037595848   -3.998704272538747e-05   -0.0001229235395635254
0.00022068212037595848   -3.998704272538747e-05   -0.0001229235395635254
0.00022068212037595848   -3.998704272538747e-05   -0.0001229235395635254
0.00013704946925119734   -1.8662318145696438e-05   -7.051506495259988e-05
0.00013704946925119734   -1.8662318145696438e-05   -7.051506495259988e-05
0.00013704946925119734   -1.8662318145696438e-05   -7.051506495259988e-05
0.00013704946925119734   -1.8662318145696438e-05   -7.051506495259988e-05
-7.912096005184381e-06   -3.8369535699286916e-05   -0.0003239420042453903
-7.912096005184381e-06   -3.8369535699286916e-05   -0.0003239420042453903
-7.912096005184381e-06   -3.8369535699286916e-05   -0.0003239420042453903
-7.912096005184381e-06   -3.8369535699286916e-05   -0.0003239420042453903
-2.0548455546161564e-06   -1.4816679364102261e-05   -7.770183652491824e-05
-2.0548455546161564e-06   -1.4816679364102261e-05   -7.770183652491824e-05
-2.0548455546161564e-06   -1.4816679364102261e-05   -7.770183652491824e-05
-2.0548455546161564e-06   -1.4816679364102261e-05   -7.770183652491824e-05
0.00014274740778581394   -3.656489508461688e-05   -0.00030598999599332666
0.00014274740778581394   -3.656489508461688e-05   -0.00030598999599332666
0.00014274740778581394   -3.656489508461688e-05   -0.00030598999599332666
0.00014274740778581394   -3.656489508461688e-05   -0.00030598999599332666
6.766807372286939e-05   -2.320281360566022e-05   -0.00018887502144245916
6.766807372286939e-05   -2.320281360566022e-05   -0.00018887502144245916
6.766807372286939e-05   -2.320281360566022e-05   -0.00018887502144245916
6.766807372286939e-05   -2.320281360566022e-05   -0.00018887502144245916
0.00014274740778581372   -1.4816679364102261e-05   -6.465290709260947e-05
0.00014274740778581372   -1.4816679364102261e-05   -6.465290709260947e-05
0.00014274740778581372   -1.4816679364102261e-05   -6.465290709260947e-05
0.00014274740778581372   -1.4816679364102261e-05   -6.465290709260947e-05
-2.0548455546161564e-06   -3.656489508461688e-05   -0.00031903892542563435
-2.0548455546161564e-06   -3.656489508461688e-05   -0.00031903892542563435
-2.0548455546161564e-06   -3.656489508461688e-05   -0.00031903892542563435
-2.0548455546161564e-06   -3.656489508461688e-05   -0.00031903892542563435
3.1079412855514795e-06   -1.0113209693497771e-05   -7.947004016518877e-05
3.1079412855514795e-06   -1.0113209693497771e-05   -7.947004016518877e-05
3.1079412855514795e-06   -1.0113209693497771e-05   -7.947004016518877e-05
3.1079412855514795e-06   -1.0113209693497771e-05   -7.947004016518877e-05
0.00014841334745928966   -3.3181367381214175e-05   -0.0003078048225087862
0.00014841334745928966   -3.3181367381214175e-05   -0.0003078048225087862
0.00014841334745928966   -3.3181367381214175e-05   -0.0003078048225087862
0.00014841334745928966   -3.3181367381214175e-05   -0.0003078048225087862
7.167525656206114e-05   -2.133361660699648e-05   -0.00018701665481126502
7.167525656206114e-05   -2.133361660699648e-05   -0.00018701665481126502
7.167525656206114e-05   -2.133361660699648e-05   -0.00018701665481126502
7.167525656206114e-05   -2.133361660699648e-05   -0.00018701665481126502
0.00014841334745928966   -1.0113209693496036e-05   -6.562914555255546e-05
0.00014841334745928966   -1.0113209693496036e-05   -6.562914555255546e-05
0.00014841334745928966   -1.0113209693496036e-05   -6.562914555255546e-05
0.00014841334745928966   -1.0113209693496036e-05   -6.562914555255546e-05
3.1079412855514795e-06   -3.3181367381214175e-05   -0.0003216457171214184
3.1079412855514795e-06   -3.3181367381214175e-05   -0.0003216457171214184
3.1079412855514795e-06   -3.3181367381214175e-05   -0.0003216457171214184
3.1079412855514795e-06   -3.3181367381214175e-05   -0.0003216457171214184
6.791189051356624e-06   -4.2013953559846134e-06   -8.253897270782753e-05
6.791189051356624e-06   -4.2013953559846134e-06   -8.253897270782753e-05
6.791189051356624e-06   -4.2013953559846134e-06   -8.253897270782753e-05
6.791189051356624e-06   -4.2013953559846134e-06   -8.253897270782753e-05
0.00015227607433795681   -2.8369213572007612e-05   -0.0003105130905892179
0.00015227607433795681   -2.8369213572007612e-05   -0.0003105130905892179
0.00015227607433795681   -2.8369213572007612e-05   -0.0003105130905892179
0.00015227607433795681   -2.8369213572007612e-05   -0.0003105130905892179
7.644173101751888e-05   -1.8025110604683037e-05   -0.00019032898016888402
7.644173101751888e-05   -1.8025110604683037e-05   -0.00019032898016888402
7.644173101751888e-05   -1.8025110604683037e-05   -0.00019032898016888402
7.644173101751888e-05   -1.8025110604683037e-05   -0.00019032898016888402
-7.912096005184381e-06   3.210373712144582e-06   -0.00010676398014283425
-7.912096005184381e-06   3.210373712144582e-06   -0.00010676398014283425
-7.912096005184381e-06   3.210373712144582e-06   -0.00010676398014283425
-7.912096005184381e-06   3.210373712144582e-06   -0.00010676398014283425
-0.00015073112403820942   -2.050788592569512e-05   -0.00035902664931391354
-0.00015073112403820942   -2.050788592569512e-05   -0.00035902664931391354
-0.00015073112403820942   -2.050788592569512e-05   -0.00035902664931391354
-0.00015073112403820942   -2.050788592569512e-05   -0.00035902664931391354
-0.00014370663961046302   7.5226746055860605e-06   -0.00011616140930937636
-0.00014370663961046302   7.5226746055860605e-06   -0.00011616140930937636
-0.00014370663961046302   7.5226746055860605e-06   -0.00011616140930937636
-0.00014370663961046302   7.5226746055860605e-06   -0.00011616140930937636
-2.0548455546161564e-06   -1.8391682013049748e-05   -0.00033669911876460664
-2.0548455546161564e-06   -1.8391682013049748e-05   -0.00033669911876460664
-2.0548455546161564e-06   -1.8391682013049748e-05   -0.00033669911876460664
-2.0548455546161564e-06   -1.8391682013049748e-05   -0.00033669911876460664
-7.518451817980384e-05   -4.200360224419081e-06   -0.00022333112412913862
-7.518451817980384e-05   -4.200360224419081e-06   -0.00022333112412913862
-7.518451817980384e-05   -4.200360224419081e-06   -0.00022333112412913862
-7.518451817980384e-05   -4.200360224419081e-06   -0.00022333112412913862
-2.0548455546161564e-06   7.5226746055860605e-06   -0.0001006127953381954
-2.0548455546161564e-06   7.5226746055860605e-06   -0.0001006127953381954
-2.0548455546161564e-06   7.5226746055860605e-06   -0.0001006127953381954
-2.0548455546161564e-06   7.5226746055860605e-06   -0.0001006127953381954
-0.00014370663961046302   -1.8391682013051483e-05   -0.0003522477327357878
-0.00014370663961046302   -1.8391682013051483e-05   -0.0003522477327357878
-0.00014370663961046302   -1.8391682013051483e-05   -0.0003522477327357878
-0.00014370663961046302   -1.8391682013051483e-05   -0.0003522477327357878
-0.00013726165652109754   1.2526537848257802e-05   -0.00011408652479441214
-0.00013726165652109754   1.2526537848257802e-05   -0.00011408652479441214
-0.00013726165652109754   1.2526537848257802e-05   -0.00011408652479441214
-0.00013726165652109754   1.2526537848257802e-05   -0.00011408652479441214
3.1079412855514795e-06   -1.5063151119933463e-05   -0.00033148204109124577
3.1079412855514795e-06   -1.5063151119933463e-05   -0.00033148204109124577
3.1079412855514795e-06   -1.5063151119933463e-05   -0.00033148204109124577
3.1079412855514795e-06   -1.5063151119933463e-05   -0.00033148204109124577
-6.945618274198845e-05   -1.7648024751154567e-06   -0.00021852084356557095
-6.945618274198845e-05   -1.7648024751154567e-06   -0.00021852084356557095
-6.945618274198845e-05   -1.7648024751154567e-06   -0.00021852084356557095
-6.945618274198845e-05   -1.7648024751154567e-06   -0.00021852084356557095
3.1079412855514795e-06   1.2526537848257802e-05   -9.753271141349756e-05
3.1079412855514795e-06   1.2526537848257802e-05   -9.753271141349756e-05
3.1079412855514795e-06   1.2526537848257802e-05   -9.753271141349756e-05
3.1079412855514795e-06   1.2526537848257802e-05   -9.753271141349756e-05
-0.0001372616565210978   -1.5063151119933463e-05   -0.00034803585447216144
-0.0001372616565210978   -1.5063151119933463e-05   -0.00034803585447216144
-0.0001372616565210978   -1.5063151119933463e-05   -0.00034803585447216144
-0.0001372616565210978   -1.5063151119933463e-05   -0.00034803585447216144
-0.00013291320863720855   1.7699783268031524e-05   -0.00011603418171768007
-0.00013291320863720855   1.7699783268031524e-05   -0.00011603418171768007
-0.00013291320863720855   1.7699783268031524e-05   -0.00011603418171768007
-0.00013291320863720855   1.7699783268031524e-05   -0.00011603418171768007
6.791189051356624e-06   -1.1911551120211833e-05   -0.0003311080438990091
6.791189051356624e-06   -1.1911551120211833e-05   -0.0003311080438990091
6.791189051356624e-06   -1.1911551120211833e-05   -0.0003311080438990091
6.791189051356624e-06   -1.1911551120211833e-05   -0.0003311080438990091
-6.536289205221122e-05   9.737641279393416e-07   -0.00021858243120862451
-6.536289205221122e-05   9.737641279393416e-07   -0.00021858243120862451
-6.536289205221122e-05   9.737641279393416e-07   -0.00021858243120862451
-6.536289205221122e-05   9.737641279393416e-07   -0.00021858243120862451
-0.0001507311240382092   2.586197325835267e-05   -8.731733237897152e-05
-0.0001507311240382092   2.586197325835267e-05   -8.731733237897152e-05
-0.0001507311240382092   2.586197325835267e-05   -8.731733237897152e-05
-0.0001507311240382092   2.586197325835267e-05   -8.731733237897152e-05
-0.00029549383138429764   4.432740043181643e-06   -0.0003414460512182211
-0.00029549383138429764   4.432740043181643e-06   -0.0003414460512182211
-0.00029549383138429764   4.432740043181643e-06   -0.0003414460512182211
-0.00029549383138429764   4.432740043181643e-06   -0.0003414460512182211
-0.00028549751003777315   3.1350812890608426e-05   -9.31830034255586e-05
-0.00028549751003777315   3.1350812890608426e-05   -9.31830034255586e-05
-0.00028549751003777315   3.1350812890608426e-05   -9.31830034255586e-05
-0.00028549751003777315   3.1350812890608426e-05   -9.31830034255586e-05
-0.00014370663961046275   8.393870081101554e-06   -0.000315726955118707
-0.00014370663961046275   8.393870081101554e-06   -0.000315726955118707
-0.00014370663961046275   8.393870081101554e-06   -0.000315726955118707
-0.00014370663961046275   8.393870081101554e-06   -0.000315726955118707
-0.00021656697700308527   1.942016710536343e-05   -0.00020090883767889236
-0.00021656697700308527   1.942016710536343e-05   -0.00020090883767889236
-0.00021656697700308527   1.942016710536343e-05   -0.00020090883767889236
-0.00021656697700308527   1.942016710536343e-05   -0.00020090883767889236
-0.00014370663961046275   3.1350812890608426e-05   -7.940883773985621e-05
-0.00014370663961046275   3.1350812890608426e-05   -7.940883773985621e-05
-0.00014370663961046275   3.1350812890608426e-05   -7.940883773985621e-05
-0.00014370663961046275   3.1350812890608426e-05   -7.940883773985621e-05
-0.00028549751003777363   8.393870081103288e-06   -0.0003295011208044119
-0.00028549751003777363   8.393870081103288e-06   -0.0003295011208044119
-0.00028549751003777363   8.393870081103288e-06   -0.0003295011208044119
-0.00028549751003777363   8.393870081103288e-06   -0.0003295011208044119
-0.00027585023559046544   3.607972258649374e-05   -8.502106390229601e-05
-0.00027585023559046544   3.607972258649374e-05   -8.502106390229601e-05
-0.00027585023559046544   3.607972258649374e-05   -8.502106390229601e-05
-0.00027585023559046544   3.607972258649374e-05   -8.502106390229601e-05
-0.0001372616565210978   1.204536442980797e-05   -0.0003015814141238977
-0.0001372616565210978   1.204536442980797e-05   -0.0003015814141238977
-0.0001372616565210978   1.204536442980797e-05   -0.0003015814141238977
-0.0001372616565210978   1.204536442980797e-05   -0.0003015814141238977
-0.00020755631803961332   2.2865858267488715e-05   -0.00019091594122897914
-0.00020755631803961332   2.2865858267488715e-05   -0.00019091594122897914
-0.00020755631803961332   2.2865858267488715e-05   -0.00019091594122897914
-0.00020755631803961332   2.2865858267488715e-05   -0.00019091594122897914
-0.00013726165652109743   3.607972258649374e-05   -7.060044900828247e-05
-0.00013726165652109743   3.607972258649374e-05   -7.060044900828247e-05
-0.00013726165652109743   3.607972258649374e-05   -7.060044900828247e-05
-0.00013726165652109743   3.607972258649374e-05   -7.060044900828247e-05
-0.0002758502355904659   1.204536442980797e-05   -0.0003160020290179097
-0.0002758502355904659   1.204536442980797e-05   -0.0003160020290179097
-0.0002758502355904659   1.204536442980797e-05   -0.0003160020290179097
-0.0002758502355904659   1.204536442980797e-05   -0.0003160020290179097
-0.00026850868157708306   4.1321259546454187e-05   -8.528421553691788e-05
-0.00026850868157708306   4.1321259546454187e-05   -8.528421553691788e-05
-0.00026850868157708306   4.1321259546454187e-05   -8.528421553691788e-05
-0.00026850868157708306   4.1321259546454187e-05   -8.528421553691788e-05
-0.00013291320863720882   1.5144908650331981e-05   -0.00029557085989903565
-0.00013291320863720882   1.5144908650331981e-05   -0.00029557085989903565
-0.00013291320863720882   1.5144908650331981e-05   -0.00029557085989903565
-0.00013291320863720882   1.5144908650331981e-05   -0.00029557085989903565
-0.00020245451714578108   2.526776367230317e-05   -0.00018574239206459653
-0.00020245451714578108   2.526776367230317e-05   -0.00018574239206459653
-0.00020245451714578108   2.526776367230317e-05   -0.00018574239206459653
-0.00020245451714578108   2.526776367230317e-05   -0.00018574239206459653
-0.00029549383138429764   5.097887568978991e-05   -5.0217193168416996e-05
-0.00029549383138429764   5.097887568978991e-05   -5.0217193168416996e-05
-0.00029549383138429764   5.097887568978991e-05   -5.0217193168416996e-05
-0.00029549383138429764   5.097887568978991e-05   -5.0217193168416996e-05
-0.0004466013239323622   4.797823599076573e-05   -0.00030386339790127326
-0.0004466013239323622   4.797823599076573e-05   -0.00030386339790127326
-0.0004466013239323622   4.797823599076573e-05   -0.00030386339790127326
-0.0004466013239323622   4.797823599076573e-05   -0.00030386339790127326
-0.0004270096311375233   5.826988626180668e-05   -2.4716770172733896e-06
-0.0004270096311375233   5.826988626180668e-05   -2.4716770172733896e-06
-0.0004270096311375233   5.826988626180668e-05   -2.4716770172733896e-06
-0.0004270096311375233   5.826988626180668e-05   -2.4716770172733896e-06
-0.00028549751003777266   6.094121471006582e-05   -0.0002399280092524785
-0.00028549751003777266   6.094121471006582e-05   -0.0002399280092524785
-0.00028549751003777266   6.094121471006582e-05   -0.0002399280092524785
-0.00028549751003777266   6.094121471006582e-05   -0.0002399280092524785
-0.00034795913616610195   5.7488435838394525e-05   -0.00013375363171559608
-0.00034795913616610195   5.7488435838394525e-05   -0.00013375363171559608
-0.00034795913616610195   5.7488435838394525e-05   -0.00013375363171559608
-0.00034795913616610195   5.7488435838394525e-05   -0.00013375363171559608
-0.0002854975100377734   5.826988626180668e-05   -4.074474086227485e-06
-0.0002854975100377734   5.826988626180668e-05   -4.074474086227485e-06
-0.0002854975100377734   5.826988626180668e-05   -4.074474086227485e-06
-0.0002854975100377734   5.826988626180668e-05   -4.074474086227485e-06
-0.0004270096311375233   6.094121471006582e-05   -0.00023832521218352352
-0.0004270096311375233   6.094121471006582e-05   -0.00023832521218352352
-0.0004270096311375233   6.094121471006582e-05   -0.00023832521218352352
-0.0004270096311375233   6.094121471006582e-05   -0.00023832521218352352
-0.00041074098896447947   6.018190718094091e-05   2.4518056044973632e-05
-0.00041074098896447947   6.018190718094091e-05   2.4518056044973632e-05
-0.00041074098896447947   6.018190718094091e-05   2.4518056044973632e-05
-0.00041074098896447947   6.018190718094091e-05   2.4518056044973632e-05
-0.00027585023559046544   6.384525702720321e-05   -0.0002024978761528083
-0.00027585023559046544   6.384525702720321e-05   -0.0002024978761528083
-0.00027585023559046544   6.384525702720321e-05   -0.0002024978761528083
-0.00027585023559046544   6.384525702720321e-05   -0.0002024978761528083
-0.000340427355730222   6.168663357819688e-05   -9.357416851713874e-05
-0.000340427355730222   6.168663357819688e-05   -9.357416851713874e-05
-0.000340427355730222   6.168663357819688e-05   -9.357416851713874e-05
-0.000340427355730222   6.168663357819688e-05   -9.357416851713874e-05
-0.0002758502355904659   6.018190718094091e-05   2.2320046137216595e-05
-0.0002758502355904659   6.018190718094091e-05   2.2320046137216595e-05
-0.0002758502355904659   6.018190718094091e-05   2.2320046137216595e-05
-0.0002758502355904659   6.018190718094091e-05   2.2320046137216595e-05
-0.00041074098896447877   6.384525702720148e-05   -0.00020029986624505065
-0.00041074098896447877   6.384525702720148e-05   -0.00020029986624505065
-0.00041074098896447877   6.384525702720148e-05   -0.00020029986624505065
-0.00041074098896447877   6.384525702720148e-05   -0.00020029986624505065
-0.0003937469320638557   6.185973784492323e-05   6.062264420769563e-05
-0.0003937469320638557   6.185973784492323e-05   6.062264420769563e-05
-0.0003937469320638557   6.185973784492323e-05   6.062264420769563e-05
-0.0003937469320638557   6.185973784492323e-05   6.062264420769563e-05
-0.00026850868157708306   6.889392057277989e-05   -0.00015232828290697375
-0.00026850868157708306   6.889392057277989e-05   -0.00015232828290697375
-0.00026850868157708306   6.889392057277989e-05   -0.00015232828290697375
-0.00026850868157708306   6.889392057277989e-05   -0.00015232828290697375
-0.00032406435990333515   6.312236556103336e-05   -5.627255268950745e-05
-0.00032406435990333515   6.312236556103336e-05   -5.627255268950745e-05
-0.00032406435990333515   6.312236556103336e-05   -5.627255268950745e-05
-0.00032406435990333515   6.312236556103336e-05   -5.627255268950745e-05
0.0003911297423570639   -5.885110312276419e-05   0.0001326894199972766
0.0003911297423570639   -5.885110312276419e-05   0.0001326894199972766
0.0003911297423570639   -5.885110312276419e-05   0.0001326894199972766
0.0003911297423570639   -5.885110312276419e-05   0.0001326894199972766
0.0001968322965599324   -7.453819451186741e-05   -0.0002005519111647376
0.0001968322965599324   -7.453819451186741e-05   -0.0002005519111647376
0.0001968322965599324   -7.453819451186741e-05   -0.0002005519111647376
0.0001968322965599324   -7.453819451186741e-05   -0.0002005519111647376
0.0002017170278909142   -5.7459921478883805e-05   9.499575197204763e-05
0.0002017170278909142   -5.7459921478883805e-05   9.499575197204763e-05
0.0002017170278909142   -5.7459921478883805e-05   9.499575197204763e-05
0.0002017170278909142   -5.7459921478883805e-05   9.499575197204763e-05
0.0004009741765588434   -7.640207580385597e-05   -0.0002257342032128502
0.0004009741765588434   -7.640207580385597e-05   -0.0002257342032128502
0.0004009741765588434   -7.640207580385597e-05   -0.0002257342032128502
0.0004009741765588434   -7.640207580385597e-05   -0.0002257342032128502
0.0002858220679276513   -6.011879899868629e-05   -4.358398824396434e-05
0.0002858220679276513   -6.011879899868629e-05   -4.358398824396434e-05
0.0002858220679276513   -6.011879899868629e-05   -4.358398824396434e-05
0.0002858220679276513   -6.011879899868629e-05   -4.358398824396434e-05
0.0004009741765588434   -5.7459921478883805e-05   0.00010636104456703162
0.0004009741765588434   -5.7459921478883805e-05   0.00010636104456703162
0.0004009741765588434   -5.7459921478883805e-05   0.00010636104456703162
0.0004009741765588434   -5.7459921478883805e-05   0.00010636104456703162
0.0002017170278909142   -7.640207580385597e-05   -0.0002370994958078342
0.0002017170278909142   -7.640207580385597e-05   -0.0002370994958078342
0.0002017170278909142   -7.640207580385597e-05   -0.0002370994958078342
0.0002017170278909142   -7.640207580385597e-05   -0.0002370994958078342
0.00020584760409183395   -5.54707324480503e-05   7.485965096551417e-05
0.00020584760409183395   -5.54707324480503e-05   7.485965096551417e-05
0.00020584760409183395   -5.54707324480503e-05   7.485965096551417e-05
0.00020584760409183395   -5.54707324480503e-05   7.485965096551417e-05
0.0004071170160977708   -7.572465754777588e-05   -0.0002484370139845466
0.0004071170160977708   -7.572465754777588e-05   -0.0002484370139845466
0.0004071170160977708   -7.572465754777588e-05   -0.0002484370139845466
0.0004071170160977708   -7.572465754777588e-05   -0.0002484370139845466
0.00029596584737213104   -6.203581342804389e-05   -7.139837258031845e-05
0.00029596584737213104   -6.203581342804389e-05   -7.139837258031845e-05
0.00029596584737213104   -6.203581342804389e-05   -7.139837258031845e-05
0.00029596584737213104   -6.203581342804389e-05   -7.139837258031845e-05
0.0004071170160977708   -5.54707324480503e-05   8.701200602534952e-05
0.0004071170160977708   -5.54707324480503e-05   8.701200602534952e-05
0.0004071170160977708   -5.54707324480503e-05   8.701200602534952e-05
0.0004071170160977708   -5.54707324480503e-05   8.701200602534952e-05
0.00020584760409183395   -7.572465754777588e-05   -0.00026058936904438043
0.00020584760409183395   -7.572465754777588e-05   -0.00026058936904438043
0.00020584760409183395   -7.572465754777588e-05   -0.00026058936904438043
0.00020584760409183395   -7.572465754777588e-05   -0.00026058936904438043
0.00021017420943841695   -4.76914362779364e-05   3.570209204359874e-05
0.00021017420943841695   -4.76914362779364e-05   3.570209204359874e-05
0.00021017420943841695   -4.76914362779364e-05   3.570209204359874e-05
0.00021017420943841695   -4.76914362779364e-05   3.570209204359874e-05
0.00041316469327090644   -7.155486444286596e-05   -0.0002882973241115903
0.00041316469327090644   -7.155486444286596e-05   -0.0002882973241115903
0.00041316469327090644   -7.155486444286596e-05   -0.0002882973241115903
0.00041316469327090644   -7.155486444286596e-05   -0.0002882973241115903
0.00029618495218607023   -5.9726399953276624e-05   -0.00010042816766395353
0.00029618495218607023   -5.9726399953276624e-05   -0.00010042816766395353
0.00029618495218607023   -5.9726399953276624e-05   -0.00010042816766395353
0.00029618495218607023   -5.9726399953276624e-05   -0.00010042816766395353
0.0001968322965599324   -3.836953569928518e-05   1.2158105607187886e-05
0.0001968322965599324   -3.836953569928518e-05   1.2158105607187886e-05
0.0001968322965599324   -3.836953569928518e-05   1.2158105607187886e-05
0.0001968322965599324   -3.836953569928518e-05   1.2158105607187886e-05
2.3964322476463734e-05   -7.533917722466095e-05   -0.00029813696944715196
2.3964322476463734e-05   -7.533917722466095e-05   -0.00029813696944715196
2.3964322476463734e-05   -7.533917722466095e-05   -0.00029813696944715196
2.3964322476463734e-05   -7.533917722466095e-05   -0.00029813696944715196
2.966468572294489e-05   -3.656489508461515e-05   -3.0005669143535335e-06
2.966468572294489e-05   -3.656489508461515e-05   -3.0005669143535335e-06
2.966468572294489e-05   -3.656489508461515e-05   -3.0005669143535335e-06
2.966468572294489e-05   -3.656489508461515e-05   -3.0005669143535335e-06
0.00020171702789091464   -7.498107746142096e-05   -0.0002667047611015533
0.00020171702789091464   -7.498107746142096e-05   -0.0002667047611015533
0.00020171702789091464   -7.498107746142096e-05   -0.0002667047611015533
0.00020171702789091464   -7.498107746142096e-05   -0.0002667047611015533
0.00011349890897399326   -5.079504758366375e-05   -0.00013418618083333757
0.00011349890897399326   -5.079504758366375e-05   -0.00013418618083333757
0.00011349890897399326   -5.079504758366375e-05   -0.00013418618083333757
0.00011349890897399326   -5.079504758366375e-05   -0.00013418618083333757
0.0002017170278909141   -3.656489508461515e-05   2.004914251173273e-05
0.0002017170278909141   -3.656489508461515e-05   2.004914251173273e-05
0.0002017170278909141   -3.656489508461515e-05   2.004914251173273e-05
0.0002017170278909141   -3.656489508461515e-05   2.004914251173273e-05
2.966468572294489e-05   -7.498107746141923e-05   -0.0002897544705276348
2.966468572294489e-05   -7.498107746141923e-05   -0.0002897544705276348
2.966468572294489e-05   -7.498107746141923e-05   -0.0002897544705276348
2.966468572294489e-05   -7.498107746141923e-05   -0.0002897544705276348
3.481111231396763e-05   -3.318136738121591e-05   -4.7823527375406155e-06
3.481111231396763e-05   -3.318136738121591e-05   -4.7823527375406155e-06
3.481111231396763e-05   -3.318136738121591e-05   -4.7823527375406155e-06
3.481111231396763e-05   -3.318136738121591e-05   -4.7823527375406155e-06
0.00020584760409183395   -7.401284980206382e-05   -0.00026534428291480794
0.00020584760409183395   -7.401284980206382e-05   -0.00026534428291480794
0.00020584760409183395   -7.401284980206382e-05   -0.00026534428291480794
0.00020584760409183395   -7.401284980206382e-05   -0.00026534428291480794
0.00011676007571216536   -5.1388281745428505e-05   -0.00013043980978267125
0.00011676007571216536   -5.1388281745428505e-05   -0.00013043980978267125
0.00011676007571216536   -5.1388281745428505e-05   -0.00013043980978267125
0.00011676007571216536   -5.1388281745428505e-05   -0.00013043980978267125
0.00020584760409183395   -3.3181367381214175e-05   1.9716536714968827e-05
0.00020584760409183395   -3.3181367381214175e-05   1.9716536714968827e-05
0.00020584760409183395   -3.3181367381214175e-05   1.9716536714968827e-05
0.00020584760409183395   -3.3181367381214175e-05   1.9716536714968827e-05
3.481111231396752e-05   -7.401284980206382e-05   -0.00028984317236731717
3.481111231396752e-05   -7.401284980206382e-05   -0.00028984317236731717
3.481111231396752e-05   -7.401284980206382e-05   -0.00028984317236731717
3.481111231396752e-05   -7.401284980206382e-05   -0.00028984317236731717
4.2485917919205256e-05   -2.8369213572005877e-05   -8.283761025691672e-06
4.2485917919205256e-05   -2.8369213572005877e-05   -8.283761025691672e-06
4.2485917919205256e-05   -2.8369213572005877e-05   -8.283761025691672e-06
4.2485917919205256e-05   -2.8369213572005877e-05   -8.283761025691672e-06
0.00021017420943841684   -7.205368820207073e-05   -0.0002615535621130049
0.00021017420943841684   -7.205368820207073e-05   -0.0002615535621130049
0.00021017420943841684   -7.205368820207073e-05   -0.0002615535621130049
0.00021017420943841684   -7.205368820207073e-05   -0.0002615535621130049
0.0001229164842112845   -5.06358808320638e-05   -0.00012897470448979052
0.0001229164842112845   -5.06358808320638e-05   -0.00012897470448979052
0.0001229164842112845   -5.06358808320638e-05   -0.00012897470448979052
0.0001229164842112845   -5.06358808320638e-05   -0.00012897470448979052
2.3964322476463734e-05   -2.050788592569512e-05   -3.087736859385716e-05
2.3964322476463734e-05   -2.050788592569512e-05   -3.087736859385716e-05
2.3964322476463734e-05   -2.050788592569512e-05   -3.087736859385716e-05
2.3964322476463734e-05   -2.050788592569512e-05   -3.087736859385716e-05
-0.00014714165914096983   -9.148030106667301e-05   -0.000358637453707498
-0.00014714165914096983   -9.148030106667301e-05   -0.000358637453707498
-0.00014714165914096983   -9.148030106667301e-05   -0.000358637453707498
-0.00014714165914096983   -9.148030106667301e-05   -0.000358637453707498
-0.00013826888338207223   -1.8391682013051483e-05   -6.575420518374966e-05
-0.00013826888338207223   -1.8391682013051483e-05   -6.575420518374966e-05
-0.00013826888338207223   -1.8391682013051483e-05   -6.575420518374966e-05
-0.00013826888338207223   -1.8391682013051483e-05   -6.575420518374966e-05
2.966468572294489e-05   -9.35474235637633e-05   -0.00030055004209501965
2.966468572294489e-05   -9.35474235637633e-05   -0.00030055004209501965
2.966468572294489e-05   -9.35474235637633e-05   -0.00030055004209501965
2.966468572294489e-05   -9.35474235637633e-05   -0.00030055004209501965
-5.5943813836195405e-05   -5.187066617375405e-05   -0.0001828752639304568
-5.5943813836195405e-05   -5.187066617375405e-05   -0.0001828752639304568
-5.5943813836195405e-05   -5.187066617375405e-05   -0.0001828752639304568
-5.5943813836195405e-05   -5.187066617375405e-05   -0.0001828752639304568
2.966468572294489e-05   -1.8391682013051483e-05   -2.0660760253324306e-05
2.966468572294489e-05   -1.8391682013051483e-05   -2.0660760253324306e-05
2.966468572294489e-05   -1.8391682013051483e-05   -2.0660760253324306e-05
2.966468572294489e-05   -1.8391682013051483e-05   -2.0660760253324306e-05
-0.00013826888338207245   -9.35474235637633e-05   -0.00034564348702544826
-0.00013826888338207245   -9.35474235637633e-05   -0.00034564348702544826
-0.00013826888338207245   -9.35474235637633e-05   -0.00034564348702544826
-0.00013826888338207245   -9.35474235637633e-05   -0.00034564348702544826
-0.00013063061891835723   -1.5063151119933463e-05   -6.14785160554833e-05
-0.00013063061891835723   -1.5063151119933463e-05   -6.14785160554833e-05
-0.00013063061891835723   -1.5063151119933463e-05   -6.14785160554833e-05
-0.00013063061891835723   -1.5063151119933463e-05   -6.14785160554833e-05
3.481111231396752e-05   -9.316288336679024e-05   -0.0002903548954279098
3.481111231396752e-05   -9.316288336679024e-05   -0.0002903548954279098
3.481111231396752e-05   -9.316288336679024e-05   -0.0002903548954279098
3.481111231396752e-05   -9.316288336679024e-05   -0.0002903548954279098
-4.963980017723906e-05   -5.308434201403353e-05   -0.00017365049942088704
-4.963980017723906e-05   -5.308434201403353e-05   -0.00017365049942088704
-4.963980017723906e-05   -5.308434201403353e-05   -0.00017365049942088704
-4.963980017723906e-05   -5.308434201403353e-05   -0.00017365049942088704
3.481111231396752e-05   -1.5063151119933463e-05   -1.4618676707368189e-05
3.481111231396752e-05   -1.5063151119933463e-05   -1.4618676707368189e-05
3.481111231396752e-05   -1.5063151119933463e-05   -1.4618676707368189e-05
3.481111231396752e-05   -1.5063151119933463e-05   -1.4618676707368189e-05
-0.0001306306189183576   -9.31628833667885e-05   -0.0003372147347760245
-0.0001306306189183576   -9.31628833667885e-05   -0.0003372147347760245
-0.0001306306189183576   -9.31628833667885e-05   -0.0003372147347760245
-0.0001306306189183576   -9.31628833667885e-05   -0.0003372147347760245
-0.00011745657163264204   -1.1911551120211833e-05   -6.120606468235264e-05
-0.00011745657163264204   -1.1911551120211833e-05   -6.120606468235264e-05
-0.00011745657163264204   -1.1911551120211833e-05   -6.120606468235264e-05
-0.00011745657163264204   -1.1911551120211833e-05   -6.120606468235264e-05
4.2485917919205364e-05   -8.995828658101696e-05   -0.00028094883932561774
4.2485917919205364e-05   -8.995828658101696e-05   -0.00028094883932561774
4.2485917919205364e-05   -8.995828658101696e-05   -0.00028094883932561774
4.2485917919205364e-05   -8.995828658101696e-05   -0.00028094883932561774
-4.145038797667819e-05   -5.195556799550069e-05   -0.00016385662731711837
-4.145038797667819e-05   -5.195556799550069e-05   -0.00016385662731711837
-4.145038797667819e-05   -5.195556799550069e-05   -0.00016385662731711837
-4.145038797667819e-05   -5.195556799550069e-05   -0.00016385662731711837
-0.0001471416591409695   4.432740043183378e-06   -4.302267965364606e-05
-0.0001471416591409695   4.432740043183378e-06   -4.302267965364606e-05
-0.0001471416591409695   4.432740043183378e-06   -4.302267965364606e-05
-0.0001471416591409695   4.432740043183378e-06   -4.302267965364606e-05
-0.00033827977056541164   -0.00011464296153052   -0.0004330316196386047
-0.00033827977056541164   -0.00011464296153052   -0.0004330316196386047
-0.00033827977056541164   -0.00011464296153052   -0.0004330316196386047
-0.00033827977056541164   -0.00011464296153052   -0.0004330316196386047
-0.00032772915003831155   8.393870081103288e-06   -0.00011093368455524985
-0.00032772915003831155   8.393870081103288e-06   -0.00011093368455524985
-0.00032772915003831155   8.393870081103288e-06   -0.00011093368455524985
-0.00032772915003831155   8.393870081103288e-06   -0.00011093368455524985
-0.00013826888338207223   -0.00012777322489986379   -0.0003450005386604008
-0.00013826888338207223   -0.00012777322489986379   -0.0003450005386604008
-0.00013826888338207223   -0.00012777322489986379   -0.0003450005386604008
-0.00013826888338207223   -0.00012777322489986379   -0.0003450005386604008
-0.00023440214609534555   -5.8604917062232004e-05   -0.00022627941884085698
-0.00023440214609534555   -5.8604917062232004e-05   -0.00022627941884085698
-0.00023440214609534555   -5.8604917062232004e-05   -0.00022627941884085698
-0.00023440214609534555   -5.8604917062232004e-05   -0.00022627941884085698
-0.00013826888338207223   8.393870081103288e-06   -2.923342756667134e-05
-0.00013826888338207223   8.393870081103288e-06   -2.923342756667134e-05
-0.00013826888338207223   8.393870081103288e-06   -2.923342756667134e-05
-0.00013826888338207223   8.393870081103288e-06   -2.923342756667134e-05
-0.00032772915003831155   -0.00012777322489986205   -0.00042670079564898107
-0.00032772915003831155   -0.00012777322489986205   -0.00042670079564898107
-0.00032772915003831155   -0.00012777322489986205   -0.00042670079564898107
-0.00032772915003831155   -0.00012777322489986205   -0.00042670079564898107
-0.00031761032220896737   1.204536442980797e-05   -9.93752232690305e-05
-0.00031761032220896737   1.204536442980797e-05   -9.93752232690305e-05
-0.00031761032220896737   1.204536442980797e-05   -9.93752232690305e-05
-0.00031761032220896737   1.204536442980797e-05   -9.93752232690305e-05
-0.0001306306189183574   -0.000128539881506547   -0.0003266569145249001
-0.0001306306189183574   -0.000128539881506547   -0.0003266569145249001
-0.0001306306189183574   -0.000128539881506547   -0.0003266569145249001
-0.0001306306189183574   -0.000128539881506547   -0.0003266569145249001
-0.00022411633755569776   -5.885206038490701e-05   -0.00021266007613565045
-0.00022411633755569776   -5.885206038490701e-05   -0.00021266007613565045
-0.00022411633755569776   -5.885206038490701e-05   -0.00021266007613565045
-0.00022411633755569776   -5.885206038490701e-05   -0.00021266007613565045
-0.00013063061891835733   1.204536442980797e-05   -1.5024075707218906e-05
-0.00013063061891835733   1.204536442980797e-05   -1.5024075707218906e-05
-0.00013063061891835733   1.204536442980797e-05   -1.5024075707218906e-05
-0.00013063061891835733   1.204536442980797e-05   -1.5024075707218906e-05
-0.0003176103222089679   -0.000128539881506547   -0.00041100806208671514
-0.0003176103222089679   -0.000128539881506547   -0.00041100806208671514
-0.0003176103222089679   -0.000128539881506547   -0.00041100806208671514
-0.0003176103222089679   -0.000128539881506547   -0.00041100806208671514
-0.00030105983947269904   1.5144908650331981e-05   -8.756545471979432e-05
-0.00030105983947269904   1.5144908650331981e-05   -8.756545471979432e-05
-0.00030105983947269904   1.5144908650331981e-05   -8.756545471979432e-05
-0.00030105983947269904   1.5144908650331981e-05   -8.756545471979432e-05
-0.00011745657163264253   -0.00011762738246693868   -0.00031390752644952816
-0.00011745657163264253   -0.00011762738246693868   -0.00031390752644952816
-0.00011745657163264253   -0.00011762738246693868   -0.00031390752644952816
-0.00011745657163264253   -0.00011762738246693868   -0.00031390752644952816
-0.00021391802422747222   -5.220935977056848e-05   -0.00019238925240929643
-0.00021391802422747222   -5.220935977056848e-05   -0.00019238925240929643
-0.00021391802422747222   -5.220935977056848e-05   -0.00019238925240929643
-0.00021391802422747222   -5.220935977056848e-05   -0.00019238925240929643
-0.00033827977056541164   4.797823599076573e-05   -7.50850634615094e-05
-0.00033827977056541164   4.797823599076573e-05   -7.50850634615094e-05
-0.00033827977056541164   4.797823599076573e-05   -7.50850634615094e-05
-0.00033827977056541164   4.797823599076573e-05   -7.50850634615094e-05
-0.0005836962501100309   0.0   -0.0005128994709636698
-0.0005836962501100309   0.0   -0.0005128994709636698
-0.0005836962501100309   0.0   -0.0005128994709636698
-0.0005836962501100309   0.0   -0.0005128994709636698
-0.000568217442408453   6.094121471006582e-05   -5.7925301829356984e-05
-0.000568217442408453   6.094121471006582e-05   -5.7925301829356984e-05
-0.000568217442408453   6.094121471006582e-05   -5.7925301829356984e-05
-0.000568217442408453   6.094121471006582e-05   -5.7925301829356984e-05
-0.000327729150038311   0.0   -0.0004221743936202221
-0.000327729150038311   0.0   -0.0004221743936202221
-0.000327729150038311   0.0   -0.0004221743936202221
-0.000327729150038311   0.0   -0.0004221743936202221
-0.0004351583256679659   1.8508746657857483e-05   -0.00025423101556551215
-0.0004351583256679659   1.8508746657857483e-05   -0.00025423101556551215
-0.0004351583256679659   1.8508746657857483e-05   -0.00025423101556551215
-0.0004351583256679659   1.8508746657857483e-05   -0.00025423101556551215
-0.0003277291500383112   6.094121471006582e-05   -2.1360573003318187e-05
-0.0003277291500383112   6.094121471006582e-05   -2.1360573003318187e-05
-0.0003277291500383112   6.094121471006582e-05   -2.1360573003318187e-05
-0.0003277291500383112   6.094121471006582e-05   -2.1360573003318187e-05
-0.000568217442408452   0.0   -0.00045873912244626027
-0.000568217442408452   0.0   -0.00045873912244626027
-0.000568217442408452   0.0   -0.00045873912244626027
-0.000568217442408452   0.0   -0.00045873912244626027
-0.0005551495237064428   6.384525702720148e-05   -2.4178224620250918e-05
-0.0005551495237064428   6.384525702720148e-05   -2.4178224620250918e-05
-0.0005551495237064428   6.384525702720148e-05   -2.4178224620250918e-05
-0.0005551495237064428   6.384525702720148e-05   -2.4178224620250918e-05
-0.0003176103222089679   0.0   -0.0003817697395663912
-0.0003176103222089679   0.0   -0.0003817697395663912
-0.0003176103222089679   0.0   -0.0003817697395663912
-0.0003176103222089679   0.0   -0.0003817697395663912
-0.0004304367592386038   2.9482477205154678e-05   -0.00021141516417341597
-0.0004304367592386038   2.9482477205154678e-05   -0.00021141516417341597
-0.0004304367592386038   2.9482477205154678e-05   -0.00021141516417341597
-0.0004304367592386038   2.9482477205154678e-05   -0.00021141516417341597
-0.0003176103222089679   6.384525702720321e-05   1.4128929596068929e-05
-0.0003176103222089679   6.384525702720321e-05   1.4128929596068929e-05
-0.0003176103222089679   6.384525702720321e-05   1.4128929596068929e-05
-0.0003176103222089679   6.384525702720321e-05   1.4128929596068929e-05
-0.0005551495237064417   0.0   -0.0004200768937827103
-0.0005551495237064417   0.0   -0.0004200768937827103
-0.0005551495237064417   0.0   -0.0004200768937827103
-0.0005551495237064417   0.0   -0.0004200768937827103
-0.0005291032960207877   6.889392057277989e-05   3.0046580466269387e-05
-0.0005291032960207877   6.889392057277989e-05   3.0046580466269387e-05
-0.0005291032960207877   6.889392057277989e-05   3.0046580466269387e-05
-0.0005291032960207877   6.889392057277989e-05   3.0046580466269387e-05
-0.0003010598394726996   0.0   -0.0003086894947702093
-0.0003010598394726996   0.0   -0.0003086894947702093
-0.0003010598394726996   0.0   -0.0003086894947702093
-0.0003010598394726996   0.0   -0.0003086894947702093
-0.0004077963337474314   3.641075517114151e-05   -0.0001526417907483403
-0.0004077963337474314   3.641075517114151e-05   -0.0001526417907483403
-0.0004077963337474314   3.641075517114151e-05   -0.0001526417907483403
-0.0004077963337474314   3.641075517114151e-05   -0.0001526417907483403
0.0004327411504865881   -7.453819451186741e-05   0.00025873540748882
0.0004327411504865881   -7.453819451186741e-05   0.00025873540748882
0.0004327411504865881   -7.453819451186741e-05   0.00025873540748882
0.0004327411504865881   -7.453819451186741e-05   0.00025873540748882
0.00022479802878019558   -5.72241199691681e-05   -7.744801729621387e-05
0.00022479802878019558   -5.72241199691681e-05   -7.744801729621387e-05
0.00022479802878019558   -5.72241199691681e-05   -7.744801729621387e-05
0.00022479802878019558   -5.72241199691681e-05   -7.744801729621387e-05
0.00021908611843469636   -7.640207580385597e-05   0.000228760365909058
0.00021908611843469636   -7.640207580385597e-05   0.000228760365909058
0.00021908611843469636   -7.640207580385597e-05   0.000228760365909058
0.00021908611843469636   -7.640207580385597e-05   0.000228760365909058
0.0004280345082712084   -6.295572563349595e-05   -0.00012755476058734288
0.0004280345082712084   -6.295572563349595e-05   -0.00012755476058734288
0.0004280345082712084   -6.295572563349595e-05   -0.00012755476058734288
0.0004280345082712084   -6.295572563349595e-05   -0.00012755476058734288
0.00031283246582890564   -6.411275694172963e-05   6.514286226809961e-05
0.00031283246582890564   -6.411275694172963e-05   6.514286226809961e-05
0.00031283246582890564   -6.411275694172963e-05   6.514286226809961e-05
0.00031283246582890564   -6.411275694172963e-05   6.514286226809961e-05
0.0004280345082712084   -7.640207580385597e-05   0.00022069255580684476
0.0004280345082712084   -7.640207580385597e-05   0.00022069255580684476
0.0004280345082712084   -7.640207580385597e-05   0.00022069255580684476
0.0004280345082712084   -7.640207580385597e-05   0.00022069255580684476
0.00021908611843469636   -6.295572563349595e-05   -0.00011948695048512835
0.00021908611843469636   -6.295572563349595e-05   -0.00011948695048512835
0.00021908611843469636   -6.295572563349595e-05   -0.00011948695048512835
0.00021908611843469636   -6.295572563349595e-05   -0.00011948695048512835
0.00021392427178658314   -7.572465754777588e-05   0.0002055140800723415
0.00021392427178658314   -7.572465754777588e-05   0.0002055140800723415
0.00021392427178658314   -7.572465754777588e-05   0.0002055140800723415
0.00021392427178658314   -7.572465754777588e-05   0.0002055140800723415
0.0004226114551560948   -6.349915633807428e-05   -0.00014963319293599914
0.0004226114551560948   -6.349915633807428e-05   -0.00014963319293599914
0.0004226114551560948   -6.349915633807428e-05   -0.00014963319293599914
0.0004226114551560948   -6.349915633807428e-05   -0.00014963319293599914
0.0003125282154066843   -6.523661139287013e-05   3.48813463458956e-05
0.0003125282154066843   -6.523661139287013e-05   3.48813463458956e-05
0.0003125282154066843   -6.523661139287013e-05   3.48813463458956e-05
0.0003125282154066843   -6.523661139287013e-05   3.48813463458956e-05
0.0004226114551560956   -7.572465754777588e-05   0.00019817877934651812
0.0004226114551560956   -7.572465754777588e-05   0.00019817877934651812
0.0004226114551560956   -7.572465754777588e-05   0.00019817877934651812
0.0004226114551560956   -7.572465754777588e-05   0.00019817877934651812
0.00021392427178658314   -6.349915633807428e-05   -0.00014229789221017943
0.00021392427178658314   -6.349915633807428e-05   -0.00014229789221017943
0.00021392427178658314   -6.349915633807428e-05   -0.00014229789221017943
0.00021392427178658314   -6.349915633807428e-05   -0.00014229789221017943
0.00020762953467210973   -7.155486444286596e-05   0.0001676951025399217
0.00020762953467210973   -7.155486444286596e-05   0.0001676951025399217
0.00020762953467210973   -7.155486444286596e-05   0.0001676951025399217
0.00020762953467210973   -7.155486444286596e-05   0.0001676951025399217
0.00041411635459391637   -6.222869892363002e-05   -0.0001820452966413
0.00041411635459391637   -6.222869892363002e-05   -0.0001820452966413
0.00041411635459391637   -6.222869892363002e-05   -0.0001820452966413
0.00041411635459391637   -6.222869892363002e-05   -0.0001820452966413
0.00030179929841880253   -6.203950140276464e-05   5.036278471371326e-06
0.00030179929841880253   -6.203950140276464e-05   5.036278471371326e-06
0.00030179929841880253   -6.203950140276464e-05   5.036278471371326e-06
0.00030179929841880253   -6.203950140276464e-05   5.036278471371326e-06
0.00022479802878019558   -7.533917722466095e-05   0.00019372057884725277
0.00022479802878019558   -7.533917722466095e-05   0.00019372057884725277
0.00022479802878019558   -7.533917722466095e-05   0.00019372057884725277
0.00022479802878019558   -7.533917722466095e-05   0.00019372057884725277
4.866609309657141e-05   -3.5627611393647396e-05   -7.600570779351008e-05
4.866609309657141e-05   -3.5627611393647396e-05   -7.600570779351008e-05
4.866609309657141e-05   -3.5627611393647396e-05   -7.600570779351008e-05
4.866609309657141e-05   -3.5627611393647396e-05   -7.600570779351008e-05
3.962496127951317e-05   -7.498107746141923e-05   0.0002214606675914471
3.962496127951317e-05   -7.498107746141923e-05   0.0002214606675914471
3.962496127951317e-05   -7.498107746141923e-05   0.0002214606675914471
3.962496127951317e-05   -7.498107746141923e-05   0.0002214606675914471
0.00021908611843469636   -3.780513250124448e-05   -9.994682797663133e-05
0.00021908611843469636   -3.780513250124448e-05   -9.994682797663133e-05
0.00021908611843469636   -3.780513250124448e-05   -9.994682797663133e-05
0.00021908611843469636   -3.780513250124448e-05   -9.994682797663133e-05
0.00013286972882015866   -5.387181391816771e-05   5.338716356442048e-05
0.00013286972882015866   -5.387181391816771e-05   5.338716356442048e-05
0.00013286972882015866   -5.387181391816771e-05   5.338716356442048e-05
0.00013286972882015866   -5.387181391816771e-05   5.338716356442048e-05
0.00021908611843469658   -7.498107746142096e-05   0.00019915510061534018
0.00021908611843469658   -7.498107746142096e-05   0.00019915510061534018
0.00021908611843469658   -7.498107746142096e-05   0.00019915510061534018
0.00021908611843469658   -7.498107746142096e-05   0.00019915510061534018
3.962496127951317e-05   -3.780513250124448e-05   -7.76412610005257e-05
3.962496127951317e-05   -3.780513250124448e-05   -7.76412610005257e-05
3.962496127951317e-05   -3.780513250124448e-05   -7.76412610005257e-05
3.962496127951317e-05   -3.780513250124448e-05   -7.76412610005257e-05
3.318624194683707e-05   -7.401284980206382e-05   0.00022189007944578738
3.318624194683707e-05   -7.401284980206382e-05   0.00022189007944578738
3.318624194683707e-05   -7.401284980206382e-05   0.00022189007944578738
3.318624194683707e-05   -7.401284980206382e-05   0.00022189007944578738
0.00021392427178658314   -3.879466106226914e-05   -0.00010047088353099844
0.00021392427178658314   -3.879466106226914e-05   -0.00010047088353099844
0.00021392427178658314   -3.879466106226914e-05   -0.00010047088353099844
0.00021392427178658314   -3.879466106226914e-05   -0.00010047088353099844
0.0001251401109955425   -5.2784289064078393e-05   5.589649458849228e-05
0.0001251401109955425   -5.2784289064078393e-05   5.589649458849228e-05
0.0001251401109955425   -5.2784289064078393e-05   5.589649458849228e-05
0.0001251401109955425   -5.2784289064078393e-05   5.589649458849228e-05
0.00021392427178658347   -7.401284980206556e-05   0.00020075916620191162
0.00021392427178658347   -7.401284980206556e-05   0.00020075916620191162
0.00021392427178658347   -7.401284980206556e-05   0.00020075916620191162
0.00021392427178658347   -7.401284980206556e-05   0.00020075916620191162
3.318624194683707e-05   -3.879466106226914e-05   -7.933997028712267e-05
3.318624194683707e-05   -3.879466106226914e-05   -7.933997028712267e-05
3.318624194683707e-05   -3.879466106226914e-05   -7.933997028712267e-05
3.318624194683707e-05   -3.879466106226914e-05   -7.933997028712267e-05
2.602023916141948e-05   -7.205368820207073e-05   0.00022921449185129596
2.602023916141948e-05   -7.205368820207073e-05   0.00022921449185129596
2.602023916141948e-05   -7.205368820207073e-05   0.00022921449185129596
2.602023916141948e-05   -7.205368820207073e-05   0.00022921449185129596
0.0002076295346721095   -3.795773751235493e-05   -9.392523774701665e-05
0.0002076295346721095   -3.795773751235493e-05   -9.392523774701665e-05
0.0002076295346721095   -3.795773751235493e-05   -9.392523774701665e-05
0.0002076295346721095   -3.795773751235493e-05   -9.392523774701665e-05
0.00012039607880909363   -5.0497784669503026e-05   5.898788365229883e-05
0.00012039607880909363   -5.0497784669503026e-05   5.898788365229883e-05
0.00012039607880909363   -5.0497784669503026e-05   5.898788365229883e-05
0.00012039607880909363   -5.0497784669503026e-05   5.898788365229883e-05
4.866609309657141e-05   -9.148030106667301e-05   0.00019963048317010214
4.866609309657141e-05   -9.148030106667301e-05   0.00019963048317010214
4.866609309657141e-05   -9.148030106667301e-05   0.00019963048317010214
4.866609309657141e-05   -9.148030106667301e-05   0.00019963048317010214
-0.00012047478495015433   -1.5359112106439962e-05   -3.6598266864969024e-05
-0.00012047478495015433   -1.5359112106439962e-05   -3.6598266864969024e-05
-0.00012047478495015433   -1.5359112106439962e-05   -3.6598266864969024e-05
-0.00012047478495015433   -1.5359112106439962e-05   -3.6598266864969024e-05
-0.00013454578652190947   -9.35474235637633e-05   0.0002570553211325103
-0.00013454578652190947   -9.35474235637633e-05   0.0002570553211325103
-0.00013454578652190947   -9.35474235637633e-05   0.0002570553211325103
-0.00013454578652190947   -9.35474235637633e-05   0.0002570553211325103
3.962496127951317e-05   -1.6230381716351994e-05   -7.96194836449758e-05
3.962496127951317e-05   -1.6230381716351994e-05   -7.96194836449758e-05
3.962496127951317e-05   -1.6230381716351994e-05   -7.96194836449758e-05
3.962496127951317e-05   -1.6230381716351994e-05   -7.96194836449758e-05
-4.014517383985197e-05   -5.242281088214777e-05   7.504619905344414e-05
-4.014517383985197e-05   -5.242281088214777e-05   7.504619905344414e-05
-4.014517383985197e-05   -5.242281088214777e-05   7.504619905344414e-05
-4.014517383985197e-05   -5.242281088214777e-05   7.504619905344414e-05
3.962496127951317e-05   -9.35474235637633e-05   0.00021066509602406247
3.962496127951317e-05   -9.35474235637633e-05   0.00021066509602406247
3.962496127951317e-05   -9.35474235637633e-05   0.00021066509602406247
3.962496127951317e-05   -9.35474235637633e-05   0.00021066509602406247
-0.00013454578652190915   -1.6230381716351994e-05   -3.322925853652906e-05
-0.00013454578652190915   -1.6230381716351994e-05   -3.322925853652906e-05
-0.00013454578652190915   -1.6230381716351994e-05   -3.322925853652906e-05
-0.00013454578652190915   -1.6230381716351994e-05   -3.322925853652906e-05
-0.00014313181794994195   -9.31628833667885e-05   0.00026690101382817466
-0.00014313181794994195   -9.31628833667885e-05   0.00026690101382817466
-0.00014313181794994195   -9.31628833667885e-05   0.00026690101382817466
-0.00014313181794994195   -9.31628833667885e-05   0.00026690101382817466
3.318624194683707e-05   -1.7291787628496286e-05   -7.248507677610257e-05
3.318624194683707e-05   -1.7291787628496286e-05   -7.248507677610257e-05
3.318624194683707e-05   -1.7291787628496286e-05   -7.248507677610257e-05
3.318624194683707e-05   -1.7291787628496286e-05   -7.248507677610257e-05
-4.966434297840099e-05   -5.2294903508554036e-05   8.660110096066253e-05
-4.966434297840099e-05   -5.2294903508554036e-05   8.660110096066253e-05
-4.966434297840099e-05   -5.2294903508554036e-05   8.660110096066253e-05
-4.966434297840099e-05   -5.2294903508554036e-05   8.660110096066253e-05
3.318624194683696e-05   -9.316288336679024e-05   0.00022137835638519517
3.318624194683696e-05   -9.316288336679024e-05   0.00022137835638519517
3.318624194683696e-05   -9.316288336679024e-05   0.00022137835638519517
3.318624194683696e-05   -9.316288336679024e-05   0.00022137835638519517
-0.00014313181794994173   -1.7291787628496286e-05   -2.6962419333124814e-05
-0.00014313181794994173   -1.7291787628496286e-05   -2.6962419333124814e-05
-0.00014313181794994173   -1.7291787628496286e-05   -2.6962419333124814e-05
-0.00014313181794994173   -1.7291787628496286e-05   -2.6962419333124814e-05
-0.0001532471348374072   -8.995828658101696e-05   0.0002796726755333878
-0.0001532471348374072   -8.995828658101696e-05   0.0002796726755333878
-0.0001532471348374072   -8.995828658101696e-05   0.0002796726755333878
-0.0001532471348374072   -8.995828658101696e-05   0.0002796726755333878
2.602023916141948e-05   -1.7220326386572365e-05   -6.274905724798648e-05
2.602023916141948e-05   -1.7220326386572365e-05   -6.274905724798648e-05
2.602023916141948e-05   -1.7220326386572365e-05   -6.274905724798648e-05
2.602023916141948e-05   -1.7220326386572365e-05   -6.274905724798648e-05
-5.740848392238703e-05   -5.026521491401613e-05   9.612574767482165e-05
-5.740848392238703e-05   -5.026521491401613e-05   9.612574767482165e-05
-5.740848392238703e-05   -5.026521491401613e-05   9.612574767482165e-05
-5.740848392238703e-05   -5.026521491401613e-05   9.612574767482165e-05
-0.00012047478495015443   -0.00011464296153052   0.00024235445155935606
-0.00012047478495015443   -0.00011464296153052   0.00024235445155935606
-0.00012047478495015443   -0.00011464296153052   0.00024235445155935606
-0.00012047478495015443   -0.00011464296153052   0.00024235445155935606
-0.0003135042642724177   1.5437715624696743e-05   -1.3129410179509027e-06
-0.0003135042642724177   1.5437715624696743e-05   -1.3129410179509027e-06
-0.0003135042642724177   1.5437715624696743e-05   -1.3129410179509027e-06
-0.0003135042642724177   1.5437715624696743e-05   -1.3129410179509027e-06
-0.00033036017713634176   -0.00012777322489986205   0.0003430129849324136
-0.00033036017713634176   -0.00012777322489986205   0.0003430129849324136
-0.00033036017713634176   -0.00012777322489986205   0.0003430129849324136
-0.00033036017713634176   -0.00012777322489986205   0.0003430129849324136
-0.00013454578652190915   1.4417967491568706e-05   -6.865904819316647e-05
-0.00013454578652190915   1.4417967491568706e-05   -6.865904819316647e-05
-0.00013454578652190915   1.4417967491568706e-05   -6.865904819316647e-05
-0.00013454578652190915   1.4417967491568706e-05   -6.865904819316647e-05
-0.00022154530016485203   -4.808204006652092e-05   0.00011384014574659278
-0.00022154530016485203   -4.808204006652092e-05   0.00011384014574659278
-0.00022154530016485203   -4.808204006652092e-05   0.00011384014574659278
-0.00022154530016485203   -4.808204006652092e-05   0.00011384014574659278
-0.00013454578652190947   -0.00012777322489986205   0.00025769826949755513
-0.00013454578652190947   -0.00012777322489986205   0.00025769826949755513
-0.00013454578652190947   -0.00012777322489986205   0.00025769826949755513
-0.00013454578652190947   -0.00012777322489986205   0.00025769826949755513
-0.00033036017713634176   1.4417967491568706e-05   1.665566724169329e-05
-0.00033036017713634176   1.4417967491568706e-05   1.665566724169329e-05
-0.00033036017713634176   1.4417967491568706e-05   1.665566724169329e-05
-0.00033036017713634176   1.4417967491568706e-05   1.665566724169329e-05
-0.0003406445894113456   -0.000128539881506547   0.00036214651073081597
-0.0003406445894113456   -0.000128539881506547   0.00036214651073081597
-0.0003406445894113456   -0.000128539881506547   0.00036214651073081597
-0.0003406445894113456   -0.000128539881506547   0.00036214651073081597
-0.00014313181794994173   1.2606246245985483e-05   -5.172911835637584e-05
-0.00014313181794994173   1.2606246245985483e-05   -5.172911835637584e-05
-0.00014313181794994173   1.2606246245985483e-05   -5.172911835637584e-05
-0.00014313181794994173   1.2606246245985483e-05   -5.172911835637584e-05
-0.0002325316410439907   -5.51817602939212e-05   0.00013794339072431636
-0.0002325316410439907   -5.51817602939212e-05   0.00013794339072431636
-0.0002325316410439907   -5.51817602939212e-05   0.00013794339072431636
-0.0002325316410439907   -5.51817602939212e-05   0.00013794339072431636
-0.0001431318179499415   -0.000128539881506547   0.00027745883407929474
-0.0001431318179499415   -0.000128539881506547   0.00027745883407929474
-0.0001431318179499415   -0.000128539881506547   0.00027745883407929474
-0.0001431318179499415   -0.000128539881506547   0.00027745883407929474
-0.00034064458941134506   1.2606246245985483e-05   3.295855829514409e-05
-0.00034064458941134506   1.2606246245985483e-05   3.295855829514409e-05
-0.00034064458941134506   1.2606246245985483e-05   3.295855829514409e-05
-0.00034064458941134506   1.2606246245985483e-05   3.295855829514409e-05
-0.00035171340546472616   -0.00011762738246693868   0.00037045674655074474
-0.00035171340546472616   -0.00011762738246693868   0.00037045674655074474
-0.00035171340546472616   -0.00011762738246693868   0.00037045674655074474
-0.00035171340546472616   -0.00011762738246693868   0.00037045674655074474
-0.00015324713483740667   1.0563812307700163e-05   -3.723508802623847e-05
-0.00015324713483740667   1.0563812307700163e-05   -3.723508802623847e-05
-0.00015324713483740667   1.0563812307700163e-05   -3.723508802623847e-05
-0.00015324713483740667   1.0563812307700163e-05   -3.723508802623847e-05
-0.00024380718901400084   -5.562821240868293e-05   0.00015341355043125226
-0.00024380718901400084   -5.562821240868293e-05   0.00015341355043125226
-0.00024380718901400084   -5.562821240868293e-05   0.00015341355043125226
-0.00024380718901400084   -5.562821240868293e-05   0.00015341355043125226
-0.0003135042642724167   0.0   0.00026932194812187907
-0.0003135042642724167   0.0   0.00026932194812187907
-0.0003135042642724167   0.0   0.00026932194812187907
-0.0003135042642724167   0.0   0.00026932194812187907
-0.0005534080814711241   7.241822760169735e-05   -8.706681064827963e-05
-0.0005534080814711241   7.241822760169735e-05   -8.706681064827963e-05
-0.0005534080814711241   7.241822760169735e-05   -8.706681064827963e-05
-0.0005534080814711241   7.241822760169735e-05   -8.706681064827963e-05
-0.0005767542422807843   0.0   0.0003894049544796094
-0.0005767542422807843   0.0   0.0003894049544796094
-0.0005767542422807843   0.0   0.0003894049544796094
-0.0005767542422807843   0.0   0.0003894049544796094
-0.0003303601771363412   6.977594586406351e-05   -6.311738827956747e-05
-0.0003303601771363412   6.977594586406351e-05   -6.311738827956747e-05
-0.0003303601771363412   6.977594586406351e-05   -6.311738827956747e-05
-0.0003303601771363412   6.977594586406351e-05   -6.311738827956747e-05
-0.00042457487887039567   4.2973687503090885e-05   0.00010998846962710532
-0.00042457487887039567   4.2973687503090885e-05   0.00010998846962710532
-0.00042457487887039567   4.2973687503090885e-05   0.00010998846962710532
-0.00042457487887039567   4.2973687503090885e-05   0.00010998846962710532
-0.0003303601771363409   0.0   0.0003475393869611706
-0.0003303601771363409   0.0   0.0003475393869611706
-0.0003303601771363409   0.0   0.0003475393869611706
-0.0003303601771363409   0.0   0.0003475393869611706
-0.0005767542422807853   6.977594586406351e-05   -2.125182076112911e-05
-0.0005767542422807853   6.977594586406351e-05   -2.125182076112911e-05
-0.0005767542422807853   6.977594586406351e-05   -2.125182076112911e-05
-0.0005767542422807853   6.977594586406351e-05   -2.125182076112911e-05
-0.0005885244188339657   0.0   0.00043215019809701195
-0.0005885244188339657   0.0   0.00043215019809701195
-0.0005885244188339657   0.0   0.00043215019809701195
-0.0005885244188339657   0.0   0.00043215019809701195
-0.00034064458941134506   6.794227474312027e-05   -2.174821578656205e-05
-0.00034064458941134506   6.794227474312027e-05   -2.174821578656205e-05
-0.00034064458941134506   6.794227474312027e-05   -2.174821578656205e-05
-0.00034064458941134506   6.794227474312027e-05   -2.174821578656205e-05
-0.0004469651749150474   3.585033408512808e-05   0.00017470792444774087
-0.0004469651749150474   3.585033408512808e-05   0.00017470792444774087
-0.0004469651749150474   3.585033408512808e-05   0.00017470792444774087
-0.0004469651749150474   3.585033408512808e-05   0.00017470792444774087
-0.00034064458941134506   0.0   0.0003913848332511398
-0.00034064458941134506   0.0   0.0003913848332511398
-0.00034064458941134506   0.0   0.0003913848332511398
-0.00034064458941134506   0.0   0.0003913848332511398
-0.0005885244188339677   6.794227474312027e-05   1.901714905930968e-05
-0.0005885244188339677   6.794227474312027e-05   1.901714905930968e-05
-0.0005885244188339677   6.794227474312027e-05   1.901714905930968e-05
-0.0005885244188339677   6.794227474312027e-05   1.901714905930968e-05
-0.0006016783567464219   0.0   0.0004891749016165091
-0.0006016783567464219   0.0   0.0004891749016165091
-0.0006016783567464219   0.0   0.0004891749016165091
-0.0006016783567464219   0.0   0.0004891749016165091
-0.00035171340546472616   5.639458119347483e-05   3.872990076426216e-05
-0.00035171340546472616   5.639458119347483e-05   3.872990076426216e-05
-0.00035171340546472616   5.639458119347483e-05   3.872990076426216e-05
-0.00035171340546472616   5.639458119347483e-05   3.872990076426216e-05
-0.0004508531252367444   2.5079646298531086e-05   0.00022275172798792665
-0.0004508531252367444   2.5079646298531086e-05   0.00022275172798792665
-0.0004508531252367444   2.5079646298531086e-05   0.00022275172798792665
-0.0004508531252367444   2.5079646298531086e-05   0.00022275172798792665
0.0003796879337058179   -5.72241199691681e-05   0.0002703784647861314
0.0003796879337058179   -5.72241199691681e-05   0.0002703784647861314
0.0003796879337058179   -5.72241199691681e-05   0.0002703784647861314
0.0003796879337058179   -5.72241199691681e-05   0.0002703784647861314
0.00019222471820101814   -4.2983319766645364e-05   -3.351574760035621e-05
0.00019222471820101814   -4.2983319766645364e-05   -3.351574760035621e-05
0.00019222471820101814   -4.2983319766645364e-05   -3.351574760035621e-05
0.00019222471820101814   -4.2983319766645364e-05   -3.351574760035621e-05
0.0001870975983602445   -6.295572563349595e-05   0.00023618686745600047
0.0001870975983602445   -6.295572563349595e-05   0.00023618686745600047
0.0001870975983602445   -6.295572563349595e-05   0.00023618686745600047
0.0001870975983602445   -6.295572563349595e-05   0.00023618686745600047
0.0003705103874725511   -4.876353373742086e-05   -7.801642953549033e-05
0.0003705103874725511   -4.876353373742086e-05   -7.801642953549033e-05
0.0003705103874725511   -4.876353373742086e-05   -7.801642953549033e-05
0.0003705103874725511   -4.876353373742086e-05   -7.801642953549033e-05
0.000269808963336235   -5.085013530756362e-05   9.10712383004554e-05
0.000269808963336235   -5.085013530756362e-05   9.10712383004554e-05
0.000269808963336235   -5.085013530756362e-05   9.10712383004554e-05
0.000269808963336235   -5.085013530756362e-05   9.10712383004554e-05
0.00037051038747255047   -6.295572563349595e-05   0.00022767155231835298
0.00037051038747255047   -6.295572563349595e-05   0.00022767155231835298
0.00037051038747255047   -6.295572563349595e-05   0.00022767155231835298
0.00037051038747255047   -6.295572563349595e-05   0.00022767155231835298
0.00018709759836024487   -4.876353373742086e-05   -6.950111439784495e-05
0.00018709759836024487   -4.876353373742086e-05   -6.950111439784495e-05
0.00018709759836024487   -4.876353373742086e-05   -6.950111439784495e-05
0.00018709759836024487   -4.876353373742086e-05   -6.950111439784495e-05
0.00018048993273990516   -6.349915633807428e-05   0.00021211135485458936
0.00018048993273990516   -6.349915633807428e-05   0.00021211135485458936
0.00018048993273990516   -6.349915633807428e-05   0.00021211135485458936
0.00018048993273990516   -6.349915633807428e-05   0.00021211135485458936
0.00036123964521749745   -4.963405735838172e-05   -9.745722532921526e-05
0.00036123964521749745   -4.963405735838172e-05   -9.745722532921526e-05
0.00036123964521749745   -4.963405735838172e-05   -9.745722532921526e-05
0.00036123964521749745   -4.963405735838172e-05   -9.745722532921526e-05
0.00026717958871751634   -5.3081573903612095e-05   6.137804543122677e-05
0.00026717958871751634   -5.3081573903612095e-05   6.137804543122677e-05
0.00026717958871751634   -5.3081573903612095e-05   6.137804543122677e-05
0.00026717958871751634   -5.3081573903612095e-05   6.137804543122677e-05
0.00036123964521749745   -6.349915633807428e-05   0.00020379229546677383
0.00036123964521749745   -6.349915633807428e-05   0.00020379229546677383
0.00036123964521749745   -6.349915633807428e-05   0.00020379229546677383
0.00036123964521749745   -6.349915633807428e-05   0.00020379229546677383
0.00018048993273990516   -4.963405735838172e-05   -8.913816594139853e-05
0.00018048993273990516   -4.963405735838172e-05   -8.913816594139853e-05
0.00018048993273990516   -4.963405735838172e-05   -8.913816594139853e-05
0.00018048993273990516   -4.963405735838172e-05   -8.913816594139853e-05
0.00017356143652244295   -6.222869892362828e-05   0.00017644162690936757
0.00017356143652244295   -6.222869892362828e-05   0.00017644162690936757
0.00017356143652244295   -6.222869892362828e-05   0.00017644162690936757
0.00017356143652244295   -6.222869892362828e-05   0.00017644162690936757
0.00034963808013856504   -4.9370550418793846e-05   -0.00012473433488707195
0.00034963808013856504   -4.9370550418793846e-05   -0.00012473433488707195
0.00034963808013856504   -4.9370550418793846e-05   -0.00012473433488707195
0.00034963808013856504   -4.9370550418793846e-05   -0.00012473433488707195
0.0002551795260985235   -5.170888817466503e-05   3.4099591166525996e-05
0.0002551795260985235   -5.170888817466503e-05   3.4099591166525996e-05
0.0002551795260985235   -5.170888817466503e-05   3.4099591166525996e-05
0.0002551795260985235   -5.170888817466503e-05   3.4099591166525996e-05
0.0001922247182010184   -3.562761139364566e-05   0.0002565383149117379
0.0001922247182010184   -3.562761139364566e-05   0.0002565383149117379
0.0001922247182010184   -3.562761139364566e-05   0.0002565383149117379
0.0001922247182010184   -3.562761139364566e-05   0.0002565383149117379
2.154461209738002e-05   -1.5227462197424033e-05   -1.5688439076595208e-05
2.154461209738002e-05   -1.5227462197424033e-05   -1.5688439076595208e-05
2.154461209738002e-05   -1.5227462197424033e-05   -1.5688439076595208e-05
2.154461209738002e-05   -1.5227462197424033e-05   -1.5688439076595208e-05
1.6456921113551515e-05   -3.780513250124448e-05   0.00026740332562881323
1.6456921113551515e-05   -3.780513250124448e-05   0.00026740332562881323
1.6456921113551515e-05   -3.780513250124448e-05   0.00026740332562881323
1.6456921113551515e-05   -3.780513250124448e-05   0.00026740332562881323
0.00018709759836024487   -1.83445730607152e-05   -2.8674138779993807e-05
0.00018709759836024487   -1.83445730607152e-05   -2.8674138779993807e-05
0.00018709759836024487   -1.83445730607152e-05   -2.8674138779993807e-05
0.00018709759836024487   -1.83445730607152e-05   -2.8674138779993807e-05
0.00010333444271180939   -2.4866704834675124e-05   0.00011484439969844037
0.00010333444271180939   -2.4866704834675124e-05   0.00011484439969844037
0.00010333444271180939   -2.4866704834675124e-05   0.00011484439969844037
0.00010333444271180939   -2.4866704834675124e-05   0.00011484439969844037
0.00018709759836024465   -3.780513250124448e-05   0.0002557269899644936
0.00018709759836024465   -3.780513250124448e-05   0.0002557269899644936
0.00018709759836024465   -3.780513250124448e-05   0.0002557269899644936
0.00018709759836024465   -3.780513250124448e-05   0.0002557269899644936
1.6456921113551515e-05   -1.83445730607152e-05   -1.699780311567589e-05
1.6456921113551515e-05   -1.83445730607152e-05   -1.699780311567589e-05
1.6456921113551515e-05   -1.83445730607152e-05   -1.699780311567589e-05
1.6456921113551515e-05   -1.83445730607152e-05   -1.699780311567589e-05
9.956389866981347e-06   -3.879466106226914e-05   0.0002649729495963378
9.956389866981347e-06   -3.879466106226914e-05   0.0002649729495963378
9.956389866981347e-06   -3.879466106226914e-05   0.0002649729495963378
9.956389866981347e-06   -3.879466106226914e-05   0.0002649729495963378
0.00018048993273990516   -2.0403684291325427e-05   -3.028420792110329e-05
0.00018048993273990516   -2.0403684291325427e-05   -3.028420792110329e-05
0.00018048993273990516   -2.0403684291325427e-05   -3.028420792110329e-05
0.00018048993273990516   -2.0403684291325427e-05   -3.028420792110329e-05
9.689248857610745e-05   -2.605463726215035e-05   0.00011243543746772625
9.689248857610745e-05   -2.605463726215035e-05   0.00011243543746772625
9.689248857610745e-05   -2.605463726215035e-05   0.00011243543746772625
9.689248857610745e-05   -2.605463726215035e-05   0.00011243543746772625
0.00018048993273990488   -3.879466106226914e-05   0.0002539383635337712
0.00018048993273990488   -3.879466106226914e-05   0.0002539383635337712
0.00018048993273990488   -3.879466106226914e-05   0.0002539383635337712
0.00018048993273990488   -3.879466106226914e-05   0.0002539383635337712
9.956389866981347e-06   -2.0403684291325427e-05   -1.924962185853498e-05
9.956389866981347e-06   -2.0403684291325427e-05   -1.924962185853498e-05
9.956389866981347e-06   -2.0403684291325427e-05   -1.924962185853498e-05
9.956389866981347e-06   -2.0403684291325427e-05   -1.924962185853498e-05
2.7746643830006386e-06   -3.795773751235493e-05   0.000268955938480012
2.7746643830006386e-06   -3.795773751235493e-05   0.000268955938480012
2.7746643830006386e-06   -3.795773751235493e-05   0.000268955938480012
2.7746643830006386e-06   -3.795773751235493e-05   0.000268955938480012
0.00017356143652244279   -2.1307817532508627e-05   -2.5678633740299178e-05
0.00017356143652244279   -2.1307817532508627e-05   -2.5678633740299178e-05
0.00017356143652244279   -2.1307817532508627e-05   -2.5678633740299178e-05
0.00017356143652244279   -2.1307817532508627e-05   -2.5678633740299178e-05
9.162048906107305e-05   -2.5828749331050643e-05   0.00011360217110777896
9.162048906107305e-05   -2.5828749331050643e-05   0.00011360217110777896
9.162048906107305e-05   -2.5828749331050643e-05   0.00011360217110777896
9.162048906107305e-05   -2.5828749331050643e-05   0.00011360217110777896
2.154461209738013e-05   -1.5359112106439962e-05   0.00026251313198187576
2.154461209738013e-05   -1.5359112106439962e-05   0.00026251313198187576
2.154461209738013e-05   -1.5359112106439962e-05   0.00026251313198187576
2.154461209738013e-05   -1.5359112106439962e-05   0.00026251313198187576
-0.0001437617488695218   1.340105231616845e-05   4.2586290239362765e-06
-0.0001437617488695218   1.340105231616845e-05   4.2586290239362765e-06
-0.0001437617488695218   1.340105231616845e-05   4.2586290239362765e-06
-0.0001437617488695218   1.340105231616845e-05   4.2586290239362765e-06
-0.00014949189434751377   -1.623038171635026e-05   0.0002817607547384842
-0.00014949189434751377   -1.623038171635026e-05   0.0002817607547384842
-0.00014949189434751377   -1.623038171635026e-05   0.0002817607547384842
-0.00014949189434751377   -1.623038171635026e-05   0.0002817607547384842
1.6456921113551515e-05   1.0995704540517695e-05   -1.1156256117410713e-05
1.6456921113551515e-05   1.0995704540517695e-05   -1.1156256117410713e-05
1.6456921113551515e-05   1.0995704540517695e-05   -1.1156256117410713e-05
1.6456921113551515e-05   1.0995704540517695e-05   -1.1156256117410713e-05
-6.369390312959821e-05   -5.321112682993984e-07   0.00012934514043979554
-6.369390312959821e-05   -5.321112682993984e-07   0.00012934514043979554
-6.369390312959821e-05   -5.321112682993984e-07   0.00012934514043979554
-6.369390312959821e-05   -5.321112682993984e-07   0.00012934514043979554
1.6456921113551623e-05   -1.623038171635026e-05   0.0002654251029843655
1.6456921113551623e-05   -1.623038171635026e-05   0.0002654251029843655
1.6456921113551623e-05   -1.623038171635026e-05   0.0002654251029843655
1.6456921113551623e-05   -1.623038171635026e-05   0.0002654251029843655
-0.00014949189434751377   1.099570454051596e-05   5.1793956367084115e-06
-0.00014949189434751377   1.099570454051596e-05   5.1793956367084115e-06
-0.00014949189434751377   1.099570454051596e-05   5.1793956367084115e-06
-0.00014949189434751377   1.099570454051596e-05   5.1793956367084115e-06
-0.00015718732791787887   -1.729178762849802e-05   0.0002874567806882087
-0.00015718732791787887   -1.729178762849802e-05   0.0002874567806882087
-0.00015718732791787887   -1.729178762849802e-05   0.0002874567806882087
-0.00015718732791787887   -1.729178762849802e-05   0.0002874567806882087
9.956389866981347e-06   8.756441672922582e-06   -6.745019867408341e-06
9.956389866981347e-06   8.756441672922582e-06   -6.745019867408341e-06
9.956389866981347e-06   8.756441672922582e-06   -6.745019867408341e-06
9.956389866981347e-06   8.756441672922582e-06   -6.745019867408341e-06
-6.934977409302852e-05   -1.2219902223720158e-06   0.00013141897920311823
-6.934977409302852e-05   -1.2219902223720158e-06   0.00013141897920311823
-6.934977409302852e-05   -1.2219902223720158e-06   0.00013141897920311823
-6.934977409302852e-05   -1.2219902223720158e-06   0.00013141897920311823
9.956389866981347e-06   -1.7291787628496286e-05   0.00027182784310735876
9.956389866981347e-06   -1.7291787628496286e-05   0.00027182784310735876
9.956389866981347e-06   -1.7291787628496286e-05   0.00027182784310735876
9.956389866981347e-06   -1.7291787628496286e-05   0.00027182784310735876
-0.00015718732791787865   8.756441672922582e-06   8.883917713441158e-06
-0.00015718732791787865   8.756441672922582e-06   8.883917713441158e-06
-0.00015718732791787865   8.756441672922582e-06   8.883917713441158e-06
-0.00015718732791787865   8.756441672922582e-06   8.883917713441158e-06
-0.0001653865947763276   -1.7220326386572365e-05   0.00029428993821877837
-0.0001653865947763276   -1.7220326386572365e-05   0.00029428993821877837
-0.0001653865947763276   -1.7220326386572365e-05   0.00029428993821877837
-0.0001653865947763276   -1.7220326386572365e-05   0.00029428993821877837
2.7746643830006386e-06   7.138656369367127e-06   -5.942167003326199e-07
2.7746643830006386e-06   7.138656369367127e-06   -5.942167003326199e-07
2.7746643830006386e-06   7.138656369367127e-06   -5.942167003326199e-07
2.7746643830006386e-06   7.138656369367127e-06   -5.942167003326199e-07
-7.656779698279886e-05   -1.7246040587733102e-06   0.0001369611751662217
-7.656779698279886e-05   -1.7246040587733102e-06   0.0001369611751662217
-7.656779698279886e-05   -1.7246040587733102e-06   0.0001369611751662217
-7.656779698279886e-05   -1.7246040587733102e-06   0.0001369611751662217
-0.00014376174886952125   1.5437715624698478e-05   0.0002370061501893242
-0.00014376174886952125   1.5437715624698478e-05   0.0002370061501893242
-0.00014376174886952125   1.5437715624698478e-05   0.0002370061501893242
-0.00014376174886952125   1.5437715624698478e-05   0.0002370061501893242
-0.00030555422661173045   4.3828768255824505e-05   -1.5613347802347077e-05
-0.00030555422661173045   4.3828768255824505e-05   -1.5613347802347077e-05
-0.00030555422661173045   4.3828768255824505e-05   -1.5613347802347077e-05
-0.00030555422661173045   4.3828768255824505e-05   -1.5613347802347077e-05
-0.0003139279854145438   1.4417967491566971e-05   0.0002625240790155945
-0.0003139279854145438   1.4417967491566971e-05   0.0002625240790155945
-0.0003139279854145438   1.4417967491566971e-05   0.0002625240790155945
-0.0003139279854145438   1.4417967491566971e-05   0.0002625240790155945
-0.00014949189434751333   4.140649071448024e-05   -2.7729186696534526e-05
-0.00014949189434751333   4.140649071448024e-05   -2.7729186696534526e-05
-0.00014949189434751333   4.140649071448024e-05   -2.7729186696534526e-05
-0.00014949189434751333   4.140649071448024e-05   -2.7729186696534526e-05
-0.0002263651419097208   2.930465660138e-05   0.00010765399304167112
-0.0002263651419097208   2.930465660138e-05   0.00010765399304167112
-0.0002263651419097208   2.930465660138e-05   0.00010765399304167112
-0.0002263651419097208   2.930465660138e-05   0.00010765399304167112
-0.00014949189434751366   1.4417967491568706e-05   0.00024633096508184897
-0.00014949189434751366   1.4417967491568706e-05   0.00024633096508184897
-0.00014949189434751366   1.4417967491568706e-05   0.00024633096508184897
-0.00014949189434751366   1.4417967491568706e-05   0.00024633096508184897
-0.000313927985414543   4.140649071448024e-05   -1.1536072762789208e-05
-0.000313927985414543   4.140649071448024e-05   -1.1536072762789208e-05
-0.000313927985414543   4.140649071448024e-05   -1.1536072762789208e-05
-0.000313927985414543   4.140649071448024e-05   -1.1536072762789208e-05
-0.00032418038784672075   1.2606246245987218e-05   0.00027863208552984624
-0.00032418038784672075   1.2606246245987218e-05   0.00027863208552984624
-0.00032418038784672075   1.2606246245987218e-05   0.00027863208552984624
-0.00032418038784672075   1.2606246245987218e-05   0.00027863208552984624
-0.00015718732791787865   3.9176252687464844e-05   -1.5631684883113004e-05
-0.00015718732791787865   3.9176252687464844e-05   -1.5631684883113004e-05
-0.00015718732791787865   3.9176252687464844e-05   -1.5631684883113004e-05
-0.00015718732791787865   3.9176252687464844e-05   -1.5631684883113004e-05
-0.00023262178459796653   2.8723161411134054e-05   0.00011636426434949898
-0.00023262178459796653   2.8723161411134054e-05   0.00011636426434949898
-0.00023262178459796653   2.8723161411134054e-05   0.00011636426434949898
-0.00023262178459796653   2.8723161411134054e-05   0.00011636426434949898
-0.00015718732791787844   1.2606246245985483e-05   0.00026269008166495723
-0.00015718732791787844   1.2606246245985483e-05   0.00026269008166495723
-0.00015718732791787844   1.2606246245985483e-05   0.00026269008166495723
-0.00015718732791787844   1.2606246245985483e-05   0.00026269008166495723
-0.00032418038784672075   3.917625268746658e-05   3.1031898177491524e-07
-0.00032418038784672075   3.917625268746658e-05   3.1031898177491524e-07
-0.00032418038784672075   3.917625268746658e-05   3.1031898177491524e-07
-0.00032418038784672075   3.917625268746658e-05   3.1031898177491524e-07
-0.0003350391689625591   1.0563812307698428e-05   0.00029153656656508327
-0.0003350391689625591   1.0563812307698428e-05   0.00029153656656508327
-0.0003350391689625591   1.0563812307698428e-05   0.00029153656656508327
-0.0003350391689625591   1.0563812307698428e-05   0.00029153656656508327
-0.00016538659477632704   3.618953770973335e-05   -6.593158986525167e-06
-0.00016538659477632704   3.618953770973335e-05   -6.593158986525167e-06
-0.00016538659477632704   3.618953770973335e-05   -6.593158986525167e-06
-0.00016538659477632704   3.618953770973335e-05   -6.593158986525167e-06
-0.00024297457532984363   2.6905230275911865e-05   0.00012829072639630474
-0.00024297457532984363   2.6905230275911865e-05   0.00012829072639630474
-0.00024297457532984363   2.6905230275911865e-05   0.00012829072639630474
-0.00024297457532984363   2.6905230275911865e-05   0.00012829072639630474
-0.00030555422661173045   7.241822760169735e-05   0.0001248359755766544
-0.00030555422661173045   7.241822760169735e-05   0.0001248359755766544
-0.00030555422661173045   7.241822760169735e-05   0.0001248359755766544
-0.00030555422661173045   7.241822760169735e-05   0.0001248359755766544
-0.0004603145945469803   7.12793177658471e-05   -0.00013378131688360738
-0.0004603145945469803   7.12793177658471e-05   -0.00013378131688360738
-0.0004603145945469803   7.12793177658471e-05   -0.00013378131688360738
-0.0004603145945469803   7.12793177658471e-05   -0.00013378131688360738
-0.000475330238505573   6.977594586406351e-05   0.0001844431406240691
-0.000475330238505573   6.977594586406351e-05   0.0001844431406240691
-0.000475330238505573   6.977594586406351e-05   0.0001844431406240691
-0.000475330238505573   6.977594586406351e-05   0.0001844431406240691
-0.000313927985414543   7.25961410802927e-05   -8.625273165738527e-05
-0.000313927985414543   7.25961410802927e-05   -8.625273165738527e-05
-0.000313927985414543   7.25961410802927e-05   -8.625273165738527e-05
-0.000313927985414543   7.25961410802927e-05   -8.625273165738527e-05
-0.00037313298212531497   7.268847306868102e-05   1.2366863667535258e-05
-0.00037313298212531497   7.268847306868102e-05   1.2366863667535258e-05
-0.00037313298212531497   7.268847306868102e-05   1.2366863667535258e-05
-0.00037313298212531497   7.268847306868102e-05   1.2366863667535258e-05
-0.0003139279854145429   6.977594586406351e-05   0.0001827510234943333
-0.0003139279854145429   6.977594586406351e-05   0.0001827510234943333
-0.0003139279854145429   6.977594586406351e-05   0.0001827510234943333
-0.0003139279854145429   6.977594586406351e-05   0.0001827510234943333
-0.000475330238505573   7.25961410802927e-05   -8.45606145276484e-05
-0.000475330238505573   7.25961410802927e-05   -8.45606145276484e-05
-0.000475330238505573   7.25961410802927e-05   -8.45606145276484e-05
-0.000475330238505573   7.25961410802927e-05   -8.45606145276484e-05
-0.0004900564774125073   6.794227474312027e-05   0.00022639387659446203
-0.0004900564774125073   6.794227474312027e-05   0.00022639387659446203
-0.0004900564774125073   6.794227474312027e-05   0.00022639387659446203
-0.0004900564774125073   6.794227474312027e-05   0.00022639387659446203
-0.0003241803878467202   7.205654998699608e-05   -5.253483782817546e-05
-0.0003241803878467202   7.205654998699608e-05   -5.253483782817546e-05
-0.0003241803878467202   7.205654998699608e-05   -5.253483782817546e-05
-0.0003241803878467202   7.205654998699608e-05   -5.253483782817546e-05
-0.0003902579904825075   7.263304085643012e-05   5.7248605376481344e-05
-0.0003902579904825075   7.263304085643012e-05   5.7248605376481344e-05
-0.0003902579904825075   7.263304085643012e-05   5.7248605376481344e-05
-0.0003902579904825075   7.263304085643012e-05   5.7248605376481344e-05
-0.0003241803878467202   6.794227474312027e-05   0.00022392531144813793
-0.0003241803878467202   6.794227474312027e-05   0.00022392531144813793
-0.0003241803878467202   6.794227474312027e-05   0.00022392531144813793
-0.0003241803878467202   6.794227474312027e-05   0.00022392531144813793
-0.0004900564774125073   7.205654998699434e-05   -5.006627268185071e-05
-0.0004900564774125073   7.205654998699434e-05   -5.006627268185071e-05
-0.0004900564774125073   7.205654998699434e-05   -5.006627268185071e-05
-0.0004900564774125073   7.205654998699434e-05   -5.006627268185071e-05
-0.0005074154109659629   5.639458119347483e-05   0.00029651956989509495
-0.0005074154109659629   5.639458119347483e-05   0.00029651956989509495
-0.0005074154109659629   5.639458119347483e-05   0.00029651956989509495
-0.0005074154109659629   5.639458119347483e-05   0.00029651956989509495
-0.000335039168962558   6.628246686730434e-05   3.2931018184563596e-06
-0.000335039168962558   6.628246686730434e-05   3.2931018184563596e-06
-0.000335039168962558   6.628246686730434e-05   3.2931018184563596e-06
-0.000335039168962558   6.628246686730434e-05   3.2931018184563596e-06
-0.00039653211249374024   6.914756858354167e-05   0.00010406228000735523
-0.00039653211249374024   6.914756858354167e-05   0.00010406228000735523
-0.00039653211249374024   6.914756858354167e-05   0.00010406228000735523
-0.00039653211249374024   6.914756858354167e-05   0.00010406228000735523
0.0003069102569528942   -4.298331976664363e-05   0.00023767092399688827
0.0003069102569528942   -4.298331976664363e-05   0.00023767092399688827
0.0003069102569528942   -4.298331976664363e-05   0.00023767092399688827
0.0003069102569528942   -4.298331976664363e-05   0.00023767092399688827
0.00015210781952660355   -3.137807360643029e-05   -1.3369990684134608e-05
0.00015210781952660355   -3.137807360643029e-05   -1.3369990684134608e-05
0.00015210781952660355   -3.137807360643029e-05   -1.3369990684134608e-05
0.00015210781952660355   -3.137807360643029e-05   -1.3369990684134608e-05
0.0001462047604889481   -4.876353373742086e-05   0.00020680424083380396
0.0001462047604889481   -4.876353373742086e-05   0.00020680424083380396
0.0001462047604889481   -4.876353373742086e-05   0.00020680424083380396
0.0001462047604889481   -4.876353373742086e-05   0.00020680424083380396
0.0002960462789624745   -3.644963072697849e-05   -5.03199650950027e-05
0.0002960462789624745   -3.644963072697849e-05   -5.03199650950027e-05
0.0002960462789624745   -3.644963072697849e-05   -5.03199650950027e-05
0.0002960462789624745   -3.644963072697849e-05   -5.03199650950027e-05
0.00021499891922037141   -3.9488469664188466e-05   8.658227117082557e-05
0.00021499891922037141   -3.9488469664188466e-05   8.658227117082557e-05
0.00021499891922037141   -3.9488469664188466e-05   8.658227117082557e-05
0.00021499891922037141   -3.9488469664188466e-05   8.658227117082557e-05
0.000296046278962474   -4.876353373742086e-05   0.00019941589902753958
0.000296046278962474   -4.876353373742086e-05   0.00019941589902753958
0.000296046278962474   -4.876353373742086e-05   0.00019941589902753958
0.000296046278962474   -4.876353373742086e-05   0.00019941589902753958
0.00014620476048894865   -3.644963072697849e-05   -4.2931623288737855e-05
0.00014620476048894865   -3.644963072697849e-05   -4.2931623288737855e-05
0.00014620476048894865   -3.644963072697849e-05   -4.2931623288737855e-05
0.00014620476048894865   -3.644963072697849e-05   -4.2931623288737855e-05
0.00013964997754725716   -4.963405735838172e-05   0.00018541723716273065
0.00013964997754725716   -4.963405735838172e-05   0.00018541723716273065
0.00013964997754725716   -4.963405735838172e-05   0.00018541723716273065
0.00013964997754725716   -4.963405735838172e-05   0.00018541723716273065
0.00028621829424813744   -3.747627164288336e-05   -6.615796210136929e-05
0.00028621829424813744   -3.747627164288336e-05   -6.615796210136929e-05
0.00028621829424813744   -3.747627164288336e-05   -6.615796210136929e-05
0.00028621829424813744   -3.747627164288336e-05   -6.615796210136929e-05
0.00021085909518351123   -4.145036634814643e-05   6.182515982950038e-05
0.00021085909518351123   -4.145036634814643e-05   6.182515982950038e-05
0.00021085909518351123   -4.145036634814643e-05   6.182515982950038e-05
0.00021085909518351123   -4.145036634814643e-05   6.182515982950038e-05
0.00028621829424813647   -4.963405735838172e-05   0.00017812256573343163
0.00028621829424813647   -4.963405735838172e-05   0.00017812256573343163
0.00028621829424813647   -4.963405735838172e-05   0.00017812256573343163
0.00028621829424813647   -4.963405735838172e-05   0.00017812256573343163
0.00013964997754725738   -3.747627164288336e-05   -5.886329067207076e-05
0.00013964997754725738   -3.747627164288336e-05   -5.886329067207076e-05
0.00013964997754725738   -3.747627164288336e-05   -5.886329067207076e-05
0.00013964997754725738   -3.747627164288336e-05   -5.886329067207076e-05
0.0001333499215060517   -4.9370550418793846e-05   0.00015565779957540764
0.0001333499215060517   -4.9370550418793846e-05   0.00015565779957540764
0.0001333499215060517   -4.9370550418793846e-05   0.00015565779957540764
0.0001333499215060517   -4.9370550418793846e-05   0.00015565779957540764
0.00027509641978746706   -3.7930939495304725e-05   -8.74501307810444e-05
0.00027509641978746706   -3.7930939495304725e-05   -8.74501307810444e-05
0.00027509641978746706   -3.7930939495304725e-05   -8.74501307810444e-05
0.00027509641978746706   -3.7930939495304725e-05   -8.74501307810444e-05
0.00019989962753638255   -4.076605251829117e-05   3.957892411789166e-05
0.00019989962753638255   -4.076605251829117e-05   3.957892411789166e-05
0.00019989962753638255   -4.076605251829117e-05   3.957892411789166e-05
0.00019989962753638255   -4.076605251829117e-05   3.957892411789166e-05
0.00015210781952660355   -1.5227462197424033e-05   0.00025022129069904656
0.00015210781952660355   -1.5227462197424033e-05   0.00025022129069904656
0.00015210781952660355   -1.5227462197424033e-05   0.00025022129069904656
0.00015210781952660355   -1.5227462197424033e-05   0.00025022129069904656
6.810228574817816e-06   -5.985984263085983e-06   1.3603525873340586e-05
6.810228574817816e-06   -5.985984263085983e-06   1.3603525873340586e-05
6.810228574817816e-06   -5.985984263085983e-06   1.3603525873340586e-05
6.810228574817816e-06   -5.985984263085983e-06   1.3603525873340586e-05
1.1483673145525498e-06   -1.83445730607152e-05   0.00025288268439339033
1.1483673145525498e-06   -1.83445730607152e-05   0.00025288268439339033
1.1483673145525498e-06   -1.83445730607152e-05   0.00025288268439339033
1.1483673145525498e-06   -1.83445730607152e-05   0.00025288268439339033
0.00014620476048894865   -9.592126491157066e-06   5.870561160995001e-06
0.00014620476048894865   -9.592126491157066e-06   5.870561160995001e-06
0.00014620476048894865   -9.592126491157066e-06   5.870561160995001e-06
0.00014620476048894865   -9.592126491157066e-06   5.870561160995001e-06
7.564143090357507e-05   -1.1827460336552575e-05   0.00012481731077718778
7.564143090357507e-05   -1.1827460336552575e-05   0.00012481731077718778
7.564143090357507e-05   -1.1827460336552575e-05   0.00012481731077718778
7.564143090357507e-05   -1.1827460336552575e-05   0.00012481731077718778
0.0001462047604889485   -1.8344573060716934e-05   0.0002476312164516551
0.0001462047604889485   -1.8344573060716934e-05   0.0002476312164516551
0.0001462047604889485   -1.8344573060716934e-05   0.0002476312164516551
0.0001462047604889485   -1.8344573060716934e-05   0.0002476312164516551
1.1483673145525498e-06   -9.592126491157066e-06   1.1122029102730337e-05
1.1483673145525498e-06   -9.592126491157066e-06   1.1122029102730337e-05
1.1483673145525498e-06   -9.592126491157066e-06   1.1122029102730337e-05
1.1483673145525498e-06   -9.592126491157066e-06   1.1122029102730337e-05
-4.736413775358679e-06   -2.0403684291325427e-05   0.000249143305258338
-4.736413775358679e-06   -2.0403684291325427e-05   0.000249143305258338
-4.736413775358679e-06   -2.0403684291325427e-05   0.000249143305258338
-4.736413775358679e-06   -2.0403684291325427e-05   0.000249143305258338
0.00013964997754725738   -1.2283500832471067e-05   3.627209645332098e-06
0.00013964997754725738   -1.2283500832471067e-05   3.627209645332098e-06
0.00013964997754725738   -1.2283500832471067e-05   3.627209645332098e-06
0.00013964997754725738   -1.2283500832471067e-05   3.627209645332098e-06
6.915323500617402e-05   -1.3722559252058592e-05   0.00012198521559889563
6.915323500617402e-05   -1.3722559252058592e-05   0.00012198521559889563
6.915323500617402e-05   -1.3722559252058592e-05   0.00012198521559889563
6.915323500617402e-05   -1.3722559252058592e-05   0.00012198521559889563
0.00013964997754725716   -2.0403684291325427e-05   0.000244271195183025
0.00013964997754725716   -2.0403684291325427e-05   0.000244271195183025
0.00013964997754725716   -2.0403684291325427e-05   0.000244271195183025
0.00013964997754725716   -2.0403684291325427e-05   0.000244271195183025
-4.736413775358679e-06   -1.2283500832469332e-05   8.499319720646145e-06
-4.736413775358679e-06   -1.2283500832469332e-05   8.499319720646145e-06
-4.736413775358679e-06   -1.2283500832469332e-05   8.499319720646145e-06
-4.736413775358679e-06   -1.2283500832469332e-05   8.499319720646145e-06
-1.0862744821863194e-05   -2.1307817532508627e-05   0.0002511302818727565
-1.0862744821863194e-05   -2.1307817532508627e-05   0.0002511302818727565
-1.0862744821863194e-05   -2.1307817532508627e-05   0.0002511302818727565
-1.0862744821863194e-05   -2.1307817532508627e-05   0.0002511302818727565
0.00013334992150605202   -1.4421700443380953e-05   6.644167739419562e-06
0.00013334992150605202   -1.4421700443380953e-05   6.644167739419562e-06
0.00013334992150605202   -1.4421700443380953e-05   6.644167739419562e-06
0.00013334992150605202   -1.4421700443380953e-05   6.644167739419562e-06
6.425519222905766e-05   -1.4755333854803154e-05   0.00012200222991460229
6.425519222905766e-05   -1.4755333854803154e-05   0.00012200222991460229
6.425519222905766e-05   -1.4755333854803154e-05   0.00012200222991460229
6.425519222905766e-05   -1.4755333854803154e-05   0.00012200222991460229
6.810228574817816e-06   1.3401052316166714e-05   0.0002584571469066155
6.810228574817816e-06   1.3401052316166714e-05   0.0002584571469066155
6.810228574817816e-06   1.3401052316166714e-05   0.0002584571469066155
6.810228574817816e-06   1.3401052316166714e-05   0.0002584571469066155
-0.0001342094917724017   1.9553032026458153e-05   2.7115467487422336e-05
-0.0001342094917724017   1.9553032026458153e-05   2.7115467487422336e-05
-0.0001342094917724017   1.9553032026458153e-05   2.7115467487422336e-05
-0.0001342094917724017   1.9553032026458153e-05   2.7115467487422336e-05
-0.0001401223858868121   1.0995704540517695e-05   0.0002620494839121433
-0.0001401223858868121   1.0995704540517695e-05   0.0002620494839121433
-0.0001401223858868121   1.0995704540517695e-05   0.0002620494839121433
-0.0001401223858868121   1.0995704540517695e-05   0.0002620494839121433
1.1483673145525498e-06   1.6537792074668503e-05   2.3272976056046063e-05
1.1483673145525498e-06   1.6537792074668503e-05   2.3272976056046063e-05
1.1483673145525498e-06   1.6537792074668503e-05   2.3272976056046063e-05
1.1483673145525498e-06   1.6537792074668503e-05   2.3272976056046063e-05
-6.669756790761037e-05   1.5307240520765625e-05   0.00013708786569199285
-6.669756790761037e-05   1.5307240520765625e-05   0.00013708786569199285
-6.669756790761037e-05   1.5307240520765625e-05   0.00013708786569199285
-6.669756790761037e-05   1.5307240520765625e-05   0.00013708786569199285
1.1483673145525498e-06   1.0995704540517695e-05   0.0002587242313916525
1.1483673145525498e-06   1.0995704540517695e-05   0.0002587242313916525
1.1483673145525498e-06   1.0995704540517695e-05   0.0002587242313916525
1.1483673145525498e-06   1.0995704540517695e-05   0.0002587242313916525
-0.0001401223858868121   1.6537792074668503e-05   2.659822857653711e-05
-0.0001401223858868121   1.6537792074668503e-05   2.659822857653711e-05
-0.0001401223858868121   1.6537792074668503e-05   2.659822857653711e-05
-0.0001401223858868121   1.6537792074668503e-05   2.659822857653711e-05
-0.00014637007189756185   8.756441672922582e-06   0.00026455964722253526
-0.00014637007189756185   8.756441672922582e-06   0.00026455964722253526
-0.00014637007189756185   8.756441672922582e-06   0.00026455964722253526
-0.00014637007189756185   8.756441672922582e-06   0.00026455964722253526
-4.736413775358679e-06   1.3609341628037855e-05   2.5591810379127023e-05
-4.736413775358679e-06   1.3609341628037855e-05   2.5591810379127023e-05
-4.736413775358679e-06   1.3609341628037855e-05   2.5591810379127023e-05
-4.736413775358679e-06   1.3609341628037855e-05   2.5591810379127023e-05
-7.219287414426701e-05   1.3577869223459563e-05   0.00013803812777005283
-7.219287414426701e-05   1.3577869223459563e-05   0.00013803812777005283
-7.219287414426701e-05   1.3577869223459563e-05   0.00013803812777005283
-7.219287414426701e-05   1.3577869223459563e-05   0.00013803812777005283
-4.736413775358679e-06   8.756441672922582e-06   0.0002616479072494668
-4.736413775358679e-06   8.756441672922582e-06   0.0002616479072494668
-4.736413775358679e-06   8.756441672922582e-06   0.0002616479072494668
-4.736413775358679e-06   8.756441672922582e-06   0.0002616479072494668
-0.00014637007189756228   1.3609341628037855e-05   2.850355035219354e-05
-0.00014637007189756228   1.3609341628037855e-05   2.850355035219354e-05
-0.00014637007189756228   1.3609341628037855e-05   2.850355035219354e-05
-0.00014637007189756228   1.3609341628037855e-05   2.850355035219354e-05
-0.00015281933877823333   7.138656369367127e-06   0.00026854260961016625
-0.00015281933877823333   7.138656369367127e-06   0.00026854260961016625
-0.00015281933877823333   7.138656369367127e-06   0.00026854260961016625
-0.00015281933877823333   7.138656369367127e-06   0.00026854260961016625
-1.0862744821863194e-05   1.1001760844954814e-05   2.963042366419563e-05
-1.0862744821863194e-05   1.1001760844954814e-05   2.963042366419563e-05
-1.0862744821863194e-05   1.1001760844954814e-05   2.963042366419563e-05
-1.0862744821863194e-05   1.1001760844954814e-05   2.963042366419563e-05
-7.813934149215608e-05   1.1919426586622789e-05   0.0001412074853363544
-7.813934149215608e-05   1.1919426586622789e-05   0.0001412074853363544
-7.813934149215608e-05   1.1919426586622789e-05   0.0001412074853363544
-7.813934149215608e-05   1.1919426586622789e-05   0.0001412074853363544
-0.00013420949177240214   4.3828768255824505e-05   0.0002252417263278305
-0.00013420949177240214   4.3828768255824505e-05   0.0002252417263278305
-0.00013420949177240214   4.3828768255824505e-05   0.0002252417263278305
-0.00013420949177240214   4.3828768255824505e-05   0.0002252417263278305
-0.00027063978610532974   4.4380036060720496e-05   -1.8113368774469452e-06
-0.00027063978610532974   4.4380036060720496e-05   -1.8113368774469452e-06
-0.00027063978610532974   4.4380036060720496e-05   -1.8113368774469452e-06
-0.00027063978610532974   4.4380036060720496e-05   -1.8113368774469452e-06
-0.00027750614641074904   4.140649071448024e-05   0.00022918966223787161
-0.00027750614641074904   4.140649071448024e-05   0.00022918966223787161
-0.00027750614641074904   4.140649071448024e-05   0.00022918966223787161
-0.00027750614641074904   4.140649071448024e-05   0.00022918966223787161
-0.00014012238588681253   4.148775847943008e-05   1.6796737233883662e-07
-0.00014012238588681253   4.148775847943008e-05   1.6796737233883662e-07
-0.00014012238588681253   4.148775847943008e-05   1.6796737233883662e-07
-0.00014012238588681253   4.148775847943008e-05   1.6796737233883662e-07
-0.0002046999005216739   4.269113560490326e-05   0.00010707513215515692
-0.0002046999005216739   4.269113560490326e-05   0.00010707513215515692
-0.0002046999005216739   4.269113560490326e-05   0.00010707513215515692
-0.0002046999005216739   4.269113560490326e-05   0.00010707513215515692
-0.00014012238588681253   4.140649071448024e-05   0.00022914090157890102
-0.00014012238588681253   4.140649071448024e-05   0.00022914090157890102
-0.00014012238588681253   4.140649071448024e-05   0.00022914090157890102
-0.00014012238588681253   4.140649071448024e-05   0.00022914090157890102
-0.0002775061464107488   4.148775847943008e-05   2.1672803130964868e-07
-0.0002775061464107488   4.148775847943008e-05   2.1672803130964868e-07
-0.0002775061464107488   4.148775847943008e-05   2.1672803130964868e-07
-0.0002775061464107488   4.148775847943008e-05   2.1672803130964868e-07
-0.000285123380435403   3.917625268746658e-05   0.0002398378200994828
-0.000285123380435403   3.917625268746658e-05   0.0002398378200994828
-0.000285123380435403   3.917625268746658e-05   0.0002398378200994828
-0.000285123380435403   3.917625268746658e-05   0.0002398378200994828
-0.00014637007189756228   3.883254514330109e-05   8.788530396244094e-06
-0.00014637007189756228   3.883254514330109e-05   8.788530396244094e-06
-0.00014637007189756228   3.883254514330109e-05   8.788530396244094e-06
-0.00014637007189756228   3.883254514330109e-05   8.788530396244094e-06
-0.00020968701109286297   4.1050270278555553e-05   0.00011298612730726155
-0.00020968701109286297   4.1050270278555553e-05   0.00011298612730726155
-0.00020968701109286297   4.1050270278555553e-05   0.00011298612730726155
-0.00020968701109286297   4.1050270278555553e-05   0.00011298612730726155
-0.00014637007189756217   3.9176252687464844e-05   0.00024004404462598002
-0.00014637007189756217   3.9176252687464844e-05   0.00024004404462598002
-0.00014637007189756217   3.9176252687464844e-05   0.00024004404462598002
-0.00014637007189756217   3.9176252687464844e-05   0.00024004404462598002
-0.00028512338043540234   3.8832545143302824e-05   8.582305869748834e-06
-0.00028512338043540234   3.8832545143302824e-05   8.582305869748834e-06
-0.00028512338043540234   3.8832545143302824e-05   8.582305869748834e-06
-0.00028512338043540234   3.8832545143302824e-05   8.582305869748834e-06
-0.00029238720000321957   3.618953770973335e-05   0.0002475745687583984
-0.00029238720000321957   3.618953770973335e-05   0.0002475745687583984
-0.00029238720000321957   3.618953770973335e-05   0.0002475745687583984
-0.00029238720000321957   3.618953770973335e-05   0.0002475745687583984
-0.00015281933877823387   3.560002285637673e-05   1.5315175628767943e-05
-0.00015281933877823387   3.560002285637673e-05   1.5315175628767943e-05
-0.00015281933877823387   3.560002285637673e-05   1.5315175628767943e-05
-0.00015281933877823387   3.560002285637673e-05   1.5315175628767943e-05
-0.00021756971996871028   3.893356535984195e-05   0.00012123235211082464
-0.00021756971996871028   3.893356535984195e-05   0.00012123235211082464
-0.00021756971996871028   3.893356535984195e-05   0.00012123235211082464
-0.00021756971996871028   3.893356535984195e-05   0.00012123235211082464
-0.0002706397861053293   7.12793177658471e-05   0.00010808786383101864
-0.0002706397861053293   7.12793177658471e-05   0.00010808786383101864
-0.0002706397861053293   7.12793177658471e-05   0.00010808786383101864
-0.0002706397861053293   7.12793177658471e-05   0.00010808786383101864
-0.000400014162708556   6.376879712003888e-05   -0.00011204240956184507
-0.000400014162708556   6.376879712003888e-05   -0.00011204240956184507
-0.000400014162708556   6.376879712003888e-05   -0.00011204240956184507
-0.000400014162708556   6.376879712003888e-05   -0.00011204240956184507
-0.00041082402732782377   7.259614108029097e-05   0.00014955766035388424
-0.00041082402732782377   7.259614108029097e-05   0.00014955766035388424
-0.00041082402732782377   7.259614108029097e-05   0.00014955766035388424
-0.00041082402732782377   7.259614108029097e-05   0.00014955766035388424
-0.00027750614641074904   6.440390276464363e-05   -6.772346485185233e-05
-0.00027750614641074904   6.440390276464363e-05   -6.772346485185233e-05
-0.00027750614641074904   6.440390276464363e-05   -6.772346485185233e-05
-0.00027750614641074904   6.440390276464363e-05   -6.772346485185233e-05
-0.00032674359886112985   6.763948248255172e-05   1.2397608068038992e-05
-0.00032674359886112985   6.763948248255172e-05   1.2397608068038992e-05
-0.00032674359886112985   6.763948248255172e-05   1.2397608068038992e-05
-0.00032674359886112985   6.763948248255172e-05   1.2397608068038992e-05
-0.0002775061464107484   7.25961410802927e-05   0.00015447300334327403
-0.0002775061464107484   7.25961410802927e-05   0.00015447300334327403
-0.0002775061464107484   7.25961410802927e-05   0.00015447300334327403
-0.0002775061464107484   7.25961410802927e-05   0.00015447300334327403
-0.0004108240273278253   6.440390276464363e-05   -7.263880784124169e-05
-0.0004108240273278253   6.440390276464363e-05   -7.263880784124169e-05
-0.0004108240273278253   6.440390276464363e-05   -7.263880784124169e-05
-0.0004108240273278253   6.440390276464363e-05   -7.263880784124169e-05
-0.0004213899226724917   7.205654998699434e-05   0.0001819688281914228
-0.0004213899226724917   7.205654998699434e-05   0.0001819688281914228
-0.0004213899226724917   7.205654998699434e-05   0.0001819688281914228
-0.0004213899226724917   7.205654998699434e-05   0.0001819688281914228
-0.000285123380435403   6.36834914901456e-05   -4.0118240438951746e-05
-0.000285123380435403   6.36834914901456e-05   -4.0118240438951746e-05
-0.000285123380435403   6.36834914901456e-05   -4.0118240438951746e-05
-0.000285123380435403   6.36834914901456e-05   -4.0118240438951746e-05
-0.00033995071184798095   6.885808098032464e-05   4.815589155457477e-05
-0.00033995071184798095   6.885808098032464e-05   4.815589155457477e-05
-0.00033995071184798095   6.885808098032464e-05   4.815589155457477e-05
-0.00033995071184798095   6.885808098032464e-05   4.815589155457477e-05
-0.000285123380435403   7.205654998699434e-05   0.00018699266328953308
-0.000285123380435403   7.205654998699434e-05   0.00018699266328953308
-0.000285123380435403   7.205654998699434e-05   0.00018699266328953308
-0.000285123380435403   7.205654998699434e-05   0.00018699266328953308
-0.0004213899226724932   6.36834914901456e-05   -4.51420755370616e-05
-0.0004213899226724932   6.36834914901456e-05   -4.51420755370616e-05
-0.0004213899226724932   6.36834914901456e-05   -4.51420755370616e-05
-0.0004213899226724932   6.36834914901456e-05   -4.51420755370616e-05
-0.0004337403026499526   6.628246686730434e-05   0.0002375620663536606
-0.0004337403026499526   6.628246686730434e-05   0.0002375620663536606
-0.0004337403026499526   6.628246686730434e-05   0.0002375620663536606
-0.0004337403026499526   6.628246686730434e-05   0.0002375620663536606
-0.00029238720000321957   5.874358691981309e-05   6.4968899109335045e-06
-0.00029238720000321957   5.874358691981309e-05   6.4968899109335045e-06
-0.00029238720000321957   5.874358691981309e-05   6.4968899109335045e-06
-0.00029238720000321957   5.874358691981309e-05   6.4968899109335045e-06
-0.00034341613084888493   6.682259238672758e-05   8.669770470689847e-05
-0.00034341613084888493   6.682259238672758e-05   8.669770470689847e-05
-0.00034341613084888493   6.682259238672758e-05   8.669770470689847e-05
-0.00034341613084888493   6.682259238672758e-05   8.669770470689847e-05
0.00023199764075230623   -3.137807360643029e-05   0.00019772470566751382
0.00023199764075230623   -3.137807360643029e-05   0.00019772470566751382
0.00023199764075230623   -3.137807360643029e-05   0.00019772470566751382
0.00023199764075230623   -3.137807360643029e-05   0.00019772470566751382
0.00010930772283514065   -2.061473562181039e-05   -3.0048807032109076e-07
0.00010930772283514065   -2.061473562181039e-05   -3.0048807032109076e-07
0.00010930772283514065   -2.061473562181039e-05   -3.0048807032109076e-07
0.00010930772283514065   -2.061473562181039e-05   -3.0048807032109076e-07
0.00010404393816229807   -3.644963072698022e-05   0.00017383859911445938
0.00010404393816229807   -3.644963072698022e-05   0.00017383859911445938
0.00010404393816229807   -3.644963072698022e-05   0.00017383859911445938
0.00010404393816229807   -3.644963072698022e-05   0.00017383859911445938
0.0002218202888107995   -2.5065704469862116e-05   -2.9285674387312366e-05
0.0002218202888107995   -2.5065704469862116e-05   -2.9285674387312366e-05
0.0002218202888107995   -2.5065704469862116e-05   -2.9285674387312366e-05
0.0002218202888107995   -2.5065704469862116e-05   -2.9285674387312366e-05
0.000158942659433135   -2.8601913116009514e-05   7.763209976314935e-05
0.000158942659433135   -2.8601913116009514e-05   7.763209976314935e-05
0.000158942659433135   -2.8601913116009514e-05   7.763209976314935e-05
0.000158942659433135   -2.8601913116009514e-05   7.763209976314935e-05
0.0002218202888107995   -3.644963072697849e-05   0.00016700824336019111
0.0002218202888107995   -3.644963072697849e-05   0.00016700824336019111
0.0002218202888107995   -3.644963072697849e-05   0.00016700824336019111
0.0002218202888107995   -3.644963072697849e-05   0.00016700824336019111
0.00010404393816229823   -2.5065704469862116e-05   -2.2455318633042044e-05
0.00010404393816229823   -2.5065704469862116e-05   -2.2455318633042044e-05
0.00010404393816229823   -2.5065704469862116e-05   -2.2455318633042044e-05
0.00010404393816229823   -2.5065704469862116e-05   -2.2455318633042044e-05
9.82408508284176e-05   -3.747627164288336e-05   0.0001570375159195116
9.82408508284176e-05   -3.747627164288336e-05   0.0001570375159195116
9.82408508284176e-05   -3.747627164288336e-05   0.0001570375159195116
9.82408508284176e-05   -3.747627164288336e-05   0.0001570375159195116
0.00021290960936089516   -2.626149634375914e-05   -4.080594681409142e-05
0.00021290960936089516   -2.626149634375914e-05   -4.080594681409142e-05
0.00021290960936089516   -2.626149634375914e-05   -4.080594681409142e-05
0.00021290960936089516   -2.626149634375914e-05   -4.080594681409142e-05
0.00015467813763457697   -3.040402353818132e-05   5.87320223797623e-05
0.00015467813763457697   -3.040402353818132e-05   5.87320223797623e-05
0.00015467813763457697   -3.040402353818132e-05   5.87320223797623e-05
0.00015467813763457697   -3.040402353818132e-05   5.87320223797623e-05
0.0002129096093608948   -3.747627164288336e-05   0.00015030865074003742
0.0002129096093608948   -3.747627164288336e-05   0.00015030865074003742
0.0002129096093608948   -3.747627164288336e-05   0.00015030865074003742
0.0002129096093608948   -3.747627164288336e-05   0.00015030865074003742
9.824085082841776e-05   -2.626149634375914e-05   -3.4077081634616146e-05
9.824085082841776e-05   -2.626149634375914e-05   -3.4077081634616146e-05
9.824085082841776e-05   -2.626149634375914e-05   -3.4077081634616146e-05
9.824085082841776e-05   -2.626149634375914e-05   -3.4077081634616146e-05
9.288634269395053e-05   -3.7930939495304725e-05   0.000134345977761882
9.288634269395053e-05   -3.7930939495304725e-05   0.000134345977761882
9.288634269395053e-05   -3.7930939495304725e-05   0.000134345977761882
9.288634269395053e-05   -3.7930939495304725e-05   0.000134345977761882
0.0002029664548918379   -2.7410209167884683e-05   -5.54333140977152e-05
0.0002029664548918379   -2.7410209167884683e-05   -5.54333140977152e-05
0.0002029664548918379   -2.7410209167884683e-05   -5.54333140977152e-05
0.0002029664548918379   -2.7410209167884683e-05   -5.54333140977152e-05
0.00014542440489644337   -3.0245913242608197e-05   4.217152500611218e-05
0.00014542440489644337   -3.0245913242608197e-05   4.217152500611218e-05
0.00014542440489644337   -3.0245913242608197e-05   4.217152500611218e-05
0.00014542440489644337   -3.0245913242608197e-05   4.217152500611218e-05
0.00010930772283514027   -5.985984263084249e-06   0.00022561133825515708
0.00010930772283514027   -5.985984263084249e-06   0.00022561133825515708
0.00010930772283514027   -5.985984263084249e-06   0.00022561133825515708
0.00010930772283514027   -5.985984263084249e-06   0.00022561133825515708
-6.871118255526013e-06   -4.116058101993891e-08   3.5546830646618344e-05
-6.871118255526013e-06   -4.116058101993891e-08   3.5546830646618344e-05
-6.871118255526013e-06   -4.116058101993891e-08   3.5546830646618344e-05
-6.871118255526013e-06   -4.116058101993891e-08   3.5546830646618344e-05
-1.181597969594848e-05   -9.592126491157066e-06   0.00022604133069697475
-1.181597969594848e-05   -9.592126491157066e-06   0.00022604133069697475
-1.181597969594848e-05   -9.592126491157066e-06   0.00022604133069697475
-1.181597969594848e-05   -9.592126491157066e-06   0.00022604133069697475
0.00010404393816229823   -3.924547936523179e-06   2.9540920467116256e-05
0.00010404393816229823   -3.924547936523179e-06   2.9540920467116256e-05
0.00010404393816229823   -3.924547936523179e-06   2.9540920467116256e-05
0.00010404393816229823   -3.924547936523179e-06   2.9540920467116256e-05
4.7879807941287976e-05   -5.024996041415319e-06   0.00012380807303173603
4.7879807941287976e-05   -5.024996041415319e-06   0.00012380807303173603
4.7879807941287976e-05   -5.024996041415319e-06   0.00012380807303173603
4.7879807941287976e-05   -5.024996041415319e-06   0.00012380807303173603
0.00010404393816229799   -9.592126491157066e-06   0.0002226407835641932
0.00010404393816229799   -9.592126491157066e-06   0.0002226407835641932
0.00010404393816229799   -9.592126491157066e-06   0.0002226407835641932
0.00010404393816229799   -9.592126491157066e-06   0.0002226407835641932
-1.181597969594848e-05   -3.924547936523179e-06   3.2941467599897044e-05
-1.181597969594848e-05   -3.924547936523179e-06   3.2941467599897044e-05
-1.181597969594848e-05   -3.924547936523179e-06   3.2941467599897044e-05
-1.181597969594848e-05   -3.924547936523179e-06   3.2941467599897044e-05
-1.6864481955603796e-05   -1.2283500832469332e-05   0.0002226999071020825
-1.6864481955603796e-05   -1.2283500832469332e-05   0.0002226999071020825
-1.6864481955603796e-05   -1.2283500832469332e-05   0.0002226999071020825
-1.6864481955603796e-05   -1.2283500832469332e-05   0.0002226999071020825
9.824085082841776e-05   -6.997016057183267e-06   2.768579493021183e-05
9.824085082841776e-05   -6.997016057183267e-06   2.768579493021183e-05
9.824085082841776e-05   -6.997016057183267e-06   2.768579493021183e-05
9.824085082841776e-05   -6.997016057183267e-06   2.768579493021183e-05
4.23437906786163e-05   -7.427606755977881e-06   0.00012110591626583104
4.23437906786163e-05   -7.427606755977881e-06   0.00012110591626583104
4.23437906786163e-05   -7.427606755977881e-06   0.00012110591626583104
4.23437906786163e-05   -7.427606755977881e-06   0.00012110591626583104
9.82408508284176e-05   -1.2283500832469332e-05   0.0002195280162369138
9.82408508284176e-05   -1.2283500832469332e-05   0.0002195280162369138
9.82408508284176e-05   -1.2283500832469332e-05   0.0002195280162369138
9.82408508284176e-05   -1.2283500832469332e-05   0.0002195280162369138
-1.6864481955603796e-05   -6.9970160571850015e-06   3.0857685795381874e-05
-1.6864481955603796e-05   -6.9970160571850015e-06   3.0857685795381874e-05
-1.6864481955603796e-05   -6.9970160571850015e-06   3.0857685795381874e-05
-1.6864481955603796e-05   -6.9970160571850015e-06   3.0857685795381874e-05
-2.193941378965576e-05   -1.4421700443380953e-05   0.00022431552539402787
-2.193941378965576e-05   -1.4421700443380953e-05   0.00022431552539402787
-2.193941378965576e-05   -1.4421700443380953e-05   0.00022431552539402787
-2.193941378965576e-05   -1.4421700443380953e-05   0.00022431552539402787
9.288634269395061e-05   -9.856674333754561e-06   3.020024892224168e-05
9.288634269395061e-05   -9.856674333754561e-06   3.020024892224168e-05
9.288634269395061e-05   -9.856674333754561e-06   3.020024892224168e-05
9.288634269395061e-05   -9.856674333754561e-06   3.020024892224168e-05
3.809915688309201e-05   -9.219782906189078e-06   0.00012113009041713689
3.809915688309201e-05   -9.219782906189078e-06   0.00012113009041713689
3.809915688309201e-05   -9.219782906189078e-06   0.00012113009041713689
3.809915688309201e-05   -9.219782906189078e-06   0.00012113009041713689
-6.871118255526013e-06   1.9553032026458153e-05   0.00023899898625230447
-6.871118255526013e-06   1.9553032026458153e-05   0.00023899898625230447
-6.871118255526013e-06   1.9553032026458153e-05   0.00023899898625230447
-6.871118255526013e-06   1.9553032026458153e-05   0.00023899898625230447
-0.00012061403502124286   2.0100403950236434e-05   4.97558814637096e-05
-0.00012061403502124286   2.0100403950236434e-05   4.97558814637096e-05
-0.00012061403502124286   2.0100403950236434e-05   4.97558814637096e-05
-0.00012061403502124286   2.0100403950236434e-05   4.97558814637096e-05
-0.0001255816653895948   1.6537792074668503e-05   0.00023827482265157546
-0.0001255816653895948   1.6537792074668503e-05   0.00023827482265157546
-0.0001255816653895948   1.6537792074668503e-05   0.00023827482265157546
-0.0001255816653895948   1.6537792074668503e-05   0.00023827482265157546
-1.181597969594848e-05   1.6675367076808903e-05   4.858280149421315e-05
-1.181597969594848e-05   1.6675367076808903e-05   4.858280149421315e-05
-1.181597969594848e-05   1.6675367076808903e-05   4.858280149421315e-05
-1.181597969594848e-05   1.6675367076808903e-05   4.858280149421315e-05
-6.639339750124604e-05   1.790584704630324e-05   0.0001388068765213464
-6.639339750124604e-05   1.790584704630324e-05   0.0001388068765213464
-6.639339750124604e-05   1.790584704630324e-05   0.0001388068765213464
-6.639339750124604e-05   1.790584704630324e-05   0.0001388068765213464
-1.181597969594848e-05   1.6537792074670238e-05   0.00023819227765028983
-1.181597969594848e-05   1.6537792074670238e-05   0.00023819227765028983
-1.181597969594848e-05   1.6537792074670238e-05   0.00023819227765028983
-1.181597969594848e-05   1.6537792074670238e-05   0.00023819227765028983
-0.0001255816653895948   1.6675367076808903e-05   4.866534649549791e-05
-0.0001255816653895948   1.6675367076808903e-05   4.866534649549791e-05
-0.0001255816653895948   1.6675367076808903e-05   4.866534649549791e-05
-0.0001255816653895948   1.6675367076808903e-05   4.866534649549791e-05
-0.00013067544084138555   1.360934162803612e-05   0.0002396092487400043
-0.00013067544084138555   1.360934162803612e-05   0.0002396092487400043
-0.00013067544084138555   1.360934162803612e-05   0.0002396092487400043
-0.00013067544084138555   1.360934162803612e-05   0.0002396092487400043
-1.6864481955603796e-05   1.3304093260432803e-05   5.010746628426204e-05
-1.6864481955603796e-05   1.3304093260432803e-05   5.010746628426204e-05
-1.6864481955603796e-05   1.3304093260432803e-05   5.010746628426204e-05
-1.6864481955603796e-05   1.3304093260432803e-05   5.010746628426204e-05
-7.100918458184864e-05   1.559736029606816e-05   0.0001389726771066275
-7.100918458184864e-05   1.559736029606816e-05   0.0001389726771066275
-7.100918458184864e-05   1.559736029606816e-05   0.0001389726771066275
-7.100918458184864e-05   1.559736029606816e-05   0.0001389726771066275
-1.6864481955603796e-05   1.360934162803612e-05   0.00023979239776056576
-1.6864481955603796e-05   1.360934162803612e-05   0.00023979239776056576
-1.6864481955603796e-05   1.360934162803612e-05   0.00023979239776056576
-1.6864481955603796e-05   1.360934162803612e-05   0.00023979239776056576
-0.00013067544084138555   1.3304093260432803e-05   4.992431726370122e-05
-0.00013067544084138555   1.3304093260432803e-05   4.992431726370122e-05
-0.00013067544084138555   1.3304093260432803e-05   4.992431726370122e-05
-0.00013067544084138555   1.3304093260432803e-05   4.992431726370122e-05
-0.00013576910339175067   1.1001760844954814e-05   0.00024263148425664183
-0.00013576910339175067   1.1001760844954814e-05   0.00024263148425664183
-0.00013576910339175067   1.1001760844954814e-05   0.00024263148425664183
-0.00013576910339175067   1.1001760844954814e-05   0.00024263148425664183
-2.193941378965565e-05   1.0104049497148063e-05   5.345396172850192e-05
-2.193941378965565e-05   1.0104049497148063e-05   5.345396172850192e-05
-2.193941378965565e-05   1.0104049497148063e-05   5.345396172850192e-05
-2.193941378965565e-05   1.0104049497148063e-05   5.345396172850192e-05
-7.583972580612079e-05   1.3346270906686858e-05   0.00014134248224355848
-7.583972580612079e-05   1.3346270906686858e-05   0.00014134248224355848
-7.583972580612079e-05   1.3346270906686858e-05   0.00014134248224355848
-7.583972580612079e-05   1.3346270906686858e-05   0.00014134248224355848
-0.00012061403502124264   4.4380036060720496e-05   0.0002100698443587663
-0.00012061403502124264   4.4380036060720496e-05   0.0002100698443587663
-0.00012061403502124264   4.4380036060720496e-05   0.0002100698443587663
-0.00012061403502124264   4.4380036060720496e-05   0.0002100698443587663
-0.00023173557628180272   3.9465069635374536e-05   2.1918295735958403e-05
-0.00023173557628180272   3.9465069635374536e-05   2.1918295735958403e-05
-0.00023173557628180272   3.9465069635374536e-05   2.1918295735958403e-05
-0.00023173557628180272   3.9465069635374536e-05   2.1918295735958403e-05
-0.00023707758623948516   4.148775847943008e-05   0.00020865619504043323
-0.00023707758623948516   4.148775847943008e-05   0.00020865619504043323
-0.00023707758623948516   4.148775847943008e-05   0.00020865619504043323
-0.00023707758623948516   4.148775847943008e-05   0.00020865619504043323
-0.0001255816653895948   3.6173814467854726e-05   2.6018026697560443e-05
-0.0001255816653895948   3.6173814467854726e-05   2.6018026697560443e-05
-0.0001255816653895948   3.6173814467854726e-05   2.6018026697560443e-05
-0.0001255816653895948   3.6173814467854726e-05   2.6018026697560443e-05
-0.0001781646251559669   3.986367429813925e-05   0.00011144237707667653
-0.0001781646251559669   3.986367429813925e-05   0.00011144237707667653
-0.0001781646251559669   3.986367429813925e-05   0.00011144237707667653
-0.0001781646251559669   3.986367429813925e-05   0.00011144237707667653
-0.0001255816653895948   4.148775847943008e-05   0.0002118445614473774
-0.0001255816653895948   4.148775847943008e-05   0.0002118445614473774
-0.0001255816653895948   4.148775847943008e-05   0.0002118445614473774
-0.0001255816653895948   4.148775847943008e-05   0.0002118445614473774
-0.00023707758623948516   3.6173814467854726e-05   2.282966029061584e-05
-0.00023707758623948516   3.6173814467854726e-05   2.282966029061584e-05
-0.00023707758623948516   3.6173814467854726e-05   2.282966029061584e-05
-0.00023707758623948516   3.6173814467854726e-05   2.282966029061584e-05
-0.0002429635802225173   3.883254514330109e-05   0.00021646525631416336
-0.0002429635802225173   3.883254514330109e-05   0.00021646525631416336
-0.0002429635802225173   3.883254514330109e-05   0.00021646525631416336
-0.0002429635802225173   3.883254514330109e-05   0.00021646525631416336
-0.00013067544084138577   3.311759102682041e-05   3.274732981550267e-05
-0.00013067544084138577   3.311759102682041e-05   3.274732981550267e-05
-0.00013067544084138577   3.311759102682041e-05   3.274732981550267e-05
-0.00013067544084138577   3.311759102682041e-05   3.274732981550267e-05
-0.00018202152474476303   3.775768069676916e-05   0.00011554008251916546
-0.00018202152474476303   3.775768069676916e-05   0.00011554008251916546
-0.00018202152474476303   3.775768069676916e-05   0.00011554008251916546
-0.00018202152474476303   3.775768069676916e-05   0.00011554008251916546
-0.00013067544084138555   3.8832545143302824e-05   0.00021989422878405506
-0.00013067544084138555   3.8832545143302824e-05   0.00021989422878405506
-0.00013067544084138555   3.8832545143302824e-05   0.00021989422878405506
-0.00013067544084138555   3.8832545143302824e-05   0.00021989422878405506
-0.0002429635802225173   3.311759102682041e-05   2.9318357345611834e-05
-0.0002429635802225173   3.311759102682041e-05   2.9318357345611834e-05
-0.0002429635802225173   3.311759102682041e-05   2.9318357345611834e-05
-0.0002429635802225173   3.311759102682041e-05   2.9318357345611834e-05
-0.00024835172128101794   3.560002285637673e-05   0.0002223792568240672
-0.00024835172128101794   3.560002285637673e-05   0.0002223792568240672
-0.00024835172128101794   3.560002285637673e-05   0.0002223792568240672
-0.00024835172128101794   3.560002285637673e-05   0.0002223792568240672
-0.00013576910339175088   2.956816167005126e-05   3.8360677053751475e-05
-0.00013576910339175088   2.956816167005126e-05   3.8360677053751475e-05
-0.00013576910339175088   2.956816167005126e-05   3.8360677053751475e-05
-0.00013576910339175088   2.956816167005126e-05   3.8360677053751475e-05
-0.00018811194142309326   3.539369726066749e-05   0.0001221034190849609
-0.00018811194142309326   3.539369726066749e-05   0.0001221034190849609
-0.00018811194142309326   3.539369726066749e-05   0.0001221034190849609
-0.00018811194142309326   3.539369726066749e-05   0.0001221034190849609
-0.00023173557628180272   6.376879712003888e-05   0.0001013961042066443
-0.00023173557628180272   6.376879712003888e-05   0.0001013961042066443
-0.00023173557628180272   6.376879712003888e-05   0.0001013961042066443
-0.00023173557628180272   6.376879712003888e-05   0.0001013961042066443
-0.00033700489483137644   5.4252048132806194e-05   -7.97628094349849e-05
-0.00033700489483137644   5.4252048132806194e-05   -7.97628094349849e-05
-0.00033700489483137644   5.4252048132806194e-05   -7.97628094349849e-05
-0.00033700489483137644   5.4252048132806194e-05   -7.97628094349849e-05
-0.0003465929702345452   6.440390276464363e-05   0.00013443787672384397
-0.0003465929702345452   6.440390276464363e-05   0.00013443787672384397
-0.0003465929702345452   6.440390276464363e-05   0.00013443787672384397
-0.0003465929702345452   6.440390276464363e-05   0.00013443787672384397
-0.00023707758623948516   5.394036037559974e-05   -4.1809637834498616e-05
-0.00023707758623948516   5.394036037559974e-05   -4.1809637834498616e-05
-0.00023707758623948516   5.394036037559974e-05   -4.1809637834498616e-05
-0.00023707758623948516   5.394036037559974e-05   -4.1809637834498616e-05
-0.0002771477175596517   5.824183898855452e-05   2.2393027198006326e-05
-0.0002771477175596517   5.824183898855452e-05   2.2393027198006326e-05
-0.0002771477175596517   5.824183898855452e-05   2.2393027198006326e-05
-0.0002771477175596517   5.824183898855452e-05   2.2393027198006326e-05
-0.00023707758623948473   6.440390276464363e-05   0.00014071600215726995
-0.00023707758623948473   6.440390276464363e-05   0.00014071600215726995
-0.00023707758623948473   6.440390276464363e-05   0.00014071600215726995
-0.00023707758623948473   6.440390276464363e-05   0.00014071600215726995
-0.00034659297023454587   5.394036037559974e-05   -4.808776326792677e-05
-0.00034659297023454587   5.394036037559974e-05   -4.808776326792677e-05
-0.00034659297023454587   5.394036037559974e-05   -4.808776326792677e-05
-0.00034659297023454587   5.394036037559974e-05   -4.808776326792677e-05
-0.00035518929886940893   6.368349149014386e-05   0.00016125124679097595
-0.00035518929886940893   6.368349149014386e-05   0.00016125124679097595
-0.00035518929886940893   6.368349149014386e-05   0.00016125124679097595
-0.00035518929886940893   6.368349149014386e-05   0.00016125124679097595
-0.0002429635802225173   5.282771946599554e-05   -1.9278154406022867e-05
-0.0002429635802225173   5.282771946599554e-05   -1.9278154406022867e-05
-0.0002429635802225173   5.282771946599554e-05   -1.9278154406022867e-05
-0.0002429635802225173   5.282771946599554e-05   -1.9278154406022867e-05
-0.0002881104505208147   5.887031200651344e-05   5.234107390017333e-05
-0.0002881104505208147   5.887031200651344e-05   5.234107390017333e-05
-0.0002881104505208147   5.887031200651344e-05   5.234107390017333e-05
-0.0002881104505208147   5.887031200651344e-05   5.234107390017333e-05
-0.0002429635802225173   6.36834914901456e-05   0.00016776471000546668
-0.0002429635802225173   6.36834914901456e-05   0.00016776471000546668
-0.0002429635802225173   6.36834914901456e-05   0.00016776471000546668
-0.0002429635802225173   6.36834914901456e-05   0.00016776471000546668
-0.0003551892988694096   5.282771946599554e-05   -2.579161762051186e-05
-0.0003551892988694096   5.282771946599554e-05   -2.579161762051186e-05
-0.0003551892988694096   5.282771946599554e-05   -2.579161762051186e-05
-0.0003551892988694096   5.282771946599554e-05   -2.579161762051186e-05
-0.00036507804800041204   5.874358691981309e-05   0.0002074396941136973
-0.00036507804800041204   5.874358691981309e-05   0.0002074396941136973
-0.00036507804800041204   5.874358691981309e-05   0.0002074396941136973
-0.00036507804800041204   5.874358691981309e-05   0.0002074396941136973
-0.00024835172128101794   4.795194374556354e-05   1.9370802152586866e-05
-0.00024835172128101794   4.795194374556354e-05   1.9370802152586866e-05
-0.00024835172128101794   4.795194374556354e-05   1.9370802152586866e-05
-0.00024835172128101794   4.795194374556354e-05   1.9370802152586866e-05
-0.00029054838362249397   5.685260793692262e-05   8.435817420690377e-05
-0.00029054838362249397   5.685260793692262e-05   8.435817420690377e-05
-0.00029054838362249397   5.685260793692262e-05   8.435817420690377e-05
-0.00029054838362249397   5.685260793692262e-05   8.435817420690377e-05
0.0001588967710198825   -2.061473562181039e-05   0.00016031867471378095
0.0001588967710198825   -2.061473562181039e-05   0.00016031867471378095
0.0001588967710198825   -2.061473562181039e-05   0.00016031867471378095
0.0001588967710198825   -2.061473562181039e-05   0.00016031867471378095
6.587328266031904e-05   -9.99828188382075e-06   1.1649399690636351e-05
6.587328266031904e-05   -9.99828188382075e-06   1.1649399690636351e-05
6.587328266031904e-05   -9.99828188382075e-06   1.1649399690636351e-05
6.587328266031904e-05   -9.99828188382075e-06   1.1649399690636351e-05
6.165174687935567e-05   -2.5065704469862116e-05   0.00014425011233541903
6.165174687935567e-05   -2.5065704469862116e-05   0.00014425011233541903
6.165174687935567e-05   -2.5065704469862116e-05   0.00014425011233541903
6.165174687935567e-05   -2.5065704469862116e-05   0.00014425011233541903
0.00014992633536494256   -1.3964262799646618e-05   -9.535066809355868e-06
0.00014992633536494256   -1.3964262799646618e-05   -9.535066809355868e-06
0.00014992633536494256   -1.3964262799646618e-05   -9.535066809355868e-06
0.00014992633536494256   -1.3964262799646618e-05   -9.535066809355868e-06
0.00010365291255978408   -1.7838059833814174e-05   6.991158275307795e-05
0.00010365291255978408   -1.7838059833814174e-05   6.991158275307795e-05
0.00010365291255978408   -1.7838059833814174e-05   6.991158275307795e-05
0.00010365291255978408   -1.7838059833814174e-05   6.991158275307795e-05
0.0001499263353649429   -2.5065704469862116e-05   0.00013758924733328886
0.0001499263353649429   -2.5065704469862116e-05   0.00013758924733328886
0.0001499263353649429   -2.5065704469862116e-05   0.00013758924733328886
0.0001499263353649429   -2.5065704469862116e-05   0.00013758924733328886
6.165174687935545e-05   -1.3964262799646618e-05   -2.8742018072253767e-06
6.165174687935545e-05   -1.3964262799646618e-05   -2.8742018072253767e-06
6.165174687935545e-05   -1.3964262799646618e-05   -2.8742018072253767e-06
6.165174687935545e-05   -1.3964262799646618e-05   -2.8742018072253767e-06
5.6918141519046576e-05   -2.6261496343757407e-05   0.00013230262973175366
5.6918141519046576e-05   -2.6261496343757407e-05   0.00013230262973175366
5.6918141519046576e-05   -2.6261496343757407e-05   0.00013230262973175366
5.6918141519046576e-05   -2.6261496343757407e-05   0.00013230262973175366
0.00014223382437217845   -1.5337807063472292e-05   -1.644438859163598e-05
0.00014223382437217845   -1.5337807063472292e-05   -1.644438859163598e-05
0.00014223382437217845   -1.5337807063472292e-05   -1.644438859163598e-05
0.00014223382437217845   -1.5337807063472292e-05   -1.644438859163598e-05
9.962360231497524e-05   -1.9517348055251432e-05   5.7080372765439436e-05
9.962360231497524e-05   -1.9517348055251432e-05   5.7080372765439436e-05
9.962360231497524e-05   -1.9517348055251432e-05   5.7080372765439436e-05
9.962360231497524e-05   -1.9517348055251432e-05   5.7080372765439436e-05
0.00014223382437217872   -2.6261496343757407e-05   0.00012574841616358294
0.00014223382437217872   -2.6261496343757407e-05   0.00012574841616358294
0.00014223382437217872   -2.6261496343757407e-05   0.00012574841616358294
0.00014223382437217872   -2.6261496343757407e-05   0.00012574841616358294
5.691814151904647e-05   -1.5337807063472292e-05   -9.890175023465585e-06
5.691814151904647e-05   -1.5337807063472292e-05   -9.890175023465585e-06
5.691814151904647e-05   -1.5337807063472292e-05   -9.890175023465585e-06
5.691814151904647e-05   -1.5337807063472292e-05   -9.890175023465585e-06
5.2678251029758056e-05   -2.7410209167884683e-05   0.00011684975108734296
5.2678251029758056e-05   -2.7410209167884683e-05   0.00011684975108734296
5.2678251029758056e-05   -2.7410209167884683e-05   0.00011684975108734296
5.2678251029758056e-05   -2.7410209167884683e-05   0.00011684975108734296
0.00013352248294293392   -1.7180066841314054e-05   -2.4028720830559136e-05
0.00013352248294293392   -1.7180066841314054e-05   -2.4028720830559136e-05
0.00013352248294293392   -1.7180066841314054e-05   -2.4028720830559136e-05
0.00013352248294293392   -1.7180066841314054e-05   -2.4028720830559136e-05
9.227678973728411e-05   -1.986460708689776e-05   4.632482532620778e-05
9.227678973728411e-05   -1.986460708689776e-05   4.632482532620778e-05
9.227678973728411e-05   -1.986460708689776e-05   4.632482532620778e-05
9.227678973728411e-05   -1.986460708689776e-05   4.632482532620778e-05
6.587328266031929e-05   -4.116058101993891e-08   0.00019896897146427697
6.587328266031929e-05   -4.116058101993891e-08   0.00019896897146427697
6.587328266031929e-05   -4.116058101993891e-08   0.00019896897146427697
6.587328266031929e-05   -4.116058101993891e-08   0.00019896897146427697
-2.1491173743044042e-05   5.325896681876788e-06   5.6581778483076606e-05
-2.1491173743044042e-05   5.325896681876788e-06   5.6581778483076606e-05
-2.1491173743044042e-05   5.325896681876788e-06   5.6581778483076606e-05
-2.1491173743044042e-05   5.325896681876788e-06   5.6581778483076606e-05
-2.5366771084206334e-05   -3.924547936523179e-06   0.00019937884052443223
-2.5366771084206334e-05   -3.924547936523179e-06   0.00019937884052443223
-2.5366771084206334e-05   -3.924547936523179e-06   0.00019937884052443223
-2.5366771084206334e-05   -3.924547936523179e-06   0.00019937884052443223
6.165174687935545e-05   1.2962672115701679e-06   5.1215488162974904e-05
6.165174687935545e-05   1.2962672115701679e-06   5.1215488162974904e-05
6.165174687935545e-05   1.2962672115701679e-06   5.1215488162974904e-05
6.165174687935545e-05   1.2962672115701679e-06   5.1215488162974904e-05
1.9546653775958357e-05   3.2148665830150636e-07   0.00012197551166726625
1.9546653775958357e-05   3.2148665830150636e-07   0.00012197551166726625
1.9546653775958357e-05   3.2148665830150636e-07   0.00012197551166726625
1.9546653775958357e-05   3.2148665830150636e-07   0.00012197551166726625
6.165174687935561e-05   -3.924547936523179e-06   0.00019624635143557743
6.165174687935561e-05   -3.924547936523179e-06   0.00019624635143557743
6.165174687935561e-05   -3.924547936523179e-06   0.00019624635143557743
6.165174687935561e-05   -3.924547936523179e-06   0.00019624635143557743
-2.5366771084206442e-05   1.2962672115701679e-06   5.43479772518304e-05
-2.5366771084206442e-05   1.2962672115701679e-06   5.43479772518304e-05
-2.5366771084206442e-05   1.2962672115701679e-06   5.43479772518304e-05
-2.5366771084206442e-05   1.2962672115701679e-06   5.43479772518304e-05
-2.932752710907969e-05   -6.9970160571850015e-06   0.0001970565470930368
-2.932752710907969e-05   -6.9970160571850015e-06   0.0001970565470930368
-2.932752710907969e-05   -6.9970160571850015e-06   0.0001970565470930368
-2.932752710907969e-05   -6.9970160571850015e-06   0.0001970565470930368
5.691814151904647e-05   -2.0119480630929887e-06   5.032272524970534e-05
5.691814151904647e-05   -2.0119480630929887e-06   5.032272524970534e-05
5.691814151904647e-05   -2.0119480630929887e-06   5.032272524970534e-05
5.691814151904647e-05   -2.0119480630929887e-06   5.032272524970534e-05
1.5293464997519674e-05   -2.3727164833592385e-06   0.00011991364717108238
1.5293464997519674e-05   -2.3727164833592385e-06   0.00011991364717108238
1.5293464997519674e-05   -2.3727164833592385e-06   0.00011991364717108238
1.5293464997519674e-05   -2.3727164833592385e-06   0.00011991364717108238
5.6918141519046684e-05   -6.997016057183267e-06   0.00019406550629658213
5.6918141519046684e-05   -6.997016057183267e-06   0.00019406550629658213
5.6918141519046684e-05   -6.997016057183267e-06   0.00019406550629658213
5.6918141519046684e-05   -6.997016057183267e-06   0.00019406550629658213
-2.93275271090798e-05   -2.0119480630929887e-06   5.331376604616068e-05
-2.93275271090798e-05   -2.0119480630929887e-06   5.331376604616068e-05
-2.93275271090798e-05   -2.0119480630929887e-06   5.331376604616068e-05
-2.93275271090798e-05   -2.0119480630929887e-06   5.331376604616068e-05
-3.325366746817428e-05   -9.856674333754561e-06   0.0001989133559040313
-3.325366746817428e-05   -9.856674333754561e-06   0.0001989133559040313
-3.325366746817428e-05   -9.856674333754561e-06   0.0001989133559040313
-3.325366746817428e-05   -9.856674333754561e-06   0.0001989133559040313
5.267825102975781e-05   -5.2858743451143775e-06   5.295101174762742e-05
5.267825102975781e-05   -5.2858743451143775e-06   5.295101174762742e-05
5.267825102975781e-05   -5.2858743451143775e-06   5.295101174762742e-05
5.267825102975781e-05   -5.2858743451143775e-06   5.295101174762742e-05
1.1920463539354681e-05   -4.6320441723698286e-06   0.00012048835946131865
1.1920463539354681e-05   -4.6320441723698286e-06   0.00012048835946131865
1.1920463539354681e-05   -4.6320441723698286e-06   0.00012048835946131865
1.1920463539354681e-05   -4.6320441723698286e-06   0.00012048835946131865
-2.1491173743043933e-05   2.010040395023817e-05   0.00021606983348483946
-2.1491173743043933e-05   2.010040395023817e-05   0.00021606983348483946
-2.1491173743043933e-05   2.010040395023817e-05   0.00021606983348483946
-2.1491173743043933e-05   2.010040395023817e-05   0.00021606983348483946
-0.00010744389586271282   1.974338067165307e-05   7.260108265157508e-05
-0.00010744389586271282   1.974338067165307e-05   7.260108265157508e-05
-0.00010744389586271282   1.974338067165307e-05   7.260108265157508e-05
-0.00010744389586271282   1.974338067165307e-05   7.260108265157508e-05
-0.00011126364439187396   1.6675367076808903e-05   0.00021465667109291098
-0.00011126364439187396   1.6675367076808903e-05   0.00021465667109291098
-0.00011126364439187396   1.6675367076808903e-05   0.00021465667109291098
-0.00011126364439187396   1.6675367076808903e-05   0.00021465667109291098
-2.5366771084206334e-05   1.6069528200410993e-05   7.185871890597073e-05
-2.5366771084206334e-05   1.6069528200410993e-05   7.185871890597073e-05
-2.5366771084206334e-05   1.6069528200410993e-05   7.185871890597073e-05
-2.5366771084206334e-05   1.6069528200410993e-05   7.185871890597073e-05
-6.655579921010932e-05   1.7705778360951885e-05   0.00013952534901948946
-6.655579921010932e-05   1.7705778360951885e-05   0.00013952534901948946
-6.655579921010932e-05   1.7705778360951885e-05   0.00013952534901948946
-6.655579921010932e-05   1.7705778360951885e-05   0.00013952534901948946
-2.5366771084206334e-05   1.6675367076808903e-05   0.00021502017441875007
-2.5366771084206334e-05   1.6675367076808903e-05   0.00021502017441875007
-2.5366771084206334e-05   1.6675367076808903e-05   0.00021502017441875007
-2.5366771084206334e-05   1.6675367076808903e-05   0.00021502017441875007
-0.00011126364439187396   1.6069528200410993e-05   7.149521558013228e-05
-0.00011126364439187396   1.6069528200410993e-05   7.149521558013228e-05
-0.00011126364439187396   1.6069528200410993e-05   7.149521558013228e-05
-0.00011126364439187396   1.6069528200410993e-05   7.149521558013228e-05
-0.00011517682928622436   1.3304093260432803e-05   0.0002157863320663856
-0.00011517682928622436   1.3304093260432803e-05   0.0002157863320663856
-0.00011517682928622436   1.3304093260432803e-05   0.0002157863320663856
-0.00011517682928622436   1.3304093260432803e-05   0.0002157863320663856
-2.932752710907969e-05   1.2437434067881156e-05   7.322415728667673e-05
-2.932752710907969e-05   1.2437434067881156e-05   7.322415728667673e-05
-2.932752710907969e-05   1.2437434067881156e-05   7.322415728667673e-05
-2.932752710907969e-05   1.2437434067881156e-05   7.322415728667673e-05
-7.005791109446457e-05   1.5034058511793208e-05   0.00013955015592930788
-7.005791109446457e-05   1.5034058511793208e-05   0.00013955015592930788
-7.005791109446457e-05   1.5034058511793208e-05   0.00013955015592930788
-7.005791109446457e-05   1.5034058511793208e-05   0.00013955015592930788
-2.932752710907969e-05   1.3304093260432803e-05   0.00021630632758191676
-2.932752710907969e-05   1.3304093260432803e-05   0.00021630632758191676
-2.932752710907969e-05   1.3304093260432803e-05   0.00021630632758191676
-2.932752710907969e-05   1.3304093260432803e-05   0.00021630632758191676
-0.00011517682928622436   1.2437434067882891e-05   7.270416177114492e-05
-0.00011517682928622436   1.2437434067882891e-05   7.270416177114492e-05
-0.00011517682928622436   1.2437434067882891e-05   7.270416177114492e-05
-0.00011517682928622436   1.2437434067882891e-05   7.270416177114492e-05
-0.00011904602509178004   1.0104049497148063e-05   0.00021872899333714134
-0.00011904602509178004   1.0104049497148063e-05   0.00021872899333714134
-0.00011904602509178004   1.0104049497148063e-05   0.00021872899333714134
-0.00011904602509178004   1.0104049497148063e-05   0.00021872899333714134
-3.325366746817417e-05   8.938949984856406e-06   7.64407903385072e-05
-3.325366746817417e-05   8.938949984856406e-06   7.64407903385072e-05
-3.325366746817417e-05   8.938949984856406e-06   7.64407903385072e-05
-3.325366746817417e-05   8.938949984856406e-06   7.64407903385072e-05
-7.371907459102994e-05   1.2423788648701153e-05   0.00014179223234496007
-7.371907459102994e-05   1.2423788648701153e-05   0.00014179223234496007
-7.371907459102994e-05   1.2423788648701153e-05   0.00014179223234496007
-7.371907459102994e-05   1.2423788648701153e-05   0.00014179223234496007
-0.00010744389586271282   3.9465069635374536e-05   0.00019096701364514426
-0.00010744389586271282   3.9465069635374536e-05   0.00019096701364514426
-0.00010744389586271282   3.9465069635374536e-05   0.00019096701364514426
-0.00010744389586271282   3.9465069635374536e-05   0.00019096701364514426
-0.00019187044054945783   3.3759888521332423e-05   4.683299716547618e-05
-0.00019187044054945783   3.3759888521332423e-05   4.683299716547618e-05
-0.00019187044054945783   3.3759888521332423e-05   4.683299716547618e-05
-0.00019187044054945783   3.3759888521332423e-05   4.683299716547618e-05
-0.00019596318392764715   3.6173814467854726e-05   0.00018840247245968493
-0.00019596318392764715   3.6173814467854726e-05   0.00018840247245968493
-0.00019596318392764715   3.6173814467854726e-05   0.00018840247245968493
-0.00019596318392764715   3.6173814467854726e-05   0.00018840247245968493
-0.00011126364439187353   3.0162349742374195e-05   5.0843452068685506e-05
-0.00011126364439187353   3.0162349742374195e-05   5.0843452068685506e-05
-0.00011126364439187353   3.0162349742374195e-05   5.0843452068685506e-05
-0.00011126364439187353   3.0162349742374195e-05   5.0843452068685506e-05
-0.0001512095442154479   3.431011417559526e-05   0.00011493129311471433
-0.0001512095442154479   3.431011417559526e-05   0.00011493129311471433
-0.0001512095442154479   3.431011417559526e-05   0.00011493129311471433
-0.0001512095442154479   3.431011417559526e-05   0.00011493129311471433
-0.00011126364439187396   3.6173814467854726e-05   0.00019200935129497394
-0.00011126364439187396   3.6173814467854726e-05   0.00019200935129497394
-0.00011126364439187396   3.6173814467854726e-05   0.00019200935129497394
-0.00011126364439187396   3.6173814467854726e-05   0.00019200935129497394
-0.00019596318392764672   3.0162349742374195e-05   4.723657323339736e-05
-0.00019596318392764672   3.0162349742374195e-05   4.723657323339736e-05
-0.00019596318392764672   3.0162349742374195e-05   4.723657323339736e-05
-0.00019596318392764672   3.0162349742374195e-05   4.723657323339736e-05
-0.000200573542022926   3.311759102682041e-05   0.0001948444233715145
-0.000200573542022926   3.311759102682041e-05   0.0001948444233715145
-0.000200573542022926   3.311759102682041e-05   0.0001948444233715145
-0.000200573542022926   3.311759102682041e-05   0.0001948444233715145
-0.00011517682928622393   2.6842722282365006e-05   5.6281490057017575e-05
-0.00011517682928622393   2.6842722282365006e-05   5.6281490057017575e-05
-0.00011517682928622393   2.6842722282365006e-05   5.6281490057017575e-05
-0.00011517682928622393   2.6842722282365006e-05   5.6281490057017575e-05
-0.00015406360441172766   3.1855516156481176e-05   0.00011808510560839137
-0.00015406360441172766   3.1855516156481176e-05   0.00011808510560839137
-0.00015406360441172766   3.1855516156481176e-05   0.00011808510560839137
-0.00015406360441172766   3.1855516156481176e-05   0.00011808510560839137
-0.00011517682928622415   3.311759102682041e-05   0.00019860934461818532
-0.00011517682928622415   3.311759102682041e-05   0.00019860934461818532
-0.00011517682928622415   3.311759102682041e-05   0.00019860934461818532
-0.00011517682928622415   3.311759102682041e-05   0.00019860934461818532
-0.0002005735420229258   2.6842722282365006e-05   5.2516568810345894e-05
-0.0002005735420229258   2.6842722282365006e-05   5.2516568810345894e-05
-0.0002005735420229258   2.6842722282365006e-05   5.2516568810345894e-05
-0.0002005735420229258   2.6842722282365006e-05   5.2516568810345894e-05
-0.00020467938484380953   2.956816167005126e-05   0.0002003179473456778
-0.00020467938484380953   2.956816167005126e-05   0.0002003179473456778
-0.00020467938484380953   2.956816167005126e-05   0.0002003179473456778
-0.00020467938484380953   2.956816167005126e-05   0.0002003179473456778
-0.00011904602509177982   2.314084812772392e-05   6.145206921769324e-05
-0.00011904602509177982   2.314084812772392e-05   6.145206921769324e-05
-0.00011904602509177982   2.314084812772392e-05   6.145206921769324e-05
-0.00011904602509177982   2.314084812772392e-05   6.145206921769324e-05
-0.00015867370668097602   2.928226644345784e-05   0.00012381335421025007
-0.00015867370668097602   2.928226644345784e-05   0.00012381335421025007
-0.00015867370668097602   2.928226644345784e-05   0.00012381335421025007
-0.00015867370668097602   2.928226644345784e-05   0.00012381335421025007
-0.00019187044054945783   5.4252048132806194e-05   9.157284919811444e-05
-0.00019187044054945783   5.4252048132806194e-05   9.157284919811444e-05
-0.00019187044054945783   5.4252048132806194e-05   9.157284919811444e-05
-0.00019187044054945783   5.4252048132806194e-05   9.157284919811444e-05
-0.0002707881777087393   4.414855827709896e-05   -4.601880664744512e-05
-0.0002707881777087393   4.414855827709896e-05   -4.601880664744512e-05
-0.0002707881777087393   4.414855827709896e-05   -4.601880664744512e-05
-0.0002707881777087393   4.414855827709896e-05   -4.601880664744512e-05
-0.000279327781108619   5.394036037560147e-05   0.00011718148143613494
-0.000279327781108619   5.394036037560147e-05   0.00011718148143613494
-0.000279327781108619   5.394036037560147e-05   0.00011718148143613494
-0.000279327781108619   5.394036037560147e-05   0.00011718148143613494
-0.0001959631839276465   4.297087221154239e-05   -1.5177820967049449e-05
-0.0001959631839276465   4.297087221154239e-05   -1.5177820967049449e-05
-0.0001959631839276465   4.297087221154239e-05   -1.5177820967049449e-05
-0.0001959631839276465   4.297087221154239e-05   -1.5177820967049449e-05
-0.00022570558785325976   4.795472285317251e-05   3.140254185733096e-05
-0.00022570558785325976   4.795472285317251e-05   3.140254185733096e-05
-0.00022570558785325976   4.795472285317251e-05   3.140254185733096e-05
-0.00022570558785325976   4.795472285317251e-05   3.140254185733096e-05
-0.00019596318392764694   5.394036037559974e-05   0.00012376317433457004
-0.00019596318392764694   5.394036037559974e-05   0.00012376317433457004
-0.00019596318392764694   5.394036037559974e-05   0.00012376317433457004
-0.00019596318392764694   5.394036037559974e-05   0.00012376317433457004
-0.0002793277811086194   4.297087221154065e-05   -2.1759513865484553e-05
-0.0002793277811086194   4.297087221154065e-05   -2.1759513865484553e-05
-0.0002793277811086194   4.297087221154065e-05   -2.1759513865484553e-05
-0.0002793277811086194   4.297087221154065e-05   -2.1759513865484553e-05
-0.0002867902561757797   5.282771946599554e-05   0.00013949065170312282
-0.0002867902561757797   5.282771946599554e-05   0.00013949065170312282
-0.0002867902561757797   5.282771946599554e-05   0.00013949065170312282
-0.0002867902561757797   5.282771946599554e-05   0.00013949065170312282
-0.00020057354202292535   4.1565619604735926e-05   2.5533880317896163e-06
-0.00020057354202292535   4.1565619604735926e-05   2.5533880317896163e-06
-0.00020057354202292535   4.1565619604735926e-05   2.5533880317896163e-06
-0.00020057354202292535   4.1565619604735926e-05   2.5533880317896163e-06
-0.00023470889534399656   4.7968535762051706e-05   5.5603893872526334e-05
-0.00023470889534399656   4.7968535762051706e-05   5.5603893872526334e-05
-0.00023470889534399656   4.7968535762051706e-05   5.5603893872526334e-05
-0.00023470889534399656   4.7968535762051706e-05   5.5603893872526334e-05
-0.000200573542022926   5.282771946599554e-05   0.0001462479116198798
-0.000200573542022926   5.282771946599554e-05   0.0001462479116198798
-0.000200573542022926   5.282771946599554e-05   0.0001462479116198798
-0.000200573542022926   5.282771946599554e-05   0.0001462479116198798
-0.0002867902561757797   4.1565619604735926e-05   -4.203871884966501e-06
-0.0002867902561757797   4.1565619604735926e-05   -4.203871884966501e-06
-0.0002867902561757797   4.1565619604735926e-05   -4.203871884966501e-06
-0.0002867902561757797   4.1565619604735926e-05   -4.203871884966501e-06
-0.00029545702298442193   4.795194374556354e-05   0.0001783020141222346
-0.00029545702298442193   4.795194374556354e-05   0.0001783020141222346
-0.00029545702298442193   4.795194374556354e-05   0.0001783020141222346
-0.00029545702298442193   4.795194374556354e-05   0.0001783020141222346
-0.00020467938484380866   3.687665202210637e-05   3.365112558862109e-05
-0.00020467938484380866   3.687665202210637e-05   3.365112558862109e-05
-0.00020467938484380866   3.687665202210637e-05   3.365112558862109e-05
-0.00020467938484380866   3.687665202210637e-05   3.365112558862109e-05
-0.0002367931560509544   4.5929010211300664e-05   8.174266268701387e-05
-0.0002367931560509544   4.5929010211300664e-05   8.174266268701387e-05
-0.0002367931560509544   4.5929010211300664e-05   8.174266268701387e-05
-0.0002367931560509544   4.5929010211300664e-05   8.174266268701387e-05
8.721384906405045e-05   -9.99828188382075e-06   0.00012555816161632753
8.721384906405045e-05   -9.99828188382075e-06   0.00012555816161632753
8.721384906405045e-05   -9.99828188382075e-06   0.00012555816161632753
8.721384906405045e-05   -9.99828188382075e-06   0.00012555816161632753
2.240525829497704e-05   4.6318975129890083e-07   2.3820726648942324e-05
2.240525829497704e-05   4.6318975129890083e-07   2.3820726648942324e-05
2.240525829497704e-05   4.6318975129890083e-07   2.3820726648942324e-05
2.240525829497704e-05   4.6318975129890083e-07   2.3820726648942324e-05
1.926412517499904e-05   -1.3964262799646618e-05   0.00011720307404717873
1.926412517499904e-05   -1.3964262799646618e-05   0.00011720307404717873
1.926412517499904e-05   -1.3964262799646618e-05   0.00011720307404717873
1.926412517499904e-05   -1.3964262799646618e-05   0.00011720307404717873
7.946140091263807e-05   -3.0806734932463387e-06   1.0344127567275883e-05
7.946140091263807e-05   -3.0806734932463387e-06   1.0344127567275883e-05
7.946140091263807e-05   -3.0806734932463387e-06   1.0344127567275883e-05
7.946140091263807e-05   -3.0806734932463387e-06   1.0344127567275883e-05
4.8992090666677855e-05   -7.146910724772915e-06   6.356605364946224e-05
4.8992090666677855e-05   -7.146910724772915e-06   6.356605364946224e-05
4.8992090666677855e-05   -7.146910724772915e-06   6.356605364946224e-05
4.8992090666677855e-05   -7.146910724772915e-06   6.356605364946224e-05
7.946140091263812e-05   -1.3964262799646618e-05   0.00011067292046333926
7.946140091263812e-05   -1.3964262799646618e-05   0.00011067292046333926
7.946140091263812e-05   -1.3964262799646618e-05   0.00011067292046333926
7.946140091263812e-05   -1.3964262799646618e-05   0.00011067292046333926
1.9264125174999012e-05   -3.0806734932463387e-06   1.6874281151115465e-05
1.9264125174999012e-05   -3.0806734932463387e-06   1.6874281151115465e-05
1.9264125174999012e-05   -3.0806734932463387e-06   1.6874281151115465e-05
1.9264125174999012e-05   -3.0806734932463387e-06   1.6874281151115465e-05
1.561095636698343e-05   -1.5337807063472292e-05   0.00011009235977818815
1.561095636698343e-05   -1.5337807063472292e-05   0.00011009235977818815
1.561095636698343e-05   -1.5337807063472292e-05   0.00011009235977818815
1.561095636698343e-05   -1.5337807063472292e-05   0.00011009235977818815
7.290622538727527e-05   -4.620447844893433e-06   8.169829213222212e-06
7.290622538727527e-05   -4.620447844893433e-06   8.169829213222212e-06
7.290622538727527e-05   -4.620447844893433e-06   8.169829213222212e-06
7.290622538727527e-05   -4.620447844893433e-06   8.169829213222212e-06
4.5216995329018866e-05   -8.692659639208955e-06   5.676187305357074e-05
4.5216995329018866e-05   -8.692659639208955e-06   5.676187305357074e-05
4.5216995329018866e-05   -8.692659639208955e-06   5.676187305357074e-05
4.5216995329018866e-05   -8.692659639208955e-06   5.676187305357074e-05
7.290622538727533e-05   -1.5337807063472292e-05   0.00010366194424704048
7.290622538727533e-05   -1.5337807063472292e-05   0.00010366194424704048
7.290622538727533e-05   -1.5337807063472292e-05   0.00010366194424704048
7.290622538727533e-05   -1.5337807063472292e-05   0.00010366194424704048
1.5610956366983377e-05   -4.620447844893433e-06   1.4600244744368898e-05
1.5610956366983377e-05   -4.620447844893433e-06   1.4600244744368898e-05
1.5610956366983377e-05   -4.620447844893433e-06   1.4600244744368898e-05
1.5610956366983377e-05   -4.620447844893433e-06   1.4600244744368898e-05
1.2449743210373224e-05   -1.7180066841314054e-05   0.000101946943999961
1.2449743210373224e-05   -1.7180066841314054e-05   0.000101946943999961
1.2449743210373224e-05   -1.7180066841314054e-05   0.000101946943999961
1.2449743210373224e-05   -1.7180066841314054e-05   0.000101946943999961
6.524265498447543e-05   -7.207609890629713e-06   7.975283539381228e-06
6.524265498447543e-05   -7.207609890629713e-06   7.975283539381228e-06
6.524265498447543e-05   -7.207609890629713e-06   7.975283539381228e-06
6.524265498447543e-05   -7.207609890629713e-06   7.975283539381228e-06
3.973446180511803e-05   -9.511652453549763e-06   5.187136437606349e-05
3.973446180511803e-05   -9.511652453549763e-06   5.187136437606349e-05
3.973446180511803e-05   -9.511652453549763e-06   5.187136437606349e-05
3.973446180511803e-05   -9.511652453549763e-06   5.187136437606349e-05
2.2405258294977095e-05   5.325896681876788e-06   0.00017354718903210033
2.2405258294977095e-05   5.325896681876788e-06   0.00017354718903210033
2.2405258294977095e-05   5.325896681876788e-06   0.00017354718903210033
2.2405258294977095e-05   5.325896681876788e-06   0.00017354718903210033
-3.670557413037762e-05   1.0038666444932634e-05   7.785679684767493e-05
-3.670557413037762e-05   1.0038666444932634e-05   7.785679684767493e-05
-3.670557413037762e-05   1.0038666444932634e-05   7.785679684767493e-05
-3.670557413037762e-05   1.0038666444932634e-05   7.785679684767493e-05
-3.9460819651650106e-05   1.2962672115701679e-06   0.00017412602676974195
-3.9460819651650106e-05   1.2962672115701679e-06   0.00017412602676974195
-3.9460819651650106e-05   1.2962672115701679e-06   0.00017412602676974195
-3.9460819651650106e-05   1.2962672115701679e-06   0.00017412602676974195
1.9264125174999012e-05   6.018371798839975e-06   7.34178559729657e-05
1.9264125174999012e-05   6.018371798839975e-06   7.34178559729657e-05
1.9264125174999012e-05   6.018371798839975e-06   7.34178559729657e-05
1.9264125174999012e-05   6.018371798839975e-06   7.34178559729657e-05
-9.061413470533961e-06   5.27576003976106e-06   0.00012107265410430746
-9.061413470533961e-06   5.27576003976106e-06   0.00012107265410430746
-9.061413470533961e-06   5.27576003976106e-06   0.00012107265410430746
-9.061413470533961e-06   5.27576003976106e-06   0.00012107265410430746
1.9264125174999012e-05   1.2962672115701679e-06   0.00017129276401737972
1.9264125174999012e-05   1.2962672115701679e-06   0.00017129276401737972
1.9264125174999012e-05   1.2962672115701679e-06   0.00017129276401737972
1.9264125174999012e-05   1.2962672115701679e-06   0.00017129276401737972
-3.9460819651650106e-05   6.01837179883824e-06   7.625111872532845e-05
-3.9460819651650106e-05   6.01837179883824e-06   7.625111872532845e-05
-3.9460819651650106e-05   6.01837179883824e-06   7.625111872532845e-05
-3.9460819651650106e-05   6.01837179883824e-06   7.625111872532845e-05
-4.229477279948913e-05   -2.0119480630947234e-06   0.00017307216683689133
-4.229477279948913e-05   -2.0119480630947234e-06   0.00017307216683689133
-4.229477279948913e-05   -2.0119480630947234e-06   0.00017307216683689133
-4.229477279948913e-05   -2.0119480630947234e-06   0.00017307216683689133
1.5610956366983377e-05   2.5995632461257856e-06   7.379571144057237e-05
1.5610956366983377e-05   2.5995632461257856e-06   7.379571144057237e-05
1.5610956366983377e-05   2.5995632461257856e-06   7.379571144057237e-05
1.5610956366983377e-05   2.5995632461257856e-06   7.379571144057237e-05
-1.1997544032145492e-05   2.4644958680000717e-06   0.00011989091919933285
-1.1997544032145492e-05   2.4644958680000717e-06   0.00011989091919933285
-1.1997544032145492e-05   2.4644958680000717e-06   0.00011989091919933285
-1.1997544032145492e-05   2.4644958680000717e-06   0.00011989091919933285
1.561095636698343e-05   -2.0119480630947234e-06   0.00017030526005135972
1.561095636698343e-05   -2.0119480630947234e-06   0.00017030526005135972
1.561095636698343e-05   -2.0119480630947234e-06   0.00017030526005135972
1.561095636698343e-05   -2.0119480630947234e-06   0.00017030526005135972
-4.2294772799489344e-05   2.5995632461275203e-06   7.656261822610363e-05
-4.2294772799489344e-05   2.5995632461275203e-06   7.656261822610363e-05
-4.2294772799489344e-05   2.5995632461275203e-06   7.656261822610363e-05
-4.2294772799489344e-05   2.5995632461275203e-06   7.656261822610363e-05
-4.5084448269767474e-05   -5.2858743451143775e-06   0.00017541507301740197
-4.5084448269767474e-05   -5.2858743451143775e-06   0.00017541507301740197
-4.5084448269767474e-05   -5.2858743451143775e-06   0.00017541507301740197
-4.5084448269767474e-05   -5.2858743451143775e-06   0.00017541507301740197
1.2449743210373224e-05   -9.084046197829765e-07   7.689827204863752e-05
1.2449743210373224e-05   -9.084046197829765e-07   7.689827204863752e-05
1.2449743210373224e-05   -9.084046197829765e-07   7.689827204863752e-05
1.2449743210373224e-05   -9.084046197829765e-07   7.689827204863752e-05
-1.4491644372376496e-05   -7.157145188486924e-08   0.00012129848478581624
-1.4491644372376496e-05   -7.157145188486924e-08   0.00012129848478581624
-1.4491644372376496e-05   -7.157145188486924e-08   0.00012129848478581624
-1.4491644372376496e-05   -7.157145188486924e-08   0.00012129848478581624
-3.670557413037762e-05   1.974338067165307e-05   0.0001926083690255813
-3.670557413037762e-05   1.974338067165307e-05   0.0001926083690255813
-3.670557413037762e-05   1.974338067165307e-05   0.0001926083690255813
-3.670557413037762e-05   1.974338067165307e-05   0.0001926083690255813
-9.48604055390316e-05   1.8574564249272674e-05   9.498236015772956e-05
-9.48604055390316e-05   1.8574564249272674e-05   9.498236015772956e-05
-9.48604055390316e-05   1.8574564249272674e-05   9.498236015772956e-05
-9.48604055390316e-05   1.8574564249272674e-05   9.498236015772956e-05
-9.750030805350928e-05   1.6069528200410993e-05   0.00019090881319505648
-9.750030805350928e-05   1.6069528200410993e-05   0.00019090881319505648
-9.750030805350928e-05   1.6069528200410993e-05   0.00019090881319505648
-9.750030805350928e-05   1.6069528200410993e-05   0.00019090881319505648
-3.946081965165e-05   1.4856269485698237e-05   9.490428775411853e-05
-3.946081965165e-05   1.4856269485698237e-05   9.490428775411853e-05
-3.946081965165e-05   1.4856269485698237e-05   9.490428775411853e-05
-3.946081965165e-05   1.4856269485698237e-05   9.490428775411853e-05
-6.725340682859309e-05   1.6908118290184446e-05   0.000139994157099671
-6.725340682859309e-05   1.6908118290184446e-05   0.000139994157099671
-6.725340682859309e-05   1.6908118290184446e-05   0.000139994157099671
-6.725340682859309e-05   1.6908118290184446e-05   0.000139994157099671
-3.9460819651650106e-05   1.6069528200410993e-05   0.0001916367684238838
-3.9460819651650106e-05   1.6069528200410993e-05   0.0001916367684238838
-3.9460819651650106e-05   1.6069528200410993e-05   0.0001916367684238838
-3.9460819651650106e-05   1.6069528200410993e-05   0.0001916367684238838
-9.750030805350906e-05   1.4856269485698237e-05   9.417633252529123e-05
-9.750030805350906e-05   1.4856269485698237e-05   9.417633252529123e-05
-9.750030805350906e-05   1.4856269485698237e-05   9.417633252529123e-05
-9.750030805350906e-05   1.4856269485698237e-05   9.417633252529123e-05
-0.00010022820716963643   1.2437434067882891e-05   0.00019221409595677856
-0.00010022820716963643   1.2437434067882891e-05   0.00019221409595677856
-0.00010022820716963643   1.2437434067882891e-05   0.00019221409595677856
-0.00010022820716963643   1.2437434067882891e-05   0.00019221409595677856
-4.229477279948913e-05   1.1156663866833047e-05   9.642683412716332e-05
-4.229477279948913e-05   1.1156663866833047e-05   9.642683412716332e-05
-4.229477279948913e-05   1.1156663866833047e-05   9.642683412716332e-05
-4.229477279948913e-05   1.1156663866833047e-05   9.642683412716332e-05
-6.960683875463112e-05   1.4074380033748599e-05   0.00014019631435224994
-6.960683875463112e-05   1.4074380033748599e-05   0.00014019631435224994
-6.960683875463112e-05   1.4074380033748599e-05   0.00014019631435224994
-6.960683875463112e-05   1.4074380033748599e-05   0.00014019631435224994
-4.2294772799489344e-05   1.2437434067882891e-05   0.0001929825580774076
-4.2294772799489344e-05   1.2437434067882891e-05   0.0001929825580774076
-4.2294772799489344e-05   1.2437434067882891e-05   0.0001929825580774076
-4.2294772799489344e-05   1.2437434067882891e-05   0.0001929825580774076
-0.00010022820716963643   1.1156663866833047e-05   9.565837200653429e-05
-0.00010022820716963643   1.1156663866833047e-05   9.565837200653429e-05
-0.00010022820716963643   1.1156663866833047e-05   9.565837200653429e-05
-0.00010022820716963643   1.1156663866833047e-05   9.565837200653429e-05
-0.00010291448381163503   8.938949984856406e-06   0.00019536564597214673
-0.00010291448381163503   8.938949984856406e-06   0.00019536564597214673
-0.00010291448381163503   8.938949984856406e-06   0.00019536564597214673
-0.00010291448381163503   8.938949984856406e-06   0.00019536564597214673
-4.5084448269767366e-05   7.611073913270719e-06   9.97789790453214e-05
-4.5084448269767366e-05   7.611073913270719e-06   9.97789790453214e-05
-4.5084448269767366e-05   7.611073913270719e-06   9.97789790453214e-05
-4.5084448269767366e-05   7.611073913270719e-06   9.97789790453214e-05
-7.210845451939259e-05   1.1295838088185364e-05   0.00014260813095641673
-7.210845451939259e-05   1.1295838088185364e-05   0.00014260813095641673
-7.210845451939259e-05   1.1295838088185364e-05   0.00014260813095641673
-7.210845451939259e-05   1.1295838088185364e-05   0.00014260813095641673
-9.48604055390316e-05   3.3759888521332423e-05   0.00016956210235448063
-9.48604055390316e-05   3.3759888521332423e-05   0.00016956210235448063
-9.48604055390316e-05   3.3759888521332423e-05   0.00016956210235448063
-9.48604055390316e-05   3.3759888521332423e-05   0.00016956210235448063
-0.0001518925967963125   2.7508768277593326e-05   7.075777811277025e-05
-0.0001518925967963125   2.7508768277593326e-05   7.075777811277025e-05
-0.0001518925967963125   2.7508768277593326e-05   7.075777811277025e-05
-0.0001518925967963125   2.7508768277593326e-05   7.075777811277025e-05
-0.0001547658952808465   3.0162349742374195e-05   0.0001664116955547492
-0.0001547658952808465   3.0162349742374195e-05   0.0001664116955547492
-0.0001547658952808465   3.0162349742374195e-05   0.0001664116955547492
-0.0001547658952808465   3.0162349742374195e-05   0.0001664116955547492
-9.750030805350906e-05   2.3753426194279142e-05   7.481440430471458e-05
-9.750030805350906e-05   2.3753426194279142e-05   7.481440430471458e-05
-9.750030805350906e-05   2.3753426194279142e-05   7.481440430471458e-05
-9.750030805350906e-05   2.3753426194279142e-05   7.481440430471458e-05
-0.00012445565215472105   2.8342729423149263e-05   0.00011698639586942006
-0.00012445565215472105   2.8342729423149263e-05   0.00011698639586942006
-0.00012445565215472105   2.8342729423149263e-05   0.00011698639586942006
-0.00012445565215472105   2.8342729423149263e-05   0.00011698639586942006
-9.750030805350928e-05   3.0162349742374195e-05   0.0001702570496836097
-9.750030805350928e-05   3.0162349742374195e-05   0.0001702570496836097
-9.750030805350928e-05   3.0162349742374195e-05   0.0001702570496836097
-9.750030805350928e-05   3.0162349742374195e-05   0.0001702570496836097
-0.00015476589528084627   2.3753426194280877e-05   7.096905017585755e-05
-0.00015476589528084627   2.3753426194280877e-05   7.096905017585755e-05
-0.00015476589528084627   2.3753426194280877e-05   7.096905017585755e-05
-0.00015476589528084627   2.3753426194280877e-05   7.096905017585755e-05
-0.00015817366063788614   2.6842722282365006e-05   0.00017189408621760827
-0.00015817366063788614   2.6842722282365006e-05   0.00017189408621760827
-0.00015817366063788614   2.6842722282365006e-05   0.00017189408621760827
-0.00015817366063788614   2.6842722282365006e-05   0.00017189408621760827
-0.00010022820716963621   2.0347158907293994e-05   7.921566846223532e-05
-0.00010022820716963621   2.0347158907293994e-05   7.921566846223532e-05
-0.00010022820716963621   2.0347158907293994e-05   7.921566846223532e-05
-0.00010022820716963621   2.0347158907293994e-05   7.921566846223532e-05
-0.00012633058215048973   2.568228258179213e-05   0.00011951855255895854
-0.00012633058215048973   2.568228258179213e-05   0.00011951855255895854
-0.00012633058215048973   2.568228258179213e-05   0.00011951855255895854
-0.00012633058215048973   2.568228258179213e-05   0.00011951855255895854
-0.00010022820716963665   2.6842722282365006e-05   0.00017579142424265035
-0.00010022820716963665   2.6842722282365006e-05   0.00017579142424265035
-0.00010022820716963665   2.6842722282365006e-05   0.00017579142424265035
-0.00010022820716963665   2.6842722282365006e-05   0.00017579142424265035
-0.0001581736606378857   2.0347158907293994e-05   7.531833043719236e-05
-0.0001581736606378857   2.0347158907293994e-05   7.531833043719236e-05
-0.0001581736606378857   2.0347158907293994e-05   7.531833043719236e-05
-0.0001581736606378857   2.0347158907293994e-05   7.531833043719236e-05
-0.00016110421778576622   2.314084812772392e-05   0.00017722073708784265
-0.00016110421778576622   2.314084812772392e-05   0.00017722073708784265
-0.00016110421778576622   2.314084812772392e-05   0.00017722073708784265
-0.00016110421778576622   2.314084812772392e-05   0.00017722073708784265
-0.00010291448381163438   1.6715435676280255e-05   8.40930946018237e-05
-0.00010291448381163438   1.6715435676280255e-05   8.40930946018237e-05
-0.00010291448381163438   1.6715435676280255e-05   8.40930946018237e-05
-0.00010291448381163438   1.6715435676280255e-05   8.40930946018237e-05
-0.00012953013560132443   2.3027110141663268e-05   0.00012466550957208325
-0.00012953013560132443   2.3027110141663268e-05   0.00012466550957208325
-0.00012953013560132443   2.3027110141663268e-05   0.00012466550957208325
-0.00012953013560132443   2.3027110141663268e-05   0.00012466550957208325
-0.00015189259679631293   4.4148558277100694e-05   7.90217203087409e-05
-0.00015189259679631293   4.4148558277100694e-05   7.90217203087409e-05
-0.00015189259679631293   4.4148558277100694e-05   7.90217203087409e-05
-0.00015189259679631293   4.4148558277100694e-05   7.90217203087409e-05
-0.0002030714661263584   3.371329627766505e-05   -1.2537552440996125e-05
-0.0002030714661263584   3.371329627766505e-05   -1.2537552440996125e-05
-0.0002030714661263584   3.371329627766505e-05   -1.2537552440996125e-05
-0.0002030714661263584   3.371329627766505e-05   -1.2537552440996125e-05
-0.0002104263090061567   4.297087221154065e-05   9.727975440514298e-05
-0.0002104263090061567   4.297087221154065e-05   9.727975440514298e-05
-0.0002104263090061567   4.297087221154065e-05   9.727975440514298e-05
-0.0002104263090061567   4.297087221154065e-05   9.727975440514298e-05
-0.00015476589528084562   3.1774960629605414e-05   1.1229945145454709e-05
-0.00015476589528084562   3.1774960629605414e-05   1.1229945145454709e-05
-0.00015476589528084562   3.1774960629605414e-05   1.1229945145454709e-05
-0.00015476589528084562   3.1774960629605414e-05   1.1229945145454709e-05
-0.00017348935993630145   3.7468929866515954e-05   3.901933802907473e-05
-0.00017348935993630145   3.7468929866515954e-05   3.901933802907473e-05
-0.00017348935993630145   3.7468929866515954e-05   3.901933802907473e-05
-0.00017348935993630145   3.7468929866515954e-05   3.901933802907473e-05
-0.00015476589528084584   4.297087221154065e-05   0.00010399730135430413
-0.00015476589528084584   4.297087221154065e-05   0.00010399730135430413
-0.00015476589528084584   4.297087221154065e-05   0.00010399730135430413
-0.00015476589528084584   4.297087221154065e-05   0.00010399730135430413
-0.0002104263090061567   3.1774960629605414e-05   4.5123981962935655e-06
-0.0002104263090061567   3.1774960629605414e-05   4.5123981962935655e-06
-0.0002104263090061567   3.1774960629605414e-05   4.5123981962935655e-06
-0.0002104263090061567   3.1774960629605414e-05   4.5123981962935655e-06
-0.00021677000356163257   4.1565619604735926e-05   0.00011509462167736025
-0.00021677000356163257   4.1565619604735926e-05   0.00011509462167736025
-0.00021677000356163257   4.1565619604735926e-05   0.00011509462167736025
-0.00021677000356163257   4.1565619604735926e-05   0.00011509462167736025
-0.0001581736606378857   3.017181333525229e-05   2.4270333899474757e-05
-0.0001581736606378857   3.017181333525229e-05   2.4270333899474757e-05
-0.0001581736606378857   3.017181333525229e-05   2.4270333899474757e-05
-0.0001581736606378857   3.017181333525229e-05   2.4270333899474757e-05
-0.00018052618319946338   3.695555111686566e-05   5.74542954998058e-05
-0.00018052618319946338   3.695555111686566e-05   5.74542954998058e-05
-0.00018052618319946338   3.695555111686566e-05   5.74542954998058e-05
-0.00018052618319946338   3.695555111686566e-05   5.74542954998058e-05
-0.00015817366063788593   4.156561960473766e-05   0.00012193090543905112
-0.00015817366063788593   4.156561960473766e-05   0.00012193090543905112
-0.00015817366063788593   4.156561960473766e-05   0.00012193090543905112
-0.00015817366063788593   4.156561960473766e-05   0.00012193090543905112
-0.00021677000356163257   3.017181333525229e-05   1.743405013778475e-05
-0.00021677000356163257   3.017181333525229e-05   1.743405013778475e-05
-0.00021677000356163257   3.017181333525229e-05   1.743405013778475e-05
-0.00021677000356163257   3.017181333525229e-05   1.743405013778475e-05
-0.00022437491463221963   3.687665202210637e-05   0.000146653037256389
-0.00022437491463221963   3.687665202210637e-05   0.000146653037256389
-0.00022437491463221963   3.687665202210637e-05   0.000146653037256389
-0.00022437491463221963   3.687665202210637e-05   0.000146653037256389
-0.0001611042177857658   2.583807814247538e-05   4.7825020173413325e-05
-0.0001611042177857658   2.583807814247538e-05   4.7825020173413325e-05
-0.0001611042177857658   2.583807814247538e-05   4.7825020173413325e-05
-0.0001611042177857658   2.583807814247538e-05   4.7825020173413325e-05
-0.00018233262317621278   3.498495549776083e-05   7.7717569410989e-05
-0.00018233262317621278   3.498495549776083e-05   7.7717569410989e-05
-0.00018233262317621278   3.498495549776083e-05   7.7717569410989e-05
-0.00018233262317621278   3.498495549776083e-05   7.7717569410989e-05
1.5882208829762342e-05   4.6318975129890083e-07   9.313892316723579e-05
1.5882208829762342e-05   4.6318975129890083e-07   9.313892316723579e-05
1.5882208829762342e-05   4.6318975129890083e-07   9.313892316723579e-05
1.5882208829762342e-05   4.6318975129890083e-07   9.313892316723579e-05
-2.072514679705108e-05   1.0467374450831568e-05   3.8129174608934543e-05
-2.072514679705108e-05   1.0467374450831568e-05   3.8129174608934543e-05
-2.072514679705108e-05   1.0467374450831568e-05   3.8129174608934543e-05
-2.072514679705108e-05   1.0467374450831568e-05   3.8129174608934543e-05
-2.2925378474710232e-05   -3.0806734932463387e-06   9.207081777902427e-05
-2.2925378474710232e-05   -3.0806734932463387e-06   9.207081777902427e-05
-2.2925378474710232e-05   -3.0806734932463387e-06   9.207081777902427e-05
-2.2925378474710232e-05   -3.0806734932463387e-06   9.207081777902427e-05
9.166002729123907e-06   7.163065708814392e-06   3.243893891806556e-05
9.166002729123907e-06   7.163065708814392e-06   3.243893891806556e-05
9.166002729123907e-06   7.163065708814392e-06   3.243893891806556e-05
9.166002729123907e-06   7.163065708814392e-06   3.243893891806556e-05
-5.462823759603698e-06   3.193500686431844e-06   5.920205541270736e-05
-5.462823759603698e-06   3.193500686431844e-06   5.920205541270736e-05
-5.462823759603698e-06   3.193500686431844e-06   5.920205541270736e-05
-5.462823759603698e-06   3.193500686431844e-06   5.920205541270736e-05
9.166002729123907e-06   -3.0806734932463387e-06   8.592457425778913e-05
9.166002729123907e-06   -3.0806734932463387e-06   8.592457425778913e-05
9.166002729123907e-06   -3.0806734932463387e-06   8.592457425778913e-05
9.166002729123907e-06   -3.0806734932463387e-06   8.592457425778913e-05
-2.2925378474710232e-05   7.163065708814392e-06   3.858518243930135e-05
-2.2925378474710232e-05   7.163065708814392e-06   3.858518243930135e-05
-2.2925378474710232e-05   7.163065708814392e-06   3.858518243930135e-05
-2.2925378474710232e-05   7.163065708814392e-06   3.858518243930135e-05
-2.5639271623807854e-05   -4.620447844893433e-06   8.979240617320401e-05
-2.5639271623807854e-05   -4.620447844893433e-06   8.979240617320401e-05
-2.5639271623807854e-05   -4.620447844893433e-06   8.979240617320401e-05
-2.5639271623807854e-05   -4.620447844893433e-06   8.979240617320401e-05
3.348758330987329e-06   5.327345807229489e-06   3.551034672393731e-05
3.348758330987329e-06   5.327345807229489e-06   3.551034672393731e-05
3.348758330987329e-06   5.327345807229489e-06   3.551034672393731e-05
3.348758330987329e-06   5.327345807229489e-06   3.551034672393731e-05
-9.104814399460277e-06   1.7842435718826155e-06   5.839216261589183e-05
-9.104814399460277e-06   1.7842435718826155e-06   5.839216261589183e-05
-9.104814399460277e-06   1.7842435718826155e-06   5.839216261589183e-05
-9.104814399460277e-06   1.7842435718826155e-06   5.839216261589183e-05
3.348758330987329e-06   -4.620447844893433e-06   8.382372998192843e-05
3.348758330987329e-06   -4.620447844893433e-06   8.382372998192843e-05
3.348758330987329e-06   -4.620447844893433e-06   8.382372998192843e-05
3.348758330987329e-06   -4.620447844893433e-06   8.382372998192843e-05
-2.5639271623807827e-05   5.327345807229489e-06   4.147902291521104e-05
-2.5639271623807827e-05   5.327345807229489e-06   4.147902291521104e-05
-2.5639271623807827e-05   5.327345807229489e-06   4.147902291521104e-05
-2.5639271623807827e-05   5.327345807229489e-06   4.147902291521104e-05
-2.7900505468295638e-05   -7.207609890631447e-06   8.917409885256938e-05
-2.7900505468295638e-05   -7.207609890631447e-06   8.917409885256938e-05
-2.7900505468295638e-05   -7.207609890631447e-06   8.917409885256938e-05
-2.7900505468295638e-05   -7.207609890631447e-06   8.917409885256938e-05
-3.940910813302187e-06   1.41757797001308e-06   4.406632837786217e-05
-3.940910813302187e-06   1.41757797001308e-06   4.406632837786217e-05
-3.940910813302187e-06   1.41757797001308e-06   4.406632837786217e-05
-3.940910813302187e-06   1.41757797001308e-06   4.406632837786217e-05
-1.296821743926561e-05   4.6778927613802535e-07   5.9681712637459636e-05
-1.296821743926561e-05   4.6778927613802535e-07   5.9681712637459636e-05
-1.296821743926561e-05   4.6778927613802535e-07   5.9681712637459636e-05
-1.296821743926561e-05   4.6778927613802535e-07   5.9681712637459636e-05
-2.072514679705108e-05   1.0038666444932634e-05   0.0001503498423278569
-2.072514679705108e-05   1.0038666444932634e-05   0.0001503498423278569
-2.072514679705108e-05   1.0038666444932634e-05   0.0001503498423278569
-2.072514679705108e-05   1.0038666444932634e-05   0.0001503498423278569
-5.1399256403650956e-05   1.1980402467524562e-05   0.00010039136793041315
-5.1399256403650956e-05   1.1980402467524562e-05   0.00010039136793041315
-5.1399256403650956e-05   1.1980402467524562e-05   0.00010039136793041315
-5.1399256403650956e-05   1.1980402467524562e-05   0.00010039136793041315
-5.304996832388841e-05   6.01837179883824e-06   0.00014997212620626067
-5.304996832388841e-05   6.01837179883824e-06   0.00014997212620626067
-5.304996832388841e-05   6.01837179883824e-06   0.00014997212620626067
-5.304996832388841e-05   6.01837179883824e-06   0.00014997212620626067
-2.2925378474710232e-05   8.281261141145774e-06   9.840674285224493e-05
-2.2925378474710232e-05   8.281261141145774e-06   9.840674285224493e-05
-2.2925378474710232e-05   8.281261141145774e-06   9.840674285224493e-05
-2.2925378474710232e-05   8.281261141145774e-06   9.840674285224493e-05
-3.722824655331436e-05   8.6601140006793e-06   0.00012201754460086634
-3.722824655331436e-05   8.6601140006793e-06   0.00012201754460086634
-3.722824655331436e-05   8.6601140006793e-06   0.00012201754460086634
-3.722824655331436e-05   8.6601140006793e-06   0.00012201754460086634
-2.292537847471026e-05   6.01837179883824e-06   0.0001486143926008746
-2.292537847471026e-05   6.01837179883824e-06   0.0001486143926008746
-2.292537847471026e-05   6.01837179883824e-06   0.0001486143926008746
-2.292537847471026e-05   6.01837179883824e-06   0.0001486143926008746
-5.3049968323888304e-05   8.281261141145774e-06   9.976447645763031e-05
-5.3049968323888304e-05   8.281261141145774e-06   9.976447645763031e-05
-5.3049968323888304e-05   8.281261141145774e-06   9.976447645763031e-05
-5.3049968323888304e-05   8.281261141145774e-06   9.976447645763031e-05
-5.4751350171299094e-05   2.5995632461275203e-06   0.00015033896505912796
-5.4751350171299094e-05   2.5995632461275203e-06   0.00015033896505912796
-5.4751350171299094e-05   2.5995632461275203e-06   0.00015033896505912796
-5.4751350171299094e-05   2.5995632461275203e-06   0.00015033896505912796
-2.5639271623807827e-05   4.851383562327026e-06   0.00010046774195692138
-2.5639271623807827e-05   4.851383562327026e-06   0.00010046774195692138
-2.5639271623807827e-05   4.851383562327026e-06   0.00010046774195692138
-2.5639271623807827e-05   4.851383562327026e-06   0.00010046774195692138
-3.8910976712816804e-05   5.9478123205052025e-06   0.0001219293931836985
-3.8910976712816804e-05   5.9478123205052025e-06   0.0001219293931836985
-3.8910976712816804e-05   5.9478123205052025e-06   0.0001219293931836985
-3.8910976712816804e-05   5.9478123205052025e-06   0.0001219293931836985
-2.5639271623807854e-05   2.5995632461257856e-06   0.0001489878728694067
-2.5639271623807854e-05   2.5995632461257856e-06   0.0001489878728694067
-2.5639271623807854e-05   2.5995632461257856e-06   0.0001489878728694067
-2.5639271623807854e-05   2.5995632461257856e-06   0.0001489878728694067
-5.4751350171299094e-05   4.851383562327026e-06   0.00010181883414664243
-5.4751350171299094e-05   4.851383562327026e-06   0.00010181883414664243
-5.4751350171299094e-05   4.851383562327026e-06   0.00010181883414664243
-5.4751350171299094e-05   4.851383562327026e-06   0.00010181883414664243
-5.641705632919707e-05   -9.084046197847112e-07   0.00015333026080710434
-5.641705632919707e-05   -9.084046197847112e-07   0.00015333026080710434
-5.641705632919707e-05   -9.084046197847112e-07   0.00015333026080710434
-5.641705632919707e-05   -9.084046197847112e-07   0.00015333026080710434
-2.7900505468295638e-05   1.119341406363196e-06   0.00010458602842324758
-2.7900505468295638e-05   1.119341406363196e-06   0.00010458602842324758
-2.7900505468295638e-05   1.119341406363196e-06   0.00010458602842324758
-2.7900505468295638e-05   1.119341406363196e-06   0.00010458602842324758
-4.0597293554321006e-05   3.2673736440821943e-06   0.00012445852255732557
-4.0597293554321006e-05   3.2673736440821943e-06   0.00012445852255732557
-4.0597293554321006e-05   3.2673736440821943e-06   0.00012445852255732557
-4.0597293554321006e-05   3.2673736440821943e-06   0.00012445852255732557
-5.139925640365085e-05   1.8574564249272674e-05   0.00016934173710489442
-5.139925640365085e-05   1.8574564249272674e-05   0.00016934173710489442
-5.139925640365085e-05   1.8574564249272674e-05   0.00016934173710489442
-5.139925640365085e-05   1.8574564249272674e-05   0.00016934173710489442
-8.205330292125872e-05   1.4266222683607423e-05   0.00011566665463614949
-8.205330292125872e-05   1.4266222683607423e-05   0.00011566665463614949
-8.205330292125872e-05   1.4266222683607423e-05   0.00011566665463614949
-8.205330292125872e-05   1.4266222683607423e-05   0.00011566665463614949
-8.344469604319965e-05   1.4856269485699972e-05   0.00016620723433226087
-8.344469604319965e-05   1.4856269485699972e-05   0.00016620723433226087
-8.344469604319965e-05   1.4856269485699972e-05   0.00016620723433226087
-8.344469604319965e-05   1.4856269485699972e-05   0.00016620723433226087
-5.3049968323888304e-05   1.0826167981049448e-05   0.000117967415702865
-5.3049968323888304e-05   1.0826167981049448e-05   0.000117967415702865
-5.3049968323888304e-05   1.0826167981049448e-05   0.000117967415702865
-5.3049968323888304e-05   1.0826167981049448e-05   0.000117967415702865
-6.751477045667753e-05   1.4361092982657225e-05   0.00013995446425654865
-6.751477045667753e-05   1.4361092982657225e-05   0.00013995446425654865
-6.751477045667753e-05   1.4361092982657225e-05   0.00013995446425654865
-6.751477045667753e-05   1.4361092982657225e-05   0.00013995446425654865
-5.3049968323888304e-05   1.4856269485699972e-05   0.0001686252952350512
-5.3049968323888304e-05   1.4856269485699972e-05   0.0001686252952350512
-5.3049968323888304e-05   1.4856269485699972e-05   0.0001686252952350512
-5.3049968323888304e-05   1.4856269485699972e-05   0.0001686252952350512
-8.344469604319965e-05   1.0826167981049448e-05   0.00011554935480007512
-8.344469604319965e-05   1.0826167981049448e-05   0.00011554935480007512
-8.344469604319965e-05   1.0826167981049448e-05   0.00011554935480007512
-8.344469604319965e-05   1.0826167981049448e-05   0.00011554935480007512
-8.493786850925908e-05   1.1156663866831312e-05   0.0001679063534215531
-8.493786850925908e-05   1.1156663866831312e-05   0.0001679063534215531
-8.493786850925908e-05   1.1156663866831312e-05   0.0001679063534215531
-8.493786850925908e-05   1.1156663866831312e-05   0.0001679063534215531
-5.4751350171299094e-05   7.328617969112536e-06   0.0001198923170635871
-5.4751350171299094e-05   7.328617969112536e-06   0.0001198923170635871
-5.4751350171299094e-05   7.328617969112536e-06   0.0001198923170635871
-5.4751350171299094e-05   7.328617969112536e-06   0.0001198923170635871
-6.870321674470572e-05   1.1599843854275677e-05   0.00014058269248816706
-6.870321674470572e-05   1.1599843854275677e-05   0.00014058269248816706
-6.870321674470572e-05   1.1599843854275677e-05   0.00014058269248816706
-6.870321674470572e-05   1.1599843854275677e-05   0.00014058269248816706
-5.4751350171299094e-05   1.1156663866831312e-05   0.00017020318096018592
-5.4751350171299094e-05   1.1156663866831312e-05   0.00017020318096018592
-5.4751350171299094e-05   1.1156663866831312e-05   0.00017020318096018592
-5.4751350171299094e-05   1.1156663866831312e-05   0.00017020318096018592
-8.493786850925908e-05   7.328617969112536e-06   0.00011759548952495471
-8.493786850925908e-05   7.328617969112536e-06   0.00011759548952495471
-8.493786850925908e-05   7.328617969112536e-06   0.00011759548952495471
-8.493786850925908e-05   7.328617969112536e-06   0.00011759548952495471
-8.64000737842846e-05   7.611073913270719e-06   0.00017142199437130117
-8.64000737842846e-05   7.611073913270719e-06   0.00017142199437130117
-8.64000737842846e-05   7.611073913270719e-06   0.00017142199437130117
-8.64000737842846e-05   7.611073913270719e-06   0.00017142199437130117
-5.641705632919696e-05   4.006921251123105e-06   0.00012361279021011148
-5.641705632919696e-05   4.006921251123105e-06   0.00012361279021011148
-5.641705632919696e-05   4.006921251123105e-06   0.00012361279021011148
-5.641705632919696e-05   4.006921251123105e-06   0.00012361279021011148
-7.002783877748249e-05   8.87767673178868e-06   0.00014337497433552105
-7.002783877748249e-05   8.87767673178868e-06   0.00014337497433552105
-7.002783877748249e-05   8.87767673178868e-06   0.00014337497433552105
-7.002783877748249e-05   8.87767673178868e-06   0.00014337497433552105
-8.205330292125916e-05   2.750876827759506e-05   0.0001462828222667783
-8.205330292125916e-05   2.750876827759506e-05   0.0001462828222667783
-8.205330292125916e-05   2.750876827759506e-05   0.0001462828222667783
-8.205330292125916e-05   2.750876827759506e-05   0.0001462828222667783
-0.00011216250000135094   1.9221284847105793e-05   9.112833707499877e-05
-0.00011216250000135094   1.9221284847105793e-05   9.112833707499877e-05
-0.00011216250000135094   1.9221284847105793e-05   9.112833707499877e-05
-0.00011216250000135094   1.9221284847105793e-05   9.112833707499877e-05
-0.00011368939056870123   2.3753426194279142e-05   0.0001419536033975769
-0.00011368939056870123   2.3753426194279142e-05   0.0001419536033975769
-0.00011368939056870123   2.3753426194279142e-05   0.0001419536033975769
-0.00011368939056870123   2.3753426194279142e-05   0.0001419536033975769
-8.344469604319965e-05   1.5600588337431887e-05   9.643748190251529e-05
-8.344469604319965e-05   1.5600588337431887e-05   9.643748190251529e-05
-8.344469604319965e-05   1.5600588337431887e-05   9.643748190251529e-05
-8.344469604319965e-05   1.5600588337431887e-05   9.643748190251529e-05
-9.763054647479025e-05   2.1354525205518303e-05   0.00011662820383431414
-9.763054647479025e-05   2.1354525205518303e-05   0.00011662820383431414
-9.763054647479025e-05   2.1354525205518303e-05   0.00011662820383431414
-9.763054647479025e-05   2.1354525205518303e-05   0.00011662820383431414
-8.344469604319965e-05   2.3753426194279142e-05   0.0001468453061116851
-8.344469604319965e-05   2.3753426194279142e-05   0.0001468453061116851
-8.344469604319965e-05   2.3753426194279142e-05   0.0001468453061116851
-8.344469604319965e-05   2.3753426194279142e-05   0.0001468453061116851
-0.00011368939056870123   1.5600588337431887e-05   9.15457791884058e-05
-0.00011368939056870123   1.5600588337431887e-05   9.15457791884058e-05
-0.00011368939056870123   1.5600588337431887e-05   9.15457791884058e-05
-0.00011368939056870123   1.5600588337431887e-05   9.15457791884058e-05
-0.00011581107136274466   2.0347158907293994e-05   0.00014668674780051773
-0.00011581107136274466   2.0347158907293994e-05   0.00014668674780051773
-0.00011581107136274466   2.0347158907293994e-05   0.00014668674780051773
-0.00011581107136274466   2.0347158907293994e-05   0.00014668674780051773
-8.493786850925908e-05   1.238565544606305e-05   0.00010000831178811438
-8.493786850925908e-05   1.238565544606305e-05   0.00010000831178811438
-8.493786850925908e-05   1.238565544606305e-05   0.00010000831178811438
-8.493786850925908e-05   1.238565544606305e-05   0.00010000831178811438
-9.846141462822064e-05   1.8677968750505092e-05   0.00011877216733705183
-9.846141462822064e-05   1.8677968750505092e-05   0.00011877216733705183
-9.846141462822064e-05   1.8677968750505092e-05   0.00011877216733705183
-9.846141462822064e-05   1.8677968750505092e-05   0.00011877216733705183
-8.493786850925886e-05   2.0347158907293994e-05   0.00015146364987725456
-8.493786850925886e-05   2.0347158907293994e-05   0.00015146364987725456
-8.493786850925886e-05   2.0347158907293994e-05   0.00015146364987725456
-8.493786850925886e-05   2.0347158907293994e-05   0.00015146364987725456
-0.00011581107136274379   1.238565544606305e-05   9.523140971137711e-05
-0.00011581107136274379   1.238565544606305e-05   9.523140971137711e-05
-0.00011581107136274379   1.238565544606305e-05   9.523140971137711e-05
-0.00011581107136274379   1.238565544606305e-05   9.523140971137711e-05
-0.00011751465845692309   1.671543567628199e-05   0.00015197387629104463
-0.00011751465845692309   1.671543567628199e-05   0.00015197387629104463
-0.00011751465845692309   1.671543567628199e-05   0.00015197387629104463
-0.00011751465845692309   1.671543567628199e-05   0.00015197387629104463
-8.64000737842846e-05   9.117170210097211e-06   0.00010467519444969141
-8.64000737842846e-05   9.117170210097211e-06   0.00010467519444969141
-8.64000737842846e-05   9.117170210097211e-06   0.00010467519444969141
-8.64000737842846e-05   9.117170210097211e-06   0.00010467519444969141
-0.00010021232685965525   1.6139995349292655e-05   0.00012348192115846238
-0.00010021232685965525   1.6139995349292655e-05   0.00012348192115846238
-0.00010021232685965525   1.6139995349292655e-05   0.00012348192115846238
-0.00010021232685965525   1.6139995349292655e-05   0.00012348192115846238
-0.00011216250000135094   3.371329627766505e-05   6.42761588543787e-05
-0.00011216250000135094   3.371329627766505e-05   6.42761588543787e-05
-0.00011216250000135094   3.371329627766505e-05   6.42761588543787e-05
-0.00011216250000135094   3.371329627766505e-05   6.42761588543787e-05
-0.00013549687878678914   2.2596109210719188e-05   1.871521530514902e-05
-0.00013549687878678914   2.2596109210719188e-05   1.871521530514902e-05
-0.00013549687878678914   2.2596109210719188e-05   1.871521530514902e-05
-0.00013549687878678914   2.2596109210719188e-05   1.871521530514902e-05
-0.00014132964340788723   3.1774960629605414e-05   7.526057475647913e-05
-0.00014132964340788723   3.1774960629605414e-05   7.526057475647913e-05
-0.00014132964340788723   3.1774960629605414e-05   7.526057475647913e-05
-0.00014132964340788723   3.1774960629605414e-05   7.526057475647913e-05
-0.00011368939056870123   2.0185087945117156e-05   3.614741030186219e-05
-0.00011368939056870123   2.0185087945117156e-05   3.614741030186219e-05
-0.00011368939056870123   2.0185087945117156e-05   3.614741030186219e-05
-0.00011368939056870123   2.0185087945117156e-05   3.614741030186219e-05
-0.00012131675093731819   2.6816361796216936e-05   4.4880913272231024e-05
-0.00012131675093731819   2.6816361796216936e-05   4.4880913272231024e-05
-0.00012131675093731819   2.6816361796216936e-05   4.4880913272231024e-05
-0.00012131675093731819   2.6816361796216936e-05   4.4880913272231024e-05
-0.00011368939056870166   3.1774960629605414e-05   8.221449836717104e-05
-0.00011368939056870166   3.1774960629605414e-05   8.221449836717104e-05
-0.00011368939056870166   3.1774960629605414e-05   8.221449836717104e-05
-0.00011368939056870166   3.1774960629605414e-05   8.221449836717104e-05
-0.0001413296434078881   2.0185087945117156e-05   2.9193486691169845e-05
-0.0001413296434078881   2.0185087945117156e-05   2.9193486691169845e-05
-0.0001413296434078881   2.0185087945117156e-05   2.9193486691169845e-05
-0.0001413296434078881   2.0185087945117156e-05   2.9193486691169845e-05
-0.00014634608019108977   3.017181333525229e-05   8.865674120331693e-05
-0.00014634608019108977   3.017181333525229e-05   8.865674120331693e-05
-0.00014634608019108977   3.017181333525229e-05   8.865674120331693e-05
-0.00014634608019108977   3.017181333525229e-05   8.865674120331693e-05
-0.00011581107136274423   1.853512990278132e-05   4.4747069882222334e-05
-0.00011581107136274423   1.853512990278132e-05   4.4747069882222334e-05
-0.00011581107136274423   1.853512990278132e-05   4.4747069882222334e-05
-0.00011581107136274423   1.853512990278132e-05   4.4747069882222334e-05
-0.00012624393375733757   2.585914039433552e-05   5.7740767578282753e-05
-0.00012624393375733757   2.585914039433552e-05   5.7740767578282753e-05
-0.00012624393375733757   2.585914039433552e-05   5.7740767578282753e-05
-0.00012624393375733757   2.585914039433552e-05   5.7740767578282753e-05
-0.00011581107136274423   3.017181333525229e-05   9.563875126279882e-05
-0.00011581107136274423   3.017181333525229e-05   9.563875126279882e-05
-0.00011581107136274423   3.017181333525229e-05   9.563875126279882e-05
-0.00011581107136274423   3.017181333525229e-05   9.563875126279882e-05
-0.00014634608019109064   1.853512990278132e-05   3.776505982274001e-05
-0.00014634608019109064   1.853512990278132e-05   3.776505982274001e-05
-0.00014634608019109064   1.853512990278132e-05   3.776505982274001e-05
-0.00014634608019109064   1.853512990278132e-05   3.776505982274001e-05
-0.00015275304094999583   2.583807814247538e-05   0.00011292335788029399
-0.00015275304094999583   2.583807814247538e-05   0.00011292335788029399
-0.00015275304094999583   2.583807814247538e-05   0.00011292335788029399
-0.00015275304094999583   2.583807814247538e-05   0.00011292335788029399
-0.00011751465845692309   1.4775259053799103e-05   6.083041184504461e-05
-0.00011751465845692309   1.4775259053799103e-05   6.083041184504461e-05
-0.00011751465845692309   1.4775259053799103e-05   6.083041184504461e-05
-0.00011751465845692309   1.4775259053799103e-05   6.083041184504461e-05
-0.00012767756865888396   2.4062985982646265e-05   7.219595935767029e-05
-0.00012767756865888396   2.4062985982646265e-05   7.219595935767029e-05
-0.00012767756865888396   2.4062985982646265e-05   7.219595935767029e-05
-0.00012767756865888396   2.4062985982646265e-05   7.219595935767029e-05
-5.825879495542847e-05   1.0467374450831568e-05   6.591342339639901e-05
-5.825879495542847e-05   1.0467374450831568e-05   6.591342339639901e-05
-5.825879495542847e-05   1.0467374450831568e-05   6.591342339639901e-05
-5.825879495542847e-05   1.0467374450831568e-05   6.591342339639901e-05
-6.249379791202798e-05   1.954894476160953e-05   6.43040273218664e-05
-6.249379791202798e-05   1.954894476160953e-05   6.43040273218664e-05
-6.249379791202798e-05   1.954894476160953e-05   6.43040273218664e-05
-6.249379791202798e-05   1.954894476160953e-05   6.43040273218664e-05
-6.403980233096116e-05   7.163065708814392e-06   7.113886219876691e-05
-6.403980233096116e-05   7.163065708814392e-06   7.113886219876691e-05
-6.403980233096116e-05   7.163065708814392e-06   7.113886219876691e-05
-6.403980233096116e-05   7.163065708814392e-06   7.113886219876691e-05
-6.488546132433668e-05   1.5317139057291658e-05   6.76558498453058e-05
-6.488546132433668e-05   1.5317139057291658e-05   6.76558498453058e-05
-6.488546132433668e-05   1.5317139057291658e-05   6.76558498453058e-05
-6.488546132433668e-05   1.5317139057291658e-05   6.76558498453058e-05
-6.083255036883493e-05   1.2289896097463122e-05   6.271734402869995e-05
-6.083255036883493e-05   1.2289896097463122e-05   6.271734402869995e-05
-6.083255036883493e-05   1.2289896097463122e-05   6.271734402869995e-05
-6.083255036883493e-05   1.2289896097463122e-05   6.271734402869995e-05
-6.488546132433674e-05   7.163065708814392e-06   6.624641818967977e-05
-6.488546132433674e-05   7.163065708814392e-06   6.624641818967977e-05
-6.488546132433674e-05   7.163065708814392e-06   6.624641818967977e-05
-6.488546132433674e-05   7.163065708814392e-06   6.624641818967977e-05
-6.403980233096116e-05   1.5317139057291658e-05   7.254829385439261e-05
-6.403980233096116e-05   1.5317139057291658e-05   7.254829385439261e-05
-6.403980233096116e-05   1.5317139057291658e-05   7.254829385439261e-05
-6.403980233096116e-05   1.5317139057291658e-05   7.254829385439261e-05
-6.604871530112682e-05   5.327345807229489e-06   7.358178672339137e-05
-6.604871530112682e-05   5.327345807229489e-06   7.358178672339137e-05
-6.604871530112682e-05   5.327345807229489e-06   7.358178672339137e-05
-6.604871530112682e-05   5.327345807229489e-06   7.358178672339137e-05
-7.131637165396328e-05   1.237426360248435e-05   7.813306330096525e-05
-7.131637165396328e-05   1.237426360248435e-05   7.813306330096525e-05
-7.131637165396328e-05   1.237426360248435e-05   7.813306330096525e-05
-7.131637165396328e-05   1.237426360248435e-05   7.813306330096525e-05
-6.478359264033072e-05   1.045941377943952e-05   6.839400817206903e-05
-6.478359264033072e-05   1.045941377943952e-05   6.839400817206903e-05
-6.478359264033072e-05   1.045941377943952e-05   6.839400817206903e-05
-6.478359264033072e-05   1.045941377943952e-05   6.839400817206903e-05
-7.131637165396344e-05   5.327345807229489e-06   6.935363604623724e-05
-7.131637165396344e-05   5.327345807229489e-06   6.935363604623724e-05
-7.131637165396344e-05   5.327345807229489e-06   6.935363604623724e-05
-7.131637165396344e-05   5.327345807229489e-06   6.935363604623724e-05
-6.604871530112682e-05   1.237426360248435e-05   8.236121397811819e-05
-6.604871530112682e-05   1.237426360248435e-05   8.236121397811819e-05
-6.604871530112682e-05   1.237426360248435e-05   8.236121397811819e-05
-6.604871530112682e-05   1.237426360248435e-05   8.236121397811819e-05
-6.730510662104726e-05   1.4175779700122126e-06   8.120872183894727e-05
-6.730510662104726e-05   1.4175779700122126e-06   8.120872183894727e-05
-6.730510662104726e-05   1.4175779700122126e-06   8.120872183894727e-05
-6.730510662104726e-05   1.4175779700122126e-06   8.120872183894727e-05
-7.815458504473448e-05   5.126346672971842e-06   9.70659246566488e-05
-7.815458504473448e-05   5.126346672971842e-06   9.70659246566488e-05
-7.815458504473448e-05   5.126346672971842e-06   9.70659246566488e-05
-7.815458504473448e-05   5.126346672971842e-06   9.70659246566488e-05
-6.748886535821583e-05   8.19093955118158e-06   7.745096945219025e-05
-6.748886535821583e-05   8.19093955118158e-06   7.745096945219025e-05
-6.748886535821583e-05   8.19093955118158e-06   7.745096945219025e-05
-6.748886535821583e-05   8.19093955118158e-06   7.745096945219025e-05
-6.249379791202787e-05   1.1980402467524562e-05   0.00013245951729078847
-6.249379791202787e-05   1.1980402467524562e-05   0.00013245951729078847
-6.249379791202787e-05   1.1980402467524562e-05   0.00013245951729078847
-6.249379791202787e-05   1.1980402467524562e-05   0.00013245951729078847
-6.260121614449891e-05   5.048768823417808e-06   0.00012812150671687346
-6.260121614449891e-05   5.048768823417808e-06   0.00012812150671687346
-6.260121614449891e-05   5.048768823417808e-06   0.00012812150671687346
-6.260121614449891e-05   5.048768823417808e-06   0.00012812150671687346
-6.304621123633765e-05   8.281261141146641e-06   0.0001274635909171394
-6.304621123633765e-05   8.281261141146641e-06   0.0001274635909171394
-6.304621123633765e-05   8.281261141146641e-06   0.0001274635909171394
-6.304621123633765e-05   8.281261141146641e-06   0.0001274635909171394
-6.403980233096116e-05   2.4532083168606403e-06   0.00013261640776941698
-6.403980233096116e-05   2.4532083168606403e-06   0.00013261640776941698
-6.403980233096116e-05   2.4532083168606403e-06   0.00013261640776941698
-6.403980233096116e-05   2.4532083168606403e-06   0.00013261640776941698
-6.283593368831663e-05   6.150696254443762e-06   0.00012839146726912622
-6.283593368831663e-05   6.150696254443762e-06   0.00012839146726912622
-6.283593368831663e-05   6.150696254443762e-06   0.00012839146726912622
-6.283593368831663e-05   6.150696254443762e-06   0.00012839146726912622
-6.403980233096111e-05   8.281261141145774e-06   0.0001309604226117085
-6.403980233096111e-05   8.281261141145774e-06   0.0001309604226117085
-6.403980233096111e-05   8.281261141145774e-06   0.0001309604226117085
-6.403980233096111e-05   8.281261141145774e-06   0.0001309604226117085
-6.304621123633743e-05   2.4532083168606403e-06   0.0001291195760748454
-6.304621123633743e-05   2.4532083168606403e-06   0.0001291195760748454
-6.304621123633743e-05   2.4532083168606403e-06   0.0001291195760748454
-6.304621123633743e-05   2.4532083168606403e-06   0.0001291195760748454
-6.360399352935359e-05   4.851383562327893e-06   0.00012930807957432962
-6.360399352935359e-05   4.851383562327893e-06   0.00012930807957432962
-6.360399352935359e-05   4.851383562327893e-06   0.00012930807957432962
-6.360399352935359e-05   4.851383562327893e-06   0.00012930807957432962
-6.604871530112682e-05   -5.859934222932073e-07   0.0001366450420513894
-6.604871530112682e-05   -5.859934222932073e-07   0.0001366450420513894
-6.604871530112682e-05   -5.859934222932073e-07   0.0001366450420513894
-6.604871530112682e-05   -5.859934222932073e-07   0.0001366450420513894
-6.338825466912601e-05   3.984805206605664e-06   0.0001294684618207136
-6.338825466912601e-05   3.984805206605664e-06   0.0001294684618207136
-6.338825466912601e-05   3.984805206605664e-06   0.0001294684618207136
-6.338825466912601e-05   3.984805206605664e-06   0.0001294684618207136
-6.604871530112682e-05   4.851383562327026e-06   0.00013257050576509933
-6.604871530112682e-05   4.851383562327026e-06   0.00013257050576509933
-6.604871530112682e-05   4.851383562327026e-06   0.00013257050576509933
-6.604871530112682e-05   4.851383562327026e-06   0.00013257050576509933
-6.360399352935337e-05   -5.859934222940746e-07   0.00013338261586061688
-6.360399352935337e-05   -5.859934222940746e-07   0.00013338261586061688
-6.360399352935337e-05   -5.859934222940746e-07   0.00013338261586061688
-6.360399352935337e-05   -5.859934222940746e-07   0.00013338261586061688
-6.39910903881579e-05   1.1193414063640633e-06   0.00013312297109176197
-6.39910903881579e-05   1.1193414063640633e-06   0.00013312297109176197
-6.39910903881579e-05   1.1193414063640633e-06   0.00013312297109176197
-6.39910903881579e-05   1.1193414063640633e-06   0.00013312297109176197
-6.730510662104718e-05   -4.597888720610406e-06   0.00014207666955609453
-6.730510662104718e-05   -4.597888720610406e-06   0.00014207666955609453
-6.730510662104718e-05   -4.597888720610406e-06   0.00014207666955609453
-6.730510662104718e-05   -4.597888720610406e-06   0.00014207666955609453
-6.429126857916599e-05   1.4217661857907418e-06   0.00013344181320911516
-6.429126857916599e-05   1.4217661857907418e-06   0.00013344181320911516
-6.429126857916599e-05   1.4217661857907418e-06   0.00013344181320911516
-6.429126857916599e-05   1.4217661857907418e-06   0.00013344181320911516
-6.260121614449913e-05   1.4266222683607423e-05   0.00014616082874946076
-6.260121614449913e-05   1.4266222683607423e-05   0.00014616082874946076
-6.260121614449913e-05   1.4266222683607423e-05   0.00014616082874946076
-6.260121614449913e-05   1.4266222683607423e-05   0.00014616082874946076
-6.681538900964873e-05   1.3886169516847888e-06   0.0001314106438683911
-6.681538900964873e-05   1.3886169516847888e-06   0.0001314106438683911
-6.681538900964873e-05   1.3886169516847888e-06   0.0001314106438683911
-6.681538900964873e-05   1.3886169516847888e-06   0.0001314106438683911
-6.693191844780121e-05   1.0826167981049448e-05   0.00013867756224938965
-6.693191844780121e-05   1.0826167981049448e-05   0.00013867756224938965
-6.693191844780121e-05   1.0826167981049448e-05   0.00013867756224938965
-6.693191844780121e-05   1.0826167981049448e-05   0.00013867756224938965
-6.304621123633743e-05   -8.221118739260708e-07   0.0001391903514766017
-6.304621123633743e-05   -8.221118739260708e-07   0.0001391903514766017
-6.304621123633743e-05   -8.221118739260708e-07   0.0001391903514766017
-6.304621123633743e-05   -8.221118739260708e-07   0.0001391903514766017
-6.472970213025403e-05   6.2077366770017794e-06   0.00013777826050257228
-6.472970213025403e-05   6.2077366770017794e-06   0.00013777826050257228
-6.472970213025403e-05   6.2077366770017794e-06   0.00013777826050257228
-6.472970213025403e-05   6.2077366770017794e-06   0.00013777826050257228
-6.304621123633765e-05   1.0826167981049448e-05   0.00014566653016237366
-6.304621123633765e-05   1.0826167981049448e-05   0.00014566653016237366
-6.304621123633765e-05   1.0826167981049448e-05   0.00014566653016237366
-6.304621123633765e-05   1.0826167981049448e-05   0.00014566653016237366
-6.6931918447801e-05   -8.221118739260708e-07   0.0001322013835636166
-6.6931918447801e-05   -8.221118739260708e-07   0.0001322013835636166
-6.6931918447801e-05   -8.221118739260708e-07   0.0001322013835636166
-6.6931918447801e-05   -8.221118739260708e-07   0.0001322013835636166
-6.718178538888254e-05   7.3286179691116685e-06   0.00014090193057461967
-6.718178538888254e-05   7.3286179691116685e-06   0.00014090193057461967
-6.718178538888254e-05   7.3286179691116685e-06   0.00014090193057461967
-6.718178538888254e-05   7.3286179691116685e-06   0.00014090193057461967
-6.360399352935348e-05   -3.470768558644019e-06   0.0001414185760587243
-6.360399352935348e-05   -3.470768558644019e-06   0.0001414185760587243
-6.360399352935348e-05   -3.470768558644019e-06   0.0001414185760587243
-6.360399352935348e-05   -3.470768558644019e-06   0.0001414185760587243
-6.471919195006622e-05   4.010208978214545e-06   0.0001387886535711264
-6.471919195006622e-05   4.010208978214545e-06   0.0001387886535711264
-6.471919195006622e-05   4.010208978214545e-06   0.0001387886535711264
-6.471919195006622e-05   4.010208978214545e-06   0.0001387886535711264
-6.360399352935359e-05   7.3286179691116685e-06   0.0001473815624912717
-6.360399352935359e-05   7.3286179691116685e-06   0.0001473815624912717
-6.360399352935359e-05   7.3286179691116685e-06   0.0001473815624912717
-6.360399352935359e-05   7.3286179691116685e-06   0.0001473815624912717
-6.718178538888211e-05   -3.4707685586431516e-06   0.0001349389441420712
-6.718178538888211e-05   -3.4707685586431516e-06   0.0001349389441420712
-6.718178538888211e-05   -3.4707685586431516e-06   0.0001349389441420712
-6.718178538888211e-05   -3.4707685586431516e-06   0.0001349389441420712
-6.732266022045803e-05   4.006921251122238e-06   0.00014484380750967064
-6.732266022045803e-05   4.006921251122238e-06   0.00014484380750967064
-6.732266022045803e-05   4.006921251122238e-06   0.00014484380750967064
-6.732266022045803e-05   4.006921251122238e-06   0.00014484380750967064
-6.399109038815779e-05   -6.141875004321909e-06   0.00014538046887576902
-6.399109038815779e-05   -6.141875004321909e-06   0.00014538046887576902
-6.399109038815779e-05   -6.141875004321909e-06   0.00014538046887576902
-6.399109038815779e-05   -6.141875004321909e-06   0.00014538046887576902
-6.481370323316023e-05   1.7484636761506273e-06   0.00014201728707581834
-6.481370323316023e-05   1.7484636761506273e-06   0.00014201728707581834
-6.481370323316023e-05   1.7484636761506273e-06   0.00014201728707581834
-6.481370323316023e-05   1.7484636761506273e-06   0.00014201728707581834
-6.681538900964873e-05   1.9221284847105793e-05   0.00011886843780744985
-6.681538900964873e-05   1.9221284847105793e-05   0.00011886843780744985
-6.681538900964873e-05   1.9221284847105793e-05   0.00011886843780744985
-6.681538900964873e-05   1.9221284847105793e-05   0.00011886843780744985
-7.316774023991088e-05   6.280572323339763e-06   0.00010051675824275302
-7.316774023991088e-05   6.280572323339763e-06   0.00010051675824275302
-7.316774023991088e-05   6.280572323339763e-06   0.00010051675824275302
-7.316774023991088e-05   6.280572323339763e-06   0.00010051675824275302
-7.323847982506054e-05   1.5600588337431887e-05   0.00011222986950494562
-7.323847982506054e-05   1.5600588337431887e-05   0.00011222986950494562
-7.323847982506054e-05   1.5600588337431887e-05   0.00011222986950494562
-7.323847982506054e-05   1.5600588337431887e-05   0.00011222986950494562
-6.693191844780121e-05   3.3742219259598125e-06   0.00010905475372306392
-6.693191844780121e-05   3.3742219259598125e-06   0.00010905475372306392
-6.693191844780121e-05   3.3742219259598125e-06   0.00010905475372306392
-6.693191844780121e-05   3.3742219259598125e-06   0.00010905475372306392
-6.985388286986959e-05   1.1398097597168332e-05   0.00010911036902378542
-6.985388286986959e-05   1.1398097597168332e-05   0.00010911036902378542
-6.985388286986959e-05   1.1398097597168332e-05   0.00010911036902378542
-6.985388286986959e-05   1.1398097597168332e-05   0.00010911036902378542
-6.693191844780121e-05   1.5600588337431887e-05   0.00011956568935182809
-6.693191844780121e-05   1.5600588337431887e-05   0.00011956568935182809
-6.693191844780121e-05   1.5600588337431887e-05   0.00011956568935182809
-6.693191844780121e-05   1.5600588337431887e-05   0.00011956568935182809
-7.323847982506054e-05   3.374221925958945e-06   0.00010171893387618015
-7.323847982506054e-05   3.374221925958945e-06   0.00010171893387618015
-7.323847982506054e-05   3.374221925958945e-06   0.00010171893387618015
-7.323847982506054e-05   3.374221925958945e-06   0.00010171893387618015
-7.399253738948333e-05   1.238565544606305e-05   0.0001164168183846407
-7.399253738948333e-05   1.238565544606305e-05   0.0001164168183846407
-7.399253738948333e-05   1.238565544606305e-05   0.0001164168183846407
-7.399253738948333e-05   1.238565544606305e-05   0.0001164168183846407
-6.718178538888233e-05   8.890980241630167e-07   0.00011196349950344476
-6.718178538888233e-05   8.890980241630167e-07   0.00011196349950344476
-6.718178538888233e-05   8.890980241630167e-07   0.00011196349950344476
-6.718178538888233e-05   8.890980241630167e-07   0.00011196349950344476
-6.961001300788243e-05   9.001799111419198e-06   0.00011114292488275182
-6.961001300788243e-05   9.001799111419198e-06   0.00011114292488275182
-6.961001300788243e-05   9.001799111419198e-06   0.00011114292488275182
-6.961001300788243e-05   9.001799111419198e-06   0.00011114292488275182
-6.718178538888233e-05   1.238565544606305e-05   0.0001233147528377776
-6.718178538888233e-05   1.238565544606305e-05   0.0001233147528377776
-6.718178538888233e-05   1.238565544606305e-05   0.0001233147528377776
-6.718178538888233e-05   1.238565544606305e-05   0.0001233147528377776
-7.399253738948333e-05   8.890980241630167e-07   0.0001050655650503044
-7.399253738948333e-05   8.890980241630167e-07   0.0001050655650503044
-7.399253738948333e-05   8.890980241630167e-07   0.0001050655650503044
-7.399253738948333e-05   8.890980241630167e-07   0.0001050655650503044
-7.442855848742306e-05   9.117170210097211e-06   0.00012163014886041115
-7.442855848742306e-05   9.117170210097211e-06   0.00012163014886041115
-7.442855848742306e-05   9.117170210097211e-06   0.00012163014886041115
-7.442855848742306e-05   9.117170210097211e-06   0.00012163014886041115
-6.732266022045803e-05   -1.613753933451395e-06   0.00011622553956826395
-6.732266022045803e-05   -1.613753933451395e-06   0.00011622553956826395
-6.732266022045803e-05   -1.613753933451395e-06   0.00011622553956826395
-6.732266022045803e-05   -1.613753933451395e-06   0.00011622553956826395
-6.99119262242932e-05   6.866338086218213e-06   0.00011545292769618663
-6.99119262242932e-05   6.866338086218213e-06   0.00011545292769618663
-6.99119262242932e-05   6.866338086218213e-06   0.00011545292769618663
-6.99119262242932e-05   6.866338086218213e-06   0.00011545292769618663
-7.316774023991132e-05   2.2596109210720056e-05   4.5361200763507654e-05
-7.316774023991132e-05   2.2596109210720056e-05   4.5361200763507654e-05
-7.316774023991132e-05   2.2596109210720056e-05   4.5361200763507654e-05
-7.316774023991132e-05   2.2596109210720056e-05   4.5361200763507654e-05
-7.156579104376434e-05   1.0269161609212374e-05   4.0634947529514815e-05
-7.156579104376434e-05   1.0269161609212374e-05   4.0634947529514815e-05
-7.156579104376434e-05   1.0269161609212374e-05   4.0634947529514815e-05
-7.156579104376434e-05   1.0269161609212374e-05   4.0634947529514815e-05
-7.524240901019214e-05   2.0185087945117156e-05   4.965411151551004e-05
-7.524240901019214e-05   2.0185087945117156e-05   4.965411151551004e-05
-7.524240901019214e-05   2.0185087945117156e-05   4.965411151551004e-05
-7.524240901019214e-05   2.0185087945117156e-05   4.965411151551004e-05
-7.323847982506054e-05   8.222772773631114e-06   5.3491618643182384e-05
-7.323847982506054e-05   8.222772773631114e-06   5.3491618643182384e-05
-7.323847982506054e-05   8.222772773631114e-06   5.3491618643182384e-05
-7.323847982506054e-05   8.222772773631114e-06   5.3491618643182384e-05
-7.092869088462473e-05   1.5866958258956357e-05   4.505545911792728e-05
-7.092869088462473e-05   1.5866958258956357e-05   4.505545911792728e-05
-7.092869088462473e-05   1.5866958258956357e-05   4.505545911792728e-05
-7.092869088462473e-05   1.5866958258956357e-05   4.505545911792728e-05
-7.32384798250601e-05   2.0185087945117156e-05   5.683150061839984e-05
-7.32384798250601e-05   2.0185087945117156e-05   5.683150061839984e-05
-7.32384798250601e-05   2.0185087945117156e-05   5.683150061839984e-05
-7.32384798250601e-05   2.0185087945117156e-05   5.683150061839984e-05
-7.524240901019214e-05   8.222772773631114e-06   4.631422954029041e-05
-7.524240901019214e-05   8.222772773631114e-06   4.631422954029041e-05
-7.524240901019214e-05   8.222772773631114e-06   4.631422954029041e-05
-7.524240901019214e-05   8.222772773631114e-06   4.631422954029041e-05
-7.847610288276748e-05   1.8535129902780452e-05   5.894063875101947e-05
-7.847610288276748e-05   1.8535129902780452e-05   5.894063875101947e-05
-7.847610288276748e-05   1.8535129902780452e-05   5.894063875101947e-05
-7.847610288276748e-05   1.8535129902780452e-05   5.894063875101947e-05
-7.399253738948333e-05   6.882063562001738e-06   5.845986940001234e-05
-7.399253738948333e-05   6.882063562001738e-06   5.845986940001234e-05
-7.399253738948333e-05   6.882063562001738e-06   5.845986940001234e-05
-7.399253738948333e-05   6.882063562001738e-06   5.845986940001234e-05
-7.353086772593585e-05   1.4655436178967647e-05   5.302639639058297e-05
-7.353086772593585e-05   1.4655436178967647e-05   5.302639639058297e-05
-7.353086772593585e-05   1.4655436178967647e-05   5.302639639058297e-05
-7.353086772593585e-05   1.4655436178967647e-05   5.302639639058297e-05
-7.399253738948333e-05   1.853512990278132e-05   6.593247855548462e-05
-7.399253738948333e-05   1.853512990278132e-05   6.593247855548462e-05
-7.399253738948333e-05   1.853512990278132e-05   6.593247855548462e-05
-7.399253738948333e-05   1.853512990278132e-05   6.593247855548462e-05
-7.847610288276748e-05   6.882063562001738e-06   5.146802959554546e-05
-7.847610288276748e-05   6.882063562001738e-06   5.146802959554546e-05
-7.847610288276748e-05   6.882063562001738e-06   5.146802959554546e-05
-7.847610288276748e-05   6.882063562001738e-06   5.146802959554546e-05
-8.332609141350252e-05   1.477525905379997e-05   7.600873990138476e-05
-8.332609141350252e-05   1.477525905379997e-05   7.600873990138476e-05
-8.332609141350252e-05   1.477525905379997e-05   7.600873990138476e-05
-8.332609141350252e-05   1.477525905379997e-05   7.600873990138476e-05
-7.442855848742262e-05   4.215949663651658e-06   6.751510399200661e-05
-7.442855848742262e-05   4.215949663651658e-06   6.751510399200661e-05
-7.442855848742262e-05   4.215949663651658e-06   6.751510399200661e-05
-7.442855848742262e-05   4.215949663651658e-06   6.751510399200661e-05
-7.440651373636959e-05   1.3238743752303286e-05   6.206468628705379e-05
-7.440651373636959e-05   1.3238743752303286e-05   6.206468628705379e-05
-7.440651373636959e-05   1.3238743752303286e-05   6.206468628705379e-05
-7.440651373636959e-05   1.3238743752303286e-05   6.206468628705379e-05
-0.00014774484767743015   1.954894476160953e-05   5.468569305196701e-05
-0.00014774484767743015   1.954894476160953e-05   5.468569305196701e-05
-0.00014774484767743015   1.954894476160953e-05   5.468569305196701e-05
-0.00014774484767743015   1.954894476160953e-05   5.468569305196701e-05
-9.916004502759655e-05   2.7140884687890804e-05   0.0001402155280907922
-9.916004502759655e-05   2.7140884687890804e-05   0.0001402155280907922
-9.916004502759655e-05   2.7140884687890804e-05   0.0001402155280907922
-9.916004502759655e-05   2.7140884687890804e-05   0.0001402155280907922
-9.907179155588892e-05   1.5317139057291658e-05   6.267153792389405e-05
-9.907179155588892e-05   1.5317139057291658e-05   6.267153792389405e-05
-9.907179155588892e-05   1.5317139057291658e-05   6.267153792389405e-05
-9.907179155588892e-05   1.5317139057291658e-05   6.267153792389405e-05
-0.0001624133679140659   1.128919941006468e-05   0.00017065759564252657
-0.0001624133679140659   1.128919941006468e-05   0.00017065759564252657
-0.0001624133679140659   1.128919941006468e-05   0.00017065759564252657
-0.0001624133679140659   1.128919941006468e-05   0.00017065759564252657
-0.00012055124036731234   1.6151581387870845e-05   9.796995387792006e-05
-0.00012055124036731234   1.6151581387870845e-05   9.796995387792006e-05
-0.00012055124036731234   1.6151581387870845e-05   9.796995387792006e-05
-0.00012055124036731234   1.6151581387870845e-05   9.796995387792006e-05
-0.00016241336791406616   1.531713905729079e-05   6.508830171223076e-05
-0.00016241336791406616   1.531713905729079e-05   6.508830171223076e-05
-0.00016241336791406616   1.531713905729079e-05   6.508830171223076e-05
-0.00016241336791406616   1.531713905729079e-05   6.508830171223076e-05
-9.907179155588892e-05   1.128919941006468e-05   0.0001682408318541904
-9.907179155588892e-05   1.128919941006468e-05   0.0001682408318541904
-9.907179155588892e-05   1.128919941006468e-05   0.0001682408318541904
-9.907179155588892e-05   1.128919941006468e-05   0.0001682408318541904
-0.00010031954210777054   1.237426360248435e-05   7.036042005485895e-05
-0.00010031954210777054   1.237426360248435e-05   7.036042005485895e-05
-0.00010031954210777054   1.237426360248435e-05   7.036042005485895e-05
-0.00010031954210777054   1.237426360248435e-05   7.036042005485895e-05
-0.00016289093066847605   8.205352707774723e-06   0.0001771474141928597
-0.00016289093066847605   8.205352707774723e-06   0.0001771474141928597
-0.00016289093066847605   8.205352707774723e-06   0.0001771474141928597
-0.00016289093066847605   8.205352707774723e-06   0.0001771474141928597
-0.0001284719606587867   1.0198871192820032e-05   0.00011858635308568187
-0.0001284719606587867   1.0198871192820032e-05   0.00011858635308568187
-0.0001284719606587867   1.0198871192820032e-05   0.00011858635308568187
-0.0001284719606587867   1.0198871192820032e-05   0.00011858635308568187
-0.00016289093066847632   1.237426360248435e-05   7.286176659168425e-05
-0.00016289093066847632   1.237426360248435e-05   7.286176659168425e-05
-0.00016289093066847632   1.237426360248435e-05   7.286176659168425e-05
-0.00016289093066847632   1.237426360248435e-05   7.286176659168425e-05
-0.00010031954210777035   8.205352707774723e-06   0.00017464606765603408
-0.00010031954210777035   8.205352707774723e-06   0.00017464606765603408
-0.00010031954210777035   8.205352707774723e-06   0.00017464606765603408
-0.00010031954210777035   8.205352707774723e-06   0.00017464606765603408
-9.914647276735683e-05   5.126346672971842e-06   8.382913801609324e-05
-9.914647276735683e-05   5.126346672971842e-06   8.382913801609324e-05
-9.914647276735683e-05   5.126346672971842e-06   8.382913801609324e-05
-9.914647276735683e-05   5.126346672971842e-06   8.382913801609324e-05
-0.0001644916318836929   -4.847361748624643e-06   0.000198721961596277
-0.0001644916318836929   -4.847361748624643e-06   0.000198721961596277
-0.0001644916318836929   -4.847361748624643e-06   0.000198721961596277
-0.0001644916318836929   -4.847361748624643e-06   0.000198721961596277
-0.00012640591690320175   5.076490172749304e-06   0.00012929145880930063
-0.00012640591690320175   5.076490172749304e-06   0.00012929145880930063
-0.00012640591690320175   5.076490172749304e-06   0.00012929145880930063
-0.00012640591690320175   5.076490172749304e-06   0.00012929145880930063
-9.916004502759672e-05   5.048768823417808e-06   0.00012721731658920645
-9.916004502759672e-05   5.048768823417808e-06   0.00012721731658920645
-9.916004502759672e-05   5.048768823417808e-06   0.00012721731658920645
-9.916004502759672e-05   5.048768823417808e-06   0.00012721731658920645
-6.056259078075787e-05   -2.9701699923616494e-05   0.0001706961257523838
-6.056259078075787e-05   -2.9701699923616494e-05   0.0001706961257523838
-6.056259078075787e-05   -2.9701699923616494e-05   0.0001706961257523838
-6.056259078075787e-05   -2.9701699923616494e-05   0.0001706961257523838
-6.061930463730663e-05   2.4532083168606403e-06   0.00010672788921311073
-6.061930463730663e-05   2.4532083168606403e-06   0.00010672788921311073
-6.061930463730663e-05   2.4532083168606403e-06   0.00010672788921311073
-6.061930463730663e-05   2.4532083168606403e-06   0.00010672788921311073
-9.907179155588892e-05   -2.423306272615307e-05   0.00018682713003655713
-9.907179155588892e-05   -2.423306272615307e-05   0.00018682713003655713
-9.907179155588892e-05   -2.423306272615307e-05   0.00018682713003655713
-9.907179155588892e-05   -2.423306272615307e-05   0.00018682713003655713
-7.940509928303805e-05   -1.4669577436087801e-05   0.00014831121840776706
-7.940509928303805e-05   -1.4669577436087801e-05   0.00014831121840776706
-7.940509928303805e-05   -1.4669577436087801e-05   0.00014831121840776706
-7.940509928303805e-05   -1.4669577436087801e-05   0.00014831121840776706
-9.907179155588898e-05   2.4532083168606403e-06   0.00012273965183891766
-9.907179155588898e-05   2.4532083168606403e-06   0.00012273965183891766
-9.907179155588898e-05   2.4532083168606403e-06   0.00012273965183891766
-9.907179155588898e-05   2.4532083168606403e-06   0.00012273965183891766
-6.061930463730652e-05   -2.423306272615307e-05   0.00017081536741074934
-6.061930463730652e-05   -2.423306272615307e-05   0.00017081536741074934
-6.061930463730652e-05   -2.423306272615307e-05   0.00017081536741074934
-6.061930463730652e-05   -2.423306272615307e-05   0.00017081536741074934
-6.076355284262262e-05   -5.859934222932073e-07   0.00011010868584434338
-6.076355284262262e-05   -5.859934222932073e-07   0.00011010868584434338
-6.076355284262262e-05   -5.859934222932073e-07   0.00011010868584434338
-6.076355284262262e-05   -5.859934222932073e-07   0.00011010868584434338
-0.00010031954210777035   -2.481193056193872e-05   0.00019057089690337583
-0.00010031954210777035   -2.481193056193872e-05   0.00019057089690337583
-0.00010031954210777035   -2.481193056193872e-05   0.00019057089690337583
-0.00010031954210777035   -2.481193056193872e-05   0.00019057089690337583
-7.875846359964967e-05   -1.2812221435992872e-05   0.00014743594058093997
-7.875846359964967e-05   -1.2812221435992872e-05   0.00014743594058093997
-7.875846359964967e-05   -1.2812221435992872e-05   0.00014743594058093997
-7.875846359964967e-05   -1.2812221435992872e-05   0.00014743594058093997
-0.00010031954210777054   -5.859934222932073e-07   0.00012464424812813017
-0.00010031954210777054   -5.859934222932073e-07   0.00012464424812813017
-0.00010031954210777054   -5.859934222932073e-07   0.00012464424812813017
-0.00010031954210777054   -5.859934222932073e-07   0.00012464424812813017
-6.076355284262251e-05   -2.481193056193872e-05   0.00017603533461958926
-6.076355284262251e-05   -2.481193056193872e-05   0.00017603533461958926
-6.076355284262251e-05   -2.481193056193872e-05   0.00017603533461958926
-6.076355284262251e-05   -2.481193056193872e-05   0.00017603533461958926
-6.005781872748964e-05   -4.597888720610406e-06   0.00011430185535077917
-6.005781872748964e-05   -4.597888720610406e-06   0.00011430185535077917
-6.005781872748964e-05   -4.597888720610406e-06   0.00011430185535077917
-6.005781872748964e-05   -4.597888720610406e-06   0.00011430185535077917
-9.914647276735656e-05   -2.511916595891641e-05   0.00019176237842687377
-9.914647276735656e-05   -2.511916595891641e-05   0.00019176237842687377
-9.914647276735656e-05   -2.511916595891641e-05   0.00019176237842687377
-9.914647276735656e-05   -2.511916595891641e-05   0.00019176237842687377
-7.902539892159564e-05   -1.4441939208229004e-05   0.00015182091930019325
-7.902539892159564e-05   -1.4441939208229004e-05   0.00015182091930019325
-7.902539892159564e-05   -1.4441939208229004e-05   0.00015182091930019325
-7.902539892159564e-05   -1.4441939208229004e-05   0.00015182091930019325
-6.056259078075787e-05   1.3886169516856561e-06   0.00011738273593165727
-6.056259078075787e-05   1.3886169516856561e-06   0.00011738273593165727
-6.056259078075787e-05   1.3886169516856561e-06   0.00011738273593165727
-6.056259078075787e-05   1.3886169516856561e-06   0.00011738273593165727
-4.423835967360475e-05   -2.3193228943699847e-05   0.00012984068023968228
-4.423835967360475e-05   -2.3193228943699847e-05   0.00012984068023968228
-4.423835967360475e-05   -2.3193228943699847e-05   0.00012984068023968228
-4.423835967360475e-05   -2.3193228943699847e-05   0.00012984068023968228
-4.3769391192474824e-05   -8.221118739260708e-07   0.00010362510053447049
-4.3769391192474824e-05   -8.221118739260708e-07   0.00010362510053447049
-4.3769391192474824e-05   -8.221118739260708e-07   0.00010362510053447049
-4.3769391192474824e-05   -8.221118739260708e-07   0.00010362510053447049
-6.061930463730652e-05   -2.2778052007919446e-05   0.00014488185368958704
-6.061930463730652e-05   -2.2778052007919446e-05   0.00014488185368958704
-6.061930463730652e-05   -2.2778052007919446e-05   0.00014488185368958704
-6.061930463730652e-05   -2.2778052007919446e-05   0.00014488185368958704
-5.1964892993877404e-05   -1.1740049160826986e-05   0.00012383503257561764
-5.1964892993877404e-05   -1.1740049160826986e-05   0.00012383503257561764
-5.1964892993877404e-05   -1.1740049160826986e-05   0.00012383503257561764
-5.1964892993877404e-05   -1.1740049160826986e-05   0.00012383503257561764
-6.061930463730652e-05   -8.221118739260708e-07   0.00011679866461486704
-6.061930463730652e-05   -8.221118739260708e-07   0.00011679866461486704
-6.061930463730652e-05   -8.221118739260708e-07   0.00011679866461486704
-6.061930463730652e-05   -8.221118739260708e-07   0.00011679866461486704
-4.376939119247504e-05   -2.2778052007919446e-05   0.00013170828960919092
-4.376939119247504e-05   -2.2778052007919446e-05   0.00013170828960919092
-4.376939119247504e-05   -2.2778052007919446e-05   0.00013170828960919092
-4.376939119247504e-05   -2.2778052007919446e-05   0.00013170828960919092
-4.334227955318662e-05   -3.470768558644019e-06   0.00010613282638486515
-4.334227955318662e-05   -3.470768558644019e-06   0.00010613282638486515
-4.334227955318662e-05   -3.470768558644019e-06   0.00010613282638486515
-4.334227955318662e-05   -3.470768558644019e-06   0.00010613282638486515
-6.076355284262251e-05   -2.3490467987952787e-05   0.00014718010152484345
-6.076355284262251e-05   -2.3490467987952787e-05   0.00014718010152484345
-6.076355284262251e-05   -2.3490467987952787e-05   0.00014718010152484345
-6.076355284262251e-05   -2.3490467987952787e-05   0.00014718010152484345
-5.14320280567355e-05   -1.2558983292709162e-05   0.0001250686693978825
-5.14320280567355e-05   -1.2558983292709162e-05   0.0001250686693978825
-5.14320280567355e-05   -1.2558983292709162e-05   0.0001250686693978825
-5.14320280567355e-05   -1.2558983292709162e-05   0.0001250686693978825
-6.076355284262251e-05   -3.4707685586431516e-06   0.00011814464604245145
-6.076355284262251e-05   -3.4707685586431516e-06   0.00011814464604245145
-6.076355284262251e-05   -3.4707685586431516e-06   0.00011814464604245145
-6.076355284262251e-05   -3.4707685586431516e-06   0.00011814464604245145
-4.334227955318662e-05   -2.349046798795322e-05   0.00013516828186725758
-4.334227955318662e-05   -2.349046798795322e-05   0.00013516828186725758
-4.334227955318662e-05   -2.349046798795322e-05   0.00013516828186725758
-4.334227955318662e-05   -2.349046798795322e-05   0.00013516828186725758
-4.2388960482599896e-05   -6.141875004321909e-06   0.000110004711816047
-4.2388960482599896e-05   -6.141875004321909e-06   0.000110004711816047
-4.2388960482599896e-05   -6.141875004321909e-06   0.000110004711816047
-4.2388960482599896e-05   -6.141875004321909e-06   0.000110004711816047
-6.005781872748953e-05   -2.4527343221973728e-05   0.00015048408982145322
-6.005781872748953e-05   -2.4527343221973728e-05   0.00015048408982145322
-6.005781872748953e-05   -2.4527343221973728e-05   0.00015048408982145322
-6.005781872748953e-05   -2.4527343221973728e-05   0.00015048408982145322
-5.0803522007251425e-05   -1.3736085457263097e-05   0.0001285855072955637
-5.0803522007251425e-05   -1.3736085457263097e-05   0.0001285855072955637
-5.0803522007251425e-05   -1.3736085457263097e-05   0.0001285855072955637
-5.0803522007251425e-05   -1.3736085457263097e-05   0.0001285855072955637
-4.423835967360453e-05   6.280572323339763e-06   7.950417028304785e-05
-4.423835967360453e-05   6.280572323339763e-06   7.950417028304785e-05
-4.423835967360453e-05   6.280572323339763e-06   7.950417028304785e-05
-4.423835967360453e-05   6.280572323339763e-06   7.950417028304785e-05
-3.651041674116893e-05   -9.48495187883154e-06   8.292476064913706e-05
-3.651041674116893e-05   -9.48495187883154e-06   8.292476064913706e-05
-3.651041674116893e-05   -9.48495187883154e-06   8.292476064913706e-05
-3.651041674116893e-05   -9.48495187883154e-06   8.292476064913706e-05
-3.564136202229007e-05   3.3742219259598125e-06   7.177413295709686e-05
-3.564136202229007e-05   3.3742219259598125e-06   7.177413295709686e-05
-3.564136202229007e-05   3.3742219259598125e-06   7.177413295709686e-05
-3.564136202229007e-05   3.3742219259598125e-06   7.177413295709686e-05
-4.3769391192474824e-05   -1.113300763541051e-05   9.402518597755993e-05
-4.3769391192474824e-05   -1.113300763541051e-05   9.402518597755993e-05
-4.3769391192474824e-05   -1.113300763541051e-05   9.402518597755993e-05
-4.3769391192474824e-05   -1.113300763541051e-05   9.402518597755993e-05
-3.9743914373960624e-05   -2.158596408050051e-06   8.193141121028797e-05
-3.9743914373960624e-05   -2.158596408050051e-06   8.193141121028797e-05
-3.9743914373960624e-05   -2.158596408050051e-06   8.193141121028797e-05
-3.9743914373960624e-05   -2.158596408050051e-06   8.193141121028797e-05
-4.3769391192474824e-05   3.3742219259598125e-06   8.047847069391758e-05
-4.3769391192474824e-05   3.3742219259598125e-06   8.047847069391758e-05
-4.3769391192474824e-05   3.3742219259598125e-06   8.047847069391758e-05
-4.3769391192474824e-05   3.3742219259598125e-06   8.047847069391758e-05
-3.564136202229007e-05   -1.113300763541051e-05   8.532084824073856e-05
-3.564136202229007e-05   -1.113300763541051e-05   8.532084824073856e-05
-3.564136202229007e-05   -1.113300763541051e-05   8.532084824073856e-05
-3.564136202229007e-05   -1.113300763541051e-05   8.532084824073856e-05
-3.520070953487355e-05   8.890980241621493e-07   7.51910618140162e-05
-3.520070953487355e-05   8.890980241621493e-07   7.51910618140162e-05
-3.520070953487355e-05   8.890980241621493e-07   7.51910618140162e-05
-3.520070953487355e-05   8.890980241621493e-07   7.51910618140162e-05
-4.3342279553186406e-05   -1.2388101862873067e-05   9.672666511009254e-05
-4.3342279553186406e-05   -1.2388101862873067e-05   9.672666511009254e-05
-4.3342279553186406e-05   -1.2388101862873067e-05   9.672666511009254e-05
-4.3342279553186406e-05   -1.2388101862873067e-05   9.672666511009254e-05
-3.8884930764585294e-05   -3.94151297788449e-06   8.422979713142717e-05
-3.8884930764585294e-05   -3.94151297788449e-06   8.422979713142717e-05
-3.8884930764585294e-05   -3.94151297788449e-06   8.422979713142717e-05
-3.8884930764585294e-05   -3.94151297788449e-06   8.422979713142717e-05
-4.3342279553186406e-05   8.890980241621493e-07   8.315738174623699e-05
-4.3342279553186406e-05   8.890980241621493e-07   8.315738174623699e-05
-4.3342279553186406e-05   8.890980241621493e-07   8.315738174623699e-05
-4.3342279553186406e-05   8.890980241621493e-07   8.315738174623699e-05
-3.520070953487355e-05   -1.2388101862873067e-05   8.876034517787089e-05
-3.520070953487355e-05   -1.2388101862873067e-05   8.876034517787089e-05
-3.520070953487355e-05   -1.2388101862873067e-05   8.876034517787089e-05
-3.520070953487355e-05   -1.2388101862873067e-05   8.876034517787089e-05
-3.4526690616068674e-05   -1.6137539334505277e-06   7.94822952784489e-05
-3.4526690616068674e-05   -1.6137539334505277e-06   7.94822952784489e-05
-3.4526690616068674e-05   -1.6137539334505277e-06   7.94822952784489e-05
-3.4526690616068674e-05   -1.6137539334505277e-06   7.94822952784489e-05
-4.2388960482599896e-05   -1.4041695572382905e-05   0.00010004284337269314
-4.2388960482599896e-05   -1.4041695572382905e-05   0.00010004284337269314
-4.2388960482599896e-05   -1.4041695572382905e-05   0.00010004284337269314
-4.2388960482599896e-05   -1.4041695572382905e-05   0.00010004284337269314
-3.818881250395028e-05   -5.496212735235911e-06   8.791530703932456e-05
-3.818881250395028e-05   -5.496212735235911e-06   8.791530703932456e-05
-3.818881250395028e-05   -5.496212735235911e-06   8.791530703932456e-05
-3.818881250395028e-05   -5.496212735235911e-06   8.791530703932456e-05
-3.651041674116893e-05   1.0269161609211507e-05   1.7559213609410866e-05
-3.651041674116893e-05   1.0269161609211507e-05   1.7559213609410866e-05
-3.651041674116893e-05   1.0269161609211507e-05   1.7559213609410866e-05
-3.651041674116893e-05   1.0269161609211507e-05   1.7559213609410866e-05
-2.053795824059467e-05   -1.1134615711559312e-06   3.735040386881449e-05
-2.053795824059467e-05   -1.1134615711559312e-06   3.735040386881449e-05
-2.053795824059467e-05   -1.1134615711559312e-06   3.735040386881449e-05
-2.053795824059467e-05   -1.1134615711559312e-06   3.735040386881449e-05
-2.1637876294080833e-05   8.222772773631114e-06   1.7694772300296153e-05
-2.1637876294080833e-05   8.222772773631114e-06   1.7694772300296153e-05
-2.1637876294080833e-05   8.222772773631114e-06   1.7694772300296153e-05
-2.1637876294080833e-05   8.222772773631114e-06   1.7694772300296153e-05
-3.564136202229007e-05   -1.5306362660381413e-06   4.6885960604449266e-05
-3.564136202229007e-05   -1.5306362660381413e-06   4.6885960604449266e-05
-3.564136202229007e-05   -1.5306362660381413e-06   4.6885960604449266e-05
-3.564136202229007e-05   -1.5306362660381413e-06   4.6885960604449266e-05
-2.7600701967837177e-05   5.26603123997358e-06   2.9406860010088368e-05
-2.7600701967837177e-05   5.26603123997358e-06   2.9406860010088368e-05
-2.7600701967837177e-05   5.26603123997358e-06   2.9406860010088368e-05
-2.7600701967837177e-05   5.26603123997358e-06   2.9406860010088368e-05
-3.56413620222905e-05   8.222772773631114e-06   2.3546817724096926e-05
-3.56413620222905e-05   8.222772773631114e-06   2.3546817724096926e-05
-3.56413620222905e-05   8.222772773631114e-06   2.3546817724096926e-05
-3.56413620222905e-05   8.222772773631114e-06   2.3546817724096926e-05
-2.16378762940804e-05   -1.5306362660381413e-06   4.1033915180647626e-05
-2.16378762940804e-05   -1.5306362660381413e-06   4.1033915180647626e-05
-2.16378762940804e-05   -1.5306362660381413e-06   4.1033915180647626e-05
-2.16378762940804e-05   -1.5306362660381413e-06   4.1033915180647626e-05
-2.2529709968151842e-05   6.882063562001738e-06   2.319455337868384e-05
-2.2529709968151842e-05   6.882063562001738e-06   2.319455337868384e-05
-2.2529709968151842e-05   6.882063562001738e-06   2.319455337868384e-05
-2.2529709968151842e-05   6.882063562001738e-06   2.319455337868384e-05
-3.520070953487355e-05   -2.1026244130676122e-06   4.9703698774927144e-05
-3.520070953487355e-05   -2.1026244130676122e-06   4.9703698774927144e-05
-3.520070953487355e-05   -2.1026244130676122e-06   4.9703698774927144e-05
-3.520070953487355e-05   -2.1026244130676122e-06   4.9703698774927144e-05
-2.7998930521319068e-05   4.240516008021007e-06   3.389484949968026e-05
-2.7998930521319068e-05   4.240516008021007e-06   3.389484949968026e-05
-2.7998930521319068e-05   4.240516008021007e-06   3.389484949968026e-05
-2.7998930521319068e-05   4.240516008021007e-06   3.389484949968026e-05
-3.520070953487355e-05   6.882063562002605e-06   2.8585366163725017e-05
-3.520070953487355e-05   6.882063562002605e-06   2.8585366163725017e-05
-3.520070953487355e-05   6.882063562002605e-06   2.8585366163725017e-05
-3.520070953487355e-05   6.882063562002605e-06   2.8585366163725017e-05
-2.2529709968152276e-05   -2.1026244130676122e-06   4.4312885989885534e-05
-2.2529709968152276e-05   -2.1026244130676122e-06   4.4312885989885534e-05
-2.2529709968152276e-05   -2.1026244130676122e-06   4.4312885989885534e-05
-2.2529709968152276e-05   -2.1026244130676122e-06   4.4312885989885534e-05
-2.4869741557964186e-05   4.215949663651658e-06   3.30175541371526e-05
-2.4869741557964186e-05   4.215949663651658e-06   3.30175541371526e-05
-2.4869741557964186e-05   4.215949663651658e-06   3.30175541371526e-05
-2.4869741557964186e-05   4.215949663651658e-06   3.30175541371526e-05
-3.4526690616068674e-05   -2.7721504216302907e-06   5.330532928516079e-05
-3.4526690616068674e-05   -2.7721504216302907e-06   5.330532928516079e-05
-3.4526690616068674e-05   -2.7721504216302907e-06   5.330532928516079e-05
-3.4526690616068674e-05   -2.7721504216302907e-06   5.330532928516079e-05
-2.7989408597693406e-05   3.5596717331111763e-06   3.8610765961689594e-05
-2.7989408597693406e-05   3.5596717331111763e-06   3.8610765961689594e-05
-2.7989408597693406e-05   3.5596717331111763e-06   3.8610765961689594e-05
-2.7989408597693406e-05   3.5596717331111763e-06   3.8610765961689594e-05
-0.00034281406421295975   2.7140884687891238e-05   0.00014301393303379497
-0.00034281406421295975   2.7140884687891238e-05   0.00014301393303379497
-0.00034281406421295975   2.7140884687891238e-05   0.00014301393303379497
-0.00034281406421295975   2.7140884687891238e-05   0.00014301393303379497
-8.104018421160956e-05   -0.0001627456999256958   0.0004653717822678934
-8.104018421160956e-05   -0.0001627456999256958   0.0004653717822678934
-8.104018421160956e-05   -0.0001627456999256958   0.0004653717822678934
-8.104018421160956e-05   -0.0001627456999256958   0.0004653717822678934
-9.481379933063804e-05   1.128919941006468e-05   7.889626575041328e-05
-9.481379933063804e-05   1.128919941006468e-05   7.889626575041328e-05
-9.481379933063804e-05   1.128919941006468e-05   7.889626575041328e-05
-9.481379933063804e-05   1.128919941006468e-05   7.889626575041328e-05
-0.00031265320054198897   -0.000125773304327655   0.0005241994366786293
-0.00031265320054198897   -0.000125773304327655   0.0005241994366786293
-0.00031265320054198897   -0.000125773304327655   0.0005241994366786293
-0.00031265320054198897   -0.000125773304327655   0.0005241994366786293
-0.0002085784656682795   -6.26481976413937e-05   0.00031286648121068997
-0.0002085784656682795   -6.26481976413937e-05   0.00031286648121068997
-0.0002085784656682795   -6.26481976413937e-05   0.00031286648121068997
-0.0002085784656682795   -6.26481976413937e-05   0.00031286648121068997
-0.00031265320054198843   1.128919941006468e-05   0.00016113376799304496
-0.00031265320054198843   1.128919941006468e-05   0.00016113376799304496
-0.00031265320054198843   1.128919941006468e-05   0.00016113376799304496
-0.00031265320054198843   1.128919941006468e-05   0.00016113376799304496
-9.481379933063815e-05   -0.000125773304327655   0.0004419619344359974
-9.481379933063815e-05   -0.000125773304327655   0.0004419619344359974
-9.481379933063815e-05   -0.000125773304327655   0.0004419619344359974
-9.481379933063815e-05   -0.000125773304327655   0.0004419619344359974
-9.68044318223379e-05   8.205352707774723e-06   8.667010889216412e-05
-9.68044318223379e-05   8.205352707774723e-06   8.667010889216412e-05
-9.68044318223379e-05   8.205352707774723e-06   8.667010889216412e-05
-9.68044318223379e-05   8.205352707774723e-06   8.667010889216412e-05
-0.00029496315838967093   -0.00010786182122328866   0.0004865749575296896
-0.00029496315838967093   -0.00010786182122328866   0.0004865749575296896
-0.00029496315838967093   -0.00010786182122328866   0.0004865749575296896
-0.00029496315838967093   -0.00010786182122328866   0.0004865749575296896
-0.00020221941572876718   -5.927633000680317e-05   0.00030285075836495906
-0.00020221941572876718   -5.927633000680317e-05   0.00030285075836495906
-0.00020221941572876718   -5.927633000680317e-05   0.00030285075836495906
-0.00020221941572876718   -5.927633000680317e-05   0.00030285075836495906
-0.0002949631583896704   8.205352707774723e-06   0.00015631041325080163
-0.0002949631583896704   8.205352707774723e-06   0.00015631041325080163
-0.0002949631583896704   8.205352707774723e-06   0.00015631041325080163
-0.0002949631583896704   8.205352707774723e-06   0.00015631041325080163
-9.680443182233806e-05   -0.00010786182122328866   0.0004169346531710516
-9.680443182233806e-05   -0.00010786182122328866   0.0004169346531710516
-9.680443182233806e-05   -0.00010786182122328866   0.0004169346531710516
-9.680443182233806e-05   -0.00010786182122328866   0.0004169346531710516
-0.00010572567341619909   -4.847361748624209e-06   0.00010867447123352422
-0.00010572567341619909   -4.847361748624209e-06   0.00010867447123352422
-0.00010572567341619909   -4.847361748624209e-06   0.00010867447123352422
-0.00010572567341619909   -4.847361748624209e-06   0.00010867447123352422
-0.00027233867653015634   -8.413714467315795e-05   0.00043393667951150577
-0.00027233867653015634   -8.413714467315795e-05   0.00043393667951150577
-0.00027233867653015634   -8.413714467315795e-05   0.00043393667951150577
-0.00027233867653015634   -8.413714467315795e-05   0.00043393667951150577
-0.00019434474581040464   -5.468337312518443e-05   0.00028627453204980237
-0.00019434474581040464   -5.468337312518443e-05   0.00028627453204980237
-0.00019434474581040464   -5.468337312518443e-05   0.00028627453204980237
-0.00019434474581040464   -5.468337312518443e-05   0.00028627453204980237
-8.104018421160945e-05   -2.9701699923616494e-05   8.041286117545514e-05
-8.104018421160945e-05   -2.9701699923616494e-05   8.041286117545514e-05
-8.104018421160945e-05   -2.9701699923616494e-05   8.041286117545514e-05
-8.104018421160945e-05   -2.9701699923616494e-05   8.041286117545514e-05
-2.8360778574395228e-05   -4.913278026196779e-05   0.00015655322236780183
-2.8360778574395228e-05   -4.913278026196779e-05   0.00015655322236780183
-2.8360778574395228e-05   -4.913278026196779e-05   0.00015655322236780183
-2.8360778574395228e-05   -4.913278026196779e-05   0.00015655322236780183
-3.1501600031964296e-05   -2.423306272615307e-05   7.260694186035405e-05
-3.1501600031964296e-05   -2.423306272615307e-05   7.260694186035405e-05
-3.1501600031964296e-05   -2.423306272615307e-05   7.260694186035405e-05
-3.1501600031964296e-05   -2.423306272615307e-05   7.260694186035405e-05
-9.481379933063815e-05   -6.56924328468632e-05   0.00020300289609723556
-9.481379933063815e-05   -6.56924328468632e-05   0.00020300289609723556
-9.481379933063815e-05   -6.56924328468632e-05   0.00020300289609723556
-9.481379933063815e-05   -6.56924328468632e-05   0.00020300289609723556
-5.585880023650146e-05   -3.461701376881836e-05   0.00011943264616018053
-5.585880023650146e-05   -3.461701376881836e-05   0.00011943264616018053
-5.585880023650146e-05   -3.461701376881836e-05   0.00011943264616018053
-5.585880023650146e-05   -3.461701376881836e-05   0.00011943264616018053
-9.481379933063794e-05   -2.423306272615307e-05   9.748256393277903e-05
-9.481379933063794e-05   -2.423306272615307e-05   9.748256393277903e-05
-9.481379933063794e-05   -2.423306272615307e-05   9.748256393277903e-05
-9.481379933063794e-05   -2.423306272615307e-05   9.748256393277903e-05
-3.1501600031964404e-05   -6.56924328468632e-05   0.0001781272740248096
-3.1501600031964404e-05   -6.56924328468632e-05   0.0001781272740248096
-3.1501600031964404e-05   -6.56924328468632e-05   0.0001781272740248096
-3.1501600031964404e-05   -6.56924328468632e-05   0.0001781272740248096
-3.4178656595668295e-05   -2.481193056193872e-05   8.161700184703097e-05
-3.4178656595668295e-05   -2.481193056193872e-05   8.161700184703097e-05
-3.4178656595668295e-05   -2.481193056193872e-05   8.161700184703097e-05
-3.4178656595668295e-05   -2.481193056193872e-05   8.161700184703097e-05
-9.680443182233806e-05   -5.977515771606302e-05   0.00020697123018395482
-9.680443182233806e-05   -5.977515771606302e-05   0.00020697123018395482
-9.680443182233806e-05   -5.977515771606302e-05   0.00020697123018395482
-9.680443182233806e-05   -5.977515771606302e-05   0.00020697123018395482
-6.278526819026426e-05   -4.2496464417971034e-05   0.0001399054081516445
-6.278526819026426e-05   -4.2496464417971034e-05   0.0001399054081516445
-6.278526819026426e-05   -4.2496464417971034e-05   0.0001399054081516445
-6.278526819026426e-05   -4.2496464417971034e-05   0.0001399054081516445
-9.68044318223379e-05   -2.481193056193872e-05   0.00010259493813950587
-9.68044318223379e-05   -2.481193056193872e-05   0.00010259493813950587
-9.68044318223379e-05   -2.481193056193872e-05   0.00010259493813950587
-9.68044318223379e-05   -2.481193056193872e-05   0.00010259493813950587
-3.4178656595668403e-05   -5.977515771606302e-05   0.00018599329389148013
-3.4178656595668403e-05   -5.977515771606302e-05   0.00018599329389148013
-3.4178656595668403e-05   -5.977515771606302e-05   0.00018599329389148013
-3.4178656595668403e-05   -5.977515771606302e-05   0.00018599329389148013
-3.8503186200805595e-05   -2.511916595891641e-05   8.912540543137859e-05
-3.8503186200805595e-05   -2.511916595891641e-05   8.912540543137859e-05
-3.8503186200805595e-05   -2.511916595891641e-05   8.912540543137859e-05
-3.8503186200805595e-05   -2.511916595891641e-05   8.912540543137859e-05
-0.0001057256734161992   -5.6075345435084746e-05   0.0002197365918094013
-0.0001057256734161992   -5.6075345435084746e-05   0.0002197365918094013
-0.0001057256734161992   -5.6075345435084746e-05   0.0002197365918094013
-0.0001057256734161992   -5.6075345435084746e-05   0.0002197365918094013
-6.672419512817766e-05   -3.877241963773934e-05   0.00014435237251762497
-6.672419512817766e-05   -3.877241963773934e-05   0.00014435237251762497
-6.672419512817766e-05   -3.877241963773934e-05   0.00014435237251762497
-6.672419512817766e-05   -3.877241963773934e-05   0.00014435237251762497
-2.8360778574395228e-05   -2.3193228943699847e-05   4.264787499697314e-05
-2.8360778574395228e-05   -2.3193228943699847e-05   4.264787499697314e-05
-2.8360778574395228e-05   -2.3193228943699847e-05   4.264787499697314e-05
-2.8360778574395228e-05   -2.3193228943699847e-05   4.264787499697314e-05
-1.5742057900576924e-05   -1.2981441189009984e-05   6.980614877281736e-05
-1.5742057900576924e-05   -1.2981441189009984e-05   6.980614877281736e-05
-1.5742057900576924e-05   -1.2981441189009984e-05   6.980614877281736e-05
-1.5742057900576924e-05   -1.2981441189009984e-05   6.980614877281736e-05
-1.5037877506340024e-05   -2.2778052007919446e-05   4.999808593243423e-05
-1.5037877506340024e-05   -2.2778052007919446e-05   4.999808593243423e-05
-1.5037877506340024e-05   -2.2778052007919446e-05   4.999808593243423e-05
-1.5037877506340024e-05   -2.2778052007919446e-05   4.999808593243423e-05
-3.1501600031964404e-05   -1.7236955685849992e-05   7.411296568189847e-05
-3.1501600031964404e-05   -1.7236955685849992e-05   7.411296568189847e-05
-3.1501600031964404e-05   -1.7236955685849992e-05   7.411296568189847e-05
-3.1501600031964404e-05   -1.7236955685849992e-05   7.411296568189847e-05
-2.1235388878789395e-05   -1.814918458953275e-05   5.7549951102148916e-05
-2.1235388878789395e-05   -1.814918458953275e-05   5.7549951102148916e-05
-2.1235388878789395e-05   -1.814918458953275e-05   5.7549951102148916e-05
-2.1235388878789395e-05   -1.814918458953275e-05   5.7549951102148916e-05
-3.1501600031964404e-05   -2.2778052007919446e-05   4.667342813919175e-05
-3.1501600031964404e-05   -2.2778052007919446e-05   4.667342813919175e-05
-3.1501600031964404e-05   -2.2778052007919446e-05   4.667342813919175e-05
-3.1501600031964404e-05   -2.2778052007919446e-05   4.667342813919175e-05
-1.5037877506340024e-05   -1.7236955685849992e-05   7.743762347514008e-05
-1.5037877506340024e-05   -1.7236955685849992e-05   7.743762347514008e-05
-1.5037877506340024e-05   -1.7236955685849992e-05   7.743762347514008e-05
-1.5037877506340024e-05   -1.7236955685849992e-05   7.743762347514008e-05
-1.4969912908309154e-05   -2.349046798795322e-05   5.339674491053412e-05
-1.4969912908309154e-05   -2.349046798795322e-05   5.339674491053412e-05
-1.4969912908309154e-05   -2.349046798795322e-05   5.339674491053412e-05
-1.4969912908309154e-05   -2.349046798795322e-05   5.339674491053412e-05
-3.4178656595668403e-05   -2.2432174390871743e-05   8.477634156454981e-05
-3.4178656595668403e-05   -2.2432174390871743e-05   8.477634156454981e-05
-3.4178656595668403e-05   -2.2432174390871743e-05   8.477634156454981e-05
-3.4178656595668403e-05   -2.2432174390871743e-05   8.477634156454981e-05
-2.2401312509323396e-05   -1.984939591296599e-05   6.359776766723174e-05
-2.2401312509323396e-05   -1.984939591296599e-05   6.359776766723174e-05
-2.2401312509323396e-05   -1.984939591296599e-05   6.359776766723174e-05
-2.2401312509323396e-05   -1.984939591296599e-05   6.359776766723174e-05
-3.4178656595668295e-05   -2.3490467987952787e-05   5.276176875228505e-05
-3.4178656595668295e-05   -2.3490467987952787e-05   5.276176875228505e-05
-3.4178656595668295e-05   -2.3490467987952787e-05   5.276176875228505e-05
-3.4178656595668295e-05   -2.3490467987952787e-05   5.276176875228505e-05
-1.4969912908309154e-05   -2.2432174390871743e-05   8.541131772279889e-05
-1.4969912908309154e-05   -2.2432174390871743e-05   8.541131772279889e-05
-1.4969912908309154e-05   -2.2432174390871743e-05   8.541131772279889e-05
-1.4969912908309154e-05   -2.2432174390871743e-05   8.541131772279889e-05
-1.5029037356541425e-05   -2.452734322197416e-05   5.8446119691228475e-05
-1.5029037356541425e-05   -2.452734322197416e-05   5.8446119691228475e-05
-1.5029037356541425e-05   -2.452734322197416e-05   5.8446119691228475e-05
-1.5029037356541425e-05   -2.452734322197416e-05   5.8446119691228475e-05
-3.8503186200805704e-05   -2.7383615684829337e-05   9.928346457604791e-05
-3.8503186200805704e-05   -2.7383615684829337e-05   9.928346457604791e-05
-3.8503186200805704e-05   -2.7383615684829337e-05   9.928346457604791e-05
-3.8503186200805704e-05   -2.7383615684829337e-05   9.928346457604791e-05
-2.37073198430181e-05   -2.1762299636640843e-05   7.125089768415544e-05
-2.37073198430181e-05   -2.1762299636640843e-05   7.125089768415544e-05
-2.37073198430181e-05   -2.1762299636640843e-05   7.125089768415544e-05
-2.37073198430181e-05   -2.1762299636640843e-05   7.125089768415544e-05
-1.5742057900576924e-05   -9.48495187883154e-06   1.1318342580545274e-05
-1.5742057900576924e-05   -9.48495187883154e-06   1.1318342580545274e-05
-1.5742057900576924e-05   -9.48495187883154e-06   1.1318342580545274e-05
-1.5742057900576924e-05   -9.48495187883154e-06   1.1318342580545274e-05
-1.1512158093719086e-05   3.0848817487295183e-06   2.591007576851134e-05
-1.1512158093719086e-05   3.0848817487295183e-06   2.591007576851134e-05
-1.1512158093719086e-05   3.0848817487295183e-06   2.591007576851134e-05
-1.1512158093719086e-05   3.0848817487295183e-06   2.591007576851134e-05
-9.238749297163333e-06   -1.113300763541051e-05   1.9970168356153468e-05
-9.238749297163333e-06   -1.113300763541051e-05   1.9970168356153468e-05
-9.238749297163333e-06   -1.113300763541051e-05   1.9970168356153468e-05
-9.238749297163333e-06   -1.113300763541051e-05   1.9970168356153468e-05
-1.5037877506340024e-05   1.6256357901737897e-06   2.198019598276344e-05
-1.5037877506340024e-05   1.6256357901737897e-06   2.198019598276344e-05
-1.5037877506340024e-05   1.6256357901737897e-06   2.198019598276344e-05
-1.5037877506340024e-05   1.6256357901737897e-06   2.198019598276344e-05
-1.2094414006008874e-05   -4.199096035396952e-06   2.0569262577551945e-05
-1.2094414006008874e-05   -4.199096035396952e-06   2.0569262577551945e-05
-1.2094414006008874e-05   -4.199096035396952e-06   2.0569262577551945e-05
-1.2094414006008874e-05   -4.199096035396952e-06   2.0569262577551945e-05
-1.5037877506340024e-05   -1.113300763541051e-05   1.2314982300803013e-05
-1.5037877506340024e-05   -1.113300763541051e-05   1.2314982300803013e-05
-1.5037877506340024e-05   -1.113300763541051e-05   1.2314982300803013e-05
-1.5037877506340024e-05   -1.113300763541051e-05   1.2314982300803013e-05
-9.238749297163333e-06   1.6256357901737897e-06   2.9635382038113462e-05
-9.238749297163333e-06   1.6256357901737897e-06   2.9635382038113462e-05
-9.238749297163333e-06   1.6256357901737897e-06   2.9635382038113462e-05
-9.238749297163333e-06   1.6256357901737897e-06   2.9635382038113462e-05
-7.958638950129968e-06   -1.2388101862873067e-05   2.193000787025466e-05
-7.958638950129968e-06   -1.2388101862873067e-05   2.193000787025466e-05
-7.958638950129968e-06   -1.2388101862873067e-05   2.193000787025466e-05
-7.958638950129968e-06   -1.2388101862873067e-05   2.193000787025466e-05
-1.4969912908309154e-05   -7.63302334730201e-07   2.6640584750333308e-05
-1.4969912908309154e-05   -7.63302334730201e-07   2.6640584750333308e-05
-1.4969912908309154e-05   -7.63302334730201e-07   2.6640584750333308e-05
-1.4969912908309154e-05   -7.63302334730201e-07   2.6640584750333308e-05
-1.0891368205081945e-05   -5.4338390611345915e-06   2.264533228079832e-05
-1.0891368205081945e-05   -5.4338390611345915e-06   2.264533228079832e-05
-1.0891368205081945e-05   -5.4338390611345915e-06   2.264533228079832e-05
-1.0891368205081945e-05   -5.4338390611345915e-06   2.264533228079832e-05
-1.4969912908309154e-05   -1.2388101862873067e-05   1.4955128153368216e-05
-1.4969912908309154e-05   -1.2388101862873067e-05   1.4955128153368216e-05
-1.4969912908309154e-05   -1.2388101862873067e-05   1.4955128153368216e-05
-1.4969912908309154e-05   -1.2388101862873067e-05   1.4955128153368216e-05
-7.958638950129968e-06   -7.63302334730201e-07   3.361546446721932e-05
-7.958638950129968e-06   -7.63302334730201e-07   3.361546446721932e-05
-7.958638950129968e-06   -7.63302334730201e-07   3.361546446721932e-05
-7.958638950129968e-06   -7.63302334730201e-07   3.361546446721932e-05
-5.99039528122354e-06   -1.4041695572382905e-05   2.4002404594685844e-05
-5.99039528122354e-06   -1.4041695572382905e-05   2.4002404594685844e-05
-5.99039528122354e-06   -1.4041695572382905e-05   2.4002404594685844e-05
-5.99039528122354e-06   -1.4041695572382905e-05   2.4002404594685844e-05
-1.5029037356541425e-05   -5.764611536337934e-06   3.410055763192156e-05
-1.5029037356541425e-05   -5.764611536337934e-06   3.410055763192156e-05
-1.5029037356541425e-05   -5.764611536337934e-06   3.410055763192156e-05
-1.5029037356541425e-05   -5.764611536337934e-06   3.410055763192156e-05
-9.874131589979684e-06   -7.358897529823527e-06   2.646561961707882e-05
-9.874131589979684e-06   -7.358897529823527e-06   2.646561961707882e-05
-9.874131589979684e-06   -7.358897529823527e-06   2.646561961707882e-05
-9.874131589979684e-06   -7.358897529823527e-06   2.646561961707882e-05
-1.1512158093719086e-05   -1.1134615711559312e-06   -1.988454011502016e-05
-1.1512158093719086e-05   -1.1134615711559312e-06   -1.988454011502016e-05
-1.1512158093719086e-05   -1.1134615711559312e-06   -1.988454011502016e-05
-1.1512158093719086e-05   -1.1134615711559312e-06   -1.988454011502016e-05
-1.9533662739268376e-06   1.7240064425063447e-06   -2.25073960716856e-06
-1.9533662739268376e-06   1.7240064425063447e-06   -2.25073960716856e-06
-1.9533662739268376e-06   1.7240064425063447e-06   -2.25073960716856e-06
-1.9533662739268376e-06   1.7240064425063447e-06   -2.25073960716856e-06
2.8599114500248504e-07   -1.5306362660381413e-06   -1.5738858150798202e-05
2.8599114500248504e-07   -1.5306362660381413e-06   -1.5738858150798202e-05
2.8599114500248504e-07   -1.5306362660381413e-06   -1.5738858150798202e-05
2.8599114500248504e-07   -1.5306362660381413e-06   -1.5738858150798202e-05
-9.238749297163333e-06   3.0124656161926197e-06   -2.5901518765276445e-06
-9.238749297163333e-06   3.0124656161926197e-06   -2.5901518765276445e-06
-9.238749297163333e-06   3.0124656161926197e-06   -2.5901518765276445e-06
-9.238749297163333e-06   3.0124656161926197e-06   -2.5901518765276445e-06
-5.124125310752891e-06   7.744689304617792e-07   -8.105060509107712e-06
-5.124125310752891e-06   7.744689304617792e-07   -8.105060509107712e-06
-5.124125310752891e-06   7.744689304617792e-07   -8.105060509107712e-06
-5.124125310752891e-06   7.744689304617792e-07   -8.105060509107712e-06
-9.2387492971629e-06   -1.5306362660381413e-06   -1.8464719280137775e-05
-9.2387492971629e-06   -1.5306362660381413e-06   -1.8464719280137775e-05
-9.2387492971629e-06   -1.5306362660381413e-06   -1.8464719280137775e-05
-9.2387492971629e-06   -1.5306362660381413e-06   -1.8464719280137775e-05
2.8599114500248504e-07   3.0124656161926197e-06   1.3570925281062782e-07
2.8599114500248504e-07   3.0124656161926197e-06   1.3570925281062782e-07
2.8599114500248504e-07   3.0124656161926197e-06   1.3570925281062782e-07
2.8599114500248504e-07   3.0124656161926197e-06   1.3570925281062782e-07
1.4931476808527702e-06   -2.1026244130676122e-06   -1.4268627019192216e-05
1.4931476808527702e-06   -2.1026244130676122e-06   -1.4268627019192216e-05
1.4931476808527702e-06   -2.1026244130676122e-06   -1.4268627019192216e-05
1.4931476808527702e-06   -2.1026244130676122e-06   -1.4268627019192216e-05
-7.958638950129968e-06   2.660728109428115e-06   -1.3736608143861094e-06
-7.958638950129968e-06   2.660728109428115e-06   -1.3736608143861094e-06
-7.958638950129968e-06   2.660728109428115e-06   -1.3736608143861094e-06
-7.958638950129968e-06   2.660728109428115e-06   -1.3736608143861094e-06
-3.452438414997157e-06   5.124398969099525e-07   -7.595022112093404e-06
-3.452438414997157e-06   5.124398969099525e-07   -7.595022112093404e-06
-3.452438414997157e-06   5.124398969099525e-07   -7.595022112093404e-06
-3.452438414997157e-06   5.124398969099525e-07   -7.595022112093404e-06
-7.958638950129968e-06   -2.1026244130676122e-06   -1.7126638532689517e-05
-7.958638950129968e-06   -2.1026244130676122e-06   -1.7126638532689517e-05
-7.958638950129968e-06   -2.1026244130676122e-06   -1.7126638532689517e-05
-7.958638950129968e-06   -2.1026244130676122e-06   -1.7126638532689517e-05
1.4931476808527702e-06   2.660728109428115e-06   1.4843506991111914e-06
1.4931476808527702e-06   2.660728109428115e-06   1.4843506991111914e-06
1.4931476808527702e-06   2.660728109428115e-06   1.4843506991111914e-06
1.4931476808527702e-06   2.660728109428115e-06   1.4843506991111914e-06
3.0178055891892305e-06   -2.772150421629857e-06   -1.2152597678415956e-05
3.0178055891892305e-06   -2.772150421629857e-06   -1.2152597678415956e-05
3.0178055891892305e-06   -2.772150421629857e-06   -1.2152597678415956e-05
3.0178055891892305e-06   -2.772150421629857e-06   -1.2152597678415956e-05
-5.99039528122354e-06   2.4374276301548827e-06   -2.6467639213309524e-07
-5.99039528122354e-06   2.4374276301548827e-06   -2.6467639213309524e-07
-5.99039528122354e-06   2.4374276301548827e-06   -2.6467639213309524e-07
-5.99039528122354e-06   2.4374276301548827e-06   -2.6467639213309524e-07
-1.9316249860535165e-06   2.110030322766479e-07   -5.693438792022006e-06
-1.9316249860535165e-06   2.110030322766479e-07   -5.693438792022006e-06
-1.9316249860535165e-06   2.110030322766479e-07   -5.693438792022006e-06
-1.9316249860535165e-06   2.110030322766479e-07   -5.693438792022006e-06
              </DataArray>   
             <DataArray type="Float64" NumberOfComponents="3" Name="Stress" format="ascii">   
-17.727369077518443   -4.431842269379611   -4.431842269379611
-17.727369077518443   -4.431842269379611   -4.431842269379611
-17.727369077518443   -4.431842269379611   -4.431842269379611
-17.727369077518443   -4.431842269379611   -4.431842269379611
-10.260794850598717   -0.3206022480685382   -0.20396503026713586
-10.260794850598717   -0.3206022480685382   -0.20396503026713586
-10.260794850598717   -0.3206022480685382   -0.20396503026713586
-10.260794850598717   -0.3206022480685382   -0.20396503026713586
-11.063975765252726   -2.7659939413131815   -2.7659939413131815
-11.063975765252726   -2.7659939413131815   -2.7659939413131815
-11.063975765252726   -2.7659939413131815   -2.7659939413131815
-11.063975765252726   -2.7659939413131815   -2.7659939413131815
-17.087201935713722   -1.3996952250753125   -0.5341764717086119
-17.087201935713722   -1.3996952250753125   -0.5341764717086119
-17.087201935713722   -1.3996952250753125   -0.5341764717086119
-17.087201935713722   -1.3996952250753125   -0.5341764717086119
-13.402490908785277   -2.195165045351637   -0.036763602339728724
-13.402490908785277   -2.195165045351637   -0.036763602339728724
-13.402490908785277   -2.195165045351637   -0.036763602339728724
-13.402490908785277   -2.195165045351637   -0.036763602339728724
-18.556030662618856   -4.639007665654714   -4.639007665654714
-18.556030662618856   -4.639007665654714   -4.639007665654714
-18.556030662618856   -4.639007665654714   -4.639007665654714
-18.556030662618856   -4.639007665654714   -4.639007665654714
-9.943119575786252   0.12534596182759028   -0.05305289712158401
-9.943119575786252   0.12534596182759028   -0.05305289712158401
-9.943119575786252   0.12534596182759028   -0.05305289712158401
-9.943119575786252   0.12534596182759028   -0.05305289712158401
-11.098238608023335   -2.7745596520058338   -2.7745596520058338
-11.098238608023335   -2.7745596520058338   -2.7745596520058338
-11.098238608023335   -2.7745596520058338   -2.7745596520058338
-11.098238608023335   -2.7745596520058338   -2.7745596520058338
-17.66490728340644   -1.4140822253570207   -0.7831695958262418
-17.66490728340644   -1.4140822253570207   -0.7831695958262418
-17.66490728340644   -1.4140822253570207   -0.7831695958262418
-17.66490728340644   -1.4140822253570207   -0.7831695958262418
-13.905656761278447   -2.0678863469082134   -0.7382916005392021
-13.905656761278447   -2.0678863469082134   -0.7382916005392021
-13.905656761278447   -2.0678863469082134   -0.7382916005392021
-13.905656761278447   -2.0678863469082134   -0.7382916005392021
-19.139396576855347   -4.784849144213837   -4.784849144213837
-19.139396576855347   -4.784849144213837   -4.784849144213837
-19.139396576855347   -4.784849144213837   -4.784849144213837
-19.139396576855347   -4.784849144213837   -4.784849144213837
-9.917074148188716   0.30288243323671793   0.053820561924714516
-9.917074148188716   0.30288243323671793   0.053820561924714516
-9.917074148188716   0.30288243323671793   0.053820561924714516
-9.917074148188716   0.30288243323671793   0.053820561924714516
-11.09585513686189   -2.7739637842154723   -2.7739637842154723
-11.09585513686189   -2.7739637842154723   -2.7739637842154723
-11.09585513686189   -2.7739637842154723   -2.7739637842154723
-11.09585513686189   -2.7739637842154723   -2.7739637842154723
-18.695934565004173   -1.242519369496652   -0.46824717849825925
-18.695934565004173   -1.242519369496652   -0.46824717849825925
-18.695934565004173   -1.242519369496652   -0.46824717849825925
-18.695934565004173   -1.242519369496652   -0.46824717849825925
-14.28017795488884   -2.0366417901626868   -1.3349316284178463
-14.28017795488884   -2.0366417901626868   -1.3349316284178463
-14.28017795488884   -2.0366417901626868   -1.3349316284178463
-14.28017795488884   -2.0366417901626868   -1.3349316284178463
-11.284312661035113   -2.821078165258778   -2.821078165258778
-11.284312661035113   -2.821078165258778   -2.821078165258778
-11.284312661035113   -2.821078165258778   -2.821078165258778
-11.284312661035113   -2.821078165258778   -2.821078165258778
-4.704075567576784   -0.3100520385062232   -0.10103573325512646
-4.704075567576784   -0.3100520385062232   -0.10103573325512646
-4.704075567576784   -0.3100520385062232   -0.10103573325512646
-4.704075567576784   -0.3100520385062232   -0.10103573325512646
-4.942135799653967   -1.2355339499134919   -1.2355339499134919
-4.942135799653967   -1.2355339499134919   -1.2355339499134919
-4.942135799653967   -1.2355339499134919   -1.2355339499134919
-4.942135799653967   -1.2355339499134919   -1.2355339499134919
-10.275785228382771   -1.2068271183886272   -0.3842080798879592
-10.275785228382771   -1.2068271183886272   -0.3842080798879592
-10.275785228382771   -1.2068271183886272   -0.3842080798879592
-10.275785228382771   -1.2068271183886272   -0.3842080798879592
-7.576823007940727   -1.434324198137493   0.059718194984224426
-7.576823007940727   -1.434324198137493   0.059718194984224426
-7.576823007940727   -1.434324198137493   0.059718194984224426
-7.576823007940727   -1.434324198137493   0.059718194984224426
-11.063975765252717   -2.7659939413131793   -2.7659939413131793
-11.063975765252717   -2.7659939413131793   -2.7659939413131793
-11.063975765252717   -2.7659939413131793   -2.7659939413131793
-11.063975765252717   -2.7659939413131793   -2.7659939413131793
-4.440930351897349   0.03664778389772538   -0.0016884449416188496
-4.440930351897349   0.03664778389772538   -0.0016884449416188496
-4.440930351897349   0.03664778389772538   -0.0016884449416188496
-4.440930351897349   0.03664778389772538   -0.0016884449416188496
-4.834844958527129   -1.2087112396317823   -1.2087112396317823
-4.834844958527129   -1.2087112396317823   -1.2087112396317823
-4.834844958527129   -1.2087112396317823   -1.2087112396317823
-4.834844958527129   -1.2087112396317823   -1.2087112396317823
-10.252909863907272   -0.985329530266702   -0.33714605316464624
-10.252909863907272   -0.985329530266702   -0.33714605316464624
-10.252909863907272   -0.985329530266702   -0.33714605316464624
-10.252909863907272   -0.985329530266702   -0.33714605316464624
-7.474319139773122   -1.2081330985018706   -0.39111597185913577
-7.474319139773122   -1.2081330985018706   -0.39111597185913577
-7.474319139773122   -1.2081330985018706   -0.39111597185913577
-7.474319139773122   -1.2081330985018706   -0.39111597185913577
-11.098238608023335   -2.7745596520058338   -2.7745596520058338
-11.098238608023335   -2.7745596520058338   -2.7745596520058338
-11.098238608023335   -2.7745596520058338   -2.7745596520058338
-11.098238608023335   -2.7745596520058338   -2.7745596520058338
-4.267470004888558   0.30256509162985656   0.1168871972994327
-4.267470004888558   0.30256509162985656   0.1168871972994327
-4.267470004888558   0.30256509162985656   0.1168871972994327
-4.267470004888558   0.30256509162985656   0.1168871972994327
-4.737653816758729   -1.1844134541896822   -1.1844134541896822
-4.737653816758729   -1.1844134541896822   -1.1844134541896822
-4.737653816758729   -1.1844134541896822   -1.1844134541896822
-4.737653816758729   -1.1844134541896822   -1.1844134541896822
-10.18085156530277   -0.7611652520750314   -0.21174445856044938
-10.18085156530277   -0.7611652520750314   -0.21174445856044938
-10.18085156530277   -0.7611652520750314   -0.21174445856044938
-10.18085156530277   -0.7611652520750314   -0.21174445856044938
-7.514516162241285   -1.0699810632790954   -0.8718417921676966
-7.514516162241285   -1.0699810632790954   -0.8718417921676966
-7.514516162241285   -1.0699810632790954   -0.8718417921676966
-7.514516162241285   -1.0699810632790954   -0.8718417921676966
-5.135397792471692   -1.283849448117923   -1.283849448117923
-5.135397792471692   -1.283849448117923   -1.283849448117923
-5.135397792471692   -1.283849448117923   -1.283849448117923
-5.135397792471692   -1.283849448117923   -1.283849448117923
0.6184945961639644   0.04199598095688349   0.004934456073903446
0.6184945961639644   0.04199598095688349   0.004934456073903446
0.6184945961639644   0.04199598095688349   0.004934456073903446
0.6184945961639644   0.04199598095688349   0.004934456073903446
0.7987273427344225   0.19968183568360562   0.19968183568360562
0.7987273427344225   0.19968183568360562   0.19968183568360562
0.7987273427344225   0.19968183568360562   0.19968183568360562
0.7987273427344225   0.19968183568360562   0.19968183568360562
-4.646164052565896   -0.8031384515291036   -0.18807071285752497
-4.646164052565896   -0.8031384515291036   -0.18807071285752497
-4.646164052565896   -0.8031384515291036   -0.18807071285752497
-4.646164052565896   -0.8031384515291036   -0.18807071285752497
-1.9843943458829854   -0.5035880068969146   0.3391247893908199
-1.9843943458829854   -0.5035880068969146   0.3391247893908199
-1.9843943458829854   -0.5035880068969146   0.3391247893908199
-1.9843943458829854   -0.5035880068969146   0.3391247893908199
-4.942135799653967   -1.2355339499134919   -1.2355339499134919
-4.942135799653967   -1.2355339499134919   -1.2355339499134919
-4.942135799653967   -1.2355339499134919   -1.2355339499134919
-4.942135799653967   -1.2355339499134919   -1.2355339499134919
0.8125169806812224   0.34989522492671915   0.11841663617448495
0.8125169806812224   0.34989522492671915   0.11841663617448495
0.8125169806812224   0.34989522492671915   0.11841663617448495
0.8125169806812224   0.34989522492671915   0.11841663617448495
0.8945656916125176   0.2236414229031294   0.2236414229031294
0.8945656916125176   0.2236414229031294   0.2236414229031294
0.8945656916125176   0.2236414229031294   0.2236414229031294
0.8945656916125176   0.2236414229031294   0.2236414229031294
-4.484928338570217   -0.5416848170194166   -0.12615456245962386
-4.484928338570217   -0.5416848170194166   -0.12615456245962386
-4.484928338570217   -0.5416848170194166   -0.12615456245962386
-4.484928338570217   -0.5416848170194166   -0.12615456245962386
-1.9067218603324996   -0.31168804166270997   -0.11488851690652968
-1.9067218603324996   -0.31168804166270997   -0.11488851690652968
-1.9067218603324996   -0.31168804166270997   -0.11488851690652968
-1.9067218603324996   -0.31168804166270997   -0.11488851690652968
-4.834844958527129   -1.2087112396317823   -1.2087112396317823
-4.834844958527129   -1.2087112396317823   -1.2087112396317823
-4.834844958527129   -1.2087112396317823   -1.2087112396317823
-4.834844958527129   -1.2087112396317823   -1.2087112396317823
0.9679727380676062   0.6141582720136792   0.2001598060680164
0.9679727380676062   0.6141582720136792   0.2001598060680164
0.9679727380676062   0.6141582720136792   0.2001598060680164
0.9679727380676062   0.6141582720136792   0.2001598060680164
1.024532590712886   0.2561331476782215   0.2561331476782215
1.024532590712886   0.2561331476782215   0.2561331476782215
1.024532590712886   0.2561331476782215   0.2561331476782215
1.024532590712886   0.2561331476782215   0.2561331476782215
-4.309403731153747   -0.22963659506241096   0.00206011470794068
-4.309403731153747   -0.22963659506241096   0.00206011470794068
-4.309403731153747   -0.22963659506241096   0.00206011470794068
-4.309403731153747   -0.22963659506241096   0.00206011470794068
-1.8529500738150415   -0.12669479826617525   -0.5648527432270037
-1.8529500738150415   -0.12669479826617525   -0.5648527432270037
-1.8529500738150415   -0.12669479826617525   -0.5648527432270037
-1.8529500738150415   -0.12669479826617525   -0.5648527432270037
0.67678723195312   0.16919680798828   0.16919680798828
0.67678723195312   0.16919680798828   0.16919680798828
0.67678723195312   0.16919680798828   0.16919680798828
0.67678723195312   0.16919680798828   0.16919680798828
6.442411813773998   0.59071164777967   0.19684680921708717
6.442411813773998   0.59071164777967   0.19684680921708717
6.442411813773998   0.59071164777967   0.19684680921708717
6.442411813773998   0.59071164777967   0.19684680921708717
6.9916884430175275   1.7479221107543819   1.7479221107543819
6.9916884430175275   1.7479221107543819   1.7479221107543819
6.9916884430175275   1.7479221107543819   1.7479221107543819
6.9916884430175275   1.7479221107543819   1.7479221107543819
0.6088256420037602   -0.45395525111383206   -0.09618958117228049
0.6088256420037602   -0.45395525111383206   -0.09618958117228049
0.6088256420037602   -0.45395525111383206   -0.09618958117228049
0.6088256420037602   -0.45395525111383206   -0.09618958117228049
3.6760140411025177   0.45747698591085817   0.6685229509177757
3.6760140411025177   0.45747698591085817   0.6685229509177757
3.6760140411025177   0.45747698591085817   0.6685229509177757
3.6760140411025177   0.45747698591085817   0.6685229509177757
0.7987273427344252   0.1996818356836063   0.1996818356836063
0.7987273427344252   0.1996818356836063   0.1996818356836063
0.7987273427344252   0.1996818356836063   0.1996818356836063
0.7987273427344252   0.1996818356836063   0.1996818356836063
6.515036627900209   0.8075349095702906   0.30505023635188333
6.515036627900209   0.8075349095702906   0.30505023635188333
6.515036627900209   0.8075349095702906   0.30505023635188333
6.515036627900209   0.8075349095702906   0.30505023635188333
6.95833893510529   1.7395847337763224   1.7395847337763224
6.95833893510529   1.7395847337763224   1.7395847337763224
6.95833893510529   1.7395847337763224   1.7395847337763224
6.95833893510529   1.7395847337763224   1.7395847337763224
0.7652851959711693   -0.19842572220635005   -0.0006939101941395159
0.7652851959711693   -0.19842572220635005   -0.0006939101941395159
0.7652851959711693   -0.19842572220635005   -0.0006939101941395159
0.7652851959711693   -0.19842572220635005   -0.0006939101941395159
3.645417120293622   0.599107093875753   0.17457938245299853
3.645417120293622   0.599107093875753   0.17457938245299853
3.645417120293622   0.599107093875753   0.17457938245299853
3.645417120293622   0.599107093875753   0.17457938245299853
0.8945656916125184   0.2236414229031296   0.2236414229031296
0.8945656916125184   0.2236414229031296   0.2236414229031296
0.8945656916125184   0.2236414229031296   0.2236414229031296
0.8945656916125184   0.2236414229031296   0.2236414229031296
6.545044771107595   1.0335039203104988   0.37919472725367787
6.545044771107595   1.0335039203104988   0.37919472725367787
6.545044771107595   1.0335039203104988   0.37919472725367787
6.545044771107595   1.0335039203104988   0.37919472725367787
7.089829153907157   1.7724572884767893   1.7724572884767893
7.089829153907157   1.7724572884767893   1.7724572884767893
7.089829153907157   1.7724572884767893   1.7724572884767893
7.089829153907157   1.7724572884767893   1.7724572884767893
0.9712650062364409   0.139951473062634   0.1059768999115758
0.9712650062364409   0.139951473062634   0.1059768999115758
0.9712650062364409   0.139951473062634   0.1059768999115758
0.9712650062364409   0.139951473062634   0.1059768999115758
3.698670024438496   0.8118981485898484   -0.2834364288166279
3.698670024438496   0.8118981485898484   -0.2834364288166279
3.698670024438496   0.8118981485898484   -0.2834364288166279
3.698670024438496   0.8118981485898484   -0.2834364288166279
6.983222358194052   1.745805589548513   1.745805589548513
6.983222358194052   1.745805589548513   1.745805589548513
6.983222358194052   1.745805589548513   1.745805589548513
6.983222358194052   1.745805589548513   1.745805589548513
14.46530679351211   1.1015474755495607   0.37370230791198655
14.46530679351211   1.1015474755495607   0.37370230791198655
14.46530679351211   1.1015474755495607   0.37370230791198655
14.46530679351211   1.1015474755495607   0.37370230791198655
14.781709762521254   3.6954274406303136   3.6954274406303136
14.781709762521254   3.6954274406303136   3.6954274406303136
14.781709762521254   3.6954274406303136   3.6954274406303136
14.781709762521254   3.6954274406303136   3.6954274406303136
6.214037994037559   -0.3545314492541174   -0.03787657413696027
6.214037994037559   -0.3545314492541174   -0.03787657413696027
6.214037994037559   -0.3545314492541174   -0.03787657413696027
6.214037994037559   -0.3545314492541174   -0.03787657413696027
10.319336007281485   1.4593679280957073   1.166214836702285
10.319336007281485   1.4593679280957073   1.166214836702285
10.319336007281485   1.4593679280957073   1.166214836702285
10.319336007281485   1.4593679280957073   1.166214836702285
6.991688443017521   1.7479221107543803   1.7479221107543803
6.991688443017521   1.7479221107543803   1.7479221107543803
6.991688443017521   1.7479221107543803   1.7479221107543803
6.991688443017521   1.7479221107543803   1.7479221107543803
13.696810894457554   1.2857254615381233   0.6806350794042324
13.696810894457554   1.2857254615381233   0.6806350794042324
13.696810894457554   1.2857254615381233   0.6806350794042324
13.696810894457554   1.2857254615381233   0.6806350794042324
14.3360846502925   3.584021162573125   3.584021162573125
14.3360846502925   3.584021162573125   3.584021162573125
14.3360846502925   3.584021162573125   3.584021162573125
14.3360846502925   3.584021162573125   3.584021162573125
6.232556567812606   -0.19732467610923243   0.04758230719845796
6.232556567812606   -0.19732467610923243   0.04758230719845796
6.232556567812606   -0.19732467610923243   0.04758230719845796
6.232556567812606   -0.19732467610923243   0.04758230719845796
10.00946979517917   1.5004488846968882   0.5594106312514272
10.00946979517917   1.5004488846968882   0.5594106312514272
10.00946979517917   1.5004488846968882   0.5594106312514272
10.00946979517917   1.5004488846968882   0.5594106312514272
6.95833893510529   1.7395847337763224   1.7395847337763224
6.95833893510529   1.7395847337763224   1.7395847337763224
6.95833893510529   1.7395847337763224   1.7395847337763224
6.95833893510529   1.7395847337763224   1.7395847337763224
13.252159502301273   1.2889689719890687   0.4594476132012673
13.252159502301273   1.2889689719890687   0.4594476132012673
13.252159502301273   1.2889689719890687   0.4594476132012673
13.252159502301273   1.2889689719890687   0.4594476132012673
13.67505419054696   3.41876354763674   3.41876354763674
13.67505419054696   3.41876354763674   3.41876354763674
13.67505419054696   3.41876354763674   3.41876354763674
13.67505419054696   3.41876354763674   3.41876354763674
6.459744914261075   0.19921617241741285   0.19527720630575512
6.459744914261075   0.19921617241741285   0.19527720630575512
6.459744914261075   0.19921617241741285   0.19527720630575512
6.459744914261075   0.19921617241741285   0.19527720630575512
9.580974113747608   1.6256427693766504   -0.1459067333562303
9.580974113747608   1.6256427693766504   -0.1459067333562303
9.580974113747608   1.6256427693766504   -0.1459067333562303
9.580974113747608   1.6256427693766504   -0.1459067333562303
-14.04029213594121   -1.004874783782732   0.15416957650440222
-14.04029213594121   -1.004874783782732   0.15416957650440222
-14.04029213594121   -1.004874783782732   0.15416957650440222
-14.04029213594121   -1.004874783782732   0.15416957650440222
-8.933029744368007   -0.20239462972158595   -0.056408168629188626
-8.933029744368007   -0.20239462972158595   -0.056408168629188626
-8.933029744368007   -0.20239462972158595   -0.056408168629188626
-8.933029744368007   -0.20239462972158595   -0.056408168629188626
-8.996692067541035   0.3623304563464227   0.18544206722739287
-8.996692067541035   0.3623304563464227   0.18544206722739287
-8.996692067541035   0.3623304563464227   0.18544206722739287
-8.996692067541035   0.3623304563464227   0.18544206722739287
-14.250914842282258   -0.970135128571572   -0.16702839019282278
-14.250914842282258   -0.970135128571572   -0.16702839019282278
-14.250914842282258   -0.970135128571572   -0.16702839019282278
-14.250914842282258   -0.970135128571572   -0.16702839019282278
-11.100132081870504   -0.3779081347963342   -0.04200468968901683
-11.100132081870504   -0.3779081347963342   -0.04200468968901683
-11.100132081870504   -0.3779081347963342   -0.04200468968901683
-11.100132081870504   -0.3779081347963342   -0.04200468968901683
-14.149088831050532   -0.6923700019350911   0.0643365393293196
-14.149088831050532   -0.6923700019350911   0.0643365393293196
-14.149088831050532   -0.6923700019350911   0.0643365393293196
-14.149088831050532   -0.6923700019350911   0.0643365393293196
-9.113658127671007   0.06942528081172794   -0.10648305788760715
-9.113658127671007   0.06942528081172794   -0.10648305788760715
-9.113658127671007   0.06942528081172794   -0.10648305788760715
-9.113658127671007   0.06942528081172794   -0.10648305788760715
-9.009419880537958   0.5160132753066988   0.21182050462389046
-9.009419880537958   0.5160132753066988   0.21182050462389046
-9.009419880537958   0.5160132753066988   0.21182050462389046
-9.009419880537958   0.5160132753066988   0.21182050462389046
-14.340115997328395   -0.8552627728385902   -0.22069682300813986
-14.340115997328395   -0.8552627728385902   -0.22069682300813986
-14.340115997328395   -0.8552627728385902   -0.22069682300813986
-14.340115997328395   -0.8552627728385902   -0.22069682300813986
-11.414354967163145   -0.2538042343126401   -0.10728057466759056
-11.414354967163145   -0.2538042343126401   -0.10728057466759056
-11.414354967163145   -0.2538042343126401   -0.10728057466759056
-11.414354967163145   -0.2538042343126401   -0.10728057466759056
-14.084644320484635   -0.41759662994418756   0.6189954183161349
-14.084644320484635   -0.41759662994418756   0.6189954183161349
-14.084644320484635   -0.41759662994418756   0.6189954183161349
-14.084644320484635   -0.41759662994418756   0.6189954183161349
-9.157989406527587   0.18524928326641943   -0.2002631332839
-9.157989406527587   0.18524928326641943   -0.2002631332839
-9.157989406527587   0.18524928326641943   -0.2002631332839
-9.157989406527587   0.18524928326641943   -0.2002631332839
-8.847797571145843   0.8981013990748403   0.3867196705009074
-8.847797571145843   0.8981013990748403   0.3867196705009074
-8.847797571145843   0.8981013990748403   0.3867196705009074
-8.847797571145843   0.8981013990748403   0.3867196705009074
-13.94801488374857   -0.6918363277623847   -0.3619605801331218
-13.94801488374857   -0.6918363277623847   -0.3619605801331218
-13.94801488374857   -0.6918363277623847   -0.3619605801331218
-13.94801488374857   -0.6918363277623847   -0.3619605801331218
-10.98096045940417   0.10054638753615253   0.24269232279138142
-10.98096045940417   0.10054638753615253   0.24269232279138142
-10.98096045940417   0.10054638753615253   0.24269232279138142
-10.98096045940417   0.10054638753615253   0.24269232279138142
-9.156053368795815   -1.2125205301641393   -0.1614003903256754
-9.156053368795815   -1.2125205301641393   -0.1614003903256754
-9.156053368795815   -1.2125205301641393   -0.1614003903256754
-9.156053368795815   -1.2125205301641393   -0.1614003903256754
-4.213265367227484   -0.09123754388376892   0.04529920372210536
-4.213265367227484   -0.09123754388376892   0.04529920372210536
-4.213265367227484   -0.09123754388376892   0.04529920372210536
-4.213265367227484   -0.09123754388376892   0.04529920372210536
-4.277112094890318   0.08231520633764333   0.06283041025093877
-4.277112094890318   0.08231520633764333   0.06283041025093877
-4.277112094890318   0.08231520633764333   0.06283041025093877
-4.277112094890318   0.08231520633764333   0.06283041025093877
-9.338759222651657   -0.8879067613647393   -0.2746564906145492
-9.338759222651657   -0.8879067613647393   -0.2746564906145492
-9.338759222651657   -0.8879067613647393   -0.2746564906145492
-9.338759222651657   -0.8879067613647393   -0.2746564906145492
-6.74592983997362   -0.5465592365290747   -0.1536454244037513
-6.74592983997362   -0.5465592365290747   -0.1536454244037513
-6.74592983997362   -0.5465592365290747   -0.1536454244037513
-6.74592983997362   -0.5465592365290747   -0.1536454244037513
-9.330364700024305   -0.9708496037565475   -0.14974103508602815
-9.330364700024305   -0.9708496037565475   -0.14974103508602815
-9.330364700024305   -0.9708496037565475   -0.14974103508602815
-9.330364700024305   -0.9708496037565475   -0.14974103508602815
-4.268821259511355   0.18194340673576992   0.004656386747663166
-4.268821259511355   0.18194340673576992   0.004656386747663166
-4.268821259511355   0.18194340673576992   0.004656386747663166
-4.268821259511355   0.18194340673576992   0.004656386747663166
-4.262812563164522   0.2973335955415145   0.0860722751337028
-4.262812563164522   0.2973335955415145   0.0860722751337028
-4.262812563164522   0.2973335955415145   0.0860722751337028
-4.262812563164522   0.2973335955415145   0.0860722751337028
-9.344707122820486   -0.6516870986684957   -0.2969153328135508
-9.344707122820486   -0.6516870986684957   -0.2969153328135508
-9.344707122820486   -0.6516870986684957   -0.2969153328135508
-9.344707122820486   -0.6516870986684957   -0.2969153328135508
-6.734684429188408   -0.3045969252444234   -0.07297023557842075
-6.734684429188408   -0.3045969252444234   -0.07297023557842075
-6.734684429188408   -0.3045969252444234   -0.07297023557842075
-6.734684429188408   -0.3045969252444234   -0.07297023557842075
-9.308501663342645   -0.7354447552828483   -0.032130378809990534
-9.308501663342645   -0.7354447552828483   -0.032130378809990534
-9.308501663342645   -0.7354447552828483   -0.032130378809990534
-9.308501663342645   -0.7354447552828483   -0.032130378809990534
-4.268060300143929   0.4120489746543139   -0.0548817888760586
-4.268060300143929   0.4120489746543139   -0.0548817888760586
-4.268060300143929   0.4120489746543139   -0.0548817888760586
-4.268060300143929   0.4120489746543139   -0.0548817888760586
-4.193155748540338   0.513510634414756   0.17393915712605507
-4.193155748540338   0.513510634414756   0.17393915712605507
-4.193155748540338   0.513510634414756   0.17393915712605507
-4.193155748540338   0.513510634414756   0.17393915712605507
-9.246680223660627   -0.3787841996953416   -0.3308079933028667
-9.246680223660627   -0.3787841996953416   -0.3308079933028667
-9.246680223660627   -0.3787841996953416   -0.3308079933028667
-9.246680223660627   -0.3787841996953416   -0.3308079933028667
-6.708531046050658   -0.07566279773556239   0.03377116704811345
-6.708531046050658   -0.07566279773556239   0.03377116704811345
-6.708531046050658   -0.07566279773556239   0.03377116704811345
-6.708531046050658   -0.07566279773556239   0.03377116704811345
-4.443669677308276   -1.0091797858878973   -0.1887801046777609
-4.443669677308276   -1.0091797858878973   -0.1887801046777609
-4.443669677308276   -1.0091797858878973   -0.1887801046777609
-4.443669677308276   -1.0091797858878973   -0.1887801046777609
0.4704235535445753   0.1070339801298748   0.17312450287924475
0.4704235535445753   0.1070339801298748   0.17312450287924475
0.4704235535445753   0.1070339801298748   0.17312450287924475
0.4704235535445753   0.1070339801298748   0.17312450287924475
0.4476289344433315   0.25594449369992406   0.01355102627838499
0.4476289344433315   0.25594449369992406   0.01355102627838499
0.4476289344433315   0.25594449369992406   0.01355102627838499
0.4476289344433315   0.25594449369992406   0.01355102627838499
-4.464083775849104   -0.6692465158165735   -0.12046627238877662
-4.464083775849104   -0.6692465158165735   -0.12046627238877662
-4.464083775849104   -0.6692465158165735   -0.12046627238877662
-4.464083775849104   -0.6692465158165735   -0.12046627238877662
-2.016710177963945   -0.33392033315955394   -0.0632866502095463
-2.016710177963945   -0.33392033315955394   -0.0632866502095463
-2.016710177963945   -0.33392033315955394   -0.0632866502095463
-2.016710177963945   -0.33392033315955394   -0.0632866502095463
-4.49491341739396   -0.7700386509242834   -0.17382234500534574
-4.49491341739396   -0.7700386509242834   -0.17382234500534574
-4.49491341739396   -0.7700386509242834   -0.17382234500534574
-4.49491341739396   -0.7700386509242834   -0.17382234500534574
0.49573274201149764   0.37401079483094174   0.13600376298819786
0.49573274201149764   0.37401079483094174   0.13600376298819786
0.49573274201149764   0.37401079483094174   0.13600376298819786
0.49573274201149764   0.37401079483094174   0.13600376298819786
0.48075097336118106   0.49281128729564005   0.08064664718426086
0.48075097336118106   0.49281128729564005   0.08064664718426086
0.48075097336118106   0.49281128729564005   0.08064664718426086
0.48075097336118106   0.49281128729564005   0.08064664718426086
-4.451436396638825   -0.409548312226091   -0.15016498447020474
-4.451436396638825   -0.409548312226091   -0.15016498447020474
-4.451436396638825   -0.409548312226091   -0.15016498447020474
-4.451436396638825   -0.409548312226091   -0.15016498447020474
-1.9867777709471635   -0.08207797040561954   0.02416180258655863
-1.9867777709471635   -0.08207797040561954   0.02416180258655863
-1.9867777709471635   -0.08207797040561954   0.02416180258655863
-1.9867777709471635   -0.08207797040561954   0.02416180258655863
-4.463215279461262   -0.52986069572283   -0.08874701508564688
-4.463215279461262   -0.52986069572283   -0.08874701508564688
-4.463215279461262   -0.52986069572283   -0.08874701508564688
-4.463215279461262   -0.52986069572283   -0.08874701508564688
0.5110997713399943   0.6316935859487606   0.09350833842520304
0.5110997713399943   0.6316935859487606   0.09350833842520304
0.5110997713399943   0.6316935859487606   0.09350833842520304
0.5110997713399943   0.6316935859487606   0.09350833842520304
0.49016771807554904   0.7564782305992023   0.1330627937867111
0.49016771807554904   0.7564782305992023   0.1330627937867111
0.49016771807554904   0.7564782305992023   0.1330627937867111
0.49016771807554904   0.7564782305992023   0.1330627937867111
-4.39480303606856   -0.1317887625903612   -0.1889978835099216
-4.39480303606856   -0.1317887625903612   -0.1889978835099216
-4.39480303606856   -0.1317887625903612   -0.1889978835099216
-4.39480303606856   -0.1317887625903612   -0.1889978835099216
-1.9386300525342572   0.18129754662753   0.11989229695724479
-1.9386300525342572   0.18129754662753   0.11989229695724479
-1.9386300525342572   0.18129754662753   0.11989229695724479
-1.9386300525342572   0.18129754662753   0.11989229695724479
0.22035102544505433   -0.7392589193560253   -0.23094523813246032
0.22035102544505433   -0.7392589193560253   -0.23094523813246032
0.22035102544505433   -0.7392589193560253   -0.23094523813246032
0.22035102544505433   -0.7392589193560253   -0.23094523813246032
5.3108226676234125   0.36760388807536715   0.31714474541841753
5.3108226676234125   0.36760388807536715   0.31714474541841753
5.3108226676234125   0.36760388807536715   0.31714474541841753
5.3108226676234125   0.36760388807536715   0.31714474541841753
5.303013989329327   0.4940472057710251   -0.05036564407357616
5.303013989329327   0.4940472057710251   -0.05036564407357616
5.303013989329327   0.4940472057710251   -0.05036564407357616
5.303013989329327   0.4940472057710251   -0.05036564407357616
0.3108293228007332   -0.4452511657826544   0.03074862754797203
0.3108293228007332   -0.4452511657826544   0.03074862754797203
0.3108293228007332   -0.4452511657826544   0.03074862754797203
0.3108293228007332   -0.4452511657826544   0.03074862754797203
2.7520277525739885   -0.06260747604763328   0.006388962491200717
2.7520277525739885   -0.06260747604763328   0.006388962491200717
2.7520277525739885   -0.06260747604763328   0.006388962491200717
2.7520277525739885   -0.06260747604763328   0.006388962491200717
0.2512141815454021   -0.5406293965610928   -0.17194884795024148
0.2512141815454021   -0.5406293965610928   -0.17194884795024148
0.2512141815454021   -0.5406293965610928   -0.17194884795024148
0.2512141815454021   -0.5406293965610928   -0.17194884795024148
5.39357130645184   0.6203676124166441   0.2761005348933274
5.39357130645184   0.6203676124166441   0.2761005348933274
5.39357130645184   0.6203676124166441   0.2761005348933274
5.39357130645184   0.6203676124166441   0.2761005348933274
5.3429934063605735   0.7282100249336891   0.054776615116637214
5.3429934063605735   0.7282100249336891   0.054776615116637214
5.3429934063605735   0.7282100249336891   0.054776615116637214
5.3429934063605735   0.7282100249336891   0.054776615116637214
0.32009351169996014   -0.21325260982158806   -0.016576764004615593
0.32009351169996014   -0.21325260982158806   -0.016576764004615593
0.32009351169996014   -0.21325260982158806   -0.016576764004615593
0.32009351169996014   -0.21325260982158806   -0.016576764004615593
2.786956356266096   0.16128966009433265   0.11385002701892333
2.786956356266096   0.16128966009433265   0.11385002701892333
2.786956356266096   0.16128966009433265   0.11385002701892333
2.786956356266096   0.16128966009433265   0.11385002701892333
0.2768408807085585   -0.3209952574805695   -0.1250972713026414
0.2768408807085585   -0.3209952574805695   -0.1250972713026414
0.2768408807085585   -0.3209952574805695   -0.1250972713026414
0.2768408807085585   -0.3209952574805695   -0.1250972713026414
5.408619958237586   0.8583265934782616   0.2527928059570369
5.408619958237586   0.8583265934782616   0.2527928059570369
5.408619958237586   0.8583265934782616   0.2527928059570369
5.408619958237586   0.8583265934782616   0.2527928059570369
5.255733943794851   0.9985169126435522   0.1143351602577398
5.255733943794851   0.9985169126435522   0.1143351602577398
5.255733943794851   0.9985169126435522   0.1143351602577398
5.255733943794851   0.9985169126435522   0.1143351602577398
0.3157315994376145   0.0743870369510547   -0.0570266057548141
0.3157315994376145   0.0743870369510547   -0.0570266057548141
0.3157315994376145   0.0743870369510547   -0.0570266057548141
0.3157315994376145   0.0743870369510547   -0.0570266057548141
2.826404380339244   0.4173186547996519   0.2132184883686849
2.826404380339244   0.4173186547996519   0.2132184883686849
2.826404380339244   0.4173186547996519   0.2132184883686849
2.826404380339244   0.4173186547996519   0.2132184883686849
4.894294315519367   -0.9724784225305625   -0.4254147044958849
4.894294315519367   -0.9724784225305625   -0.4254147044958849
4.894294315519367   -0.9724784225305625   -0.4254147044958849
4.894294315519367   -0.9724784225305625   -0.4254147044958849
10.069233762229477   0.664987675745137   0.3072355328025895
10.069233762229477   0.664987675745137   0.3072355328025895
10.069233762229477   0.664987675745137   0.3072355328025895
10.069233762229477   0.664987675745137   0.3072355328025895
10.181154636692714   0.31852048999160876   -0.6397335205634855
10.181154636692714   0.31852048999160876   -0.6397335205634855
10.181154636692714   0.31852048999160876   -0.6397335205634855
10.181154636692714   0.31852048999160876   -0.6397335205634855
5.210469035225484   -0.20216370845467302   0.18312049963282062
5.210469035225484   -0.20216370845467302   0.18312049963282062
5.210469035225484   -0.20216370845467302   0.18312049963282062
5.210469035225484   -0.20216370845467302   0.18312049963282062
7.211865861557267   -0.12404172065511765   -0.1789606136583201
7.211865861557267   -0.12404172065511765   -0.1789606136583201
7.211865861557267   -0.12404172065511765   -0.1789606136583201
7.211865861557267   -0.12404172065511765   -0.1789606136583201
5.029967473217478   -0.6400670353025828   -0.2814839835592363
5.029967473217478   -0.6400670353025828   -0.2814839835592363
5.029967473217478   -0.6400670353025828   -0.2814839835592363
5.029967473217478   -0.6400670353025828   -0.2814839835592363
10.453717785993671   0.848485404132485   0.19311731180042213
10.453717785993671   0.848485404132485   0.19311731180042213
10.453717785993671   0.848485404132485   0.19311731180042213
10.453717785993671   0.848485404132485   0.19311731180042213
10.290421785508977   0.5762232698455532   -0.14254318072400107
10.290421785508977   0.5762232698455532   -0.14254318072400107
10.290421785508977   0.5762232698455532   -0.14254318072400107
10.290421785508977   0.5762232698455532   -0.14254318072400107
5.187762556247388   -0.08669406073733521   0.09352645022164119
5.187762556247388   -0.08669406073733521   0.09352645022164119
5.187762556247388   -0.08669406073733521   0.09352645022164119
5.187762556247388   -0.08669406073733521   0.09352645022164119
7.586178380633217   0.18931859148062502   0.1242848097113538
7.586178380633217   0.18931859148062502   0.1242848097113538
7.586178380633217   0.18931859148062502   0.1242848097113538
7.586178380633217   0.18931859148062502   0.1242848097113538
5.043254680905747   -0.4898690936458858   -0.22583789357796558
5.043254680905747   -0.4898690936458858   -0.22583789357796558
5.043254680905747   -0.4898690936458858   -0.22583789357796558
5.043254680905747   -0.4898690936458858   -0.22583789357796558
10.4225334880543   0.967002129957792   0.12723647189036524
10.4225334880543   0.967002129957792   0.12723647189036524
10.4225334880543   0.967002129957792   0.12723647189036524
10.4225334880543   0.967002129957792   0.12723647189036524
10.269927990497381   0.8783738017625591   -0.21911772320481931
10.269927990497381   0.8783738017625591   -0.21911772320481931
10.269927990497381   0.8783738017625591   -0.21911772320481931
10.269927990497381   0.8783738017625591   -0.21911772320481931
5.079460462491728   0.18015756522780657   0.051327101157774196
5.079460462491728   0.18015756522780657   0.051327101157774196
5.079460462491728   0.18015756522780657   0.051327101157774196
5.079460462491728   0.18015756522780657   0.051327101157774196
7.389923640182714   0.33062546876042886   0.09098212604385875
7.389923640182714   0.33062546876042886   0.09098212604385875
7.389923640182714   0.33062546876042886   0.09098212604385875
7.389923640182714   0.33062546876042886   0.09098212604385875
-11.058967141787091   -0.5033571253702642   0.5647167505464749
-11.058967141787091   -0.5033571253702642   0.5647167505464749
-11.058967141787091   -0.5033571253702642   0.5647167505464749
-11.058967141787091   -0.5033571253702642   0.5647167505464749
-7.337345972945216   -0.2757987920273015   -0.14694383097976127
-7.337345972945216   -0.2757987920273015   -0.14694383097976127
-7.337345972945216   -0.2757987920273015   -0.14694383097976127
-7.337345972945216   -0.2757987920273015   -0.14694383097976127
-7.075304229385253   0.5932456709465923   0.4742649945009948
-7.075304229385253   0.5932456709465923   0.4742649945009948
-7.075304229385253   0.5932456709465923   0.4742649945009948
-7.075304229385253   0.5932456709465923   0.4742649945009948
-11.110793249765903   -0.7921849594339769   -0.2305323094485009
-11.110793249765903   -0.7921849594339769   -0.2305323094485009
-11.110793249765903   -0.7921849594339769   -0.2305323094485009
-11.110793249765903   -0.7921849594339769   -0.2305323094485009
-8.773764673403535   -0.1357206480388924   -0.014119868936971924
-8.773764673403535   -0.1357206480388924   -0.014119868936971924
-8.773764673403535   -0.1357206480388924   -0.014119868936971924
-8.773764673403535   -0.1357206480388924   -0.014119868936971924
-10.803657426391371   -0.12057133146399357   0.6335331794541811
-10.803657426391371   -0.12057133146399357   0.6335331794541811
-10.803657426391371   -0.12057133146399357   0.6335331794541811
-10.803657426391371   -0.12057133146399357   0.6335331794541811
-7.334020300469231   -0.029948204732846095   -0.19612148523945616
-7.334020300469231   -0.029948204732846095   -0.19612148523945616
-7.334020300469231   -0.029948204732846095   -0.19612148523945616
-7.334020300469231   -0.029948204732846095   -0.19612148523945616
-7.047348267223337   0.7354259472832969   0.4399790474962373
-7.047348267223337   0.7354259472832969   0.4399790474962373
-7.047348267223337   0.7354259472832969   0.4399790474962373
-7.047348267223337   0.7354259472832969   0.4399790474962373
-10.94077401722208   -0.663404397799066   -0.3159642665314629
-10.94077401722208   -0.663404397799066   -0.3159642665314629
-10.94077401722208   -0.663404397799066   -0.3159642665314629
-10.94077401722208   -0.663404397799066   -0.3159642665314629
-8.794146140483369   0.03135569368772506   0.10237466011538732
-8.794146140483369   0.03135569368772506   0.10237466011538732
-8.794146140483369   0.03135569368772506   0.10237466011538732
-8.794146140483369   0.03135569368772506   0.10237466011538732
-10.654636578896143   0.013530150757766535   0.4377883765413906
-10.654636578896143   0.013530150757766535   0.4377883765413906
-10.654636578896143   0.013530150757766535   0.4377883765413906
-10.654636578896143   0.013530150757766535   0.4377883765413906
-7.317515897738169   0.07446120653758048   -0.24989436433214107
-7.317515897738169   0.07446120653758048   -0.24989436433214107
-7.317515897738169   0.07446120653758048   -0.24989436433214107
-7.317515897738169   0.07446120653758048   -0.24989436433214107
-7.054981524424036   0.828979351485261   0.34908445678057376
-7.054981524424036   0.828979351485261   0.34908445678057376
-7.054981524424036   0.828979351485261   0.34908445678057376
-7.054981524424036   0.828979351485261   0.34908445678057376
-10.719523596927935   -0.5270951838493145   -0.40320875764705555
-10.719523596927935   -0.5270951838493145   -0.40320875764705555
-10.719523596927935   -0.5270951838493145   -0.40320875764705555
-10.719523596927935   -0.5270951838493145   -0.40320875764705555
-8.542839578341322   0.1807197559371294   0.2112544390536918
-8.542839578341322   0.1807197559371294   0.2112544390536918
-8.542839578341322   0.1807197559371294   0.2112544390536918
-8.542839578341322   0.1807197559371294   0.2112544390536918
-7.360599277324774   -0.6979716630238539   0.15896251811900136
-7.360599277324774   -0.6979716630238539   0.15896251811900136
-7.360599277324774   -0.6979716630238539   0.15896251811900136
-7.360599277324774   -0.6979716630238539   0.15896251811900136
-3.710545543049402   -0.13249848960471478   0.007432185850123507
-3.710545543049402   -0.13249848960471478   0.007432185850123507
-3.710545543049402   -0.13249848960471478   0.007432185850123507
-3.710545543049402   -0.13249848960471478   0.007432185850123507
-3.606490996677686   0.36506093674450946   0.2579137739577235
-3.606490996677686   0.36506093674450946   0.2579137739577235
-3.606490996677686   0.36506093674450946   0.2579137739577235
-3.606490996677686   0.36506093674450946   0.2579137739577235
-7.477989250465693   -0.6883347598968856   -0.25757968005777643
-7.477989250465693   -0.6883347598968856   -0.25757968005777643
-7.477989250465693   -0.6883347598968856   -0.25757968005777643
-7.477989250465693   -0.6883347598968856   -0.25757968005777643
-5.518999553516594   -0.2708031033134958   -0.11085233605678149
-5.518999553516594   -0.2708031033134958   -0.11085233605678149
-5.518999553516594   -0.2708031033134958   -0.11085233605678149
-5.518999553516594   -0.2708031033134958   -0.11085233605678149
-7.338357099201756   -0.4020381460656983   0.15428446243075444
-7.338357099201756   -0.4020381460656983   0.15428446243075444
-7.338357099201756   -0.4020381460656983   0.15428446243075444
-7.338357099201756   -0.4020381460656983   0.15428446243075444
-3.7177497008069365   0.10713777004801961   -0.040456579992006136
-3.7177497008069365   0.10713777004801961   -0.040456579992006136
-3.7177497008069365   0.10713777004801961   -0.040456579992006136
-3.7177497008069365   0.10713777004801961   -0.040456579992006136
-3.595813042146957   0.6021340143787474   0.22329615174913658
-3.595813042146957   0.6021340143787474   0.22329615174913658
-3.595813042146957   0.6021340143787474   0.22329615174913658
-3.595813042146957   0.6021340143787474   0.22329615174913658
-7.436614010812701   -0.466894280671422   -0.3040294424958623
-7.436614010812701   -0.466894280671422   -0.3040294424958623
-7.436614010812701   -0.466894280671422   -0.3040294424958623
-7.436614010812701   -0.466894280671422   -0.3040294424958623
-5.459564816831143   -0.03066048169503177   0.00013534044646079657
-5.459564816831143   -0.03066048169503177   0.00013534044646079657
-5.459564816831143   -0.03066048169503177   0.00013534044646079657
-5.459564816831143   -0.03066048169503177   0.00013534044646079657
-7.294109661358426   -0.16155411249379714   0.10315213659788397
-7.294109661358426   -0.16155411249379714   0.10315213659788397
-7.294109661358426   -0.16155411249379714   0.10315213659788397
-7.294109661358426   -0.16155411249379714   0.10315213659788397
-3.7152075796982147   0.31990365810416066   -0.09144617973249747
-3.7152075796982147   0.31990365810416066   -0.09144617973249747
-3.7152075796982147   0.31990365810416066   -0.09144617973249747
-3.7152075796982147   0.31990365810416066   -0.09144617973249747
-3.595472572105234   0.851108460038   0.16744765380841758
-3.595472572105234   0.851108460038   0.16744765380841758
-3.595472572105234   0.851108460038   0.16744765380841758
-3.595472572105234   0.851108460038   0.16744765380841758
-7.401675859519014   -0.22815772434438197   -0.3272501428647058
-7.401675859519014   -0.22815772434438197   -0.3272501428647058
-7.401675859519014   -0.22815772434438197   -0.3272501428647058
-7.401675859519014   -0.22815772434438197   -0.3272501428647058
-5.464008247042966   0.18928316576283044   0.08483304532111613
-5.464008247042966   0.18928316576283044   0.08483304532111613
-5.464008247042966   0.18928316576283044   0.08483304532111613
-5.464008247042966   0.18928316576283044   0.08483304532111613
-3.8493347151123447   -0.7961208391593485   -0.02289132490998275
-3.8493347151123447   -0.7961208391593485   -0.02289132490998275
-3.8493347151123447   -0.7961208391593485   -0.02289132490998275
-3.8493347151123447   -0.7961208391593485   -0.02289132490998275
-0.11781752018467753   0.041559924836553234   0.16445351982821677
-0.11781752018467753   0.041559924836553234   0.16445351982821677
-0.11781752018467753   0.041559924836553234   0.16445351982821677
-0.11781752018467753   0.041559924836553234   0.16445351982821677
-0.132607429152469   0.236837822982578   0.07847907491037653
-0.132607429152469   0.236837822982578   0.07847907491037653
-0.132607429152469   0.236837822982578   0.07847907491037653
-0.132607429152469   0.236837822982578   0.07847907491037653
-3.852652151667562   -0.5111180219121515   -0.09671304233499586
-3.852652151667562   -0.5111180219121515   -0.09671304233499586
-3.852652151667562   -0.5111180219121515   -0.09671304233499586
-3.852652151667562   -0.5111180219121515   -0.09671304233499586
-1.9941520925418044   -0.2489418158098384   -0.06184041603791556
-1.9941520925418044   -0.2489418158098384   -0.06184041603791556
-1.9941520925418044   -0.2489418158098384   -0.06184041603791556
-1.9941520925418044   -0.2489418158098384   -0.06184041603791556
-3.848513417816319   -0.5328888906087061   -0.05424850438222496
-3.848513417816319   -0.5328888906087061   -0.05424850438222496
-3.848513417816319   -0.5328888906087061   -0.05424850438222496
-3.848513417816319   -0.5328888906087061   -0.05424850438222496
-0.11557855165364667   0.27977630302920364   0.12068498235786454
-0.11557855165364667   0.27977630302920364   0.12068498235786454
-0.11557855165364667   0.27977630302920364   0.12068498235786454
-0.11557855165364667   0.27977630302920364   0.12068498235786454
-0.11580241701219732   0.49519832816326004   0.03793423784992253
-0.11580241701219732   0.49519832816326004   0.03793423784992253
-0.11580241701219732   0.49519832816326004   0.03793423784992253
-0.11580241701219732   0.49519832816326004   0.03793423784992253
-3.8437248606769105   -0.27254146712186833   -0.14158745939997855
-3.8437248606769105   -0.27254146712186833   -0.14158745939997855
-3.8437248606769105   -0.27254146712186833   -0.14158745939997855
-3.8437248606769105   -0.27254146712186833   -0.14158745939997855
-1.9754973772838649   -0.009931153879703003   0.027794359829815235
-1.9754973772838649   -0.009931153879703003   0.027794359829815235
-1.9754973772838649   -0.009931153879703003   0.027794359829815235
-1.9754973772838649   -0.009931153879703003   0.027794359829815235
-3.8379177392423838   -0.278191873102165   -0.10690144624704695
-3.8379177392423838   -0.278191873102165   -0.10690144624704695
-3.8379177392423838   -0.278191873102165   -0.10690144624704695
-3.8379177392423838   -0.278191873102165   -0.10690144624704695
-0.10412436982809095   0.5183339027621954   0.07318889917152077
-0.10412436982809095   0.5183339027621954   0.07318889917152077
-0.10412436982809095   0.5183339027621954   0.07318889917152077
-0.10412436982809095   0.5183339027621954   0.07318889917152077
-0.11282303246564848   0.7613373197156981   -0.005347475582538036
-0.11282303246564848   0.7613373197156981   -0.005347475582538036
-0.11282303246564848   0.7613373197156981   -0.005347475582538036
-0.11282303246564848   0.7613373197156981   -0.005347475582538036
-3.842526944542798   -0.029854136682645138   -0.1868616116587753
-3.842526944542798   -0.029854136682645138   -0.1868616116587753
-3.842526944542798   -0.029854136682645138   -0.1868616116587753
-3.842526944542798   -0.029854136682645138   -0.1868616116587753
-1.9611789387365932   0.22930185120678592   0.10997795207010275
-1.9611789387365932   0.22930185120678592   0.10997795207010275
-1.9611789387365932   0.22930185120678592   0.10997795207010275
-1.9611789387365932   0.22930185120678592   0.10997795207010275
-0.3712326207942159   -0.870373775307027   -0.19068828307589383
-0.3712326207942159   -0.870373775307027   -0.19068828307589383
-0.3712326207942159   -0.870373775307027   -0.19068828307589383
-0.3712326207942159   -0.870373775307027   -0.19068828307589383
3.462758545472799   0.24555639641400062   0.3125278119531666
3.462758545472799   0.24555639641400062   0.3125278119531666
3.462758545472799   0.24555639641400062   0.3125278119531666
3.462758545472799   0.24555639641400062   0.3125278119531666
3.3497307845578392   0.13193804093460204   -0.12220680062285172
3.3497307845578392   0.13193804093460204   -0.12220680062285172
3.3497307845578392   0.13193804093460204   -0.12220680062285172
3.3497307845578392   0.13193804093460204   -0.12220680062285172
-0.24633540315916835   -0.3198007753387928   0.06647780319825246
-0.24633540315916835   -0.3198007753387928   0.06647780319825246
-0.24633540315916835   -0.3198007753387928   0.06647780319825246
-0.24633540315916835   -0.3198007753387928   0.06647780319825246
1.5268856805382984   -0.20015855420433515   -0.03467420954436071
1.5268856805382984   -0.20015855420433515   -0.03467420954436071
1.5268856805382984   -0.20015855420433515   -0.03467420954436071
1.5268856805382984   -0.20015855420433515   -0.03467420954436071
-0.37060970421025574   -0.6355229934780299   -0.23917148391794713
-0.37060970421025574   -0.6355229934780299   -0.23917148391794713
-0.37060970421025574   -0.6355229934780299   -0.23917148391794713
-0.37060970421025574   -0.6355229934780299   -0.23917148391794713
3.4980733664423247   0.471728539907253   0.2797156098269264
3.4980733664423247   0.471728539907253   0.2797156098269264
3.4980733664423247   0.471728539907253   0.2797156098269264
3.4980733664423247   0.471728539907253   0.2797156098269264
3.402548690492011   0.37220653810557436   -0.1717362031608539
3.402548690492011   0.37220653810557436   -0.1717362031608539
3.402548690492011   0.37220653810557436   -0.1717362031608539
3.402548690492011   0.37220653810557436   -0.1717362031608539
-0.23991513189781644   -0.10607784509841589   0.018646836683506685
-0.23991513189781644   -0.10607784509841589   0.018646836683506685
-0.23991513189781644   -0.10607784509841589   0.018646836683506685
-0.23991513189781644   -0.10607784509841589   0.018646836683506685
1.5391835935865896   0.015849171680893892   0.054309823742452176
1.5391835935865896   0.015849171680893892   0.054309823742452176
1.5391835935865896   0.015849171680893892   0.054309823742452176
1.5391835935865896   0.015849171680893892   0.054309823742452176
-0.3607561147923742   -0.4036953057472318   -0.28794061714046915
-0.3607561147923742   -0.4036953057472318   -0.28794061714046915
-0.3607561147923742   -0.4036953057472318   -0.28794061714046915
-0.3607561147923742   -0.4036953057472318   -0.28794061714046915
3.549611551413681   0.6960458767814872   0.23973876277158582
3.549611551413681   0.6960458767814872   0.23973876277158582
3.549611551413681   0.6960458767814872   0.23973876277158582
3.549611551413681   0.6960458767814872   0.23973876277158582
3.4347265568791365   0.6738136572794391   -0.17888846155441446
3.4347265568791365   0.6738136572794391   -0.17888846155441446
3.4347265568791365   0.6738136572794391   -0.17888846155441446
3.4347265568791365   0.6738136572794391   -0.17888846155441446
-0.24103361295871892   0.14399722639571383   -0.029060284727904187
-0.24103361295871892   0.14399722639571383   -0.029060284727904187
-0.24103361295871892   0.14399722639571383   -0.029060284727904187
-0.24103361295871892   0.14399722639571383   -0.029060284727904187
1.5910639757271394   0.2570643199155245   0.16012831026629762
1.5910639757271394   0.2570643199155245   0.16012831026629762
1.5910639757271394   0.2570643199155245   0.16012831026629762
1.5910639757271394   0.2570643199155245   0.16012831026629762
3.1043666850596767   -0.8635065541575161   -0.37036853954090626
3.1043666850596767   -0.8635065541575161   -0.37036853954090626
3.1043666850596767   -0.8635065541575161   -0.37036853954090626
3.1043666850596767   -0.8635065541575161   -0.37036853954090626
6.814172469322324   0.5061082030323987   0.3461315741785688
6.814172469322324   0.5061082030323987   0.3461315741785688
6.814172469322324   0.5061082030323987   0.3461315741785688
6.814172469322324   0.5061082030323987   0.3461315741785688
6.76074708704422   -0.027316734889777372   -0.49292268436143694
6.76074708704422   -0.027316734889777372   -0.49292268436143694
6.76074708704422   -0.027316734889777372   -0.49292268436143694
6.76074708704422   -0.027316734889777372   -0.49292268436143694
3.3793415604838573   -0.07412334644224783   0.2319084663841286
3.3793415604838573   -0.07412334644224783   0.2319084663841286
3.3793415604838573   -0.07412334644224783   0.2319084663841286
3.3793415604838573   -0.07412334644224783   0.2319084663841286
4.771313940679733   -0.16727611556347943   -0.15566051609771392
4.771313940679733   -0.16727611556347943   -0.15566051609771392
4.771313940679733   -0.16727611556347943   -0.15566051609771392
4.771313940679733   -0.16727611556347943   -0.15566051609771392
3.1065470226875576   -0.7506747705806189   -0.45551279845898307
3.1065470226875576   -0.7506747705806189   -0.45551279845898307
3.1065470226875576   -0.7506747705806189   -0.45551279845898307
3.1065470226875576   -0.7506747705806189   -0.45551279845898307
7.053172404894336   0.6688654693024121   0.27302170069694986
7.053172404894336   0.6688654693024121   0.27302170069694986
7.053172404894336   0.6688654693024121   0.27302170069694986
7.053172404894336   0.6688654693024121   0.27302170069694986
6.923986399499289   0.10972938396221577   -0.660580169532505
6.923986399499289   0.10972938396221577   -0.660580169532505
6.923986399499289   0.10972938396221577   -0.660580169532505
6.923986399499289   0.10972938396221577   -0.660580169532505
3.4030183172540824   0.03038298062276279   0.17243548813237988
3.4030183172540824   0.03038298062276279   0.17243548813237988
3.4030183172540824   0.03038298062276279   0.17243548813237988
3.4030183172540824   0.03038298062276279   0.17243548813237988
4.985067240579415   -0.01933541670568273   -0.04798631224934091
4.985067240579415   -0.01933541670568273   -0.04798631224934091
4.985067240579415   -0.01933541670568273   -0.04798631224934091
4.985067240579415   -0.01933541670568273   -0.04798631224934091
3.140630590998602   -0.613874813613231   -0.4952453489090525
3.140630590998602   -0.613874813613231   -0.4952453489090525
3.140630590998602   -0.613874813613231   -0.4952453489090525
3.140630590998602   -0.613874813613231   -0.4952453489090525
7.2296982867722575   0.797311339215697   0.1803973115789374
7.2296982867722575   0.797311339215697   0.1803973115789374
7.2296982867722575   0.797311339215697   0.1803973115789374
7.2296982867722575   0.797311339215697   0.1803973115789374
7.18332577884275   0.4665251136226628   -0.6207004732189673
7.18332577884275   0.4665251136226628   -0.6207004732189673
7.18332577884275   0.4665251136226628   -0.6207004732189673
7.18332577884275   0.4665251136226628   -0.6207004732189673
3.4132859720011526   0.2620481665019832   0.1256741048331823
3.4132859720011526   0.2620481665019832   0.1256741048331823
3.4132859720011526   0.2620481665019832   0.1256741048331823
3.4132859720011526   0.2620481665019832   0.1256741048331823
5.019682981559944   0.15016787429712486   0.07082098397883246
5.019682981559944   0.15016787429712486   0.07082098397883246
5.019682981559944   0.15016787429712486   0.07082098397883246
5.019682981559944   0.15016787429712486   0.07082098397883246
-7.92445043257525   -0.26124611310632373   0.5129240232551604
-7.92445043257525   -0.26124611310632373   0.5129240232551604
-7.92445043257525   -0.26124611310632373   0.5129240232551604
-7.92445043257525   -0.26124611310632373   0.5129240232551604
-5.535056246285189   -0.36731193765464154   -0.19429988667586665
-5.535056246285189   -0.36731193765464154   -0.19429988667586665
-5.535056246285189   -0.36731193765464154   -0.19429988667586665
-5.535056246285189   -0.36731193765464154   -0.19429988667586665
-5.21132971167002   0.5213521312615077   0.43768960593303985
-5.21132971167002   0.5213521312615077   0.43768960593303985
-5.21132971167002   0.5213521312615077   0.43768960593303985
-5.21132971167002   0.5213521312615077   0.43768960593303985
-7.925176140481639   -0.6517971791810078   -0.2840928014279891
-7.925176140481639   -0.6517971791810078   -0.2840928014279891
-7.925176140481639   -0.6517971791810078   -0.2840928014279891
-7.925176140481639   -0.6517971791810078   -0.2840928014279891
-6.376090796794566   -0.10216730658975437   -0.01211175388949609
-6.376090796794566   -0.10216730658975437   -0.01211175388949609
-6.376090796794566   -0.10216730658975437   -0.01211175388949609
-6.376090796794566   -0.10216730658975437   -0.01211175388949609
-7.630844724599358   0.04755385604126161   0.4882132427611471
-7.630844724599358   0.04755385604126161   0.4882132427611471
-7.630844724599358   0.04755385604126161   0.4882132427611471
-7.630844724599358   0.04755385604126161   0.4882132427611471
-5.481759807382497   -0.15409758379095084   -0.23901115757684566
-5.481759807382497   -0.15409758379095084   -0.23901115757684566
-5.481759807382497   -0.15409758379095084   -0.23901115757684566
-5.481759807382497   -0.15409758379095084   -0.23901115757684566
-5.162338646877208   0.6294962779805255   0.3701037420216228
-5.162338646877208   0.6294962779805255   0.3701037420216228
-5.162338646877208   0.6294962779805255   0.3701037420216228
-5.162338646877208   0.6294962779805255   0.3701037420216228
-7.738837119616564   -0.5313023438059756   -0.35944076839512223
-7.738837119616564   -0.5313023438059756   -0.35944076839512223
-7.738837119616564   -0.5313023438059756   -0.35944076839512223
-7.738837119616564   -0.5313023438059756   -0.35944076839512223
-6.332408078513169   0.040596172733813995   0.06819986193716238
-6.332408078513169   0.040596172733813995   0.06819986193716238
-6.332408078513169   0.040596172733813995   0.06819986193716238
-6.332408078513169   0.040596172733813995   0.06819986193716238
-7.446859925345927   0.17699987142739482   0.3921429877246879
-7.446859925345927   0.17699987142739482   0.3921429877246879
-7.446859925345927   0.17699987142739482   0.3921429877246879
-7.446859925345927   0.17699987142739482   0.3921429877246879
-5.432666229313017   -0.05715632541798965   -0.29488156675886146
-5.432666229313017   -0.05715632541798965   -0.29488156675886146
-5.432666229313017   -0.05715632541798965   -0.29488156675886146
-5.432666229313017   -0.05715632541798965   -0.29488156675886146
-5.135170870236361   0.7341183260318116   0.31850606506706364
-5.135170870236361   0.7341183260318116   0.31850606506706364
-5.135170870236361   0.7341183260318116   0.31850606506706364
-5.135170870236361   0.7341183260318116   0.31850606506706364
-7.48890825556094   -0.3723064520892658   -0.4305359197920101
-7.48890825556094   -0.3723064520892658   -0.4305359197920101
-7.48890825556094   -0.3723064520892658   -0.4305359197920101
-7.48890825556094   -0.3723064520892658   -0.4305359197920101
-6.09541675820441   0.17405877498501932   0.181259947751847
-6.09541675820441   0.17405877498501932   0.181259947751847
-6.09541675820441   0.17405877498501932   0.181259947751847
-6.09541675820441   0.17405877498501932   0.181259947751847
-5.474201728285119   -0.44848667557326993   0.1911474412430646
-5.474201728285119   -0.44848667557326993   0.1911474412430646
-5.474201728285119   -0.44848667557326993   0.1911474412430646
-5.474201728285119   -0.44848667557326993   0.1911474412430646
-3.1656752401407493   -0.238071291602027   -0.03132325764574839
-3.1656752401407493   -0.238071291602027   -0.03132325764574839
-3.1656752401407493   -0.238071291602027   -0.03132325764574839
-3.1656752401407493   -0.238071291602027   -0.03132325764574839
-3.005036367743725   0.30497760044323274   0.23602923892084848
-3.005036367743725   0.30497760044323274   0.23602923892084848
-3.005036367743725   0.30497760044323274   0.23602923892084848
-3.005036367743725   0.30497760044323274   0.23602923892084848
-5.556093029894728   -0.5331083317184563   -0.2316665222105375
-5.556093029894728   -0.5331083317184563   -0.2316665222105375
-5.556093029894728   -0.5331083317184563   -0.2316665222105375
-5.556093029894728   -0.5331083317184563   -0.2316665222105375
-4.282690985503424   -0.2094223897397477   -0.08660777890873447
-4.282690985503424   -0.2094223897397477   -0.08660777890873447
-4.282690985503424   -0.2094223897397477   -0.08660777890873447
-4.282690985503424   -0.2094223897397477   -0.08660777890873447
-5.410305831785257   -0.19204159402132703   0.15620273063964255
-5.410305831785257   -0.19204159402132703   0.15620273063964255
-5.410305831785257   -0.19204159402132703   0.15620273063964255
-5.410305831785257   -0.19204159402132703   0.15620273063964255
-3.1321376253294284   -0.017403196730146786   -0.07709625183429
-3.1321376253294284   -0.017403196730146786   -0.07709625183429
-3.1321376253294284   -0.017403196730146786   -0.07709625183429
-3.1321376253294284   -0.017403196730146786   -0.07709625183429
-2.9667816626178958   0.5266041377020331   0.19363030117660762
-2.9667816626178958   0.5266041377020331   0.19363030117660762
-2.9667816626178958   0.5266041377020331   0.19363030117660762
-2.9667816626178958   0.5266041377020331   0.19363030117660762
-5.481571148345236   -0.32367381527232386   -0.27288867206567125
-5.481571148345236   -0.32367381527232386   -0.27288867206567125
-5.481571148345236   -0.32367381527232386   -0.27288867206567125
-5.481571148345236   -0.32367381527232386   -0.27288867206567125
-4.200515529103284   0.008752771159707962   0.007097037493952213
-4.200515529103284   0.008752771159707962   0.007097037493952213
-4.200515529103284   0.008752771159707962   0.007097037493952213
-4.200515529103284   0.008752771159707962   0.007097037493952213
-5.324745449892302   0.04483210083097178   0.1427339040957074
-5.324745449892302   0.04483210083097178   0.1427339040957074
-5.324745449892302   0.04483210083097178   0.1427339040957074
-5.324745449892302   0.04483210083097178   0.1427339040957074
-3.100401581849605   0.18130400081994769   -0.12916915809982202
-3.100401581849605   0.18130400081994769   -0.12916915809982202
-3.100401581849605   0.18130400081994769   -0.12916915809982202
-3.100401581849605   0.18130400081994769   -0.12916915809982202
-2.9298308115178444   0.7624906273805647   0.1541465677588575
-2.9298308115178444   0.7624906273805647   0.1541465677588575
-2.9298308115178444   0.7624906273805647   0.1541465677588575
-2.9298308115178444   0.7624906273805647   0.1541465677588575
-5.425687698399999   -0.09825429518886764   -0.3017054545304335
-5.425687698399999   -0.09825429518886764   -0.3017054545304335
-5.425687698399999   -0.09825429518886764   -0.3017054545304335
-5.425687698399999   -0.09825429518886764   -0.3017054545304335
-4.168815498879752   0.21369325827424923   0.0961955435597992
-4.168815498879752   0.21369325827424923   0.0961955435597992
-4.168815498879752   0.21369325827424923   0.0961955435597992
-4.168815498879752   0.21369325827424923   0.0961955435597992
-3.233031001076656   -0.6130067884107951   0.006833434483453502
-3.233031001076656   -0.6130067884107951   0.006833434483453502
-3.233031001076656   -0.6130067884107951   0.006833434483453502
-3.233031001076656   -0.6130067884107951   0.006833434483453502
-0.82157275845848   -0.06955900217212023   0.13200976529862848
-0.82157275845848   -0.06955900217212023   0.13200976529862848
-0.82157275845848   -0.06955900217212023   0.13200976529862848
-0.82157275845848   -0.06955900217212023   0.13200976529862848
-0.8010143748919475   0.1275547653061052   0.04501311698067317
-0.8010143748919475   0.1275547653061052   0.04501311698067317
-0.8010143748919475   0.1275547653061052   0.04501311698067317
-0.8010143748919475   0.1275547653061052   0.04501311698067317
-3.197528316577891   -0.3594777418283402   -0.06197516297843943
-3.197528316577891   -0.3594777418283402   -0.06197516297843943
-3.197528316577891   -0.3594777418283402   -0.06197516297843943
-3.197528316577891   -0.3594777418283402   -0.06197516297843943
-2.0166770962974065   -0.2189135974797491   -0.061448318884200395
-2.0166770962974065   -0.2189135974797491   -0.061448318884200395
-2.0166770962974065   -0.2189135974797491   -0.061448318884200395
-2.0166770962974065   -0.2189135974797491   -0.061448318884200395
-3.192369477616111   -0.3657088505286985   -0.02994985946918169
-3.192369477616111   -0.3657088505286985   -0.02994985946918169
-3.192369477616111   -0.3657088505286985   -0.02994985946918169
-3.192369477616111   -0.3657088505286985   -0.02994985946918169
-0.7874419015220396   0.15251718633815115   0.08791306279816609
-0.7874419015220396   0.15251718633815115   0.08791306279816609
-0.7874419015220396   0.15251718633815115   0.08791306279816609
-0.7874419015220396   0.15251718633815115   0.08791306279816609
-0.7548434249538067   0.37596631387619417   0.012070009867230641
-0.7548434249538067   0.37596631387619417   0.012070009867230641
-0.7548434249538067   0.37596631387619417   0.012070009867230641
-0.7548434249538067   0.37596631387619417   0.012070009867230641
-3.159249360062461   -0.13588840742442887   -0.10621564091975608
-3.159249360062461   -0.13588840742442887   -0.10621564091975608
-3.159249360062461   -0.13588840742442887   -0.10621564091975608
-3.159249360062461   -0.13588840742442887   -0.10621564091975608
-1.9673760261924496   0.004462781346648792   0.026803533099105242
-1.9673760261924496   0.004462781346648792   0.026803533099105242
-1.9673760261924496   0.004462781346648792   0.026803533099105242
-1.9673760261924496   0.004462781346648792   0.026803533099105242
-3.1475496111374106   -0.1180916550647989   -0.06551364865413159
-3.1475496111374106   -0.1180916550647989   -0.06551364865413159
-3.1475496111374106   -0.1180916550647989   -0.06551364865413159
-3.1475496111374106   -0.1180916550647989   -0.06551364865413159
-0.7492501970157076   0.37546253837971566   0.04053992505421308
-0.7492501970157076   0.37546253837971566   0.04053992505421308
-0.7492501970157076   0.37546253837971566   0.04053992505421308
-0.7492501970157076   0.37546253837971566   0.04053992505421308
-0.7134697462748636   0.6279794103840024   -0.02675107459347234
-0.7134697462748636   0.6279794103840024   -0.02675107459347234
-0.7134697462748636   0.6279794103840024   -0.02675107459347234
-0.7134697462748636   0.6279794103840024   -0.02675107459347234
-3.125573939806232   0.09032165296050798   -0.15240009926303222
-3.125573939806232   0.09032165296050798   -0.15240009926303222
-3.125573939806232   0.09032165296050798   -0.15240009926303222
-3.125573939806232   0.09032165296050798   -0.15240009926303222
-1.9223542691442645   0.22890713457379397   0.11182411350784771
-1.9223542691442645   0.22890713457379397   0.11182411350784771
-1.9223542691442645   0.22890713457379397   0.11182411350784771
-1.9223542691442645   0.22890713457379397   0.11182411350784771
-1.018346522363467   -0.747878159019654   -0.17353989737877948
-1.018346522363467   -0.747878159019654   -0.17353989737877948
-1.018346522363467   -0.747878159019654   -0.17353989737877948
-1.018346522363467   -0.747878159019654   -0.17353989737877948
1.4933946051377416   0.11957968117498735   0.28637757087698523
1.4933946051377416   0.11957968117498735   0.28637757087698523
1.4933946051377416   0.11957968117498735   0.28637757087698523
1.4933946051377416   0.11957968117498735   0.28637757087698523
1.3915144754791244   -0.03718001720463138   -0.15826828476929472
1.3915144754791244   -0.03718001720463138   -0.15826828476929472
1.3915144754791244   -0.03718001720463138   -0.15826828476929472
1.3915144754791244   -0.03718001720463138   -0.15826828476929472
-0.8492941899077437   -0.17434039352950215   0.10550920073729936
-0.8492941899077437   -0.17434039352950215   0.10550920073729936
-0.8492941899077437   -0.17434039352950215   0.10550920073729936
-0.8492941899077437   -0.17434039352950215   0.10550920073729936
0.24482449342406393   -0.2041524687841243   -0.0436620548403227
0.24482449342406393   -0.2041524687841243   -0.0436620548403227
0.24482449342406393   -0.2041524687841243   -0.0436620548403227
0.24482449342406393   -0.2041524687841243   -0.0436620548403227
-0.9828043412947414   -0.5230554279591635   -0.2133265217680278
-0.9828043412947414   -0.5230554279591635   -0.2133265217680278
-0.9828043412947414   -0.5230554279591635   -0.2133265217680278
-0.9828043412947414   -0.5230554279591635   -0.2133265217680278
1.5473254193356818   0.33383580969457705   0.24977060761426964
1.5473254193356818   0.33383580969457705   0.24977060761426964
1.5473254193356818   0.33383580969457705   0.24977060761426964
1.5473254193356818   0.33383580969457705   0.24977060761426964
1.4772598230653715   0.19778043457450534   -0.17923671991501386
1.4772598230653715   0.19778043457450534   -0.17923671991501386
1.4772598230653715   0.19778043457450534   -0.17923671991501386
1.4772598230653715   0.19778043457450534   -0.17923671991501386
-0.8159608915466182   0.0256193027114629   0.056829688067912734
-0.8159608915466182   0.0256193027114629   0.056829688067912734
-0.8159608915466182   0.0256193027114629   0.056829688067912734
-0.8159608915466182   0.0256193027114629   0.056829688067912734
0.2903335106108448   -0.001809912094383595   0.0460496863801895
0.2903335106108448   -0.001809912094383595   0.0460496863801895
0.2903335106108448   -0.001809912094383595   0.0460496863801895
0.2903335106108448   -0.001809912094383595   0.0460496863801895
-0.9447999867446778   -0.3026112337055724   -0.2591352515053532
-0.9447999867446778   -0.3026112337055724   -0.2591352515053532
-0.9447999867446778   -0.3026112337055724   -0.2591352515053532
-0.9447999867446778   -0.3026112337055724   -0.2591352515053532
1.6254327812079947   0.5453448339361191   0.21406367143645824
1.6254327812079947   0.5453448339361191   0.21406367143645824
1.6254327812079947   0.5453448339361191   0.21406367143645824
1.6254327812079947   0.5453448339361191   0.21406367143645824
1.5462430698266183   0.46587062303951854   -0.2069699842942175
1.5462430698266183   0.46587062303951854   -0.2069699842942175
1.5462430698266183   0.46587062303951854   -0.2069699842942175
1.5462430698266183   0.46587062303951854   -0.2069699842942175
-0.7803195098802775   0.2564549691317475   0.01052454863170546
-0.7803195098802775   0.2564549691317475   0.01052454863170546
-0.7803195098802775   0.2564549691317475   0.01052454863170546
-0.7803195098802775   0.2564549691317475   0.01052454863170546
0.3609719302133107   0.21870460098518418   0.13908122621678665
0.3609719302133107   0.21870460098518418   0.13908122621678665
0.3609719302133107   0.21870460098518418   0.13908122621678665
0.3609719302133107   0.21870460098518418   0.13908122621678665
1.1927013435603897   -0.7557617901022136   -0.3417472657325581
1.1927013435603897   -0.7557617901022136   -0.3417472657325581
1.1927013435603897   -0.7557617901022136   -0.3417472657325581
1.1927013435603897   -0.7557617901022136   -0.3417472657325581
3.5573183210945603   0.34955285240120554   0.36964520779680643
3.5573183210945603   0.34955285240120554   0.36964520779680643
3.5573183210945603   0.34955285240120554   0.36964520779680643
3.5573183210945603   0.34955285240120554   0.36964520779680643
3.522635836416299   -0.18179756576502226   -0.4497569061621236
3.522635836416299   -0.18179756576502226   -0.4497569061621236
3.522635836416299   -0.18179756576502226   -0.4497569061621236
3.522635836416299   -0.18179756576502226   -0.4497569061621236
1.497999177371734   0.06132721533359803   0.275647992155509
1.497999177371734   0.06132721533359803   0.275647992155509
1.497999177371734   0.06132721533359803   0.275647992155509
1.497999177371734   0.06132721533359803   0.275647992155509
2.3154689562525705   -0.15509941751586143   -0.12116422416479658
2.3154689562525705   -0.15509941751586143   -0.12116422416479658
2.3154689562525705   -0.15509941751586143   -0.12116422416479658
2.3154689562525705   -0.15509941751586143   -0.12116422416479658
1.22549956117689   -0.6303150118979055   -0.3952078615871923
1.22549956117689   -0.6303150118979055   -0.3952078615871923
1.22549956117689   -0.6303150118979055   -0.3952078615871923
1.22549956117689   -0.6303150118979055   -0.3952078615871923
3.8178735459065383   0.5325827547618993   0.31205132076221126
3.8178735459065383   0.5325827547618993   0.31205132076221126
3.8178735459065383   0.5325827547618993   0.31205132076221126
3.8178735459065383   0.5325827547618993   0.31205132076221126
3.7121104243157785   -0.05008172234086983   -0.5389801337474178
3.7121104243157785   -0.05008172234086983   -0.5389801337474178
3.7121104243157785   -0.05008172234086983   -0.5389801337474178
3.7121104243157785   -0.05008172234086983   -0.5389801337474178
1.548048400614847   0.15778213372970973   0.21470446867712917
1.548048400614847   0.15778213372970973   0.21470446867712917
1.548048400614847   0.15778213372970973   0.21470446867712917
1.548048400614847   0.15778213372970973   0.21470446867712917
2.5076160552587505   -0.022487204295172036   -0.01528379378768882
2.5076160552587505   -0.022487204295172036   -0.01528379378768882
2.5076160552587505   -0.022487204295172036   -0.01528379378768882
2.5076160552587505   -0.022487204295172036   -0.01528379378768882
1.277806615892203   -0.5207424345978021   -0.4579798866085647
1.277806615892203   -0.5207424345978021   -0.4579798866085647
1.277806615892203   -0.5207424345978021   -0.4579798866085647
1.277806615892203   -0.5207424345978021   -0.4579798866085647
4.006008495035332   0.6520991319835943   0.22832936552594438
4.006008495035332   0.6520991319835943   0.22832936552594438
4.006008495035332   0.6520991319835943   0.22832936552594438
4.006008495035332   0.6520991319835943   0.22832936552594438
4.002626980437213   0.2394642747044961   -0.5765863625903145
4.002626980437213   0.2394642747044961   -0.5765863625903145
4.002626980437213   0.2394642747044961   -0.5765863625903145
4.002626980437213   0.2394642747044961   -0.5765863625903145
1.5992939071468268   0.3536565795911076   0.17049824575522238
1.5992939071468268   0.3536565795911076   0.17049824575522238
1.5992939071468268   0.3536565795911076   0.17049824575522238
1.5992939071468268   0.3536565795911076   0.17049824575522238
2.6022443825947104   0.12401185551318777   0.0755229984356217
2.6022443825947104   0.12401185551318777   0.0755229984356217
2.6022443825947104   0.12401185551318777   0.0755229984356217
2.6022443825947104   0.12401185551318777   0.0755229984356217
-4.768027424637587   -0.08281970882767475   0.46113243581148783
-4.768027424637587   -0.08281970882767475   0.46113243581148783
-4.768027424637587   -0.08281970882767475   0.46113243581148783
-4.768027424637587   -0.08281970882767475   0.46113243581148783
-3.706656920379967   -0.4683847210920932   -0.22910732079196905
-3.706656920379967   -0.4683847210920932   -0.22910732079196905
-3.706656920379967   -0.4683847210920932   -0.22910732079196905
-3.706656920379967   -0.4683847210920932   -0.22910732079196905
-3.355686932905038   0.3978400992980544   0.39460438339072124
-3.355686932905038   0.3978400992980544   0.39460438339072124
-3.355686932905038   0.3978400992980544   0.39460438339072124
-3.355686932905038   0.3978400992980544   0.39460438339072124
-4.747269377003922   -0.516655317152713   -0.31145317756036284
-4.747269377003922   -0.516655317152713   -0.31145317756036284
-4.747269377003922   -0.516655317152713   -0.31145317756036284
-4.747269377003922   -0.516655317152713   -0.31145317756036284
-3.985206452372356   -0.11032575170101355   -0.056697152421571306
-3.985206452372356   -0.11032575170101355   -0.056697152421571306
-3.985206452372356   -0.11032575170101355   -0.056697152421571306
-3.985206452372356   -0.11032575170101355   -0.056697152421571306
-4.456096382987479   0.18699052306437491   0.4407659523047647
-4.456096382987479   0.18699052306437491   0.4407659523047647
-4.456096382987479   0.18699052306437491   0.4407659523047647
-4.456096382987479   0.18699052306437491   0.4407659523047647
-3.626743638923219   -0.2856894529207664   -0.27714959448133314
-3.626743638923219   -0.2856894529207664   -0.27714959448133314
-3.626743638923219   -0.2856894529207664   -0.27714959448133314
-3.626743638923219   -0.2856894529207664   -0.27714959448133314
-3.2717639402850436   0.5007937002703363   0.3339662726549179
-3.2717639402850436   0.5007937002703363   0.3339662726549179
-3.2717639402850436   0.5007937002703363   0.3339662726549179
-3.2717639402850436   0.5007937002703363   0.3339662726549179
-4.530060930885053   -0.4000197862778241   -0.3894705743617049
-4.530060930885053   -0.4000197862778241   -0.3894705743617049
-4.530060930885053   -0.4000197862778241   -0.3894705743617049
-4.530060930885053   -0.4000197862778241   -0.3894705743617049
-3.871679543010461   0.02458221300994079   0.029199140789891442
-3.871679543010461   0.02458221300994079   0.029199140789891442
-3.871679543010461   0.02458221300994079   0.029199140789891442
-3.871679543010461   0.02458221300994079   0.029199140789891442
-4.238497549859487   0.31193252726842735   0.3563940172198163
-4.238497549859487   0.31193252726842735   0.3563940172198163
-4.238497549859487   0.31193252726842735   0.3563940172198163
-4.238497549859487   0.31193252726842735   0.3563940172198163
-3.544242951037477   -0.19207424300278753   -0.33556083783409735
-3.544242951037477   -0.19207424300278753   -0.33556083783409735
-3.544242951037477   -0.19207424300278753   -0.33556083783409735
-3.544242951037477   -0.19207424300278753   -0.33556083783409735
-3.203581961050531   0.6284784387152544   0.288062239720303
-3.203581961050531   0.6284784387152544   0.288062239720303
-3.203581961050531   0.6284784387152544   0.288062239720303
-3.203581961050531   0.6284784387152544   0.288062239720303
-4.238151512816036   -0.21339783727846895   -0.45085469848980464
-4.238151512816036   -0.21339783727846895   -0.45085469848980464
-4.238151512816036   -0.21339783727846895   -0.45085469848980464
-4.238151512816036   -0.21339783727846895   -0.45085469848980464
-3.6420441264269976   0.1572971185073846   0.13602107169771205
-3.6420441264269976   0.1572971185073846   0.13602107169771205
-3.6420441264269976   0.1572971185073846   0.13602107169771205
-3.6420441264269976   0.1572971185073846   0.13602107169771205
-3.578092191651458   -0.2710197583527689   0.216351360111251
-3.578092191651458   -0.2710197583527689   0.216351360111251
-3.578092191651458   -0.2710197583527689   0.216351360111251
-3.578092191651458   -0.2710197583527689   0.216351360111251
-2.6157330542882407   -0.3552759230109802   -0.0679026619454913
-2.6157330542882407   -0.3552759230109802   -0.0679026619454913
-2.6157330542882407   -0.3552759230109802   -0.0679026619454913
-2.6157330542882407   -0.3552759230109802   -0.0679026619454913
-2.4195372706977953   0.1808748369538411   0.20169356195401603
-2.4195372706977953   0.1808748369538411   0.20169356195401603
-2.4195372706977953   0.1808748369538411   0.20169356195401603
-2.4195372706977953   0.1808748369538411   0.20169356195401603
-3.6298137328265816   -0.3817731482133381   -0.19641636870554088
-3.6298137328265816   -0.3817731482133381   -0.19641636870554088
-3.6298137328265816   -0.3817731482133381   -0.19641636870554088
-3.6298137328265816   -0.3817731482133381   -0.19641636870554088
-3.052065858165862   -0.19067775031145984   -0.08153909894322608
-3.052065858165862   -0.19067775031145984   -0.08153909894322608
-3.052065858165862   -0.19067775031145984   -0.08153909894322608
-3.052065858165862   -0.19067775031145984   -0.08153909894322608
-3.4844720606696558   -0.03562255388185087   0.18414139774753965
-3.4844720606696558   -0.03562255388185087   0.18414139774753965
-3.4844720606696558   -0.03562255388185087   0.18414139774753965
-3.4844720606696558   -0.03562255388185087   0.18414139774753965
-2.548650546471313   -0.14904736099426863   -0.11395061896546291
-2.548650546471313   -0.14904736099426863   -0.11395061896546291
-2.548650546471313   -0.14904736099426863   -0.11395061896546291
-2.548650546471313   -0.14904736099426863   -0.11395061896546291
-2.3470960762637447   0.39008070106467085   0.16140883753781024
-2.3470960762637447   0.39008070106467085   0.16140883753781024
-2.3470960762637447   0.39008070106467085   0.16140883753781024
-2.3470960762637447   0.39008070106467085   0.16140883753781024
-3.5217911476630803   -0.1802957152664305   -0.23508034869843816
-3.5217911476630803   -0.1802957152664305   -0.23508034869843816
-3.5217911476630803   -0.1802957152664305   -0.23508034869843816
-3.5217911476630803   -0.1802957152664305   -0.23508034869843816
-2.947652755535949   0.011380882239447887   0.008966361583065074
-2.947652755535949   0.011380882239447887   0.008966361583065074
-2.947652755535949   0.011380882239447887   0.008966361583065074
-2.947652755535949   0.011380882239447887   0.008966361583065074
-3.3679340684675574   0.18701100126571535   0.16689833074696833
-3.3679340684675574   0.18701100126571535   0.16689833074696833
-3.3679340684675574   0.18701100126571535   0.16689833074696833
-3.3679340684675574   0.18701100126571535   0.16689833074696833
-2.482216374587647   0.04151076540411003   -0.16562271842116896
-2.482216374587647   0.04151076540411003   -0.16562271842116896
-2.482216374587647   0.04151076540411003   -0.16562271842116896
-2.482216374587647   0.04151076540411003   -0.16562271842116896
-2.274898439545234   0.6168528974245673   0.12304124968197616
-2.274898439545234   0.6168528974245673   0.12304124968197616
-2.274898439545234   0.6168528974245673   0.12304124968197616
-2.274898439545234   0.6168528974245673   0.12304124968197616
-3.432376267614056   0.03945149847234819   -0.266882352854386
-3.432376267614056   0.03945149847234819   -0.266882352854386
-3.432376267614056   0.03945149847234819   -0.266882352854386
-3.432376267614056   0.03945149847234819   -0.266882352854386
-2.8720377608011116   0.20909197086951625   0.0973577838249392
-2.8720377608011116   0.20909197086951625   0.0973577838249392
-2.8720377608011116   0.20909197086951625   0.0973577838249392
-2.8720377608011116   0.20909197086951625   0.0973577838249392
-2.61294714000697   -0.4467380285429806   0.03748901499281665
-2.61294714000697   -0.4467380285429806   0.03748901499281665
-2.61294714000697   -0.4467380285429806   0.03748901499281665
-2.61294714000697   -0.4467380285429806   0.03748901499281665
-1.5403741418818369   -0.1858477225200038   0.09633642558546605
-1.5403741418818369   -0.1858477225200038   0.09633642558546605
-1.5403741418818369   -0.1858477225200038   0.09633642558546605
-1.5403741418818369   -0.1858477225200038   0.09633642558546605
-1.4861855561880037   -0.002306620747130561   0.01253768203772164
-1.4861855561880037   -0.002306620747130561   0.01253768203772164
-1.4861855561880037   -0.002306620747130561   0.01253768203772164
-1.4861855561880037   -0.002306620747130561   0.01253768203772164
-2.5415151444955577   -0.20443089558016492   -0.022890074500791613
-2.5415151444955577   -0.20443089558016492   -0.022890074500791613
-2.5415151444955577   -0.20443089558016492   -0.022890074500791613
-2.5415151444955577   -0.20443089558016492   -0.022890074500791613
-2.0484853606033564   -0.2000548134978074   -0.05927727678901079
-2.0484853606033564   -0.2000548134978074   -0.05927727678901079
-2.0484853606033564   -0.2000548134978074   -0.05927727678901079
-2.0484853606033564   -0.2000548134978074   -0.05927727678901079
-2.538602482015797   -0.21487422821387137   0.002116570531688261
-2.538602482015797   -0.21487422821387137   0.002116570531688261
-2.538602482015797   -0.21487422821387137   0.002116570531688261
-2.538602482015797   -0.21487422821387137   0.002116570531688261
-1.472968199987727   0.02426673056662859   0.052051111725345545
-1.472968199987727   0.02426673056662859   0.052051111725345545
-1.472968199987727   0.02426673056662859   0.052051111725345545
-1.472968199987727   0.02426673056662859   0.052051111725345545
-1.407595892680978   0.23162622884955003   -0.020295926931344854
-1.407595892680978   0.23162622884955003   -0.020295926931344854
-1.407595892680978   0.23162622884955003   -0.020295926931344854
-1.407595892680978   0.23162622884955003   -0.020295926931344854
-2.4689538440056427   0.00866875513869847   -0.06646805524573543
-2.4689538440056427   0.00866875513869847   -0.06646805524573543
-2.4689538440056427   0.00866875513869847   -0.06646805524573543
-2.4689538440056427   0.00866875513869847   -0.06646805524573543
-1.965640131432988   0.010416689480872376   0.028420103264837127
-1.965640131432988   0.010416689480872376   0.028420103264837127
-1.965640131432988   0.010416689480872376   0.028420103264837127
-1.965640131432988   0.010416689480872376   0.028420103264837127
-2.4604780514052234   0.018354095891648936   -0.0337744329966054
-2.4604780514052234   0.018354095891648936   -0.0337744329966054
-2.4604780514052234   0.018354095891648936   -0.0337744329966054
-2.4604780514052234   0.018354095891648936   -0.0337744329966054
-1.4014899739689195   0.23652259940907694   0.005337296069433978
-1.4014899739689195   0.23652259940907694   0.005337296069433978
-1.4014899739689195   0.23652259940907694   0.005337296069433978
-1.4014899739689195   0.23652259940907694   0.005337296069433978
-1.333380060556264   0.4676716016636616   -0.057844234997109056
-1.333380060556264   0.4676716016636616   -0.057844234997109056
-1.333380060556264   0.4676716016636616   -0.057844234997109056
-1.333380060556264   0.4676716016636616   -0.057844234997109056
-2.400783466691621   0.22342275108116216   -0.11295373970655331
-2.400783466691621   0.22342275108116216   -0.11295373970655331
-2.400783466691621   0.22342275108116216   -0.11295373970655331
-2.400783466691621   0.22342275108116216   -0.11295373970655331
-1.8872187386517225   0.2216393502674514   0.11259599434086645
-1.8872187386517225   0.2216393502674514   0.11259599434086645
-1.8872187386517225   0.2216393502674514   0.11259599434086645
-1.8872187386517225   0.2216393502674514   0.11259599434086645
-1.6711183796063624   -0.5993707725505576   -0.14386171300663553
-1.6711183796063624   -0.5993707725505576   -0.14386171300663553
-1.6711183796063624   -0.5993707725505576   -0.14386171300663553
-1.6711183796063624   -0.5993707725505576   -0.14386171300663553
-0.4930545391752605   -0.005906208684287567   0.2527598671823829
-0.4930545391752605   -0.005906208684287567   0.2527598671823829
-0.4930545391752605   -0.005906208684287567   0.2527598671823829
-0.4930545391752605   -0.005906208684287567   0.2527598671823829
-0.5634247504767348   -0.1750508261322303   -0.18391240170735043
-0.5634247504767348   -0.1750508261322303   -0.18391240170735043
-0.5634247504767348   -0.1750508261322303   -0.18391240170735043
-0.5634247504767348   -0.1750508261322303   -0.18391240170735043
-1.463987008149441   -0.022966329460459012   0.14419013094385114
-1.463987008149441   -0.022966329460459012   0.14419013094385114
-1.463987008149441   -0.022966329460459012   0.14419013094385114
-1.463987008149441   -0.022966329460459012   0.14419013094385114
-1.0479572983402952   -0.1920259068504439   -0.04274959864133242
-1.0479572983402952   -0.1920259068504439   -0.04274959864133242
-1.0479572983402952   -0.1920259068504439   -0.04274959864133242
-1.0479572983402952   -0.1920259068504439   -0.04274959864133242
-1.6010034621235942   -0.38212981816467473   -0.18172865022271306
-1.6010034621235942   -0.38212981816467473   -0.18172865022271306
-1.6010034621235942   -0.38212981816467473   -0.18172865022271306
-1.6010034621235942   -0.38212981816467473   -0.18172865022271306
-0.40832047722874415   0.2022004818458409   0.21435765655453115
-0.40832047722874415   0.2022004818458409   0.21435765655453115
-0.40832047722874415   0.2022004818458409   0.21435765655453115
-0.40832047722874415   0.2022004818458409   0.21435765655453115
-0.4489637883249204   0.046251986011345   -0.20700399865449728
-0.4489637883249204   0.046251986011345   -0.20700399865449728
-0.4489637883249204   0.046251986011345   -0.20700399865449728
-0.4489637883249204   0.046251986011345   -0.20700399865449728
-1.3969658748321903   0.16840180043251313   0.09607859072962982
-1.3969658748321903   0.16840180043251313   0.09607859072962982
-1.3969658748321903   0.16840180043251313   0.09607859072962982
-1.3969658748321903   0.16840180043251313   0.09607859072962982
-0.960032945923742   0.0038378872854076262   0.04656610536203637
-0.960032945923742   0.0038378872854076262   0.04656610536203637
-0.960032945923742   0.0038378872854076262   0.04656610536203637
-0.960032945923742   0.0038378872854076262   0.04656610536203637
-1.5296402255749493   -0.1735506451817462   -0.2253407173699246
-1.5296402255749493   -0.1735506451817462   -0.2253407173699246
-1.5296402255749493   -0.1735506451817462   -0.2253407173699246
-1.5296402255749493   -0.1735506451817462   -0.2253407173699246
-0.29945664170347513   0.40503722750426974   0.18174649295982015
-0.29945664170347513   0.40503722750426974   0.18174649295982015
-0.29945664170347513   0.40503722750426974   0.18174649295982015
-0.29945664170347513   0.40503722750426974   0.18174649295982015
-0.352104013395075   0.29363607067520364   -0.23178544013633878
-0.352104013395075   0.29363607067520364   -0.23178544013633878
-0.352104013395075   0.29363607067520364   -0.23178544013633878
-0.352104013395075   0.29363607067520364   -0.23178544013633878
-1.3283598903093035   0.3852245208181808   0.0497036970831749
-1.3283598903093035   0.3852245208181808   0.0497036970831749
-1.3283598903093035   0.3852245208181808   0.0497036970831749
-1.3283598903093035   0.3852245208181808   0.0497036970831749
-0.8687918214137934   0.20837556820649195   0.1360208990298893
-0.8687918214137934   0.20837556820649195   0.1360208990298893
-0.8687918214137934   0.20837556820649195   0.1360208990298893
-0.8687918214137934   0.20837556820649195   0.1360208990298893
-0.7338217286839228   -0.645000547435726   -0.31198174160949027
-0.7338217286839228   -0.645000547435726   -0.31198174160949027
-0.7338217286839228   -0.645000547435726   -0.31198174160949027
-0.7338217286839228   -0.645000547435726   -0.31198174160949027
0.30581621888556   0.19438114009203994   0.38419984556899395
0.30581621888556   0.19438114009203994   0.38419984556899395
0.30581621888556   0.19438114009203994   0.38419984556899395
0.30581621888556   0.19438114009203994   0.38419984556899395
0.30885682247864116   -0.31418998599734027   -0.4127956596060896
0.30885682247864116   -0.31418998599734027   -0.4127956596060896
0.30885682247864116   -0.31418998599734027   -0.4127956596060896
0.30885682247864116   -0.31418998599734027   -0.4127956596060896
-0.3890834898345753   0.1983397971531966   0.31440327821801983
-0.3890834898345753   0.1983397971531966   0.31440327821801983
-0.3890834898345753   0.1983397971531966   0.31440327821801983
-0.3890834898345753   0.1983397971531966   0.31440327821801983
-0.1373402203484962   -0.1357117219320887   -0.07396239224282927
-0.1373402203484962   -0.1357117219320887   -0.07396239224282927
-0.1373402203484962   -0.1357117219320887   -0.07396239224282927
-0.1373402203484962   -0.1357117219320887   -0.07396239224282927
-0.6628867434441409   -0.4976951714966675   -0.3585780211799438
-0.6628867434441409   -0.4976951714966675   -0.3585780211799438
-0.6628867434441409   -0.4976951714966675   -0.3585780211799438
-0.6628867434441409   -0.4976951714966675   -0.3585780211799438
0.602015999795118   0.40120090635941463   0.3376093346195397
0.602015999795118   0.40120090635941463   0.3376093346195397
0.602015999795118   0.40120090635941463   0.3376093346195397
0.602015999795118   0.40120090635941463   0.3376093346195397
0.5272640858506024   -0.18732609104045372   -0.4900523404094434
0.5272640858506024   -0.18732609104045372   -0.4900523404094434
0.5272640858506024   -0.18732609104045372   -0.4900523404094434
0.5272640858506024   -0.18732609104045372   -0.4900523404094434
-0.3083387711750132   0.2903826430918957   0.25199043001448834
-0.3083387711750132   0.2903826430918957   0.25199043001448834
-0.3083387711750132   0.2903826430918957   0.25199043001448834
-0.3083387711750132   0.2903826430918957   0.25199043001448834
0.04300733279445911   -0.005357813825301493   0.023018562679571853
0.04300733279445911   -0.005357813825301493   0.023018562679571853
0.04300733279445911   -0.005357813825301493   0.023018562679571853
0.04300733279445911   -0.005357813825301493   0.023018562679571853
-0.578364954140614   -0.3933274994176102   -0.4144303423040093
-0.578364954140614   -0.3933274994176102   -0.4144303423040093
-0.578364954140614   -0.3933274994176102   -0.4144303423040093
-0.578364954140614   -0.3933274994176102   -0.4144303423040093
0.8166336838383725   0.515727466491242   0.25374209199771125
0.8166336838383725   0.515727466491242   0.25374209199771125
0.8166336838383725   0.515727466491242   0.25374209199771125
0.8166336838383725   0.515727466491242   0.25374209199771125
0.8326249522966437   0.06132260998572805   -0.5245026474213696
0.8326249522966437   0.06132260998572805   -0.5245026474213696
0.8326249522966437   0.06132260998572805   -0.5245026474213696
0.8326249522966437   0.06132260998572805   -0.5245026474213696
-0.2328466436190939   0.4533970269524425   0.20474045246632788
-0.2328466436190939   0.4533970269524425   0.20474045246632788
-0.2328466436190939   0.4533970269524425   0.20474045246632788
-0.2328466436190939   0.4533970269524425   0.20474045246632788
0.20426060605321583   0.1319187109698656   0.11754266933025227
0.20426060605321583   0.1319187109698656   0.11754266933025227
0.20426060605321583   0.1319187109698656   0.11754266933025227
0.20426060605321583   0.1319187109698656   0.11754266933025227
-1.599425553884445   0.08663786090022912   0.438774222674121
-1.599425553884445   0.08663786090022912   0.438774222674121
-1.599425553884445   0.08663786090022912   0.438774222674121
-1.599425553884445   0.08663786090022912   0.438774222674121
-1.8775670852205248   -0.5732109481833088   -0.2597094536608301
-1.8775670852205248   -0.5732109481833088   -0.2597094536608301
-1.8775670852205248   -0.5732109481833088   -0.2597094536608301
-1.8775670852205248   -0.5732109481833088   -0.2597094536608301
-1.4989760200470545   0.26720328171808766   0.3595464598366497
-1.4989760200470545   0.26720328171808766   0.3595464598366497
-1.4989760200470545   0.26720328171808766   0.3595464598366497
-1.4989760200470545   0.26720328171808766   0.3595464598366497
-1.5524859144962402   -0.38012442179770134   -0.3341579254521148
-1.5524859144962402   -0.38012442179770134   -0.3341579254521148
-1.5524859144962402   -0.38012442179770134   -0.3341579254521148
-1.5524859144962402   -0.38012442179770134   -0.3341579254521148
-1.5900895655997802   -0.12244164645918731   -0.11892745156839873
-1.5900895655997802   -0.12244164645918731   -0.11892745156839873
-1.5900895655997802   -0.12244164645918731   -0.11892745156839873
-1.5900895655997802   -0.12244164645918731   -0.11892745156839873
-1.2630230603761243   0.3242424719625753   0.4087894513881576
-1.2630230603761243   0.3242424719625753   0.4087894513881576
-1.2630230603761243   0.3242424719625753   0.4087894513881576
-1.2630230603761243   0.3242424719625753   0.4087894513881576
-1.770463642210409   -0.41918838008547354   -0.31149998917656146
-1.770463642210409   -0.41918838008547354   -0.31149998917656146
-1.770463642210409   -0.41918838008547354   -0.31149998917656146
-1.770463642210409   -0.41918838008547354   -0.31149998917656146
-1.3810063364050649   0.36824208209562986   0.30278417302557703
-1.3810063364050649   0.36824208209562986   0.30278417302557703
-1.3810063364050649   0.36824208209562986   0.30278417302557703
-1.3810063364050649   0.36824208209562986   0.30278417302557703
-1.3017424461477456   -0.2659374735276996   -0.4166537765957079
-1.3017424461477456   -0.2659374735276996   -0.4166537765957079
-1.3017424461477456   -0.2659374735276996   -0.4166537765957079
-1.3017424461477456   -0.2659374735276996   -0.4166537765957079
-1.4050665062888292   0.006817909157722624   -0.02371551106064196
-1.4050665062888292   0.006817909157722624   -0.02371551106064196
-1.4050665062888292   0.006817909157722624   -0.02371551106064196
-1.4050665062888292   0.006817909157722624   -0.02371551106064196
-1.010431971719891   0.44716028735893004   0.3268008346569042
-1.010431971719891   0.44716028735893004   0.3268008346569042
-1.010431971719891   0.44716028735893004   0.3268008346569042
-1.010431971719891   0.44716028735893004   0.3268008346569042
-1.6553135216550112   -0.32785238961309676   -0.37265728151542804
-1.6553135216550112   -0.32785238961309676   -0.37265728151542804
-1.6553135216550112   -0.32785238961309676   -0.37265728151542804
-1.6553135216550112   -0.32785238961309676   -0.37265728151542804
-1.2729101980571809   0.5221307058789487   0.26154670253830614
-1.2729101980571809   0.5221307058789487   0.26154670253830614
-1.2729101980571809   0.5221307058789487   0.26154670253830614
-1.2729101980571809   0.5221307058789487   0.26154670253830614
-0.9671303803707708   -0.04884132738783942   -0.46949578440633627
-0.9671303803707708   -0.04884132738783942   -0.46949578440633627
-0.9671303803707708   -0.04884132738783942   -0.46949578440633627
-0.9671303803707708   -0.04884132738783942   -0.46949578440633627
-1.182133817973076   0.14157392125962737   0.07842814954311206
-1.182133817973076   0.14157392125962737   0.07842814954311206
-1.182133817973076   0.14157392125962737   0.07842814954311206
-1.182133817973076   0.14157392125962737   0.07842814954311206
-1.6823832754634875   -0.10535475455727314   0.2483534014982909
-1.6823832754634875   -0.10535475455727314   0.2483534014982909
-1.6823832754634875   -0.10535475455727314   0.2483534014982909
-1.6823832754634875   -0.10535475455727314   0.2483534014982909
-2.0724626448320547   -0.4674553962815948   -0.10150311640477777
-2.0724626448320547   -0.4674553962815948   -0.10150311640477777
-2.0724626448320547   -0.4674553962815948   -0.10150311640477777
-2.0724626448320547   -0.4674553962815948   -0.10150311640477777
-1.8453848108692856   0.04775035852846721   0.16677224304618923
-1.8453848108692856   0.04775035852846721   0.16677224304618923
-1.8453848108692856   0.04775035852846721   0.16677224304618923
-1.8453848108692856   0.04775035852846721   0.16677224304618923
-1.6998215593068828   -0.2232998299191093   -0.15417812482526483
-1.6998215593068828   -0.2232998299191093   -0.15417812482526483
-1.6998215593068828   -0.2232998299191093   -0.15417812482526483
-1.6998215593068828   -0.2232998299191093   -0.15417812482526483
-1.8260541982493073   -0.17289360088893307   -0.08426702554255051
-1.8260541982493073   -0.17289360088893307   -0.08426702554255051
-1.8260541982493073   -0.17289360088893307   -0.08426702554255051
-1.8260541982493073   -0.17289360088893307   -0.08426702554255051
-1.557914993736509   0.1152507066393928   0.21680416646804077
-1.557914993736509   0.1152507066393928   0.21680416646804077
-1.557914993736509   0.1152507066393928   0.21680416646804077
-1.557914993736509   0.1152507066393928   0.21680416646804077
-1.9732315838941763   -0.276740385484567   -0.14797087806525966
-1.9732315838941763   -0.276740385484567   -0.14797087806525966
-1.9732315838941763   -0.276740385484567   -0.14797087806525966
-1.9732315838941763   -0.276740385484567   -0.14797087806525966
-1.739949493734523   0.24855051876574824   0.1273091675338984
-1.739949493734523   0.24855051876574824   0.1273091675338984
-1.739949493734523   0.24855051876574824   0.1273091675338984
-1.739949493734523   0.24855051876574824   0.1273091675338984
-1.559355397365654   -0.029398654575996386   -0.19132039510571197
-1.559355397365654   -0.029398654575996386   -0.19132039510571197
-1.559355397365654   -0.029398654575996386   -0.19132039510571197
-1.559355397365654   -0.029398654575996386   -0.19132039510571197
-1.7003572539414622   0.014806105603134723   0.0037199311992637957
-1.7003572539414622   0.014806105603134723   0.0037199311992637957
-1.7003572539414622   0.014806105603134723   0.0037199311992637957
-1.7003572539414622   0.014806105603134723   0.0037199311992637957
-1.4105736568714997   0.32800148599114975   0.19518816679788256
-1.4105736568714997   0.32800148599114975   0.19518816679788256
-1.4105736568714997   0.32800148599114975   0.19518816679788256
-1.4105736568714997   0.32800148599114975   0.19518816679788256
-1.8737512902583533   -0.09386967783108402   -0.19927961848845094
-1.8737512902583533   -0.09386967783108402   -0.19927961848845094
-1.8737512902583533   -0.09386967783108402   -0.19927961848845094
-1.8737512902583533   -0.09386967783108402   -0.19927961848845094
-1.6340308276083877   0.4704578173157361   0.08980380135700805
-1.6340308276083877   0.4704578173157361   0.08980380135700805
-1.6340308276083877   0.4704578173157361   0.08980380135700805
-1.6340308276083877   0.4704578173157361   0.08980380135700805
-1.4378552413538594   0.185456116222058   -0.2265039242881668
-1.4378552413538594   0.185456116222058   -0.2265039242881668
-1.4378552413538594   0.185456116222058   -0.2265039242881668
-1.4378552413538594   0.185456116222058   -0.2265039242881668
-1.5815534359514638   0.2082622093711871   0.09313581469743737
-1.5815534359514638   0.2082622093711871   0.09313581469743737
-1.5815534359514638   0.2082622093711871   0.09313581469743737
-1.5815534359514638   0.2082622093711871   0.09313581469743737
-2.001506893034853   -0.2834812571731498   0.06930150347275231
-2.001506893034853   -0.2834812571731498   0.06930150347275231
-2.001506893034853   -0.2834812571731498   0.06930150347275231
-2.001506893034853   -0.2834812571731498   0.06930150347275231
-2.2675604695813187   -0.29329685255769405   0.06160490552020438
-2.2675604695813187   -0.29329685255769405   0.06160490552020438
-2.2675604695813187   -0.29329685255769405   0.06160490552020438
-2.2675604695813187   -0.29329685255769405   0.06160490552020438
-2.1827333259695596   -0.1323850940837742   -0.021442885544835644
-2.1827333259695596   -0.1323850940837742   -0.021442885544835644
-2.1827333259695596   -0.1323850940837742   -0.021442885544835644
-2.1827333259695596   -0.1323850940837742   -0.021442885544835644
-1.8924592946872278   -0.040698708662967376   0.019848891147913092
-1.8924592946872278   -0.040698708662967376   0.019848891147913092
-1.8924592946872278   -0.040698708662967376   0.019848891147913092
-1.8924592946872278   -0.040698708662967376   0.019848891147913092
-2.0891892025453185   -0.17682771216176213   -0.055733989424076785
-2.0891892025453185   -0.17682771216176213   -0.055733989424076785
-2.0891892025453185   -0.17682771216176213   -0.055733989424076785
-2.0891892025453185   -0.17682771216176213   -0.055733989424076785
-1.8941995038861348   -0.0635832710500383   0.03403240754041875
-1.8941995038861348   -0.0635832710500383   0.03403240754041875
-1.8941995038861348   -0.0635832710500383   0.03403240754041875
-1.8941995038861348   -0.0635832710500383   0.03403240754041875
-2.1677599650486923   -0.09626737997474527   0.017306204950488388
-2.1677599650486923   -0.09626737997474527   0.017306204950488388
-2.1677599650486923   -0.09626737997474527   0.017306204950488388
-2.1677599650486923   -0.09626737997474527   0.017306204950488388
-2.0720790298141694   0.09042963432863171   -0.05453847348754223
-2.0720790298141694   0.09042963432863171   -0.05453847348754223
-2.0720790298141694   0.09042963432863171   -0.05453847348754223
-2.0720790298141694   0.09042963432863171   -0.05453847348754223
-1.7873826254888072   0.16178919734624886   -0.023095169818022704
-1.7873826254888072   0.16178919734624886   -0.023095169818022704
-1.7873826254888072   0.16178919734624886   -0.023095169818022704
-1.7873826254888072   0.16178919734624886   -0.023095169818022704
-1.9736585827155022   0.022491073416656737   0.031055564757097878
-1.9736585827155022   0.022491073416656737   0.031055564757097878
-1.9736585827155022   0.022491073416656737   0.031055564757097878
-1.9736585827155022   0.022491073416656737   0.031055564757097878
-1.7839483848814648   0.15844708677138553   -0.0025818562064774675
-1.7839483848814648   0.15844708677138553   -0.0025818562064774675
-1.7839483848814648   0.15844708677138553   -0.0025818562064774675
-1.7839483848814648   0.15844708677138553   -0.0025818562064774675
-2.0639852625268853   0.10529975279811665   -0.028939755520606042
-2.0639852625268853   0.10529975279811665   -0.028939755520606042
-2.0639852625268853   0.10529975279811665   -0.028939755520606042
-2.0639852625268853   0.10529975279811665   -0.028939755520606042
-1.9661359956578999   0.31454552874914676   -0.09198732240035118
-1.9661359956578999   0.31454552874914676   -0.09198732240035118
-1.9661359956578999   0.31454552874914676   -0.09198732240035118
-1.9661359956578999   0.31454552874914676   -0.09198732240035118
-1.6870925947054505   0.3651056058325679   -0.07015282264513689
-1.6870925947054505   0.3651056058325679   -0.07015282264513689
-1.6870925947054505   0.3651056058325679   -0.07015282264513689
-1.6870925947054505   0.3651056058325679   -0.07015282264513689
-1.863389905200721   0.222160522336397   0.11379360425431809
-1.863389905200721   0.222160522336397   0.11379360425431809
-1.863389905200721   0.222160522336397   0.11379360425431809
-1.863389905200721   0.222160522336397   0.11379360425431809
-2.3336541101430854   -0.4475084385696477   -0.1146517112767155
-2.3336541101430854   -0.4475084385696477   -0.1146517112767155
-2.3336541101430854   -0.4475084385696477   -0.1146517112767155
-2.3336541101430854   -0.4475084385696477   -0.1146517112767155
-2.47826401981088   -0.12279729722034188   0.2176810641170241
-2.47826401981088   -0.12279729722034188   0.2176810641170241
-2.47826401981088   -0.12279729722034188   0.2176810641170241
-2.47826401981088   -0.12279729722034188   0.2176810641170241
-2.5170126636485057   -0.3047704061917701   -0.2118045972137626
-2.5170126636485057   -0.3047704061917701   -0.2118045972137626
-2.5170126636485057   -0.3047704061917701   -0.2118045972137626
-2.5170126636485057   -0.3047704061917701   -0.2118045972137626
-2.088435679231419   0.13464251663364246   0.18301773742845165
-2.088435679231419   0.13464251663364246   0.18301773742845165
-2.088435679231419   0.13464251663364246   0.18301773742845165
-2.088435679231419   0.13464251663364246   0.18301773742845165
-2.3447264152055687   -0.1730116764542251   -0.034952653813366596
-2.3447264152055687   -0.1730116764542251   -0.034952653813366596
-2.3447264152055687   -0.1730116764542251   -0.034952653813366596
-2.3447264152055687   -0.1730116764542251   -0.034952653813366596
-2.2291906857180797   -0.23505670569764847   -0.15105807267358035
-2.2291906857180797   -0.23505670569764847   -0.15105807267358035
-2.2291906857180797   -0.23505670569764847   -0.15105807267358035
-2.2291906857180797   -0.23505670569764847   -0.15105807267358035
-2.362377667556514   0.0788088057448485   0.1777911713095767
-2.362377667556514   0.0788088057448485   0.1777911713095767
-2.362377667556514   0.0788088057448485   0.1777911713095767
-2.362377667556514   0.0788088057448485   0.1777911713095767
-2.3725277642292437   -0.09344903649562014   -0.23761370451386093
-2.3725277642292437   -0.09344903649562014   -0.23761370451386093
-2.3725277642292437   -0.09344903649562014   -0.23761370451386093
-2.3725277642292437   -0.09344903649562014   -0.23761370451386093
-1.988623895533865   0.3173166144951617   0.13585021774743214
-1.988623895533865   0.3173166144951617   0.13585021774743214
-1.988623895533865   0.3173166144951617   0.13585021774743214
-1.988623895533865   0.3173166144951617   0.13585021774743214
-2.213832829636752   0.018803678704944538   0.054573115621815355
-2.213832829636752   0.018803678704944538   0.054573115621815355
-2.213832829636752   0.018803678704944538   0.054573115621815355
-2.213832829636752   0.018803678704944538   0.054573115621815355
-2.1250330610264205   -0.03516929499693783   -0.19370970022327222
-2.1250330610264205   -0.03516929499693783   -0.19370970022327222
-2.1250330610264205   -0.03516929499693783   -0.19370970022327222
-2.1250330610264205   -0.03516929499693783   -0.19370970022327222
-2.2220899964255545   0.27306547530761105   0.14806062270136836
-2.2220899964255545   0.27306547530761105   0.14806062270136836
-2.2220899964255545   0.27306547530761105   0.14806062270136836
-2.2220899964255545   0.27306547530761105   0.14806062270136836
-2.2460139301194504   0.1396234285361153   -0.2606477245170058
-2.2460139301194504   0.1396234285361153   -0.2606477245170058
-2.2460139301194504   0.1396234285361153   -0.2606477245170058
-2.2460139301194504   0.1396234285361153   -0.2606477245170058
-1.888531552977021   0.521241153269537   0.08933926648365076
-1.888531552977021   0.521241153269537   0.08933926648365076
-1.888531552977021   0.521241153269537   0.08933926648365076
-1.888531552977021   0.521241153269537   0.08933926648365076
-2.1021630871843455   0.2095090490847955   0.14029962234830284
-2.1021630871843455   0.2095090490847955   0.14029962234830284
-2.1021630871843455   0.2095090490847955   0.14029962234830284
-2.1021630871843455   0.2095090490847955   0.14029962234830284
-2.661120319112613   -0.5331047354531662   -0.28629299415886333
-2.661120319112613   -0.5331047354531662   -0.28629299415886333
-2.661120319112613   -0.5331047354531662   -0.28629299415886333
-2.661120319112613   -0.5331047354531662   -0.28629299415886333
-2.926574381560463   0.044978249174476015   0.3900833380168739
-2.926574381560463   0.044978249174476015   0.3900833380168739
-2.926574381560463   0.044978249174476015   0.3900833380168739
-2.926574381560463   0.044978249174476015   0.3900833380168739
-2.884706358107671   -0.43981417886941515   -0.3807437336219433
-2.884706358107671   -0.43981417886941515   -0.3807437336219433
-2.884706358107671   -0.43981417886941515   -0.3807437336219433
-2.884706358107671   -0.43981417886941515   -0.3807437336219433
-2.2766325805326204   0.3356321672976066   0.34969324487626574
-2.2766325805326204   0.3356321672976066   0.34969324487626574
-2.2766325805326204   0.3356321672976066   0.34969324487626574
-2.2766325805326204   0.3356321672976066   0.34969324487626574
-2.5799253847855956   -0.11323865266014099   -0.01860261958990886
-2.5799253847855956   -0.11323865266014099   -0.01860261958990886
-2.5799253847855956   -0.11323865266014099   -0.01860261958990886
-2.5799253847855956   -0.11323865266014099   -0.01860261958990886
-2.5516480991005426   -0.3625035137306507   -0.3272486669351269
-2.5516480991005426   -0.3625035137306507   -0.3272486669351269
-2.5516480991005426   -0.3625035137306507   -0.3272486669351269
-2.5516480991005426   -0.3625035137306507   -0.3272486669351269
-2.595010188984487   0.27300215271407224   0.3549207804104607
-2.595010188984487   0.27300215271407224   0.3549207804104607
-2.595010188984487   0.27300215271407224   0.3549207804104607
-2.595010188984487   0.27300215271407224   0.3549207804104607
-2.6362576257218078   -0.31630867517862715   -0.45354730679145394
-2.6362576257218078   -0.31630867517862715   -0.45354730679145394
-2.6362576257218078   -0.31630867517862715   -0.45354730679145394
-2.6362576257218078   -0.31630867517862715   -0.45354730679145394
-2.1645694769029653   0.42261470610882945   0.28611398951307954
-2.1645694769029653   0.42261470610882945   0.28611398951307954
-2.1645694769029653   0.42261470610882945   0.28611398951307954
-2.1645694769029653   0.42261470610882945   0.28611398951307954
-2.41061096202426   0.015664794593670983   0.06746612541257704
-2.41061096202426   0.015664794593670983   0.06746612541257704
-2.41061096202426   0.015664794593670983   0.06746612541257704
-2.41061096202426   0.015664794593670983   0.06746612541257704
-2.4341606047182465   -0.26085433192543994   -0.3783726115290792
-2.4341606047182465   -0.26085433192543994   -0.3783726115290792
-2.4341606047182465   -0.26085433192543994   -0.3783726115290792
-2.4341606047182465   -0.26085433192543994   -0.3783726115290792
-2.351295633166136   0.38253122759602953   0.2724227532122504
-2.351295633166136   0.38253122759602953   0.2724227532122504
-2.351295633166136   0.38253122759602953   0.2724227532122504
-2.351295633166136   0.38253122759602953   0.2724227532122504
-2.3109767033477686   -0.10225226170222457   -0.4953759310782102
-2.3109767033477686   -0.10225226170222457   -0.4953759310782102
-2.3109767033477686   -0.10225226170222457   -0.4953759310782102
-2.3109767033477686   -0.10225226170222457   -0.4953759310782102
-2.0640582793246294   0.5530834057776384   0.23567055221555877
-2.0640582793246294   0.5530834057776384   0.23567055221555877
-2.0640582793246294   0.5530834057776384   0.23567055221555877
-2.0640582793246294   0.5530834057776384   0.23567055221555877
-2.1813313258204237   0.1447707119221131   0.16681079265172763
-2.1813313258204237   0.1447707119221131   0.16681079265172763
-2.1813313258204237   0.1447707119221131   0.16681079265172763
-2.1813313258204237   0.1447707119221131   0.16681079265172763
1.6072592171238471   0.260895208400021   0.4259950269114471
1.6072592171238471   0.260895208400021   0.4259950269114471
1.6072592171238471   0.260895208400021   0.4259950269114471
1.6072592171238471   0.260895208400021   0.4259950269114471
-0.045803850204050145   -0.6856885881835634   -0.28226030916706435
-0.045803850204050145   -0.6856885881835634   -0.28226030916706435
-0.045803850204050145   -0.6856885881835634   -0.28226030916706435
-0.045803850204050145   -0.6856885881835634   -0.28226030916706435
0.35970088156581426   0.1350226962205243   0.32939086857720434
0.35970088156581426   0.1350226962205243   0.32939086857720434
0.35970088156581426   0.1350226962205243   0.32939086857720434
0.35970088156581426   0.1350226962205243   0.32939086857720434
1.6799764498276004   -0.2437274039225963   -0.3527946796185616
1.6799764498276004   -0.2437274039225963   -0.3527946796185616
1.6799764498276004   -0.2437274039225963   -0.3527946796185616
1.6799764498276004   -0.2437274039225963   -0.3527946796185616
0.8194789362142532   -0.13456289718320338   -0.2022431631886596
0.8194789362142532   -0.13456289718320338   -0.2022431631886596
0.8194789362142532   -0.13456289718320338   -0.2022431631886596
0.8194789362142532   -0.13456289718320338   -0.2022431631886596
1.969780561020737   0.4680501274008059   0.3844483450236897
1.969780561020737   0.4680501274008059   0.3844483450236897
1.969780561020737   0.4680501274008059   0.3844483450236897
1.969780561020737   0.4680501274008059   0.3844483450236897
0.08754407189220573   -0.5591075335833496   -0.3372629499869336
0.08754407189220573   -0.5591075335833496   -0.3372629499869336
0.08754407189220573   -0.5591075335833496   -0.3372629499869336
0.08754407189220573   -0.5591075335833496   -0.3372629499869336
0.5088948255514835   0.2345443877186147   0.2751182579366347
0.5088948255514835   0.2345443877186147   0.2751182579366347
0.5088948255514835   0.2345443877186147   0.2751182579366347
0.5088948255514835   0.2345443877186147   0.2751182579366347
1.9636650602451187   -0.13125307285508186   -0.4418846166418587
1.9636650602451187   -0.13125307285508186   -0.4418846166418587
1.9636650602451187   -0.13125307285508186   -0.4418846166418587
1.9636650602451187   -0.13125307285508186   -0.4418846166418587
1.075264541322527   -0.010264468703519963   -0.09446121373591554
1.075264541322527   -0.010264468703519963   -0.09446121373591554
1.075264541322527   -0.010264468703519963   -0.09446121373591554
1.075264541322527   -0.010264468703519963   -0.09446121373591554
2.2568363113178975   0.5897106220482954   0.3030079438186244
2.2568363113178975   0.5897106220482954   0.3030079438186244
2.2568363113178975   0.5897106220482954   0.3030079438186244
2.2568363113178975   0.5897106220482954   0.3030079438186244
0.23306579850431847   -0.4690770831591493   -0.40040540642139566
0.23306579850431847   -0.4690770831591493   -0.40040540642139566
0.23306579850431847   -0.4690770831591493   -0.40040540642139566
0.23306579850431847   -0.4690770831591493   -0.40040540642139566
0.6537694699858888   0.4168580817831611   0.23810141109200655
0.6537694699858888   0.4168580817831611   0.23810141109200655
0.6537694699858888   0.4168580817831611   0.23810141109200655
0.6537694699858888   0.4168580817831611   0.23810141109200655
2.340028595074459   0.1206151369906121   -0.4874990983401174
2.340028595074459   0.1206151369906121   -0.4874990983401174
2.340028595074459   0.1206151369906121   -0.4874990983401174
2.340028595074459   0.1206151369906121   -0.4874990983401174
1.2910259418702077   0.1287325993060407   0.007706483221636404
1.2910259418702077   0.1287325993060407   0.007706483221636404
1.2910259418702077   0.1287325993060407   0.007706483221636404
1.2910259418702077   0.1287325993060407   0.007706483221636404
0.2191465627916626   0.0687730850413634   0.28803008258654184
0.2191465627916626   0.0687730850413634   0.28803008258654184
0.2191465627916626   0.0687730850413634   0.28803008258654184
0.2191465627916626   0.0687730850413634   0.28803008258654184
-1.54450538301189   -0.5816469326196336   -0.12938765032038574
-1.54450538301189   -0.5816469326196336   -0.12938765032038574
-1.54450538301189   -0.5816469326196336   -0.12938765032038574
-1.54450538301189   -0.5816469326196336   -0.12938765032038574
-1.2878385323509245   -0.08363025259725099   0.132186734828314
-1.2878385323509245   -0.08363025259725099   0.132186734828314
-1.2878385323509245   -0.08363025259725099   0.132186734828314
-1.2878385323509245   -0.08363025259725099   0.132186734828314
0.23224493302276378   -0.06946111919375349   -0.1034050587237396
0.23224493302276378   -0.06946111919375349   -0.1034050587237396
0.23224493302276378   -0.06946111919375349   -0.1034050587237396
0.23224493302276378   -0.06946111919375349   -0.1034050587237396
-0.6078257288318686   -0.1515877691413553   -0.09751303800725776
-0.6078257288318686   -0.1515877691413553   -0.09751303800725776
-0.6078257288318686   -0.1515877691413553   -0.09751303800725776
-0.6078257288318686   -0.1515877691413553   -0.09751303800725776
0.37255644350416245   0.2731247254217106   0.2555666490677897
0.37255644350416245   0.2731247254217106   0.2555666490677897
0.37255644350416245   0.2731247254217106   0.2555666490677897
0.37255644350416245   0.2731247254217106   0.2555666490677897
-1.415358638109645   -0.41342469248995517   -0.17561935407258464
-1.415358638109645   -0.41342469248995517   -0.17561935407258464
-1.415358638109645   -0.41342469248995517   -0.17561935407258464
-1.415358638109645   -0.41342469248995517   -0.17561935407258464
-1.1516976661453429   0.1090976741723878   0.09350351741589792
-1.1516976661453429   0.1090976741723878   0.09350351741589792
-1.1516976661453429   0.1090976741723878   0.09350351741589792
-1.1516976661453429   0.1090976741723878   0.09350351741589792
0.4017587895496975   0.1138174711542347   -0.13983500550791533
0.4017587895496975   0.1138174711542347   -0.13983500550791533
0.4017587895496975   0.1138174711542347   -0.13983500550791533
0.4017587895496975   0.1138174711542347   -0.13983500550791533
-0.4635836165912759   0.018719833242879597   -0.011578566581520726
-0.4635836165912759   0.018719833242879597   -0.011578566581520726
-0.4635836165912759   0.018719833242879597   -0.011578566581520726
-0.4635836165912759   0.018719833242879597   -0.011578566581520726
0.5479337750939467   0.476078948008816   0.22877844535874914
0.5479337750939467   0.476078948008816   0.22877844535874914
0.5479337750939467   0.476078948008816   0.22877844535874914
0.5479337750939467   0.476078948008816   0.22877844535874914
-1.2855855336223734   -0.24087668461497458   -0.2259614611818911
-1.2855855336223734   -0.24087668461497458   -0.2259614611818911
-1.2855855336223734   -0.24087668461497458   -0.2259614611818911
-1.2855855336223734   -0.24087668461497458   -0.2259614611818911
-1.014793870493379   0.3266940994353543   0.056624620917834684
-1.014793870493379   0.3266940994353543   0.056624620917834684
-1.014793870493379   0.3266940994353543   0.056624620917834684
-1.014793870493379   0.3266940994353543   0.056624620917834684
0.5512937172943094   0.3212709462073933   -0.17869021679009198
0.5512937172943094   0.3212709462073933   -0.17869021679009198
0.5512937172943094   0.3212709462073933   -0.17869021679009198
0.5512937172943094   0.3212709462073933   -0.17869021679009198
-0.30444040499013203   0.2063839798211572   0.07989971757535752
-0.30444040499013203   0.2063839798211572   0.07989971757535752
-0.30444040499013203   0.2063839798211572   0.07989971757535752
-0.30444040499013203   0.2063839798211572   0.07989971757535752
-1.4041164204508407   -0.11228914821878477   0.10319937808402702
-1.4041164204508407   -0.11228914821878477   0.10319937808402702
-1.4041164204508407   -0.11228914821878477   0.10319937808402702
-1.4041164204508407   -0.11228914821878477   0.10319937808402702
-3.0163351582995306   -0.41127449492498513   0.027313801734477894
-3.0163351582995306   -0.41127449492498513   0.027313801734477894
-3.0163351582995306   -0.41127449492498513   0.027313801734477894
-3.0163351582995306   -0.41127449492498513   0.027313801734477894
-2.8967498754726977   -0.2569180459155735   -0.0569572143296473
-2.8967498754726977   -0.2569180459155735   -0.0569572143296473
-2.8967498754726977   -0.2569180459155735   -0.0569572143296473
-2.8967498754726977   -0.2569180459155735   -0.0569572143296473
-1.2632394856883742   0.10696399989630806   0.06458771564750575
-1.2632394856883742   0.10696399989630806   0.06458771564750575
-1.2632394856883742   0.10696399989630806   0.06458771564750575
-1.2632394856883742   0.10696399989630806   0.06458771564750575
-2.148259215190955   -0.15449571327275669   -0.05651135531747316
-2.148259215190955   -0.15449571327275669   -0.05651135531747316
-2.148259215190955   -0.15449571327275669   -0.05651135531747316
-2.148259215190955   -0.15449571327275669   -0.05651135531747316
-1.2650978964814343   0.09437977088692612   0.06787989069158733
-1.2650978964814343   0.09437977088692612   0.06787989069158733
-1.2650978964814343   0.09437977088692612   0.06787989069158733
-1.2650978964814343   0.09437977088692612   0.06787989069158733
-2.8839693904463473   -0.23341174267290116   -0.016561092440567318
-2.8839693904463473   -0.23341174267290116   -0.016561092440567318
-2.8839693904463473   -0.23341174267290116   -0.016561092440567318
-2.8839693904463473   -0.23341174267290116   -0.016561092440567318
-2.7536868482160686   -0.044768492055423326   -0.08957939409912244
-2.7536868482160686   -0.044768492055423326   -0.08957939409912244
-2.7536868482160686   -0.044768492055423326   -0.08957939409912244
-2.7536868482160686   -0.044768492055423326   -0.08957939409912244
-1.12842930488212   0.2954096223612547   0.02353337554316237
-1.12842930488212   0.2954096223612547   0.02353337554316237
-1.12842930488212   0.2954096223612547   0.02353337554316237
-1.12842930488212   0.2954096223612547   0.02353337554316237
-2.000617638836591   0.03197530683370442   0.02997089759461466
-2.000617638836591   0.03197530683370442   0.02997089759461466
-2.000617638836591   0.03197530683370442   0.02997089759461466
-2.000617638836591   0.03197530683370442   0.02997089759461466
-1.125206190643044   0.3048793600824711   0.03017920901732507
-1.125206190643044   0.3048793600824711   0.03017920901732507
-1.125206190643044   0.3048793600824711   0.03017920901732507
-1.125206190643044   0.3048793600824711   0.03017920901732507
-2.7482191797859086   -0.045547447107407435   -0.06146209689635951
-2.7482191797859086   -0.045547447107407435   -0.06146209689635951
-2.7482191797859086   -0.045547447107407435   -0.06146209689635951
-2.7482191797859086   -0.045547447107407435   -0.06146209689635951
-2.616419775281785   0.16788897137509007   -0.1269088143561914
-2.616419775281785   0.16788897137509007   -0.1269088143561914
-2.616419775281785   0.16788897137509007   -0.1269088143561914
-2.616419775281785   0.16788897137509007   -0.1269088143561914
-0.9993047397251054   0.4844119497283338   -0.023647575533775805
-0.9993047397251054   0.4844119497283338   -0.023647575533775805
-0.9993047397251054   0.4844119497283338   -0.023647575533775805
-0.9993047397251054   0.4844119497283338   -0.023647575533775805
-1.860586493020092   0.21789913154681617   0.11080530050515425
-1.860586493020092   0.21789913154681617   0.11080530050515425
-1.860586493020092   0.21789913154681617   0.11080530050515425
-1.860586493020092   0.21789913154681617   0.11080530050515425
-3.015299004105361   -0.2912470761221417   -0.08753284609749364
-3.015299004105361   -0.2912470761221417   -0.08753284609749364
-3.015299004105361   -0.2912470761221417   -0.08753284609749364
-3.015299004105361   -0.2912470761221417   -0.08753284609749364
-4.470073777829543   -0.25124775025867363   0.18139026496166377
-4.470073777829543   -0.25124775025867363   0.18139026496166377
-4.470073777829543   -0.25124775025867363   0.18139026496166377
-4.470073777829543   -0.25124775025867363   0.18139026496166377
-4.46918086778326   -0.4263527476761385   -0.2412133955686114
-4.46918086778326   -0.4263527476761385   -0.2412133955686114
-4.46918086778326   -0.4263527476761385   -0.2412133955686114
-4.46918086778326   -0.4263527476761385   -0.2412133955686114
-2.7348989605850202   0.27460281160899136   0.2207765025841753
-2.7348989605850202   0.27460281160899136   0.2207765025841753
-2.7348989605850202   0.27460281160899136   0.2207765025841753
-2.7348989605850202   0.27460281160899136   0.2207765025841753
-3.6519417244339225   -0.1554502643429807   -0.0235852231621749
-3.6519417244339225   -0.1554502643429807   -0.0235852231621749
-3.6519417244339225   -0.1554502643429807   -0.0235852231621749
-3.6519417244339225   -0.1554502643429807   -0.0235852231621749
-2.875017087429242   -0.08359964708103751   -0.12161167294687997
-2.875017087429242   -0.08359964708103751   -0.12161167294687997
-2.875017087429242   -0.08359964708103751   -0.12161167294687997
-2.875017087429242   -0.08359964708103751   -0.12161167294687997
-4.32009968889338   -0.05918723694048067   0.13702698814517472
-4.32009968889338   -0.05918723694048067   0.13702698814517472
-4.32009968889338   -0.05918723694048067   0.13702698814517472
-4.32009968889338   -0.05918723694048067   0.13702698814517472
-4.290446056395457   -0.22389032786258278   -0.26836233317969826
-4.290446056395457   -0.22389032786258278   -0.26836233317969826
-4.290446056395457   -0.22389032786258278   -0.26836233317969826
-4.290446056395457   -0.22389032786258278   -0.26836233317969826
-2.6024461962741348   0.446191232188889   0.1756641413662332
-2.6024461962741348   0.446191232188889   0.1756641413662332
-2.6024461962741348   0.446191232188889   0.1756641413662332
-2.6024461962741348   0.446191232188889   0.1756641413662332
-3.4754402658462236   0.03244962902117199   0.06542854091043215
-3.4754402658462236   0.03244962902117199   0.06542854091043215
-3.4754402658462236   0.03244962902117199   0.06542854091043215
-3.4754402658462236   0.03244962902117199   0.06542854091043215
-2.7379445520730648   0.10762929879160654   -0.16326570423114403
-2.7379445520730648   0.10762929879160654   -0.16326570423114403
-2.7379445520730648   0.10762929879160654   -0.16326570423114403
-2.7379445520730648   0.10762929879160654   -0.16326570423114403
-4.1448527276088605   0.12476657852232409   0.11094740436838002
-4.1448527276088605   0.12476657852232409   0.11094740436838002
-4.1448527276088605   0.12476657852232409   0.11094740436838002
-4.1448527276088605   0.12476657852232409   0.11094740436838002
-4.130474502520424   -0.0027720465121867655   -0.28878378288156514
-4.130474502520424   -0.0027720465121867655   -0.28878378288156514
-4.130474502520424   -0.0027720465121867655   -0.28878378288156514
-4.130474502520424   -0.0027720465121867655   -0.28878378288156514
-2.4713522040504374   0.6360810212528513   0.13023699192278643
-2.4713522040504374   0.6360810212528513   0.13023699192278643
-2.4713522040504374   0.6360810212528513   0.13023699192278643
-2.4713522040504374   0.6360810212528513   0.13023699192278643
-3.3424627353957916   0.20804145373441685   0.14531336332098882
-3.3424627353957916   0.20804145373441685   0.14531336332098882
-3.3424627353957916   0.20804145373441685   0.14531336332098882
-3.3424627353957916   0.20804145373441685   0.14531336332098882
-4.592844260465029   -0.4191953115872492   -0.264514586887187
-4.592844260465029   -0.4191953115872492   -0.264514586887187
-4.592844260465029   -0.4191953115872492   -0.264514586887187
-4.592844260465029   -0.4191953115872492   -0.264514586887187
-6.124699010393605   -0.10456355291893704   0.39064533295885445
-6.124699010393605   -0.10456355291893704   0.39064533295885445
-6.124699010393605   -0.10456355291893704   0.39064533295885445
-6.124699010393605   -0.10456355291893704   0.39064533295885445
-6.035961441120447   -0.5565939568137138   -0.35210851509275487
-6.035961441120447   -0.5565939568137138   -0.35210851509275487
-6.035961441120447   -0.5565939568137138   -0.35210851509275487
-6.035961441120447   -0.5565939568137138   -0.35210851509275487
-4.165988491825031   0.4632823869434155   0.385113349602984
-4.165988491825031   0.4632823869434155   0.385113349602984
-4.165988491825031   0.4632823869434155   0.385113349602984
-4.165988491825031   0.4632823869434155   0.385113349602984
-5.00467266011644   -0.08843007989615281   0.04044959484978111
-5.00467266011644   -0.08843007989615281   0.04044959484978111
-5.00467266011644   -0.08843007989615281   0.04044959484978111
-5.00467266011644   -0.08843007989615281   0.04044959484978111
-4.4408737717878966   -0.2269673771518611   -0.2990632861160416
-4.4408737717878966   -0.2269673771518611   -0.2990632861160416
-4.4408737717878966   -0.2269673771518611   -0.2990632861160416
-4.4408737717878966   -0.2269673771518611   -0.2990632861160416
-5.752987992335449   0.14174397610368117   0.3644207959147306
-5.752987992335449   0.14174397610368117   0.3644207959147306
-5.752987992335449   0.14174397610368117   0.3644207959147306
-5.752987992335449   0.14174397610368117   0.3644207959147306
-5.754388820850618   -0.4363364957129511   -0.4188226756481702
-5.754388820850618   -0.4363364957129511   -0.4188226756481702
-5.754388820850618   -0.4363364957129511   -0.4188226756481702
-5.754388820850618   -0.4363364957129511   -0.4188226756481702
-4.020063712457497   0.5423228565225355   0.31733620212495167
-4.020063712457497   0.5423228565225355   0.31733620212495167
-4.020063712457497   0.5423228565225355   0.31733620212495167
-4.020063712457497   0.5423228565225355   0.31733620212495167
-4.843278378232027   0.03758937755965697   0.11249104659763204
-4.843278378232027   0.03758937755965697   0.11249104659763204
-4.843278378232027   0.03758937755965697   0.11249104659763204
-4.843278378232027   0.03758937755965697   0.11249104659763204
-4.286614101732289   -0.1280296619207827   -0.3450632258056573
-4.286614101732289   -0.1280296619207827   -0.3450632258056573
-4.286614101732289   -0.1280296619207827   -0.3450632258056573
-4.286614101732289   -0.1280296619207827   -0.3450632258056573
-5.477900568759491   0.24395388554669983   0.2833282035477677
-5.477900568759491   0.24395388554669983   0.2833282035477677
-5.477900568759491   0.24395388554669983   0.2833282035477677
-5.477900568759491   0.24395388554669983   0.2833282035477677
-5.408311947660745   -0.2562487389311159   -0.46673650299209746
-5.408311947660745   -0.2562487389311159   -0.46673650299209746
-5.408311947660745   -0.2562487389311159   -0.46673650299209746
-5.408311947660745   -0.2562487389311159   -0.46673650299209746
-3.8915683418274183   0.6386033402092289   0.2643716338620494
-3.8915683418274183   0.6386033402092289   0.2643716338620494
-3.8915683418274183   0.6386033402092289   0.2643716338620494
-3.8915683418274183   0.6386033402092289   0.2643716338620494
-4.545547613774633   0.1559415798218804   0.21359579301095322
-4.545547613774633   0.1559415798218804   0.21359579301095322
-4.545547613774633   0.1559415798218804   0.21359579301095322
-4.545547613774633   0.1559415798218804   0.21359579301095322
4.893008117732   0.443997181444195   0.42735657103567676
4.893008117732   0.443997181444195   0.42735657103567676
4.893008117732   0.443997181444195   0.42735657103567676
4.893008117732   0.443997181444195   0.42735657103567676
1.7955420228974666   -0.8192497247602512   -0.28145047746171664
1.7955420228974666   -0.8192497247602512   -0.28145047746171664
1.7955420228974666   -0.8192497247602512   -0.28145047746171664
1.7955420228974666   -0.8192497247602512   -0.28145047746171664
2.221946705658319   -0.003217617608714085   0.3077839961203763
2.221946705658319   -0.003217617608714085   0.3077839961203763
2.221946705658319   -0.003217617608714085   0.3077839961203763
2.221946705658319   -0.003217617608714085   0.3077839961203763
4.984570420225748   -0.11803116610438558   -0.3591159377875079
4.984570420225748   -0.11803116610438558   -0.3591159377875079
4.984570420225748   -0.11803116610438558   -0.3591159377875079
4.984570420225748   -0.11803116610438558   -0.3591159377875079
3.2600443900838507   -0.14960482709502887   -0.31613396740409583
3.2600443900838507   -0.14960482709502887   -0.31613396740409583
3.2600443900838507   -0.14960482709502887   -0.31613396740409583
3.2600443900838507   -0.14960482709502887   -0.31613396740409583
5.278463497758948   0.6208271652851255   0.37149111848894545
5.278463497758948   0.6208271652851255   0.37149111848894545
5.278463497758948   0.6208271652851255   0.37149111848894545
5.278463497758948   0.6208271652851255   0.37149111848894545
1.9487226533228275   -0.7214069238005179   -0.34014695936524814
1.9487226533228275   -0.7214069238005179   -0.34014695936524814
1.9487226533228275   -0.7214069238005179   -0.34014695936524814
1.9487226533228275   -0.7214069238005179   -0.34014695936524814
2.3914168359204875   0.0934800286619708   0.25402911526778993
2.3914168359204875   0.0934800286619708   0.25402911526778993
2.3914168359204875   0.0934800286619708   0.25402911526778993
2.3914168359204875   0.0934800286619708   0.25402911526778993
5.291823499078514   -0.008027820899235039   -0.4530183656079919
5.291823499078514   -0.008027820899235039   -0.4530183656079919
5.291823499078514   -0.008027820899235039   -0.4530183656079919
5.291823499078514   -0.008027820899235039   -0.4530183656079919
3.580272240777867   -0.030611835118365627   -0.19108555351408837
3.580272240777867   -0.030611835118365627   -0.19108555351408837
3.580272240777867   -0.030611835118365627   -0.19108555351408837
3.580272240777867   -0.030611835118365627   -0.19108555351408837
5.589137205330852   0.7394356237011389   0.2860867210532666
5.589137205330852   0.7394356237011389   0.2860867210532666
5.589137205330852   0.7394356237011389   0.2860867210532666
5.589137205330852   0.7394356237011389   0.2860867210532666
2.1162153409412725   -0.6318712046652852   -0.39662712630100205
2.1162153409412725   -0.6318712046652852   -0.39662712630100205
2.1162153409412725   -0.6318712046652852   -0.39662712630100205
2.1162153409412725   -0.6318712046652852   -0.39662712630100205
2.560623190478943   0.30626893068812877   0.22017527474298176
2.560623190478943   0.30626893068812877   0.22017527474298176
2.560623190478943   0.30626893068812877   0.22017527474298176
2.560623190478943   0.30626893068812877   0.22017527474298176
5.69498101241923   0.2789421420956584   -0.488889261112425
5.69498101241923   0.2789421420956584   -0.488889261112425
5.69498101241923   0.2789421420956584   -0.488889261112425
5.69498101241923   0.2789421420956584   -0.488889261112425
3.779495337877888   0.11383678693762112   -0.08254922939127471
3.779495337877888   0.11383678693762112   -0.08254922939127471
3.779495337877888   0.11383678693762112   -0.08254922939127471
3.779495337877888   0.11383678693762112   -0.08254922939127471
2.133305029423532   0.2478463716776671   0.34026845873069517
2.133305029423532   0.2478463716776671   0.34026845873069517
2.133305029423532   0.2478463716776671   0.34026845873069517
2.133305029423532   0.2478463716776671   0.34026845873069517
-1.0328792478776216   -0.7641615007865408   -0.1472102384390358
-1.0328792478776216   -0.7641615007865408   -0.1472102384390358
-1.0328792478776216   -0.7641615007865408   -0.1472102384390358
-1.0328792478776216   -0.7641615007865408   -0.1472102384390358
-0.7387823829360544   -0.22225864937185258   0.1036346063443376
-0.7387823829360544   -0.22225864937185258   0.1036346063443376
-0.7387823829360544   -0.22225864937185258   0.1036346063443376
-0.7387823829360544   -0.22225864937185258   0.1036346063443376
2.152253543536304   0.0019656635695696756   -0.04586509566798501
2.152253543536304   0.0019656635695696756   -0.04586509566798501
2.152253543536304   0.0019656635695696756   -0.04586509566798501
2.152253543536304   0.0019656635695696756   -0.04586509566798501
0.6004512107629388   -0.16280547066713016   -0.1351726055797769
0.6004512107629388   -0.16280547066713016   -0.1351726055797769
0.6004512107629388   -0.16280547066713016   -0.1351726055797769
0.6004512107629388   -0.16280547066713016   -0.1351726055797769
2.307209546700482   0.4269907766925689   0.3038898070299085
2.307209546700482   0.4269907766925689   0.3038898070299085
2.307209546700482   0.4269907766925689   0.3038898070299085
2.307209546700482   0.4269907766925689   0.3038898070299085
-0.8813961540041777   -0.6349415303987966   -0.19675136796933518
-0.8813961540041777   -0.6349415303987966   -0.19675136796933518
-0.8813961540041777   -0.6349415303987966   -0.19675136796933518
-0.8813961540041777   -0.6349415303987966   -0.19675136796933518
-0.5808157115447773   -0.04159957709937627   0.06565425431850468
-0.5808157115447773   -0.04159957709937627   0.06565425431850468
-0.5808157115447773   -0.04159957709937627   0.06565425431850468
-0.5808157115447773   -0.04159957709937627   0.06565425431850468
2.337735024706242   0.16430265682251893   -0.0852025689639579
2.337735024706242   0.16430265682251893   -0.0852025689639579
2.337735024706242   0.16430265682251893   -0.0852025689639579
2.337735024706242   0.16430265682251893   -0.0852025689639579
0.7532376084697139   -0.019916818551523108   -0.0538215778424011
0.7532376084697139   -0.019916818551523108   -0.0538215778424011
0.7532376084697139   -0.019916818551523108   -0.0538215778424011
0.7532376084697139   -0.019916818551523108   -0.0538215778424011
2.498858220387108   0.61512297639656   0.26959308986630104
2.498858220387108   0.61512297639656   0.26959308986630104
2.498858220387108   0.61512297639656   0.26959308986630104
2.498858220387108   0.61512297639656   0.26959308986630104
-0.7295508352880724   -0.4800318247358924   -0.23958911676145495
-0.7295508352880724   -0.4800318247358924   -0.23958911676145495
-0.7295508352880724   -0.4800318247358924   -0.23958911676145495
-0.7295508352880724   -0.4800318247358924   -0.23958911676145495
-0.42491049928932373   0.1673311695522695   0.027815116518167676
-0.42491049928932373   0.1673311695522695   0.027815116518167676
-0.42491049928932373   0.1673311695522695   0.027815116518167676
-0.42491049928932373   0.1673311695522695   0.027815116518167676
2.502483876511186   0.35728901153857406   -0.12154137594624748
2.502483876511186   0.35728901153857406   -0.12154137594624748
2.502483876511186   0.35728901153857406   -0.12154137594624748
2.502483876511186   0.35728901153857406   -0.12154137594624748
0.9412248239586596   0.15501093706581043   0.041059945866496333
0.9412248239586596   0.15501093706581043   0.041059945866496333
0.9412248239586596   0.15501093706581043   0.041059945866496333
0.9412248239586596   0.15501093706581043   0.041059945866496333
-0.8111241697044695   0.053154727312642897   0.14424892432755673
-0.8111241697044695   0.053154727312642897   0.14424892432755673
-0.8111241697044695   0.053154727312642897   0.14424892432755673
-0.8111241697044695   0.053154727312642897   0.14424892432755673
-3.805003042494172   -0.6739365465004163   -0.018947570276368828
-3.805003042494172   -0.6739365465004163   -0.018947570276368828
-3.805003042494172   -0.6739365465004163   -0.018947570276368828
-3.805003042494172   -0.6739365465004163   -0.018947570276368828
-3.6173412538141445   -0.3946879172239966   -0.08957010182824716
-3.6173412538141445   -0.3946879172239966   -0.08957010182824716
-3.6173412538141445   -0.3946879172239966   -0.08957010182824716
-3.6173412538141445   -0.3946879172239966   -0.08957010182824716
-0.6764279707473121   0.09686308397655205   0.09628493393964466
-0.6764279707473121   0.09686308397655205   0.09628493393964466
-0.6764279707473121   0.09686308397655205   0.09628493393964466
-0.6764279707473121   0.09686308397655205   0.09628493393964466
-2.231436480650582   -0.2076076946427472   -0.08428144730153772
-2.231436480650582   -0.2076076946427472   -0.08428144730153772
-2.231436480650582   -0.2076076946427472   -0.08428144730153772
-2.231436480650582   -0.2076076946427472   -0.08428144730153772
-0.6453885087139968   0.2394047648151975   0.10894056326757555
-0.6453885087139968   0.2394047648151975   0.10894056326757555
-0.6453885087139968   0.2394047648151975   0.10894056326757555
-0.6453885087139968   0.2394047648151975   0.10894056326757555
-3.640238500963134   -0.5290873831783165   -0.06965687161887543
-3.640238500963134   -0.5290873831783165   -0.06965687161887543
-3.640238500963134   -0.5290873831783165   -0.06965687161887543
-3.640238500963134   -0.5290873831783165   -0.06965687161887543
-3.4433051555051715   -0.19648062734946814   -0.12104202238764553
-3.4433051555051715   -0.19648062734946814   -0.12104202238764553
-3.4433051555051715   -0.19648062734946814   -0.12104202238764553
-3.4433051555051715   -0.19648062734946814   -0.12104202238764553
-0.5226359438715157   0.26080377954039996   0.05414973604503652
-0.5226359438715157   0.26080377954039996   0.05414973604503652
-0.5226359438715157   0.26080377954039996   0.05414973604503652
-0.5226359438715157   0.26080377954039996   0.05414973604503652
-2.0559549360239293   -0.04172415737367152   -0.0013524441306058815
-2.0559549360239293   -0.04172415737367152   -0.0013524441306058815
-2.0559549360239293   -0.04172415737367152   -0.0013524441306058815
-2.0559549360239293   -0.04172415737367152   -0.0013524441306058815
-0.48521855479438536   0.4331276578869889   0.06891280308409924
-0.48521855479438536   0.4331276578869889   0.06891280308409924
-0.48521855479438536   0.4331276578869889   0.06891280308409924
-0.48521855479438536   0.4331276578869889   0.06891280308409924
-3.4731385003516135   -0.36122046146536907   -0.105468912503956
-3.4731385003516135   -0.36122046146536907   -0.105468912503956
-3.4731385003516135   -0.36122046146536907   -0.105468912503956
-3.4731385003516135   -0.36122046146536907   -0.105468912503956
-3.2813456394982325   0.000976776038586813   -0.15878254420962856
-3.2813456394982325   0.000976776038586813   -0.15878254420962856
-3.2813456394982325   0.000976776038586813   -0.15878254420962856
-3.2813456394982325   0.000976776038586813   -0.15878254420962856
-0.37570215119028527   0.4283342013003034   0.01285382526534165
-0.37570215119028527   0.4283342013003034   0.01285382526534165
-0.37570215119028527   0.4283342013003034   0.01285382526534165
-0.37570215119028527   0.4283342013003034   0.01285382526534165
-1.8946722898880555   0.12351322482019683   0.07760284115058252
-1.8946722898880555   0.12351322482019683   0.07760284115058252
-1.8946722898880555   0.12351322482019683   0.07760284115058252
-1.8946722898880555   0.12351322482019683   0.07760284115058252
-3.7073278310725   -0.146565188194397   -0.05794287147399524
-3.7073278310725   -0.146565188194397   -0.05794287147399524
-3.7073278310725   -0.146565188194397   -0.05794287147399524
-3.7073278310725   -0.146565188194397   -0.05794287147399524
-6.5103928240914275   -0.5445980967050108   0.1279331245094697
-6.5103928240914275   -0.5445980967050108   0.1279331245094697
-6.5103928240914275   -0.5445980967050108   0.1279331245094697
-6.5103928240914275   -0.5445980967050108   0.1279331245094697
-6.417312440469334   -0.5599966337371025   -0.2698072442619803
-6.417312440469334   -0.5599966337371025   -0.2698072442619803
-6.417312440469334   -0.5599966337371025   -0.2698072442619803
-6.417312440469334   -0.5599966337371025   -0.2698072442619803
-3.421636179913346   0.25146186575992147   0.2428054846918608
-3.421636179913346   0.25146186575992147   0.2428054846918608
-3.421636179913346   0.25146186575992147   0.2428054846918608
-3.421636179913346   0.25146186575992147   0.2428054846918608
-4.979464541822831   -0.21812669068254154   -0.02927093423075075
-4.979464541822831   -0.21812669068254154   -0.02927093423075075
-4.979464541822831   -0.21812669068254154   -0.02927093423075075
-4.979464541822831   -0.21812669068254154   -0.02927093423075075
-3.527115600728449   0.05448186028222923   -0.08761161390596153
-3.527115600728449   0.05448186028222923   -0.08761161390596153
-3.527115600728449   0.05448186028222923   -0.08761161390596153
-3.527115600728449   0.05448186028222923   -0.08761161390596153
-6.311708485904432   -0.3628920945096439   0.06110798933511996
-6.311708485904432   -0.3628920945096439   0.06110798933511996
-6.311708485904432   -0.3628920945096439   0.06110798933511996
-6.311708485904432   -0.3628920945096439   0.06110798933511996
-6.190261977348014   -0.3661857882611088   -0.2984051798098776
-6.190261977348014   -0.3661857882611088   -0.2984051798098776
-6.190261977348014   -0.3661857882611088   -0.2984051798098776
-6.190261977348014   -0.3661857882611088   -0.2984051798098776
-3.2594272355066205   0.40795341012298625   0.19391354013268786
-3.2594272355066205   0.40795341012298625   0.19391354013268786
-3.2594272355066205   0.40795341012298625   0.19391354013268786
-3.2594272355066205   0.40795341012298625   0.19391354013268786
-4.748875105130338   -0.03468430786483556   0.05375959042096995
-4.748875105130338   -0.03468430786483556   0.05375959042096995
-4.748875105130338   -0.03468430786483556   0.05375959042096995
-4.748875105130338   -0.03468430786483556   0.05375959042096995
-3.3584343418272864   0.23435588211289715   -0.12752446346057422
-3.3584343418272864   0.23435588211289715   -0.12752446346057422
-3.3584343418272864   0.23435588211289715   -0.12752446346057422
-3.3584343418272864   0.23435588211289715   -0.12752446346057422
-6.08631870470315   -0.1876520939268269   0.04277748908015183
-6.08631870470315   -0.1876520939268269   0.04277748908015183
-6.08631870470315   -0.1876520939268269   0.04277748908015183
-6.08631870470315   -0.1876520939268269   0.04277748908015183
-5.987199450117326   -0.15586549740899946   -0.31364835531957785
-5.987199450117326   -0.15586549740899946   -0.31364835531957785
-5.987199450117326   -0.15586549740899946   -0.31364835531957785
-5.987199450117326   -0.15586549740899946   -0.31364835531957785
-3.1023176162311166   0.5803291596261191   0.15700518853844403
-3.1023176162311166   0.5803291596261191   0.15700518853844403
-3.1023176162311166   0.5803291596261191   0.15700518853844403
-3.1023176162311166   0.5803291596261191   0.15700518853844403
-4.591806980429243   0.12237779267705062   0.1254707348531141
-4.591806980429243   0.12237779267705062   0.1254707348531141
-4.591806980429243   0.12237779267705062   0.1254707348531141
-4.591806980429243   0.12237779267705062   0.1254707348531141
-6.53898265707276   -0.3145601468891501   -0.24505399021305657
-6.53898265707276   -0.3145601468891501   -0.24505399021305657
-6.53898265707276   -0.3145601468891501   -0.24505399021305657
-6.53898265707276   -0.3145601468891501   -0.24505399021305657
-9.312688875360498   -0.3348201785181528   0.425077072664217
-9.312688875360498   -0.3348201785181528   0.425077072664217
-9.312688875360498   -0.3348201785181528   0.425077072664217
-9.312688875360498   -0.3348201785181528   0.425077072664217
-9.129013634566741   -0.6710482164415839   -0.3235145245803021
-9.129013634566741   -0.6710482164415839   -0.3235145245803021
-9.129013634566741   -0.6710482164415839   -0.3235145245803021
-9.129013634566741   -0.6710482164415839   -0.3235145245803021
-6.060399324888941   0.5232585468432647   0.431503153059619
-6.060399324888941   0.5232585468432647   0.431503153059619
-6.060399324888941   0.5232585468432647   0.431503153059619
-6.060399324888941   0.5232585468432647   0.431503153059619
-7.416339663985466   -0.09178313769128899   0.08441240949664425
-7.416339663985466   -0.09178313769128899   0.08441240949664425
-7.416339663985466   -0.09178313769128899   0.08441240949664425
-7.416339663985466   -0.09178313769128899   0.08441240949664425
-6.325851352993959   -0.10017711944612806   -0.27232132117605207
-6.325851352993959   -0.10017711944612806   -0.27232132117605207
-6.325851352993959   -0.10017711944612806   -0.27232132117605207
-6.325851352993959   -0.10017711944612806   -0.27232132117605207
-8.859430452334696   -0.043481396025127905   0.3968345661634121
-8.859430452334696   -0.043481396025127905   0.3968345661634121
-8.859430452334696   -0.043481396025127905   0.3968345661634121
-8.859430452334696   -0.043481396025127905   0.3968345661634121
-8.786638970172373   -0.5506157025209448   -0.38078133537757314
-8.786638970172373   -0.5506157025209448   -0.38078133537757314
-8.786638970172373   -0.5506157025209448   -0.38078133537757314
-8.786638970172373   -0.5506157025209448   -0.38078133537757314
-5.8694997378601945   0.5975767262685083   0.34164350309959785
-5.8694997378601945   0.5975767262685083   0.34164350309959785
-5.8694997378601945   0.5975767262685083   0.34164350309959785
-5.8694997378601945   0.5975767262685083   0.34164350309959785
-7.237344625742069   0.039568296529185476   0.15391778141802515
-7.237344625742069   0.039568296529185476   0.15391778141802515
-7.237344625742069   0.039568296529185476   0.15391778141802515
-7.237344625742069   0.039568296529185476   0.15391778141802515
-6.11987281726681   -0.0030293653310924373   -0.3096158023338747
-6.11987281726681   -0.0030293653310924373   -0.3096158023338747
-6.11987281726681   -0.0030293653310924373   -0.3096158023338747
-6.11987281726681   -0.0030293653310924373   -0.3096158023338747
-8.532200542872236   0.05405573697211308   0.2867393616299073
-8.532200542872236   0.05405573697211308   0.2867393616299073
-8.532200542872236   0.05405573697211308   0.2867393616299073
-8.532200542872236   0.05405573697211308   0.2867393616299073
-8.413139417090477   -0.4052992398555688   -0.4335701911988801
-8.413139417090477   -0.4052992398555688   -0.4335701911988801
-8.413139417090477   -0.4052992398555688   -0.4335701911988801
-8.413139417090477   -0.4052992398555688   -0.4335701911988801
-5.701384580130268   0.668554803688846   0.2910056935178629
-5.701384580130268   0.668554803688846   0.2910056935178629
-5.701384580130268   0.668554803688846   0.2910056935178629
-5.701384580130268   0.668554803688846   0.2910056935178629
-6.861581460424478   0.14905519723574367   0.2582854208311486
-6.861581460424478   0.14905519723574367   0.2582854208311486
-6.861581460424478   0.14905519723574367   0.2582854208311486
-6.861581460424478   0.14905519723574367   0.2582854208311486
8.246778380525253   0.6152854372461496   0.43998897494250006
8.246778380525253   0.6152854372461496   0.43998897494250006
8.246778380525253   0.6152854372461496   0.43998897494250006
8.246778380525253   0.6152854372461496   0.43998897494250006
3.6429127280174995   -0.9770757704684221   -0.20086048848847654
3.6429127280174995   -0.9770757704684221   -0.20086048848847654
3.6429127280174995   -0.9770757704684221   -0.20086048848847654
3.6429127280174995   -0.9770757704684221   -0.20086048848847654
4.066437656020263   -0.16929042975521114   0.3027205081638506
4.066437656020263   -0.16929042975521114   0.3027205081638506
4.066437656020263   -0.16929042975521114   0.3027205081638506
4.066437656020263   -0.16929042975521114   0.3027205081638506
8.340322273908862   -0.02120096226080781   -0.31574819595108655
8.340322273908862   -0.02120096226080781   -0.31574819595108655
8.340322273908862   -0.02120096226080781   -0.31574819595108655
8.340322273908862   -0.02120096226080781   -0.31574819595108655
5.718068414332583   -0.17573780594915234   -0.44936395250644035
5.718068414332583   -0.17573780594915234   -0.44936395250644035
5.718068414332583   -0.17573780594915234   -0.44936395250644035
5.718068414332583   -0.17573780594915234   -0.44936395250644035
8.632763571769202   0.7570684316497964   0.368188899439949
8.632763571769202   0.7570684316497964   0.368188899439949
8.632763571769202   0.7570684316497964   0.368188899439949
8.632763571769202   0.7570684316497964   0.368188899439949
3.802025665492785   -0.9195305163329524   -0.2690993578957341
3.802025665492785   -0.9195305163329524   -0.2690993578957341
3.802025665492785   -0.9195305163329524   -0.2690993578957341
3.802025665492785   -0.9195305163329524   -0.2690993578957341
4.233053327646817   -0.08018548959588045   0.24496346234047717
4.233053327646817   -0.08018548959588045   0.24496346234047717
4.233053327646817   -0.08018548959588045   0.24496346234047717
4.233053327646817   -0.08018548959588045   0.24496346234047717
8.630004572057407   0.07714904837839742   -0.3951506887660568
8.630004572057407   0.07714904837839742   -0.3951506887660568
8.630004572057407   0.07714904837839742   -0.3951506887660568
8.630004572057407   0.07714904837839742   -0.3951506887660568
6.080843221223672   -0.0704108253726683   -0.30529084181377286
6.080843221223672   -0.0704108253726683   -0.30529084181377286
6.080843221223672   -0.0704108253726683   -0.30529084181377286
6.080843221223672   -0.0704108253726683   -0.30529084181377286
8.920821350258615   0.8629932271517171   0.27308902346666664
8.920821350258615   0.8629932271517171   0.27308902346666664
8.920821350258615   0.8629932271517171   0.27308902346666664
8.920821350258615   0.8629932271517171   0.27308902346666664
3.9668251736637963   -0.841441044150971   -0.324921753019534
3.9668251736637963   -0.841441044150971   -0.324921753019534
3.9668251736637963   -0.841441044150971   -0.324921753019534
3.9668251736637963   -0.841441044150971   -0.324921753019534
4.383855403704094   0.1574478104291578   0.21476468927045397
4.383855403704094   0.1574478104291578   0.21476468927045397
4.383855403704094   0.1574478104291578   0.21476468927045397
4.383855403704094   0.1574478104291578   0.21476468927045397
8.985920955065788   0.36471152524123873   -0.4140250955315936
8.985920955065788   0.36471152524123873   -0.4140250955315936
8.985920955065788   0.36471152524123873   -0.4140250955315936
8.985920955065788   0.36471152524123873   -0.4140250955315936
6.218462477788549   0.07101471464847342   -0.20522235890385476
6.218462477788549   0.07101471464847342   -0.20522235890385476
6.218462477788549   0.07101471464847342   -0.20522235890385476
6.218462477788549   0.07101471464847342   -0.20522235890385476
4.0303187162842145   0.35811573017413567   0.4009779522025103
4.0303187162842145   0.35811573017413567   0.4009779522025103
4.0303187162842145   0.35811573017413567   0.4009779522025103
4.0303187162842145   0.35811573017413567   0.4009779522025103
-0.48796928645914617   -1.2062572392450643   -0.11402760831707665
-0.48796928645914617   -1.2062572392450643   -0.11402760831707665
-0.48796928645914617   -1.2062572392450643   -0.11402760831707665
-0.48796928645914617   -1.2062572392450643   -0.11402760831707665
-0.12214517541467868   -0.4231117560883927   0.10314652499318545
-0.12214517541467868   -0.4231117560883927   0.10314652499318545
-0.12214517541467868   -0.4231117560883927   0.10314652499318545
-0.12214517541467868   -0.4231117560883927   0.10314652499318545
3.9972755973503307   -0.23150621201066346   0.01912599706964141
3.9972755973503307   -0.23150621201066346   0.01912599706964141
3.9972755973503307   -0.23150621201066346   0.01912599706964141
3.9972755973503307   -0.23150621201066346   0.01912599706964141
1.8041764076569597   -0.3388620185075303   -0.21528837499368997
1.8041764076569597   -0.3388620185075303   -0.21528837499368997
1.8041764076569597   -0.3388620185075303   -0.21528837499368997
1.8041764076569597   -0.3388620185075303   -0.21528837499368997
4.20946789724453   0.49358150862567834   0.3549997759043316
4.20946789724453   0.49358150862567834   0.3549997759043316
4.20946789724453   0.49358150862567834   0.3549997759043316
4.20946789724453   0.49358150862567834   0.3549997759043316
-0.31967485747195645   -1.133536858887807   -0.17407678249378913
-0.31967485747195645   -1.133536858887807   -0.17407678249378913
-0.31967485747195645   -1.133536858887807   -0.17407678249378913
-0.31967485747195645   -1.133536858887807   -0.17407678249378913
0.04781424669713895   -0.2639845638921059   0.06328210547226627
0.04781424669713895   -0.2639845638921059   0.06328210547226627
0.04781424669713895   -0.2639845638921059   0.06328210547226627
0.04781424669713895   -0.2639845638921059   0.06328210547226627
4.171044402159868   -0.11156428949534658   -0.03370236519479625
4.171044402159868   -0.11156428949534658   -0.03370236519479625
4.171044402159868   -0.11156428949534658   -0.03370236519479625
4.171044402159868   -0.11156428949534658   -0.03370236519479625
1.9522053200361722   -0.2412539388674364   -0.13976826448335272
1.9522053200361722   -0.2412539388674364   -0.13976826448335272
1.9522053200361722   -0.2412539388674364   -0.13976826448335272
1.9522053200361722   -0.2412539388674364   -0.13976826448335272
4.394636429030403   0.6560517895105407   0.31664169015198934
4.394636429030403   0.6560517895105407   0.31664169015198934
4.394636429030403   0.6560517895105407   0.31664169015198934
4.394636429030403   0.6560517895105407   0.31664169015198934
-0.16715164594525866   -1.0229745086698154   -0.25255741296201234
-0.16715164594525866   -1.0229745086698154   -0.25255741296201234
-0.16715164594525866   -1.0229745086698154   -0.25255741296201234
-0.16715164594525866   -1.0229745086698154   -0.25255741296201234
0.18116403535626208   -0.07807774691686883   0.022944672931216673
0.18116403535626208   -0.07807774691686883   0.022944672931216673
0.18116403535626208   -0.07807774691686883   0.022944672931216673
0.18116403535626208   -0.07807774691686883   0.022944672931216673
4.301334525568555   0.041116485691893634   -0.0815083766700094
4.301334525568555   0.041116485691893634   -0.0815083766700094
4.301334525568555   0.041116485691893634   -0.0815083766700094
4.301334525568555   0.041116485691893634   -0.0815083766700094
2.1324060616567024   -0.09543695326689261   -0.05903767742851587
2.1324060616567024   -0.09543695326689261   -0.05903767742851587
2.1324060616567024   -0.09543695326689261   -0.05903767742851587
2.1324060616567024   -0.09543695326689261   -0.05903767742851587
-0.16461049456649463   0.09769441626718012   0.19881469563393683
-0.16461049456649463   0.09769441626718012   0.19881469563393683
-0.16461049456649463   0.09769441626718012   0.19881469563393683
-0.16461049456649463   0.09769441626718012   0.19881469563393683
-4.587432159610526   -1.5163341274570634   -0.09237261918893167
-4.587432159610526   -1.5163341274570634   -0.09237261918893167
-4.587432159610526   -1.5163341274570634   -0.09237261918893167
-4.587432159610526   -1.5163341274570634   -0.09237261918893167
-4.216072101401049   -0.649580774472559   -0.09629022765217296
-4.216072101401049   -0.649580774472559   -0.09629022765217296
-4.216072101401049   -0.649580774472559   -0.09629022765217296
-4.216072101401049   -0.649580774472559   -0.09629022765217296
-0.14674317248002536   -0.5320202322914176   0.08906501586947688
-0.14674317248002536   -0.5320202322914176   0.08906501586947688
-0.14674317248002536   -0.5320202322914176   0.08906501586947688
-0.14674317248002536   -0.5320202322914176   0.08906501586947688
-2.2892984240149534   -0.6152553655671296   -0.1926274320653945
-2.2892984240149534   -0.6152553655671296   -0.1926274320653945
-2.2892984240149534   -0.6152553655671296   -0.1926274320653945
-2.2892984240149534   -0.6152553655671296   -0.1926274320653945
0.024110928740775882   0.24998077918554484   0.16133451049652073
0.024110928740775882   0.24998077918554484   0.16133451049652073
0.024110928740775882   0.24998077918554484   0.16133451049652073
0.024110928740775882   0.24998077918554484   0.16133451049652073
-4.376378843435768   -1.4210344267634794   -0.12637028553484425
-4.376378843435768   -1.4210344267634794   -0.12637028553484425
-4.376378843435768   -1.4210344267634794   -0.12637028553484425
-4.376378843435768   -1.4210344267634794   -0.12637028553484425
-4.005363942186981   -0.47285902497635074   -0.1314362882232516
-4.005363942186981   -0.47285902497635074   -0.1314362882232516
-4.005363942186981   -0.47285902497635074   -0.1314362882232516
-4.005363942186981   -0.47285902497635074   -0.1314362882232516
0.011693704891242787   -0.41684122433811044   0.03553605688878998
0.011693704891242787   -0.41684122433811044   0.03553605688878998
0.011693704891242787   -0.41684122433811044   0.03553605688878998
0.011693704891242787   -0.41684122433811044   0.03553605688878998
-2.084754228903573   -0.48836584427648483   -0.10735544225001405
-2.084754228903573   -0.48836584427648483   -0.10735544225001405
-2.084754228903573   -0.48836584427648483   -0.10735544225001405
-2.084754228903573   -0.48836584427648483   -0.10735544225001405
0.1968464971870726   0.41896839945756337   0.1254903945722652
0.1968464971870726   0.41896839945756337   0.1254903945722652
0.1968464971870726   0.41896839945756337   0.1254903945722652
0.1968464971870726   0.41896839945756337   0.1254903945722652
-4.190821244330891   -1.3089731586200992   -0.2226086652990199
-4.190821244330891   -1.3089731586200992   -0.2226086652990199
-4.190821244330891   -1.3089731586200992   -0.2226086652990199
-4.190821244330891   -1.3089731586200992   -0.2226086652990199
-3.8565190198297987   -0.304562627397887   -0.17081344958609665
-3.8565190198297987   -0.304562627397887   -0.17081344958609665
-3.8565190198297987   -0.304562627397887   -0.17081344958609665
-3.8565190198297987   -0.304562627397887   -0.17081344958609665
0.11587042274238264   -0.3252025329704401   -0.05639860408460902
0.11587042274238264   -0.3252025329704401   -0.05639860408460902
0.11587042274238264   -0.3252025329704401   -0.05639860408460902
0.11587042274238264   -0.3252025329704401   -0.05639860408460902
-1.9346670557861552   -0.3702275808709377   -0.05425847267195045
-1.9346670557861552   -0.3702275808709377   -0.05425847267195045
-1.9346670557861552   -0.3702275808709377   -0.05425847267195045
-1.9346670557861552   -0.3702275808709377   -0.05425847267195045
-4.292785847330931   -0.1281319694203472   -0.007343215827707028
-4.292785847330931   -0.1281319694203472   -0.007343215827707028
-4.292785847330931   -0.1281319694203472   -0.007343215827707028
-4.292785847330931   -0.1281319694203472   -0.007343215827707028
-8.703510063114523   -1.6302417536164695   -0.07493142107802755
-8.703510063114523   -1.6302417536164695   -0.07493142107802755
-8.703510063114523   -1.6302417536164695   -0.07493142107802755
-8.703510063114523   -1.6302417536164695   -0.07493142107802755
-8.303377450778596   -0.8310378350509304   -0.287951748497148
-8.303377450778596   -0.8310378350509304   -0.287951748497148
-8.303377450778596   -0.8310378350509304   -0.287951748497148
-8.303377450778596   -0.8310378350509304   -0.287951748497148
-4.139351233995729   -0.5523142137696706   0.19004754867150625
-4.139351233995729   -0.5523142137696706   0.19004754867150625
-4.139351233995729   -0.5523142137696706   0.19004754867150625
-4.139351233995729   -0.5523142137696706   0.19004754867150625
-6.303701713372076   -0.7383382314811603   -0.13594308944265113
-6.303701713372076   -0.7383382314811603   -0.13594308944265113
-6.303701713372076   -0.7383382314811603   -0.13594308944265113
-6.303701713372076   -0.7383382314811603   -0.13594308944265113
-4.060043137191875   0.06839511762505346   -0.03412129870394964
-4.060043137191875   0.06839511762505346   -0.03412129870394964
-4.060043137191875   0.06839511762505346   -0.03412129870394964
-4.060043137191875   0.06839511762505346   -0.03412129870394964
-8.386421901248315   -1.4554835201114678   -0.07872831578513838
-8.386421901248315   -1.4554835201114678   -0.07872831578513838
-8.386421901248315   -1.4554835201114678   -0.07872831578513838
-8.386421901248315   -1.4554835201114678   -0.07872831578513838
-8.002545115062496   -0.6461969347225414   -0.33372030453907525
-8.002545115062496   -0.6461969347225414   -0.33372030453907525
-8.002545115062496   -0.6461969347225414   -0.33372030453907525
-8.002545115062496   -0.6461969347225414   -0.33372030453907525
-3.9344509267554724   -0.4132936826632778   0.16356344662125524
-3.9344509267554724   -0.4132936826632778   0.16356344662125524
-3.9344509267554724   -0.4132936826632778   0.16356344662125524
-3.9344509267554724   -0.4132936826632778   0.16356344662125524
-5.995147763940238   -0.5610247726977482   -0.04549504439815638
-5.995147763940238   -0.5610247726977482   -0.04549504439815638
-5.995147763940238   -0.5610247726977482   -0.04549504439815638
-5.995147763940238   -0.5610247726977482   -0.04549504439815638
-3.8487668025363937   0.23920072141763182   -0.060510336364311745
-3.8487668025363937   0.23920072141763182   -0.060510336364311745
-3.8487668025363937   0.23920072141763182   -0.060510336364311745
-3.8487668025363937   0.23920072141763182   -0.060510336364311745
-8.103055097110932   -1.3135171966328056   -0.16894995287092437
-8.103055097110932   -1.3135171966328056   -0.16894995287092437
-8.103055097110932   -1.3135171966328056   -0.16894995287092437
-8.103055097110932   -1.3135171966328056   -0.16894995287092437
-7.757838739043055   -0.4510159608796358   -0.34419929117839076
-7.757838739043055   -0.4510159608796358   -0.34419929117839076
-7.757838739043055   -0.4510159608796358   -0.34419929117839076
-7.757838739043055   -0.4510159608796358   -0.34419929117839076
-3.8166178021212405   -0.324913869423403   0.04904388098224964
-3.8166178021212405   -0.324913869423403   0.04904388098224964
-3.8166178021212405   -0.324913869423403   0.04904388098224964
-3.8166178021212405   -0.324913869423403   0.04904388098224964
-5.823255752816565   -0.4528052968567444   -0.016159291098056305
-5.823255752816565   -0.4528052968567444   -0.016159291098056305
-5.823255752816565   -0.4528052968567444   -0.016159291098056305
-5.823255752816565   -0.4528052968567444   -0.016159291098056305
-8.463407839447955   -0.29242649761739004   -0.21223555874426864
-8.463407839447955   -0.29242649761739004   -0.21223555874426864
-8.463407839447955   -0.29242649761739004   -0.21223555874426864
-8.463407839447955   -0.29242649761739004   -0.21223555874426864
-12.76037222318196   -1.0965376016615278   0.4887638221809715
-12.76037222318196   -1.0965376016615278   0.4887638221809715
-12.76037222318196   -1.0965376016615278   0.4887638221809715
-12.76037222318196   -1.0965376016615278   0.4887638221809715
-12.314964883366267   -0.8704562646987346   -0.28250534617304995
-12.314964883366267   -0.8704562646987346   -0.28250534617304995
-12.314964883366267   -0.8704562646987346   -0.28250534617304995
-12.314964883366267   -0.8704562646987346   -0.28250534617304995
-7.944961893809122   0.2252180314940695   0.4478701698051544
-7.944961893809122   0.2252180314940695   0.4478701698051544
-7.944961893809122   0.2252180314940695   0.4478701698051544
-7.944961893809122   0.2252180314940695   0.4478701698051544
-9.907613584630564   -0.3458083448578555   0.04395818920846184
-9.907613584630564   -0.3458083448578555   0.04395818920846184
-9.907613584630564   -0.3458083448578555   0.04395818920846184
-9.907613584630564   -0.3458083448578555   0.04395818920846184
-8.131458958235791   -0.02427786217069361   -0.2351192586633219
-8.131458958235791   -0.02427786217069361   -0.2351192586633219
-8.131458958235791   -0.02427786217069361   -0.2351192586633219
-8.131458958235791   -0.02427786217069361   -0.2351192586633219
-12.098363911762577   -0.5908564638569334   0.5208997110035978
-12.098363911762577   -0.5908564638569334   0.5208997110035978
-12.098363911762577   -0.5908564638569334   0.5208997110035978
-12.098363911762577   -0.5908564638569334   0.5208997110035978
-11.83758751158974   -0.7316558774935766   -0.3364317419812802
-11.83758751158974   -0.7316558774935766   -0.3364317419812802
-11.83758751158974   -0.7316558774935766   -0.3364317419812802
-11.83758751158974   -0.7316558774935766   -0.3364317419812802
-7.647159201801118   0.36399283243223524   0.4330194946130387
-7.647159201801118   0.36399283243223524   0.4330194946130387
-7.647159201801118   0.36399283243223524   0.4330194946130387
-7.647159201801118   0.36399283243223524   0.4330194946130387
-9.622726480659265   -0.13953823280238753   0.19637666533247045
-9.622726480659265   -0.13953823280238753   0.19637666533247045
-9.622726480659265   -0.13953823280238753   0.19637666533247045
-9.622726480659265   -0.13953823280238753   0.19637666533247045
-7.840424179670535   0.08433385402180815   -0.2536464163235613
-7.840424179670535   0.08433385402180815   -0.2536464163235613
-7.840424179670535   0.08433385402180815   -0.2536464163235613
-7.840424179670535   0.08433385402180815   -0.2536464163235613
-11.638441291415273   -0.446115656778149   0.373759138175521
-11.638441291415273   -0.446115656778149   0.373759138175521
-11.638441291415273   -0.446115656778149   0.373759138175521
-11.638441291415273   -0.446115656778149   0.373759138175521
-11.344209390502   -0.599485425153298   -0.4063706403211249
-11.344209390502   -0.599485425153298   -0.4063706403211249
-11.344209390502   -0.599485425153298   -0.4063706403211249
-11.344209390502   -0.599485425153298   -0.4063706403211249
-7.4253111934550855   0.5317668405791824   0.3356556353026424
-7.4253111934550855   0.5317668405791824   0.3356556353026424
-7.4253111934550855   0.5317668405791824   0.3356556353026424
-7.4253111934550855   0.5317668405791824   0.3356556353026424
-9.093974097640672   0.037179511227352746   0.3480569268912144
-9.093974097640672   0.037179511227352746   0.3480569268912144
-9.093974097640672   0.037179511227352746   0.3480569268912144
-9.093974097640672   0.037179511227352746   0.3480569268912144
11.286341155045752   0.6742928824798067   0.41255434922441475
11.286341155045752   0.6742928824798067   0.41255434922441475
11.286341155045752   0.6742928824798067   0.41255434922441475
11.286341155045752   0.6742928824798067   0.41255434922441475
5.386931809807149   -1.0128889379694637   0.09577802377477129
5.386931809807149   -1.0128889379694637   0.09577802377477129
5.386931809807149   -1.0128889379694637   0.09577802377477129
5.386931809807149   -1.0128889379694637   0.09577802377477129
5.687284416500219   -0.4249719728041852   0.3184346087409147
5.687284416500219   -0.4249719728041852   0.3184346087409147
5.687284416500219   -0.4249719728041852   0.3184346087409147
5.687284416500219   -0.4249719728041852   0.3184346087409147
11.347711369600745   0.08958808471375024   -0.08887721978637397
11.347711369600745   0.08958808471375024   -0.08887721978637397
11.347711369600745   0.08958808471375024   -0.08887721978637397
11.347711369600745   0.08958808471375024   -0.08887721978637397
7.938884443178633   -0.21955433516749534   -0.529846060702
7.938884443178633   -0.21955433516749534   -0.529846060702
7.938884443178633   -0.21955433516749534   -0.529846060702
7.938884443178633   -0.21955433516749534   -0.529846060702
11.563216554376513   0.7518124089867799   0.32642437981944433
11.563216554376513   0.7518124089867799   0.32642437981944433
11.563216554376513   0.7518124089867799   0.32642437981944433
11.563216554376513   0.7518124089867799   0.32642437981944433
5.5237203584623815   -1.0352551703392827   0.11089751608682452
5.5237203584623815   -1.0352551703392827   0.11089751608682452
5.5237203584623815   -1.0352551703392827   0.11089751608682452
5.5237203584623815   -1.0352551703392827   0.11089751608682452
5.801813518663355   -0.3609439180689149   0.2425755323911874
5.801813518663355   -0.3609439180689149   0.2425755323911874
5.801813518663355   -0.3609439180689149   0.2425755323911874
5.801813518663355   -0.3609439180689149   0.2425755323911874
11.548920689581589   0.1619045527741121   -0.024358882700740936
11.548920689581589   0.1619045527741121   -0.024358882700740936
11.548920689581589   0.1619045527741121   -0.024358882700740936
11.548920689581589   0.1619045527741121   -0.024358882700740936
8.268750652315457   -0.1741218482220026   -0.3612922933572588
8.268750652315457   -0.1741218482220026   -0.3612922933572588
8.268750652315457   -0.1741218482220026   -0.3612922933572588
8.268750652315457   -0.1741218482220026   -0.3612922933572588
11.731020250665232   0.8216591807929505   0.2263842946986377
11.731020250665232   0.8216591807929505   0.2263842946986377
11.731020250665232   0.8216591807929505   0.2263842946986377
11.731020250665232   0.8216591807929505   0.2263842946986377
5.655852374844082   -0.9845601288233827   0.1363860240492908
5.655852374844082   -0.9845601288233827   0.1363860240492908
5.655852374844082   -0.9845601288233827   0.1363860240492908
5.655852374844082   -0.9845601288233827   0.1363860240492908
5.970015078566972   -0.11131639957702766   0.2217411568758898
5.970015078566972   -0.11131639957702766   0.2217411568758898
5.970015078566972   -0.11131639957702766   0.2217411568758898
5.970015078566972   -0.11131639957702766   0.2217411568758898
11.757647918137156   0.32634501538735705   -0.0009095225348361158
11.757647918137156   0.32634501538735705   -0.0009095225348361158
11.757647918137156   0.32634501538735705   -0.0009095225348361158
11.757647918137156   0.32634501538735705   -0.0009095225348361158
8.311864046023704   -0.08171200859589156   -0.2691384956145204
8.311864046023704   -0.08171200859589156   -0.2691384956145204
8.311864046023704   -0.08171200859589156   -0.2691384956145204
8.311864046023704   -0.08171200859589156   -0.2691384956145204
5.6837583973045245   0.13691518652464252   0.4301068367675414
5.6837583973045245   0.13691518652464252   0.4301068367675414
5.6837583973045245   0.13691518652464252   0.4301068367675414
5.6837583973045245   0.13691518652464252   0.4301068367675414
0.3150838849697568   -2.026823649648434   0.21129144407759948
0.3150838849697568   -2.026823649648434   0.21129144407759948
0.3150838849697568   -2.026823649648434   0.21129144407759948
0.3150838849697568   -2.026823649648434   0.21129144407759948
0.7077982193795884   -0.854116061332036   0.19555412843327596
0.7077982193795884   -0.854116061332036   0.19555412843327596
0.7077982193795884   -0.854116061332036   0.19555412843327596
0.7077982193795884   -0.854116061332036   0.19555412843327596
5.537047920694599   -0.9884157305313162   0.1306958874398877
5.537047920694599   -0.9884157305313162   0.1306958874398877
5.537047920694599   -0.9884157305313162   0.1306958874398877
5.537047920694599   -0.9884157305313162   0.1306958874398877
2.9610952092735694   -0.9135039328778417   -0.3411156405743569
2.9610952092735694   -0.9135039328778417   -0.3411156405743569
2.9610952092735694   -0.9135039328778417   -0.3411156405743569
2.9610952092735694   -0.9135039328778417   -0.3411156405743569
5.8205507329525465   0.2010687161129816   0.358725502085405
5.8205507329525465   0.2010687161129816   0.358725502085405
5.8205507329525465   0.2010687161129816   0.358725502085405
5.8205507329525465   0.2010687161129816   0.358725502085405
0.4991082319855491   -1.9687876831123714   0.26677581324341526
0.4991082319855491   -1.9687876831123714   0.26677581324341526
0.4991082319855491   -1.9687876831123714   0.26677581324341526
0.4991082319855491   -1.9687876831123714   0.26677581324341526
0.8661529938419137   -0.7373363189694983   0.14232889575264657
0.8661529938419137   -0.7373363189694983   0.14232889575264657
0.8661529938419137   -0.7373363189694983   0.14232889575264657
0.8661529938419137   -0.7373363189694983   0.14232889575264657
5.67238600340539   -0.9276563675923657   0.16215040562481287
5.67238600340539   -0.9276563675923657   0.16215040562481287
5.67238600340539   -0.9276563675923657   0.16215040562481287
5.67238600340539   -0.9276563675923657   0.16215040562481287
3.096383718367508   -0.869115045007414   -0.17051707642644404
3.096383718367508   -0.869115045007414   -0.17051707642644404
3.096383718367508   -0.869115045007414   -0.17051707642644404
3.096383718367508   -0.869115045007414   -0.17051707642644404
5.948032640940317   0.3109327303675993   0.30179449533948427
5.948032640940317   0.3109327303675993   0.30179449533948427
5.948032640940317   0.3109327303675993   0.30179449533948427
5.948032640940317   0.3109327303675993   0.30179449533948427
0.6625224081896165   -1.9039093650467895   0.2907490135684673
0.6625224081896165   -1.9039093650467895   0.2907490135684673
0.6625224081896165   -1.9039093650467895   0.2907490135684673
0.6625224081896165   -1.9039093650467895   0.2907490135684673
1.108895828424242   -0.562104355910154   0.09482611246382014
1.108895828424242   -0.562104355910154   0.09482611246382014
1.108895828424242   -0.562104355910154   0.09482611246382014
1.108895828424242   -0.562104355910154   0.09482611246382014
5.820757974209815   -0.8351166118116831   0.1992558473247773
5.820757974209815   -0.8351166118116831   0.1992558473247773
5.820757974209815   -0.8351166118116831   0.1992558473247773
5.820757974209815   -0.8351166118116831   0.1992558473247773
3.331891296516737   -0.7610519790888935   0.02782594577582309
3.331891296516737   -0.7610519790888935   0.02782594577582309
3.331891296516737   -0.7610519790888935   0.02782594577582309
3.331891296516737   -0.7610519790888935   0.02782594577582309
0.6547793970728578   -0.3940235177447219   0.27696887268939263
0.6547793970728578   -0.3940235177447219   0.27696887268939263
0.6547793970728578   -0.3940235177447219   0.27696887268939263
0.6547793970728578   -0.3940235177447219   0.27696887268939263
-4.801023507336141   -3.4883431460839742   0.30377037785050154
-4.801023507336141   -3.4883431460839742   0.30377037785050154
-4.801023507336141   -3.4883431460839742   0.30377037785050154
-4.801023507336141   -3.4883431460839742   0.30377037785050154
-4.178928211554264   -1.351824212601524   0.022230153393428653
-4.178928211554264   -1.351824212601524   0.022230153393428653
-4.178928211554264   -1.351824212601524   0.022230153393428653
-4.178928211554264   -1.351824212601524   0.022230153393428653
0.35119159277672163   -2.554560651234813   0.11296558532171963
0.35119159277672163   -2.554560651234813   0.11296558532171963
0.35119159277672163   -2.554560651234813   0.11296558532171963
0.35119159277672163   -2.554560651234813   0.11296558532171963
-2.0573598656181007   -1.9613014665788588   -0.40944820368999535
-2.0573598656181007   -1.9613014665788588   -0.40944820368999535
-2.0573598656181007   -1.9613014665788588   -0.40944820368999535
-2.0573598656181007   -1.9613014665788588   -0.40944820368999535
0.8205898287906022   -0.3127395103166456   0.21813562447295487
0.8205898287906022   -0.3127395103166456   0.21813562447295487
0.8205898287906022   -0.3127395103166456   0.21813562447295487
0.8205898287906022   -0.3127395103166456   0.21813562447295487
-4.5404361696335735   -3.485755075585117   0.34862122598049694
-4.5404361696335735   -3.485755075585117   0.34862122598049694
-4.5404361696335735   -3.485755075585117   0.34862122598049694
-4.5404361696335735   -3.485755075585117   0.34862122598049694
-3.9390446860408765   -1.2135785704613828   0.002587717204547438
-3.9390446860408765   -1.2135785704613828   0.002587717204547438
-3.9390446860408765   -1.2135785704613828   0.002587717204547438
-3.9390446860408765   -1.2135785704613828   0.002587717204547438
0.5180055605915943   -2.5000478375462767   0.16430324807784324
0.5180055605915943   -2.5000478375462767   0.16430324807784324
0.5180055605915943   -2.5000478375462767   0.16430324807784324
0.5180055605915943   -2.5000478375462767   0.16430324807784324
-1.814729360008049   -1.8959631383257853   -0.153651936635133
-1.814729360008049   -1.8959631383257853   -0.153651936635133
-1.814729360008049   -1.8959631383257853   -0.153651936635133
-1.814729360008049   -1.8959631383257853   -0.153651936635133
0.9721662653355589   -0.20403511398060598   0.13909404823199611
0.9721662653355589   -0.20403511398060598   0.13909404823199611
0.9721662653355589   -0.20403511398060598   0.13909404823199611
0.9721662653355589   -0.20403511398060598   0.13909404823199611
-4.295477883026792   -3.4118637862689543   0.4187069480825961
-4.295477883026792   -3.4118637862689543   0.4187069480825961
-4.295477883026792   -3.4118637862689543   0.4187069480825961
-4.295477883026792   -3.4118637862689543   0.4187069480825961
-3.5432862750627487   -1.054182874644603   -0.04214361465029205
-3.5432862750627487   -1.054182874644603   -0.04214361465029205
-3.5432862750627487   -1.054182874644603   -0.04214361465029205
-3.5432862750627487   -1.054182874644603   -0.04214361465029205
0.7785035564308804   -2.3449722663660295   0.2257326629528721
0.7785035564308804   -2.3449722663660295   0.2257326629528721
0.7785035564308804   -2.3449722663660295   0.2257326629528721
0.7785035564308804   -2.3449722663660295   0.2257326629528721
-1.499480671176813   -1.7472278332873772   0.11505437610327562
-1.499480671176813   -1.7472278332873772   0.11505437610327562
-1.499480671176813   -1.7472278332873772   0.11505437610327562
-1.499480671176813   -1.7472278332873772   0.11505437610327562
-4.278502398141965   -0.7038728173823591   0.13190559511972139
-4.278502398141965   -0.7038728173823591   0.13190559511972139
-4.278502398141965   -0.7038728173823591   0.13190559511972139
-4.278502398141965   -0.7038728173823591   0.13190559511972139
-10.713936070897113   -5.439834657824251   -0.2632581616555625
-10.713936070897113   -5.439834657824251   -0.2632581616555625
-10.713936070897113   -5.439834657824251   -0.2632581616555625
-10.713936070897113   -5.439834657824251   -0.2632581616555625
-9.685992866325964   -1.7590916418430984   -0.29719795936564175
-9.685992866325964   -1.7590916418430984   -0.29719795936564175
-9.685992866325964   -1.7590916418430984   -0.29719795936564175
-9.685992866325964   -1.7590916418430984   -0.29719795936564175
-4.8073267097172785   -4.55980409717853   0.08821754715535679
-4.8073267097172785   -4.55980409717853   0.08821754715535679
-4.8073267097172785   -4.55980409717853   0.08821754715535679
-4.8073267097172785   -4.55980409717853   0.08821754715535679
-7.362847117141917   -3.2169624657776565   -0.4293694474405364
-7.362847117141917   -3.2169624657776565   -0.4293694474405364
-7.362847117141917   -3.2169624657776565   -0.4293694474405364
-7.362847117141917   -3.2169624657776565   -0.4293694474405364
-3.994827418625098   -0.5360308161185416   0.12694072155627434
-3.994827418625098   -0.5360308161185416   0.12694072155627434
-3.994827418625098   -0.5360308161185416   0.12694072155627434
-3.994827418625098   -0.5360308161185416   0.12694072155627434
-10.475587909459547   -5.7599606749444465   -0.2443041419322045
-10.475587909459547   -5.7599606749444465   -0.2443041419322045
-10.475587909459547   -5.7599606749444465   -0.2443041419322045
-10.475587909459547   -5.7599606749444465   -0.2443041419322045
-9.367486636723534   -1.5931066934924156   -0.30246589755637165
-9.367486636723534   -1.5931066934924156   -0.30246589755637165
-9.367486636723534   -1.5931066934924156   -0.30246589755637165
-9.367486636723534   -1.5931066934924156   -0.30246589755637165
-4.575334786991418   -4.526028229696223   0.13358687168670413
-4.575334786991418   -4.526028229696223   0.13358687168670413
-4.575334786991418   -4.526028229696223   0.13358687168670413
-4.575334786991418   -4.526028229696223   0.13358687168670413
-7.029906279091395   -3.1324237424802464   -0.3046458888454946
-7.029906279091395   -3.1324237424802464   -0.3046458888454946
-7.029906279091395   -3.1324237424802464   -0.3046458888454946
-7.029906279091395   -3.1324237424802464   -0.3046458888454946
-3.7692088980286953   -0.4044336240677969   0.04262171087188296
-3.7692088980286953   -0.4044336240677969   0.04262171087188296
-3.7692088980286953   -0.4044336240677969   0.04262171087188296
-3.7692088980286953   -0.4044336240677969   0.04262171087188296
-10.174378425796448   -5.715467199231021   -0.2145643371822572
-10.174378425796448   -5.715467199231021   -0.2145643371822572
-10.174378425796448   -5.715467199231021   -0.2145643371822572
-10.174378425796448   -5.715467199231021   -0.2145643371822572
-8.871391224340922   -1.4142292477727731   -0.34275958854491906
-8.871391224340922   -1.4142292477727731   -0.34275958854491906
-8.871391224340922   -1.4142292477727731   -0.34275958854491906
-8.871391224340922   -1.4142292477727731   -0.34275958854491906
-4.0735454307465995   -4.0775737195887505   0.32995145187467223
-4.0735454307465995   -4.0775737195887505   0.32995145187467223
-4.0735454307465995   -4.0775737195887505   0.32995145187467223
-4.0735454307465995   -4.0775737195887505   0.32995145187467223
-6.657389924662897   -2.8437605878875836   -0.17378860723958017
-6.657389924662897   -2.8437605878875836   -0.17378860723958017
-6.657389924662897   -2.8437605878875836   -0.17378860723958017
-6.657389924662897   -2.8437605878875836   -0.17378860723958017
-9.706574168666044   -0.5973228473828605   -0.06896046094161024
-9.706574168666044   -0.5973228473828605   -0.06896046094161024
-9.706574168666044   -0.5973228473828605   -0.06896046094161024
-9.706574168666044   -0.5973228473828605   -0.06896046094161024
-17.163228481653768   -3.397725249892204   0.1746022321927443
-17.163228481653768   -3.397725249892204   0.1746022321927443
-17.163228481653768   -3.397725249892204   0.1746022321927443
-17.163228481653768   -3.397725249892204   0.1746022321927443
-16.482620088108984   -1.6449617577305817   -0.365370582018238
-16.482620088108984   -1.6449617577305817   -0.365370582018238
-16.482620088108984   -1.6449617577305817   -0.365370582018238
-16.482620088108984   -1.6449617577305817   -0.365370582018238
-9.480956611180027   -1.7520108227765254   0.7209024972973999
-9.480956611180027   -1.7520108227765254   0.7209024972973999
-9.480956611180027   -1.7520108227765254   0.7209024972973999
-9.480956611180027   -1.7520108227765254   0.7209024972973999
-12.672522489229783   -1.9735407002124479   0.18583133608070992
-12.672522489229783   -1.9735407002124479   0.18583133608070992
-12.672522489229783   -1.9735407002124479   0.18583133608070992
-12.672522489229783   -1.9735407002124479   0.18583133608070992
-9.301291844320875   -0.13514907567164958   0.002364584488313337
-9.301291844320875   -0.13514907567164958   0.002364584488313337
-9.301291844320875   -0.13514907567164958   0.002364584488313337
-9.301291844320875   -0.13514907567164958   0.002364584488313337
-16.728057268689827   -3.3275959185571686   0.09007767590398608
-16.728057268689827   -3.3275959185571686   0.09007767590398608
-16.728057268689827   -3.3275959185571686   0.09007767590398608
-16.728057268689827   -3.3275959185571686   0.09007767590398608
-16.10482264543667   -1.5068623998015607   -0.4635932229201405
-16.10482264543667   -1.5068623998015607   -0.4635932229201405
-16.10482264543667   -1.5068623998015607   -0.4635932229201405
-16.10482264543667   -1.5068623998015607   -0.4635932229201405
-9.152967471974046   -1.662657373212554   0.8396806059112771
-9.152967471974046   -1.662657373212554   0.8396806059112771
-9.152967471974046   -1.662657373212554   0.8396806059112771
-9.152967471974046   -1.662657373212554   0.8396806059112771
-12.470675947676114   -1.6242472882108097   0.17766898209267862
-12.470675947676114   -1.6242472882108097   0.17766898209267862
-12.470675947676114   -1.6242472882108097   0.17766898209267862
-12.470675947676114   -1.6242472882108097   0.17766898209267862
-9.00897310952986   -0.012979032543490199   -0.09002592253684683
-9.00897310952986   -0.012979032543490199   -0.09002592253684683
-9.00897310952986   -0.012979032543490199   -0.09002592253684683
-9.00897310952986   -0.012979032543490199   -0.09002592253684683
-16.27381114826414   -3.181534880853888   0.36613674399469964
-16.27381114826414   -3.181534880853888   0.36613674399469964
-16.27381114826414   -3.181534880853888   0.36613674399469964
-16.27381114826414   -3.181534880853888   0.36613674399469964
-15.320590174869247   -1.2178224835376112   -0.5170120038671634
-15.320590174869247   -1.2178224835376112   -0.5170120038671634
-15.320590174869247   -1.2178224835376112   -0.5170120038671634
-15.320590174869247   -1.2178224835376112   -0.5170120038671634
-8.6434914001351   -1.5434968525706005   0.9260071372820966
-8.6434914001351   -1.5434968525706005   0.9260071372820966
-8.6434914001351   -1.5434968525706005   0.9260071372820966
-8.6434914001351   -1.5434968525706005   0.9260071372820966
-11.716793453412738   -1.240909606416391   0.3601235646142584
-11.716793453412738   -1.240909606416391   0.3601235646142584
-11.716793453412738   -1.240909606416391   0.3601235646142584
-11.716793453412738   -1.240909606416391   0.3601235646142584
12.36125839437407   0.3979205081604942   0.17549866985763996
12.36125839437407   0.3979205081604942   0.17549866985763996
12.36125839437407   0.3979205081604942   0.17549866985763996
12.36125839437407   0.3979205081604942   0.17549866985763996
6.322492676954135   -0.3285296643850253   0.13207197675802362
6.322492676954135   -0.3285296643850253   0.13207197675802362
6.322492676954135   -0.3285296643850253   0.13207197675802362
6.322492676954135   -0.3285296643850253   0.13207197675802362
6.072038697490483   -0.8965578833020427   0.2560656122449223
6.072038697490483   -0.8965578833020427   0.2560656122449223
6.072038697490483   -0.8965578833020427   0.2560656122449223
6.072038697490483   -0.8965578833020427   0.2560656122449223
12.271086571537907   0.6919002219519617   0.0966497153615774
12.271086571537907   0.6919002219519617   0.0966497153615774
12.271086571537907   0.6919002219519617   0.0966497153615774
12.271086571537907   0.6919002219519617   0.0966497153615774
8.763302403625929   -0.12632243338155358   -0.322959463278953
8.763302403625929   -0.12632243338155358   -0.322959463278953
8.763302403625929   -0.12632243338155358   -0.322959463278953
8.763302403625929   -0.12632243338155358   -0.322959463278953
12.20133434996661   0.30503824219633957   0.13475058726070854
12.20133434996661   0.30503824219633957   0.13475058726070854
12.20133434996661   0.30503824219633957   0.13475058726070854
12.20133434996661   0.30503824219633957   0.13475058726070854
6.1211042697532685   -0.5303825528549342   0.1352181431117382
6.1211042697532685   -0.5303825528549342   0.1352181431117382
6.1211042697532685   -0.5303825528549342   0.1352181431117382
6.1211042697532685   -0.5303825528549342   0.1352181431117382
5.912895621139266   -0.9179916289960339   0.21218527689085132
5.912895621139266   -0.9179916289960339   0.21218527689085132
5.912895621139266   -0.9179916289960339   0.21218527689085132
5.912895621139266   -0.9179916289960339   0.21218527689085132
12.125193186840768   0.6610845991032799   0.16536043051314225
12.125193186840768   0.6610845991032799   0.16536043051314225
12.125193186840768   0.6610845991032799   0.16536043051314225
12.125193186840768   0.6610845991032799   0.16536043051314225
8.734557348759804   -0.17439648326302337   -0.37555925298379567
8.734557348759804   -0.17439648326302337   -0.37555925298379567
8.734557348759804   -0.17439648326302337   -0.37555925298379567
8.734557348759804   -0.17439648326302337   -0.37555925298379567
12.021916890507839   0.26949023257487115   0.04057331537680342
12.021916890507839   0.26949023257487115   0.04057331537680342
12.021916890507839   0.26949023257487115   0.04057331537680342
12.021916890507839   0.26949023257487115   0.04057331537680342
5.979261544669012   -0.5633076352708257   0.18933090081437048
5.979261544669012   -0.5633076352708257   0.18933090081437048
5.979261544669012   -0.5633076352708257   0.18933090081437048
5.979261544669012   -0.5633076352708257   0.18933090081437048
5.744663398887463   -0.8394353469073816   0.18317318524116388
5.744663398887463   -0.8394353469073816   0.18317318524116388
5.744663398887463   -0.8394353469073816   0.18317318524116388
5.744663398887463   -0.8394353469073816   0.18317318524116388
11.899987116334062   0.666182937545259   0.23628846908588058
11.899987116334062   0.666182937545259   0.23628846908588058
11.899987116334062   0.666182937545259   0.23628846908588058
11.899987116334062   0.666182937545259   0.23628846908588058
8.403870165050359   -0.17666153074160174   -0.5085883702671705
8.403870165050359   -0.17666153074160174   -0.5085883702671705
8.403870165050359   -0.17666153074160174   -0.5085883702671705
8.403870165050359   -0.17666153074160174   -0.5085883702671705
6.260002108852075   -0.8182336660957918   0.30932313795849087
6.260002108852075   -0.8182336660957918   0.30932313795849087
6.260002108852075   -0.8182336660957918   0.30932313795849087
6.260002108852075   -0.8182336660957918   0.30932313795849087
1.2419463892658253   -0.7459801416285015   0.06945991479277419
1.2419463892658253   -0.7459801416285015   0.06945991479277419
1.2419463892658253   -0.7459801416285015   0.06945991479277419
1.2419463892658253   -0.7459801416285015   0.06945991479277419
0.8103390338044616   -1.8924533798358611   0.337216527807055
0.8103390338044616   -1.8924533798358611   0.337216527807055
0.8103390338044616   -1.8924533798358611   0.337216527807055
0.8103390338044616   -1.8924533798358611   0.337216527807055
6.295539647574059   0.23718764633478684   0.23982483302597085
6.295539647574059   0.23718764633478684   0.23982483302597085
6.295539647574059   0.23718764633478684   0.23982483302597085
6.295539647574059   0.23718764633478684   0.23982483302597085
3.5959497719983986   -0.8080382775804649   -0.01327949047999194
3.5959497719983986   -0.8080382775804649   -0.01327949047999194
3.5959497719983986   -0.8080382775804649   -0.01327949047999194
3.5959497719983986   -0.8080382775804649   -0.01327949047999194
6.081052386975458   -0.8540323162413155   0.2586084926090332
6.081052386975458   -0.8540323162413155   0.2586084926090332
6.081052386975458   -0.8540323162413155   0.2586084926090332
6.081052386975458   -0.8540323162413155   0.2586084926090332
0.9707169972418235   -0.8553427144210446   0.1019956795790482
0.9707169972418235   -0.8553427144210446   0.1019956795790482
0.9707169972418235   -0.8553427144210446   0.1019956795790482
0.9707169972418235   -0.8553427144210446   0.1019956795790482
0.6174529562367582   -1.9106589575081547   0.30207050321450046
0.6174529562367582   -1.9106589575081547   0.30207050321450046
0.6174529562367582   -1.9106589575081547   0.30207050321450046
0.6174529562367582   -1.9106589575081547   0.30207050321450046
6.148725682753074   0.1887708497343077   0.28457310622954773
6.148725682753074   0.1887708497343077   0.28457310622954773
6.148725682753074   0.1887708497343077   0.28457310622954773
6.148725682753074   0.1887708497343077   0.28457310622954773
3.334390738868943   -0.8616596958704499   -0.17371231565409978
3.334390738868943   -0.8616596958704499   -0.17371231565409978
3.334390738868943   -0.8616596958704499   -0.17371231565409978
3.334390738868943   -0.8616596958704499   -0.17371231565409978
5.923275414357763   -0.8672417031078774   0.21333431709512785
5.923275414357763   -0.8672417031078774   0.21333431709512785
5.923275414357763   -0.8672417031078774   0.21333431709512785
5.923275414357763   -0.8672417031078774   0.21333431709512785
0.7841514352692256   -0.9133981940288625   0.13830213489754511
0.7841514352692256   -0.9133981940288625   0.13830213489754511
0.7841514352692256   -0.9133981940288625   0.13830213489754511
0.7841514352692256   -0.9133981940288625   0.13830213489754511
0.4014994727483293   -1.9114106475739816   0.2370441699747715
0.4014994727483293   -1.9114106475739816   0.2370441699747715
0.4014994727483293   -1.9114106475739816   0.2370441699747715
0.4014994727483293   -1.9114106475739816   0.2370441699747715
5.982110964504969   0.19034446215468193   0.3406312042666634
5.982110964504969   0.19034446215468193   0.3406312042666634
5.982110964504969   0.19034446215468193   0.3406312042666634
5.982110964504969   0.19034446215468193   0.3406312042666634
3.173815852759875   -0.8564310942770297   -0.3105347934103448
3.173815852759875   -0.8564310942770297   -0.3105347934103448
3.173815852759875   -0.8564310942770297   -0.3105347934103448
3.173815852759875   -0.8564310942770297   -0.3105347934103448
0.964930170932882   -2.3401889580836324   0.2785876395831878
0.964930170932882   -2.3401889580836324   0.2785876395831878
0.964930170932882   -2.3401889580836324   0.2785876395831878
0.964930170932882   -2.3401889580836324   0.2785876395831878
-3.640329350704502   -1.1613513994735716   0.0068867163978985485
-3.640329350704502   -1.1613513994735716   0.0068867163978985485
-3.640329350704502   -1.1613513994735716   0.0068867163978985485
-3.640329350704502   -1.1613513994735716   0.0068867163978985485
-4.421203170166702   -3.4543251104037553   0.3865380524204328
-4.421203170166702   -3.4543251104037553   0.3865380524204328
-4.421203170166702   -3.4543251104037553   0.3865380524204328
-4.421203170166702   -3.4543251104037553   0.3865380524204328
1.1101367998703997   -0.2071183724487538   0.1508703507496386
1.1101367998703997   -0.2071183724487538   0.1508703507496386
1.1101367998703997   -0.2071183724487538   0.1508703507496386
1.1101367998703997   -0.2071183724487538   0.1508703507496386
-1.476075755223961   -1.765623362138104   0.0657866843573523
-1.476075755223961   -1.765623362138104   0.0657866843573523
-1.476075755223961   -1.765623362138104   0.0657866843573523
-1.476075755223961   -1.765623362138104   0.0657866843573523
0.6663514537375471   -2.47429728881639   0.19912253645301115
0.6663514537375471   -2.47429728881639   0.19912253645301115
0.6663514537375471   -2.47429728881639   0.19912253645301115
0.6663514537375471   -2.47429728881639   0.19912253645301115
-4.05288782336582   -1.2626161933680977   0.036405869389139006
-4.05288782336582   -1.2626161933680977   0.036405869389139006
-4.05288782336582   -1.2626161933680977   0.036405869389139006
-4.05288782336582   -1.2626161933680977   0.036405869389139006
-4.690325532274808   -3.5118914916887727   0.3134160702315191
-4.690325532274808   -3.5118914916887727   0.3134160702315191
-4.690325532274808   -3.5118914916887727   0.3134160702315191
-4.690325532274808   -3.5118914916887727   0.3134160702315191
0.9295127281973342   -0.2609274692876106   0.21263787479683716
0.9295127281973342   -0.2609274692876106   0.21263787479683716
0.9295127281973342   -0.2609274692876106   0.21263787479683716
0.9295127281973342   -0.2609274692876106   0.21263787479683716
-1.8121302459485742   -1.8741676317846836   -0.15897906651444738
-1.8121302459485742   -1.8741676317846836   -0.15897906651444738
-1.8121302459485742   -1.8741676317846836   -0.15897906651444738
-1.8121302459485742   -1.8741676317846836   -0.15897906651444738
0.46088872056713304   -2.518844818079242   0.127435185437477
0.46088872056713304   -2.518844818079242   0.127435185437477
0.46088872056713304   -2.518844818079242   0.127435185437477
0.46088872056713304   -2.518844818079242   0.127435185437477
-4.311093905803725   -1.3433665240563037   0.041049234954432134
-4.311093905803725   -1.3433665240563037   0.041049234954432134
-4.311093905803725   -1.3433665240563037   0.041049234954432134
-4.311093905803725   -1.3433665240563037   0.041049234954432134
-4.981449969970981   -3.4888879652577773   0.26610769489599373
-4.981449969970981   -3.4888879652577773   0.26610769489599373
-4.981449969970981   -3.4888879652577773   0.26610769489599373
-4.981449969970981   -3.4888879652577773   0.26610769489599373
0.7284187008283787   -0.2913379700117625   0.2515676328127988
0.7284187008283787   -0.2913379700117625   0.2515676328127988
0.7284187008283787   -0.2913379700117625   0.2515676328127988
0.7284187008283787   -0.2913379700117625   0.2515676328127988
-2.084381038648627   -1.9159189445345464   -0.3826857736908229
-2.084381038648627   -1.9159189445345464   -0.3826857736908229
-2.084381038648627   -1.9159189445345464   -0.3826857736908229
-2.084381038648627   -1.9159189445345464   -0.3826857736908229
-4.144582710871299   -4.007048875224921   0.33131739131527715
-4.144582710871299   -4.007048875224921   0.33131739131527715
-4.144582710871299   -4.007048875224921   0.33131739131527715
-4.144582710871299   -4.007048875224921   0.33131739131527715
-9.204616881882481   -1.4470685226422   -0.21516249222310685
-9.204616881882481   -1.4470685226422   -0.21516249222310685
-9.204616881882481   -1.4470685226422   -0.21516249222310685
-9.204616881882481   -1.4470685226422   -0.21516249222310685
-10.568127314558687   -5.790451690981707   -0.3042198170193686
-10.568127314558687   -5.790451690981707   -0.3042198170193686
-10.568127314558687   -5.790451690981707   -0.3042198170193686
-10.568127314558687   -5.790451690981707   -0.3042198170193686
-3.848703246620891   -0.3356413811363716   0.13035394088206081
-3.848703246620891   -0.3356413811363716   0.13035394088206081
-3.848703246620891   -0.3356413811363716   0.13035394088206081
-3.848703246620891   -0.3356413811363716   0.13035394088206081
-6.875707686663379   -2.784865802677737   -0.24501265731259564
-6.875707686663379   -2.784865802677737   -0.24501265731259564
-6.875707686663379   -2.784865802677737   -0.24501265731259564
-6.875707686663379   -2.784865802677737   -0.24501265731259564
-4.692418284422781   -4.532698706169497   0.10883607690577946
-4.692418284422781   -4.532698706169497   0.10883607690577946
-4.692418284422781   -4.532698706169497   0.10883607690577946
-4.692418284422781   -4.532698706169497   0.10883607690577946
-9.701881318573271   -1.5708634077650487   -0.192578120308945
-9.701881318573271   -1.5708634077650487   -0.192578120308945
-9.701881318573271   -1.5708634077650487   -0.192578120308945
-9.701881318573271   -1.5708634077650487   -0.192578120308945
-10.887733498069725   -5.885597469981558   -0.3518606186616624
-10.887733498069725   -5.885597469981558   -0.3518606186616624
-10.887733498069725   -5.885597469981558   -0.3518606186616624
-10.887733498069725   -5.885597469981558   -0.3518606186616624
-4.096182875121137   -0.42336019450052   0.1955980588115912
-4.096182875121137   -0.42336019450052   0.1955980588115912
-4.096182875121137   -0.42336019450052   0.1955980588115912
-4.096182875121137   -0.42336019450052   0.1955980588115912
-7.2657132825588135   -3.0832119282030077   -0.34212727686637434
-7.2657132825588135   -3.0832119282030077   -0.34212727686637434
-7.2657132825588135   -3.0832119282030077   -0.34212727686637434
-7.2657132825588135   -3.0832119282030077   -0.34212727686637434
-4.96667365461859   -4.622547153495202   0.042331120318980675
-4.96667365461859   -4.622547153495202   0.042331120318980675
-4.96667365461859   -4.622547153495202   0.042331120318980675
-4.96667365461859   -4.622547153495202   0.042331120318980675
-10.01708110707823   -1.6862488994928513   -0.19794723419297078
-10.01708110707823   -1.6862488994928513   -0.19794723419297078
-10.01708110707823   -1.6862488994928513   -0.19794723419297078
-10.01708110707823   -1.6862488994928513   -0.19794723419297078
-11.16094656516615   -5.640417856134993   -0.3968680964369917
-11.16094656516615   -5.640417856134993   -0.3968680964369917
-11.16094656516615   -5.640417856134993   -0.3968680964369917
-11.16094656516615   -5.640417856134993   -0.3968680964369917
-4.410188459544467   -0.5469802893723645   0.18050757114307162
-4.410188459544467   -0.5469802893723645   0.18050757114307162
-4.410188459544467   -0.5469802893723645   0.18050757114307162
-4.410188459544467   -0.5469802893723645   0.18050757114307162
-7.623695428215389   -3.185807896606641   -0.4339519989891824
-7.623695428215389   -3.185807896606641   -0.4339519989891824
-7.623695428215389   -3.185807896606641   -0.4339519989891824
-7.623695428215389   -3.185807896606641   -0.4339519989891824
-9.033662980985799   -1.6401874152279703   0.8327259048459474
-9.033662980985799   -1.6401874152279703   0.8327259048459474
-9.033662980985799   -1.6401874152279703   0.8327259048459474
-9.033662980985799   -1.6401874152279703   0.8327259048459474
-15.959312922638597   -1.2002424670045562   -0.28907861802435786
-15.959312922638597   -1.2002424670045562   -0.28907861802435786
-15.959312922638597   -1.2002424670045562   -0.28907861802435786
-15.959312922638597   -1.2002424670045562   -0.28907861802435786
-16.944940902134125   -3.3431533550122934   0.22917412707265505
-16.944940902134125   -3.3431533550122934   0.22917412707265505
-16.944940902134125   -3.3431533550122934   0.22917412707265505
-16.944940902134125   -3.3431533550122934   0.22917412707265505
-9.307482831999723   0.12906073542648855   0.07949016936717967
-9.307482831999723   0.12906073542648855   0.07949016936717967
-9.307482831999723   0.12906073542648855   0.07949016936717967
-9.307482831999723   0.12906073542648855   0.07949016936717967
-12.20113084810935   -1.1747771578012935   0.24646827741552424
-12.20113084810935   -1.1747771578012935   0.24646827741552424
-12.20113084810935   -1.1747771578012935   0.24646827741552424
-12.20113084810935   -1.1747771578012935   0.24646827741552424
-9.553879576912557   -1.7628853994471834   0.73945257967664
-9.553879576912557   -1.7628853994471834   0.73945257967664
-9.553879576912557   -1.7628853994471834   0.73945257967664
-9.553879576912557   -1.7628853994471834   0.73945257967664
-16.654414798876424   -1.4070778617937383   -0.2542708498572557
-16.654414798876424   -1.4070778617937383   -0.2542708498572557
-16.654414798876424   -1.4070778617937383   -0.2542708498572557
-16.654414798876424   -1.4070778617937383   -0.2542708498572557
-17.366598860736534   -3.4872313165688453   -0.06955772210769062
-17.366598860736534   -3.4872313165688453   -0.06955772210769062
-17.366598860736534   -3.4872313165688453   -0.06955772210769062
-17.366598860736534   -3.4872313165688453   -0.06955772210769062
-9.60450842254868   0.03133179042746237   0.14733549853447236
-9.60450842254868   0.03133179042746237   0.14733549853447236
-9.60450842254868   0.03133179042746237   0.14733549853447236
-9.60450842254868   0.03133179042746237   0.14733549853447236
-12.939114061709942   -1.5527149744558035   0.10271691638530078
-12.939114061709942   -1.5527149744558035   0.10271691638530078
-12.939114061709942   -1.5527149744558035   0.10271691638530078
-12.939114061709942   -1.5527149744558035   0.10271691638530078
-9.888211870428064   -1.8546769701438426   0.6148270197088519
-9.888211870428064   -1.8546769701438426   0.6148270197088519
-9.888211870428064   -1.8546769701438426   0.6148270197088519
-9.888211870428064   -1.8546769701438426   0.6148270197088519
-16.99535559463454   -1.51368273777488   -0.1868899703913809
-16.99535559463454   -1.51368273777488   -0.1868899703913809
-16.99535559463454   -1.51368273777488   -0.1868899703913809
-16.99535559463454   -1.51368273777488   -0.1868899703913809
-17.73688445385463   -3.54730320725151   0.00036841759707773036
-17.73688445385463   -3.54730320725151   0.00036841759707773036
-17.73688445385463   -3.54730320725151   0.00036841759707773036
-17.73688445385463   -3.54730320725151   0.00036841759707773036
-10.020908912141783   -0.3963622267858755   0.05926453933571668
-10.020908912141783   -0.3963622267858755   0.05926453933571668
-10.020908912141783   -0.3963622267858755   0.05926453933571668
-10.020908912141783   -0.3963622267858755   0.05926453933571668
-13.102268163925492   -1.8781869685519121   0.16256336992378334
-13.102268163925492   -1.8781869685519121   0.16256336992378334
-13.102268163925492   -1.8781869685519121   0.16256336992378334
-13.102268163925492   -1.8781869685519121   0.16256336992378334
10.795912182509646   0.49206958334122675   -0.2383512901662277
10.795912182509646   0.49206958334122675   -0.2383512901662277
10.795912182509646   0.49206958334122675   -0.2383512901662277
10.795912182509646   0.49206958334122675   -0.2383512901662277
5.442922013146549   -0.10406754892418246   0.11887998921285786
5.442922013146549   -0.10406754892418246   0.11887998921285786
5.442922013146549   -0.10406754892418246   0.11887998921285786
5.442922013146549   -0.10406754892418246   0.11887998921285786
5.0919667981099845   -0.8051240927423948   -0.2093520846822804
5.0919667981099845   -0.8051240927423948   -0.2093520846822804
5.0919667981099845   -0.8051240927423948   -0.2093520846822804
5.0919667981099845   -0.8051240927423948   -0.2093520846822804
10.669608081150193   0.7817314392816876   0.1390891391032959
10.669608081150193   0.7817314392816876   0.1390891391032959
10.669608081150193   0.7817314392816876   0.1390891391032959
10.669608081150193   0.7817314392816876   0.1390891391032959
7.580696940140796   0.01848653045787718   -0.2929701418311571
7.580696940140796   0.01848653045787718   -0.2929701418311571
7.580696940140796   0.01848653045787718   -0.2929701418311571
7.580696940140796   0.01848653045787718   -0.2929701418311571
10.491176027719199   0.2686001936349376   -0.2399398824048341
10.491176027719199   0.2686001936349376   -0.2399398824048341
10.491176027719199   0.2686001936349376   -0.2399398824048341
10.491176027719199   0.2686001936349376   -0.2399398824048341
5.2603554317363885   -0.3020362669002288   0.12950325760751902
5.2603554317363885   -0.3020362669002288   0.12950325760751902
5.2603554317363885   -0.3020362669002288   0.12950325760751902
5.2603554317363885   -0.3020362669002288   0.12950325760751902
4.903196683756065   -0.8508793336662837   -0.17246273024997233
4.903196683756065   -0.8508793336662837   -0.17246273024997233
4.903196683756065   -0.8508793336662837   -0.17246273024997233
4.903196683756065   -0.8508793336662837   -0.17246273024997233
10.406981625230651   0.7172101394828327   0.20228818839452772
10.406981625230651   0.7172101394828327   0.20228818839452772
10.406981625230651   0.7172101394828327   0.20228818839452772
10.406981625230651   0.7172101394828327   0.20228818839452772
7.4754544193754136   -0.07737133243953243   -0.35126837421196305
7.4754544193754136   -0.07737133243953243   -0.35126837421196305
7.4754544193754136   -0.07737133243953243   -0.35126837421196305
7.4754544193754136   -0.07737133243953243   -0.35126837421196305
10.227321159045342   0.21056442235977468   -0.18936842540895688
10.227321159045342   0.21056442235977468   -0.18936842540895688
10.227321159045342   0.21056442235977468   -0.18936842540895688
10.227321159045342   0.21056442235977468   -0.18936842540895688
5.069080600587702   -0.3580101658968968   0.16408768613882768
5.069080600587702   -0.3580101658968968   0.16408768613882768
5.069080600587702   -0.3580101658968968   0.16408768613882768
5.069080600587702   -0.3580101658968968   0.16408768613882768
4.720061820482388   -0.8406555404541258   -0.11797862505961437
4.720061820482388   -0.8406555404541258   -0.11797862505961437
4.720061820482388   -0.8406555404541258   -0.11797862505961437
4.720061820482388   -0.8406555404541258   -0.11797862505961437
10.081515211134207   0.6715616738231589   0.26222604224091867
10.081515211134207   0.6715616738231589   0.26222604224091867
10.081515211134207   0.6715616738231589   0.26222604224091867
10.081515211134207   0.6715616738231589   0.26222604224091867
7.102021677381692   -0.13543009256100458   -0.46236446347161275
7.102021677381692   -0.13543009256100458   -0.46236446347161275
7.102021677381692   -0.13543009256100458   -0.46236446347161275
7.102021677381692   -0.13543009256100458   -0.46236446347161275
5.46801557559981   0.09449813599231494   0.04578211656262665
5.46801557559981   0.09449813599231494   0.04578211656262665
5.46801557559981   0.09449813599231494   0.04578211656262665
5.46801557559981   0.09449813599231494   0.04578211656262665
0.5426902844513916   -0.32451780100107075   -0.010593388521244418
0.5426902844513916   -0.32451780100107075   -0.010593388521244418
0.5426902844513916   -0.32451780100107075   -0.010593388521244418
0.5426902844513916   -0.32451780100107075   -0.010593388521244418
0.21202913487058944   -1.0676509628783495   -0.20085770033624267
0.21202913487058944   -1.0676509628783495   -0.20085770033624267
0.21202913487058944   -1.0676509628783495   -0.20085770033624267
0.21202913487058944   -1.0676509628783495   -0.20085770033624267
5.475390503647185   0.6303792943028763   0.27226305595839695
5.475390503647185   0.6303792943028763   0.27226305595839695
5.475390503647185   0.6303792943028763   0.27226305595839695
5.475390503647185   0.6303792943028763   0.27226305595839695
2.870828998880702   -0.15258139742389099   -0.11509725189362677
2.870828998880702   -0.15258139742389099   -0.11509725189362677
2.870828998880702   -0.15258139742389099   -0.11509725189362677
2.870828998880702   -0.15258139742389099   -0.11509725189362677
5.312954634535153   0.008998565051699936   0.08146443964944189
5.312954634535153   0.008998565051699936   0.08146443964944189
5.312954634535153   0.008998565051699936   0.08146443964944189
5.312954634535153   0.008998565051699936   0.08146443964944189
0.38050949768652487   -0.4402257399232651   0.014118890788350352
0.38050949768652487   -0.4402257399232651   0.014118890788350352
0.38050949768652487   -0.4402257399232651   0.014118890788350352
0.38050949768652487   -0.4402257399232651   0.014118890788350352
0.030026457748601187   -1.1196858266662228   -0.1390110507686319
0.030026457748601187   -1.1196858266662228   -0.1390110507686319
0.030026457748601187   -1.1196858266662228   -0.1390110507686319
0.030026457748601187   -1.1196858266662228   -0.1390110507686319
5.2755209848202895   0.537779849833768   0.30049959157109857
5.2755209848202895   0.537779849833768   0.30049959157109857
5.2755209848202895   0.537779849833768   0.30049959157109857
5.2755209848202895   0.537779849833768   0.30049959157109857
2.661949107994044   -0.23755394302486899   -0.1629876505241145
2.661949107994044   -0.23755394302486899   -0.1629876505241145
2.661949107994044   -0.23755394302486899   -0.1629876505241145
2.661949107994044   -0.23755394302486899   -0.1629876505241145
5.122142110286042   -0.04931956021522921   0.12070462894889572
5.122142110286042   -0.04931956021522921   0.12070462894889572
5.122142110286042   -0.04931956021522921   0.12070462894889572
5.122142110286042   -0.04931956021522921   0.12070462894889572
0.18247000760693072   -0.5335217412931375   0.03704261314993035
0.18247000760693072   -0.5335217412931375   0.03704261314993035
0.18247000760693072   -0.5335217412931375   0.03704261314993035
0.18247000760693072   -0.5335217412931375   0.03704261314993035
-0.16554457688736016   -1.126150388252829   -0.09418750637856224
-0.16554457688736016   -1.126150388252829   -0.09418750637856224
-0.16554457688736016   -1.126150388252829   -0.09418750637856224
-0.16554457688736016   -1.126150388252829   -0.09418750637856224
5.073893604825333   0.4782270300293956   0.3322977261716154
5.073893604825333   0.4782270300293956   0.3322977261716154
5.073893604825333   0.4782270300293956   0.3322977261716154
5.073893604825333   0.4782270300293956   0.3322977261716154
2.4974820799194855   -0.2723624588280984   -0.20452634371631095
2.4974820799194855   -0.2723624588280984   -0.20452634371631095
2.4974820799194855   -0.2723624588280984   -0.20452634371631095
2.4974820799194855   -0.2723624588280984   -0.20452634371631095
0.5484594116879136   -0.3218534174521769   0.015587864112456704
0.5484594116879136   -0.3218534174521769   0.015587864112456704
0.5484594116879136   -0.3218534174521769   0.015587864112456704
0.5484594116879136   -0.3218534174521769   0.015587864112456704
-4.1920206326732625   -0.48559790471073483   -0.13221779361824693
-4.1920206326732625   -0.48559790471073483   -0.13221779361824693
-4.1920206326732625   -0.48559790471073483   -0.13221779361824693
-4.1920206326732625   -0.48559790471073483   -0.13221779361824693
-4.5596053822993765   -1.416854709414437   -0.22806915190924643
-4.5596053822993765   -1.416854709414437   -0.22806915190924643
-4.5596053822993765   -1.416854709414437   -0.22806915190924643
-4.5596053822993765   -1.416854709414437   -0.22806915190924643
0.5888538953720482   0.46006020452466734   0.1555549347680345
0.5888538953720482   0.46006020452466734   0.1555549347680345
0.5888538953720482   0.46006020452466734   0.1555549347680345
0.5888538953720482   0.46006020452466734   0.1555549347680345
-1.9094404952607178   -0.4198749038650876   -0.11464027960035499
-1.9094404952607178   -0.4198749038650876   -0.11464027960035499
-1.9094404952607178   -0.4198749038650876   -0.11464027960035499
-1.9094404952607178   -0.4198749038650876   -0.11464027960035499
0.4118123584711733   -0.3590631999340128   0.08947065472232452
0.4118123584711733   -0.3590631999340128   0.08947065472232452
0.4118123584711733   -0.3590631999340128   0.08947065472232452
0.4118123584711733   -0.3590631999340128   0.08947065472232452
-4.369119390707563   -0.5842868502648619   -0.10820705309975474
-4.369119390707563   -0.5842868502648619   -0.10820705309975474
-4.369119390707563   -0.5842868502648619   -0.10820705309975474
-4.369119390707563   -0.5842868502648619   -0.10820705309975474
-4.77318234373735   -1.4739791852461182   -0.14992563306077097
-4.77318234373735   -1.4739791852461182   -0.14992563306077097
-4.77318234373735   -1.4739791852461182   -0.14992563306077097
-4.77318234373735   -1.4739791852461182   -0.14992563306077097
0.38914799208936   0.3608492138461408   0.17606158042279857
0.38914799208936   0.3608492138461408   0.17606158042279857
0.38914799208936   0.3608492138461408   0.17606158042279857
0.38914799208936   0.3608492138461408   0.17606158042279857
-2.0859872033209554   -0.47930696703797293   -0.13763601540326897
-2.0859872033209554   -0.47930696703797293   -0.13763601540326897
-2.0859872033209554   -0.47930696703797293   -0.13763601540326897
-2.0859872033209554   -0.47930696703797293   -0.13763601540326897
0.2227381193625878   -0.41986473323909307   0.12472616387417146
0.2227381193625878   -0.41986473323909307   0.12472616387417146
0.2227381193625878   -0.41986473323909307   0.12472616387417146
0.2227381193625878   -0.41986473323909307   0.12472616387417146
-4.604027208835257   -0.690519975985527   -0.08760916781092416
-4.604027208835257   -0.690519975985527   -0.08760916781092416
-4.604027208835257   -0.690519975985527   -0.08760916781092416
-4.604027208835257   -0.690519975985527   -0.08760916781092416
-5.010321234581622   -1.516066738389895   -0.13333627366786238
-5.010321234581622   -1.516066738389895   -0.13333627366786238
-5.010321234581622   -1.516066738389895   -0.13333627366786238
-5.010321234581622   -1.516066738389895   -0.13333627366786238
0.17315803980442604   0.2760755174829024   0.19709967134463738
0.17315803980442604   0.2760755174829024   0.19709967134463738
0.17315803980442604   0.2760755174829024   0.19709967134463738
0.17315803980442604   0.2760755174829024   0.19709967134463738
-2.3155323952033493   -0.55048042874508   -0.19283827420562719
-2.3155323952033493   -0.55048042874508   -0.19283827420562719
-2.3155323952033493   -0.55048042874508   -0.19283827420562719
-2.3155323952033493   -0.55048042874508   -0.19283827420562719
-4.130477709282591   -0.37602367162724265   0.06592259025154328
-4.130477709282591   -0.37602367162724265   0.06592259025154328
-4.130477709282591   -0.37602367162724265   0.06592259025154328
-4.130477709282591   -0.37602367162724265   0.06592259025154328
-8.807621138242641   -0.5680055092828045   -0.23417711637054844
-8.807621138242641   -0.5680055092828045   -0.23417711637054844
-8.807621138242641   -0.5680055092828045   -0.23417711637054844
-8.807621138242641   -0.5680055092828045   -0.23417711637054844
-9.225956911175883   -1.4824648551401052   -0.22650976458136823
-9.225956911175883   -1.4824648551401052   -0.22650976458136823
-9.225956911175883   -1.4824648551401052   -0.22650976458136823
-9.225956911175883   -1.4824648551401052   -0.22650976458136823
-4.152048010850048   0.3499722368619682   0.042890759060933814
-4.152048010850048   0.3499722368619682   0.042890759060933814
-4.152048010850048   0.3499722368619682   0.042890759060933814
-4.152048010850048   0.3499722368619682   0.042890759060933814
-6.524561110124958   -0.4950150285714975   -0.09712294182779938
-6.524561110124958   -0.4950150285714975   -0.09712294182779938
-6.524561110124958   -0.4950150285714975   -0.09712294182779938
-6.524561110124958   -0.4950150285714975   -0.09712294182779938
-4.281929802053119   -0.4163888936814268   0.15984293358901341
-4.281929802053119   -0.4163888936814268   0.15984293358901341
-4.281929802053119   -0.4163888936814268   0.15984293358901341
-4.281929802053119   -0.4163888936814268   0.15984293358901341
-9.069536018230032   -0.6895646228538999   -0.23730553213842248
-9.069536018230032   -0.6895646228538999   -0.23730553213842248
-9.069536018230032   -0.6895646228538999   -0.23730553213842248
-9.069536018230032   -0.6895646228538999   -0.23730553213842248
-9.521803419591286   -1.5792519655715904   -0.1582402520738566
-9.521803419591286   -1.5792519655715904   -0.1582402520738566
-9.521803419591286   -1.5792519655715904   -0.1582402520738566
-9.521803419591286   -1.5792519655715904   -0.1582402520738566
-4.389567603931633   0.2413401720110513   0.05282870871061385
-4.389567603931633   0.2413401720110513   0.05282870871061385
-4.389567603931633   0.2413401720110513   0.05282870871061385
-4.389567603931633   0.2413401720110513   0.05282870871061385
-6.712599410973964   -0.5492144342593415   -0.0978000999982126
-6.712599410973964   -0.5492144342593415   -0.0978000999982126
-6.712599410973964   -0.5492144342593415   -0.0978000999982126
-6.712599410973964   -0.5492144342593415   -0.0978000999982126
-4.518029841837781   -0.5137313844733237   0.165589075664217
-4.518029841837781   -0.5137313844733237   0.165589075664217
-4.518029841837781   -0.5137313844733237   0.165589075664217
-4.518029841837781   -0.5137313844733237   0.165589075664217
-9.375590515768309   -0.8064297431703913   -0.19999795536016712
-9.375590515768309   -0.8064297431703913   -0.19999795536016712
-9.375590515768309   -0.8064297431703913   -0.19999795536016712
-9.375590515768309   -0.8064297431703913   -0.19999795536016712
-9.856877575314606   -1.7064072670243646   -0.16993820134654553
-9.856877575314606   -1.7064072670243646   -0.16993820134654553
-9.856877575314606   -1.7064072670243646   -0.16993820134654553
-9.856877575314606   -1.7064072670243646   -0.16993820134654553
-4.646193983983759   0.10764314047916534   0.06359010045231689
-4.646193983983759   0.10764314047916534   0.06359010045231689
-4.646193983983759   0.10764314047916534   0.06359010045231689
-4.646193983983759   0.10764314047916534   0.06359010045231689
-7.043552789675353   -0.6788873741396181   -0.15797416506426773
-7.043552789675353   -0.6788873741396181   -0.15797416506426773
-7.043552789675353   -0.6788873741396181   -0.15797416506426773
-7.043552789675353   -0.6788873741396181   -0.15797416506426773
-8.506702228510562   0.4071481500227765   0.2952637729842693
-8.506702228510562   0.4071481500227765   0.2952637729842693
-8.506702228510562   0.4071481500227765   0.2952637729842693
-8.506702228510562   0.4071481500227765   0.2952637729842693
-13.194607319011427   -0.657850886967247   -0.18067057969217282
-13.194607319011427   -0.657850886967247   -0.18067057969217282
-13.194607319011427   -0.657850886967247   -0.18067057969217282
-13.194607319011427   -0.657850886967247   -0.18067057969217282
-13.524969797492664   -0.6695489494420706   0.30392871051732584
-13.524969797492664   -0.6695489494420706   0.30392871051732584
-13.524969797492664   -0.6695489494420706   0.30392871051732584
-13.524969797492664   -0.6695489494420706   0.30392871051732584
-8.844785817560956   0.2707414989422543   -0.07386065058919311
-8.844785817560956   0.2707414989422543   -0.07386065058919311
-8.844785817560956   0.2707414989422543   -0.07386065058919311
-8.844785817560956   0.2707414989422543   -0.07386065058919311
-10.504616765603355   0.009339219388385445   0.26589392332691464
-10.504616765603355   0.009339219388385445   0.26589392332691464
-10.504616765603355   0.009339219388385445   0.26589392332691464
-10.504616765603355   0.009339219388385445   0.26589392332691464
-8.75000496000404   0.2990127526497619   0.37177238348786323
-8.75000496000404   0.2990127526497619   0.37177238348786323
-8.75000496000404   0.2990127526497619   0.37177238348786323
-8.75000496000404   0.2990127526497619   0.37177238348786323
-13.613688567499514   -0.6917581155995136   -0.11745597335947433
-13.613688567499514   -0.6917581155995136   -0.11745597335947433
-13.613688567499514   -0.6917581155995136   -0.11745597335947433
-13.613688567499514   -0.6917581155995136   -0.11745597335947433
-13.942666440441322   -0.783195868771104   0.41285522043428236
-13.942666440441322   -0.783195868771104   0.41285522043428236
-13.942666440441322   -0.783195868771104   0.41285522043428236
-13.942666440441322   -0.783195868771104   0.41285522043428236
-9.150973595427324   0.19361418848448375   -0.07695728531020152
-9.150973595427324   0.19361418848448375   -0.07695728531020152
-9.150973595427324   0.19361418848448375   -0.07695728531020152
-9.150973595427324   0.19361418848448375   -0.07695728531020152
-11.04050785450635   -0.12399436542973774   0.14296074617279952
-11.04050785450635   -0.12399436542973774   0.14296074617279952
-11.04050785450635   -0.12399436542973774   0.14296074617279952
-11.04050785450635   -0.12399436542973774   0.14296074617279952
-9.06437076719366   0.18318869221674405   0.3664823521258622
-9.06437076719366   0.18318869221674405   0.3664823521258622
-9.06437076719366   0.18318869221674405   0.3664823521258622
-9.06437076719366   0.18318869221674405   0.3664823521258622
-14.045572228060111   -0.7890733318885306   -0.09579625454224217
-14.045572228060111   -0.7890733318885306   -0.09579625454224217
-14.045572228060111   -0.7890733318885306   -0.09579625454224217
-14.045572228060111   -0.7890733318885306   -0.09579625454224217
-14.53570560485588   -1.2391866230958064   0.35993925050015635
-14.53570560485588   -1.2391866230958064   0.35993925050015635
-14.53570560485588   -1.2391866230958064   0.35993925050015635
-14.53570560485588   -1.2391866230958064   0.35993925050015635
-9.503953893830358   -0.03945198217610413   -0.07227507877372585
-9.503953893830358   -0.03945198217610413   -0.07227507877372585
-9.503953893830358   -0.03945198217610413   -0.07227507877372585
-9.503953893830358   -0.03945198217610413   -0.07227507877372585
-11.273345300030654   -0.2910661546247546   0.033633572335733386
-11.273345300030654   -0.2910661546247546   0.033633572335733386
-11.273345300030654   -0.2910661546247546   0.033633572335733386
-11.273345300030654   -0.2910661546247546   0.033633572335733386
8.715176214635703   0.46351936366660174   -0.31543964932261936
8.715176214635703   0.46351936366660174   -0.31543964932261936
8.715176214635703   0.46351936366660174   -0.31543964932261936
8.715176214635703   0.46351936366660174   -0.31543964932261936
4.3279195131758845   0.0007105334551691378   0.11563056940984756
4.3279195131758845   0.0007105334551691378   0.11563056940984756
4.3279195131758845   0.0007105334551691378   0.11563056940984756
4.3279195131758845   0.0007105334551691378   0.11563056940984756
3.950411105263417   -0.6475911669084514   -0.2883269159606222
3.950411105263417   -0.6475911669084514   -0.2883269159606222
3.950411105263417   -0.6475911669084514   -0.2883269159606222
3.950411105263417   -0.6475911669084514   -0.2883269159606222
8.548507943094217   0.7071460729179502   0.14484516936299113
8.548507943094217   0.7071460729179502   0.14484516936299113
8.548507943094217   0.7071460729179502   0.14484516936299113
8.548507943094217   0.7071460729179502   0.14484516936299113
6.055383785977842   0.05372286478363786   -0.19915100457698526
6.055383785977842   0.05372286478363786   -0.19915100457698526
6.055383785977842   0.05372286478363786   -0.19915100457698526
6.055383785977842   0.05372286478363786   -0.19915100457698526
8.363855724787467   0.23209097528161227   -0.3033608245343532
8.363855724787467   0.23209097528161227   -0.3033608245343532
8.363855724787467   0.23209097528161227   -0.3033608245343532
8.363855724787467   0.23209097528161227   -0.3033608245343532
4.127049709031928   -0.18054968381035374   0.12782461978375986
4.127049709031928   -0.18054968381035374   0.12782461978375986
4.127049709031928   -0.18054968381035374   0.12782461978375986
4.127049709031928   -0.18054968381035374   0.12782461978375986
3.7615480721521095   -0.7024004177058741   -0.2503310444704658
3.7615480721521095   -0.7024004177058741   -0.2503310444704658
3.7615480721521095   -0.7024004177058741   -0.2503310444704658
3.7615480721521095   -0.7024004177058741   -0.2503310444704658
8.265854451902824   0.6320576063062495   0.19732601709641973
8.265854451902824   0.6320576063062495   0.19732601709641973
8.265854451902824   0.6320576063062495   0.19732601709641973
8.265854451902824   0.6320576063062495   0.19732601709641973
5.905779823950781   -0.04451831050414534   -0.2631445382087883
5.905779823950781   -0.04451831050414534   -0.2631445382087883
5.905779823950781   -0.04451831050414534   -0.2631445382087883
5.905779823950781   -0.04451831050414534   -0.2631445382087883
8.085243819693416   0.16472586097302755   -0.23839539861726294
8.085243819693416   0.16472586097302755   -0.23839539861726294
8.085243819693416   0.16472586097302755   -0.23839539861726294
8.085243819693416   0.16472586097302755   -0.23839539861726294
3.9350571263306255   -0.2421702504035267   0.15698405911973623
3.9350571263306255   -0.2421702504035267   0.15698405911973623
3.9350571263306255   -0.2421702504035267   0.15698405911973623
3.9350571263306255   -0.2421702504035267   0.15698405911973623
3.5888605935649602   -0.7202972026626474   -0.20441372261886775
3.5888605935649602   -0.7202972026626474   -0.20441372261886775
3.5888605935649602   -0.7202972026626474   -0.20441372261886775
3.5888605935649602   -0.7202972026626474   -0.20441372261886775
7.947201570948625   0.5649730145299225   0.2448914402866078
7.947201570948625   0.5649730145299225   0.2448914402866078
7.947201570948625   0.5649730145299225   0.2448914402866078
7.947201570948625   0.5649730145299225   0.2448914402866078
5.562994130415885   -0.11270482420683758   -0.3581218201118718
5.562994130415885   -0.11270482420683758   -0.3581218201118718
5.562994130415885   -0.11270482420683758   -0.3581218201118718
5.562994130415885   -0.11270482420683758   -0.3581218201118718
4.399660301831336   0.45333657450635134   0.021708471635922072
4.399660301831336   0.45333657450635134   0.021708471635922072
4.399660301831336   0.45333657450635134   0.021708471635922072
4.399660301831336   0.45333657450635134   0.021708471635922072
0.16132385797572407   -0.14045349478484054   -0.016574558673260114
0.16132385797572407   -0.14045349478484054   -0.016574558673260114
0.16132385797572407   -0.14045349478484054   -0.016574558673260114
0.16132385797572407   -0.14045349478484054   -0.016574558673260114
-0.1231622563395009   -0.582870766856232   -0.19543448985045825
-0.1231622563395009   -0.582870766856232   -0.19543448985045825
-0.1231622563395009   -0.582870766856232   -0.19543448985045825
-0.1231622563395009   -0.582870766856232   -0.19543448985045825
4.313562852148022   0.6393529342005287   0.24048771735334704
4.313562852148022   0.6393529342005287   0.24048771735334704
4.313562852148022   0.6393529342005287   0.24048771735334704
4.313562852148022   0.6393529342005287   0.24048771735334704
2.15380921771488   0.0910011993018699   -0.02521758358334135
2.15380921771488   0.0910011993018699   -0.02521758358334135
2.15380921771488   0.0910011993018699   -0.02521758358334135
2.15380921771488   0.0910011993018699   -0.02521758358334135
4.213629692880825   0.33300791000121466   0.04716694521669498
4.213629692880825   0.33300791000121466   0.04716694521669498
4.213629692880825   0.33300791000121466   0.04716694521669498
4.213629692880825   0.33300791000121466   0.04716694521669498
-0.02149344298506055   -0.2747900885697123   0.004828898635223788
-0.02149344298506055   -0.2747900885697123   0.004828898635223788
-0.02149344298506055   -0.2747900885697123   0.004828898635223788
-0.02149344298506055   -0.2747900885697123   0.004828898635223788
-0.30209004599428074   -0.6715765089958299   -0.16867117176232066
-0.30209004599428074   -0.6715765089958299   -0.16867117176232066
-0.30209004599428074   -0.6715765089958299   -0.16867117176232066
-0.30209004599428074   -0.6715765089958299   -0.16867117176232066
4.110910833202792   0.5278129680808622   0.26626937499617576
4.110910833202792   0.5278129680808622   0.26626937499617576
4.110910833202792   0.5278129680808622   0.26626937499617576
4.110910833202792   0.5278129680808622   0.26626937499617576
1.935761746176672   -0.018725735079980377   -0.08764828741028298
1.935761746176672   -0.018725735079980377   -0.08764828741028298
1.935761746176672   -0.018725735079980377   -0.08764828741028298
1.935761746176672   -0.018725735079980377   -0.08764828741028298
4.014674108918242   0.24007525055833578   0.07282347109598525
4.014674108918242   0.24007525055833578   0.07282347109598525
4.014674108918242   0.24007525055833578   0.07282347109598525
4.014674108918242   0.24007525055833578   0.07282347109598525
-0.20566703179439122   -0.38365250155791747   0.02551989179921442
-0.20566703179439122   -0.38365250155791747   0.02551989179921442
-0.20566703179439122   -0.38365250155791747   0.02551989179921442
-0.20566703179439122   -0.38365250155791747   0.02551989179921442
-0.4792836083660378   -0.7256132397920926   -0.1337264097444544
-0.4792836083660378   -0.7256132397920926   -0.1337264097444544
-0.4792836083660378   -0.7256132397920926   -0.1337264097444544
-0.4792836083660378   -0.7256132397920926   -0.1337264097444544
3.9181899099643682   0.43324249232357365   0.2886931643919048
3.9181899099643682   0.43324249232357365   0.2886931643919048
3.9181899099643682   0.43324249232357365   0.2886931643919048
3.9181899099643682   0.43324249232357365   0.2886931643919048
1.773719901237882   -0.08961167223983563   -0.13389852198241384
1.773719901237882   -0.08961167223983563   -0.13389852198241384
1.773719901237882   -0.08961167223983563   -0.13389852198241384
1.773719901237882   -0.08961167223983563   -0.13389852198241384
0.30442771389043977   0.459861307123918   0.09862991899155989
0.30442771389043977   0.459861307123918   0.09862991899155989
0.30442771389043977   0.459861307123918   0.09862991899155989
0.30442771389043977   0.459861307123918   0.09862991899155989
-3.874512324075695   -0.24827947115258286   -0.13363906343104848
-3.874512324075695   -0.24827947115258286   -0.13363906343104848
-3.874512324075695   -0.24827947115258286   -0.13363906343104848
-3.874512324075695   -0.24827947115258286   -0.13363906343104848
-4.096491591675535   -0.5326232924310073   -0.12251706296275579
-4.096491591675535   -0.5326232924310073   -0.12251706296275579
-4.096491591675535   -0.5326232924310073   -0.12251706296275579
-4.096491591675535   -0.5326232924310073   -0.12251706296275579
0.16035168455806317   0.523285618484131   0.11597882929699896
0.16035168455806317   0.523285618484131   0.11597882929699896
0.16035168455806317   0.523285618484131   0.11597882929699896
0.16035168455806317   0.523285618484131   0.11597882929699896
-1.874241964681356   0.05970476742117797   0.0067912680989096336
-1.874241964681356   0.05970476742117797   0.0067912680989096336
-1.874241964681356   0.05970476742117797   0.0067912680989096336
-1.874241964681356   0.05970476742117797   0.0067912680989096336
0.12978771048325025   0.36202074672892826   0.12442383067813717
0.12978771048325025   0.36202074672892826   0.12442383067813717
0.12978771048325025   0.36202074672892826   0.12442383067813717
0.12978771048325025   0.36202074672892826   0.12442383067813717
-4.061071968033813   -0.3665027711088962   -0.11153946607626067
-4.061071968033813   -0.3665027711088962   -0.11153946607626067
-4.061071968033813   -0.3665027711088962   -0.11153946607626067
-4.061071968033813   -0.3665027711088962   -0.11153946607626067
-4.2885585123237675   -0.6301582339531759   -0.10126915416065836
-4.2885585123237675   -0.6301582339531759   -0.10126915416065836
-4.2885585123237675   -0.6301582339531759   -0.10126915416065836
-4.2885585123237675   -0.6301582339531759   -0.10126915416065836
-0.024147796208598013   0.40850626872150364   0.1409572994487595
-0.024147796208598013   0.40850626872150364   0.1409572994487595
-0.024147796208598013   0.40850626872150364   0.1409572994487595
-0.024147796208598013   0.40850626872150364   0.1409572994487595
-2.0582057714821502   -0.035445740393264924   -0.040291425603702816
-2.0582057714821502   -0.035445740393264924   -0.040291425603702816
-2.0582057714821502   -0.035445740393264924   -0.040291425603702816
-2.0582057714821502   -0.035445740393264924   -0.040291425603702816
-0.050306050038811584   0.2679004576164882   0.150771841402707
-0.050306050038811584   0.2679004576164882   0.150771841402707
-0.050306050038811584   0.2679004576164882   0.150771841402707
-0.050306050038811584   0.2679004576164882   0.150771841402707
-4.258191403120426   -0.4853435674750231   -0.09424827462204553
-4.258191403120426   -0.4853435674750231   -0.09424827462204553
-4.258191403120426   -0.4853435674750231   -0.09424827462204553
-4.258191403120426   -0.4853435674750231   -0.09424827462204553
-4.479395807024913   -0.7070530881273358   -0.06598950987721428
-4.479395807024913   -0.7070530881273358   -0.06598950987721428
-4.479395807024913   -0.7070530881273358   -0.06598950987721428
-4.479395807024913   -0.7070530881273358   -0.06598950987721428
-0.21525807873694808   0.30037984657217665   0.16040815203672493
-0.21525807873694808   0.30037984657217665   0.16040815203672493
-0.21525807873694808   0.30037984657217665   0.16040815203672493
-0.21525807873694808   0.30037984657217665   0.16040815203672493
-2.256121907796558   -0.13223596060535647   -0.09165675723734898
-2.256121907796558   -0.13223596060535647   -0.09165675723734898
-2.256121907796558   -0.13223596060535647   -0.09165675723734898
-2.256121907796558   -0.13223596060535647   -0.09165675723734898
-3.652459559204872   0.5462760731274732   0.1820692166430699
-3.652459559204872   0.5462760731274732   0.1820692166430699
-3.652459559204872   0.5462760731274732   0.1820692166430699
-3.652459559204872   0.5462760731274732   0.1820692166430699
-7.771478876665177   -0.34226140391582605   -0.21960324550590293
-7.771478876665177   -0.34226140391582605   -0.21960324550590293
-7.771478876665177   -0.34226140391582605   -0.21960324550590293
-7.771478876665177   -0.34226140391582605   -0.21960324550590293
-7.944706631484015   -0.42368360594735743   -0.03272983435172744
-7.944706631484015   -0.42368360594735743   -0.03272983435172744
-7.944706631484015   -0.42368360594735743   -0.03272983435172744
-7.944706631484015   -0.42368360594735743   -0.03272983435172744
-3.8880086727235272   0.3949638985803612   -0.007689659214023092
-3.8880086727235272   0.3949638985803612   -0.007689659214023092
-3.8880086727235272   0.3949638985803612   -0.007689659214023092
-3.8880086727235272   0.3949638985803612   -0.007689659214023092
-5.772232991730815   0.0620722769209634   0.04179868824182137
-5.772232991730815   0.0620722769209634   0.04179868824182137
-5.772232991730815   0.0620722769209634   0.04179868824182137
-5.772232991730815   0.0620722769209634   0.04179868824182137
-3.835437833353516   0.4456181731603053   0.20451026305608805
-3.835437833353516   0.4456181731603053   0.20451026305608805
-3.835437833353516   0.4456181731603053   0.20451026305608805
-3.835437833353516   0.4456181731603053   0.20451026305608805
-7.990570928608285   -0.4676313382815662   -0.2181035876389027
-7.990570928608285   -0.4676313382815662   -0.2181035876389027
-7.990570928608285   -0.4676313382815662   -0.2181035876389027
-7.990570928608285   -0.4676313382815662   -0.2181035876389027
-8.181323366153874   -0.5332570183395338   -0.02840148082031496
-8.181323366153874   -0.5332570183395338   -0.02840148082031496
-8.181323366153874   -0.5332570183395338   -0.02840148082031496
-8.181323366153874   -0.5332570183395338   -0.02840148082031496
-4.082265452637873   0.28542959924248734   0.014608311073207036
-4.082265452637873   0.28542959924248734   0.014608311073207036
-4.082265452637873   0.28542959924248734   0.014608311073207036
-4.082265452637873   0.28542959924248734   0.014608311073207036
-5.938595666550792   -0.025374780874838354   0.003108517760989249
-5.938595666550792   -0.025374780874838354   0.003108517760989249
-5.938595666550792   -0.025374780874838354   0.003108517760989249
-5.938595666550792   -0.025374780874838354   0.003108517760989249
-4.024751088498763   0.3510497329647907   0.236559998046441
-4.024751088498763   0.3510497329647907   0.236559998046441
-4.024751088498763   0.3510497329647907   0.236559998046441
-4.024751088498763   0.3510497329647907   0.236559998046441
-8.22537105107855   -0.5854104728474194   -0.19648645093589745
-8.22537105107855   -0.5854104728474194   -0.19648645093589745
-8.22537105107855   -0.5854104728474194   -0.19648645093589745
-8.22537105107855   -0.5854104728474194   -0.19648645093589745
-8.399350285208731   -0.6504155541449246   0.02645292855683884
-8.399350285208731   -0.6504155541449246   0.02645292855683884
-8.399350285208731   -0.6504155541449246   0.02645292855683884
-8.399350285208731   -0.6504155541449246   0.02645292855683884
-4.288113828712102   0.15544278317079774   0.02792451038878352
-4.288113828712102   0.15544278317079774   0.02792451038878352
-4.288113828712102   0.15544278317079774   0.02792451038878352
-4.288113828712102   0.15544278317079774   0.02792451038878352
-6.196369380817339   -0.14716690181898207   -0.048564626695207114
-6.196369380817339   -0.14716690181898207   -0.048564626695207114
-6.196369380817339   -0.14716690181898207   -0.048564626695207114
-6.196369380817339   -0.14716690181898207   -0.048564626695207114
-7.493964133670906   0.5696280659576711   0.2560809995918967
-7.493964133670906   0.5696280659576711   0.2560809995918967
-7.493964133670906   0.5696280659576711   0.2560809995918967
-7.493964133670906   0.5696280659576711   0.2560809995918967
-11.467263013200226   -0.5297148772425277   -0.20459616549791726
-11.467263013200226   -0.5297148772425277   -0.20459616549791726
-11.467263013200226   -0.5297148772425277   -0.20459616549791726
-11.467263013200226   -0.5297148772425277   -0.20459616549791726
-11.62805223317607   -0.22739326155136474   0.2187319625580748
-11.62805223317607   -0.22739326155136474   0.2187319625580748
-11.62805223317607   -0.22739326155136474   0.2187319625580748
-11.62805223317607   -0.22739326155136474   0.2187319625580748
-7.829977920790855   0.23340073892882196   -0.1161706257621089
-7.829977920790855   0.23340073892882196   -0.1161706257621089
-7.829977920790855   0.23340073892882196   -0.1161706257621089
-7.829977920790855   0.23340073892882196   -0.1161706257621089
-9.180942074088227   0.11992559426693106   0.20958327414181255
-9.180942074088227   0.11992559426693106   0.20958327414181255
-9.180942074088227   0.11992559426693106   0.20958327414181255
-9.180942074088227   0.11992559426693106   0.20958327414181255
-7.6790862180683535   0.5774927285953655   0.2941958981837628
-7.6790862180683535   0.5774927285953655   0.2941958981837628
-7.6790862180683535   0.5774927285953655   0.2941958981837628
-7.6790862180683535   0.5774927285953655   0.2941958981837628
-11.770022164932728   -0.5625634802520034   -0.15594747752436144
-11.770022164932728   -0.5625634802520034   -0.15594747752436144
-11.770022164932728   -0.5625634802520034   -0.15594747752436144
-11.770022164932728   -0.5625634802520034   -0.15594747752436144
-11.921807088509388   -0.2846944416231749   0.30233305723381254
-11.921807088509388   -0.2846944416231749   0.30233305723381254
-11.921807088509388   -0.2846944416231749   0.30233305723381254
-11.921807088509388   -0.2846944416231749   0.30233305723381254
-8.055607497327065   0.1704212322504577   -0.10350038727625044
-8.055607497327065   0.1704212322504577   -0.10350038727625044
-8.055607497327065   0.1704212322504577   -0.10350038727625044
-8.055607497327065   0.1704212322504577   -0.10350038727625044
-9.582191981001012   0.058882049866528785   0.13318377161771822
-9.582191981001012   0.058882049866528785   0.13318377161771822
-9.582191981001012   0.058882049866528785   0.13318377161771822
-9.582191981001012   0.058882049866528785   0.13318377161771822
-7.8889889456189195   0.5345044135092847   0.36550919000564286
-7.8889889456189195   0.5345044135092847   0.36550919000564286
-7.8889889456189195   0.5345044135092847   0.36550919000564286
-7.8889889456189195   0.5345044135092847   0.36550919000564286
-12.079870959148417   -0.6402229418128527   -0.13245779577144867
-12.079870959148417   -0.6402229418128527   -0.13245779577144867
-12.079870959148417   -0.6402229418128527   -0.13245779577144867
-12.079870959148417   -0.6402229418128527   -0.13245779577144867
-12.320132108384012   -0.5279284606020345   0.30152074365027404
-12.320132108384012   -0.5279284606020345   0.30152074365027404
-12.320132108384012   -0.5279284606020345   0.30152074365027404
-12.320132108384012   -0.5279284606020345   0.30152074365027404
-8.297254910190123   -0.016420518588602606   -0.0970652319064425
-8.297254910190123   -0.016420518588602606   -0.0970652319064425
-8.297254910190123   -0.016420518588602606   -0.0970652319064425
-8.297254910190123   -0.016420518588602606   -0.0970652319064425
-9.702884017716745   -0.02808746141021734   0.10704988794370562
-9.702884017716745   -0.02808746141021734   0.10704988794370562
-9.702884017716745   -0.02808746141021734   0.10704988794370562
-9.702884017716745   -0.02808746141021734   0.10704988794370562
6.5744021711832366   0.36312490755636606   -0.3187802180915201
6.5744021711832366   0.36312490755636606   -0.3187802180915201
6.5744021711832366   0.36312490755636606   -0.3187802180915201
6.5744021711832366   0.36312490755636606   -0.3187802180915201
3.1314196928038047   0.06741504752737615   0.12264063531924604
3.1314196928038047   0.06741504752737615   0.12264063531924604
3.1314196928038047   0.06741504752737615   0.12264063531924604
3.1314196928038047   0.06741504752737615   0.12264063531924604
2.776709391800622   -0.5365972745048582   -0.30207301645721035
2.776709391800622   -0.5365972745048582   -0.30207301645721035
2.776709391800622   -0.5365972745048582   -0.30207301645721035
2.776709391800622   -0.5365972745048582   -0.30207301645721035
6.429166695375888   0.6067720205069511   0.15149058964435697
6.429166695375888   0.6067720205069511   0.15149058964435697
6.429166695375888   0.6067720205069511   0.15149058964435697
6.429166695375888   0.6067720205069511   0.15149058964435697
4.483749616437935   0.060823447153944055   -0.13246167475286869
4.483749616437935   0.060823447153944055   -0.13246167475286869
4.483749616437935   0.060823447153944055   -0.13246167475286869
4.483749616437935   0.060823447153944055   -0.13246167475286869
6.248965485906561   0.1580998834739633   -0.3008433206692886
6.248965485906561   0.1580998834739633   -0.3008433206692886
6.248965485906561   0.1580998834739633   -0.3008433206692886
6.248965485906561   0.1580998834739633   -0.3008433206692886
2.9533234982489236   -0.09151224049285789   0.13591248177227638
2.9533234982489236   -0.09151224049285789   0.13591248177227638
2.9533234982489236   -0.09151224049285789   0.13591248177227638
2.9533234982489236   -0.09151224049285789   0.13591248177227638
2.6107806780618663   -0.589881460219648   -0.25729554169211133
2.6107806780618663   -0.589881460219648   -0.25729554169211133
2.6107806780618663   -0.589881460219648   -0.25729554169211133
2.6107806780618663   -0.589881460219648   -0.25729554169211133
6.171224151548935   0.5307722420141698   0.19863879116383382
6.171224151548935   0.5307722420141698   0.19863879116383382
6.171224151548935   0.5307722420141698   0.19863879116383382
6.171224151548935   0.5307722420141698   0.19863879116383382
4.333693955887352   -0.03116034510353216   -0.18732635075235501
4.333693955887352   -0.03116034510353216   -0.18732635075235501
4.333693955887352   -0.03116034510353216   -0.18732635075235501
4.333693955887352   -0.03116034510353216   -0.18732635075235501
5.995346059819609   0.09041236614717452   -0.24039179161574165
5.995346059819609   0.09041236614717452   -0.24039179161574165
5.995346059819609   0.09041236614717452   -0.24039179161574165
5.995346059819609   0.09041236614717452   -0.24039179161574165
2.7822205226051224   -0.15395983153871629   0.16398205234321506
2.7822205226051224   -0.15395983153871629   0.16398205234321506
2.7822205226051224   -0.15395983153871629   0.16398205234321506
2.7822205226051224   -0.15395983153871629   0.16398205234321506
2.461026413658998   -0.6240811579709384   -0.21420426492807165
2.461026413658998   -0.6240811579709384   -0.21420426492807165
2.461026413658998   -0.6240811579709384   -0.21420426492807165
2.461026413658998   -0.6240811579709384   -0.21420426492807165
5.880540871982335   0.44749121124054336   0.23545978147606433
5.880540871982335   0.44749121124054336   0.23545978147606433
5.880540871982335   0.44749121124054336   0.23545978147606433
5.880540871982335   0.44749121124054336   0.23545978147606433
4.041739269907652   -0.1011523995383139   -0.2677045437701625
4.041739269907652   -0.1011523995383139   -0.2677045437701625
4.041739269907652   -0.1011523995383139   -0.2677045437701625
4.041739269907652   -0.1011523995383139   -0.2677045437701625
3.18170428621562   0.4626943604824916   -0.021215710576740772
3.18170428621562   0.4626943604824916   -0.021215710576740772
3.18170428621562   0.4626943604824916   -0.021215710576740772
3.18170428621562   0.4626943604824916   -0.021215710576740772
-0.20287522369841374   -0.04180205520797882   -0.0003108301271589913
-0.20287522369841374   -0.04180205520797882   -0.0003108301271589913
-0.20287522369841374   -0.04180205520797882   -0.0003108301271589913
-0.20287522369841374   -0.04180205520797882   -0.0003108301271589913
-0.4527151979423749   -0.4002693265293774   -0.1913455362057873
-0.4527151979423749   -0.4002693265293774   -0.1913455362057873
-0.4527151979423749   -0.4002693265293774   -0.1913455362057873
-0.4527151979423749   -0.4002693265293774   -0.1913455362057873
3.097106327950434   0.5508495307865626   0.21246485900040918
3.097106327950434   0.5508495307865626   0.21246485900040918
3.097106327950434   0.5508495307865626   0.21246485900040918
3.097106327950434   0.5508495307865626   0.21246485900040918
1.3842109554413478   0.13653932818259498   0.009522625331894775
1.3842109554413478   0.13653932818259498   0.009522625331894775
1.3842109554413478   0.13653932818259498   0.009522625331894775
1.3842109554413478   0.13653932818259498   0.009522625331894775
3.012455898614399   0.33253870720375034   0.007523535903077944
3.012455898614399   0.33253870720375034   0.007523535903077944
3.012455898614399   0.33253870720375034   0.007523535903077944
3.012455898614399   0.33253870720375034   0.007523535903077944
-0.36659062853811   -0.18048436287832995   0.019492347164490026
-0.36659062853811   -0.18048436287832995   0.019492347164490026
-0.36659062853811   -0.18048436287832995   0.019492347164490026
-0.36659062853811   -0.18048436287832995   0.019492347164490026
-0.6090546738852927   -0.5010198690647049   -0.15792930364382113
-0.6090546738852927   -0.5010198690647049   -0.15792930364382113
-0.6090546738852927   -0.5010198690647049   -0.15792930364382113
-0.6090546738852927   -0.5010198690647049   -0.15792930364382113
2.912888608216574   0.4310289141644833   0.23233373469727478
2.912888608216574   0.4310289141644833   0.23233373469727478
2.912888608216574   0.4310289141644833   0.23233373469727478
2.912888608216574   0.4310289141644833   0.23233373469727478
1.1919838484319787   0.018208392266132356   -0.04993553113044656
1.1919838484319787   0.018208392266132356   -0.04993553113044656
1.1919838484319787   0.018208392266132356   -0.04993553113044656
1.1919838484319787   0.018208392266132356   -0.04993553113044656
2.83101331226453   0.2244806855952795   0.029505483506278254
2.83101331226453   0.2244806855952795   0.029505483506278254
2.83101331226453   0.2244806855952795   0.029505483506278254
2.83101331226453   0.2244806855952795   0.029505483506278254
-0.5283182437582199   -0.2956105063205099   0.04034348424734809
-0.5283182437582199   -0.2956105063205099   0.04034348424734809
-0.5283182437582199   -0.2956105063205099   0.04034348424734809
-0.5283182437582199   -0.2956105063205099   0.04034348424734809
-0.7634144347408437   -0.586121694991196   -0.1265234274767318
-0.7634144347408437   -0.586121694991196   -0.1265234274767318
-0.7634144347408437   -0.586121694991196   -0.1265234274767318
-0.7634144347408437   -0.586121694991196   -0.1265234274767318
2.742811117622192   0.31978829938547776   0.25084979753146774
2.742811117622192   0.31978829938547776   0.25084979753146774
2.742811117622192   0.31978829938547776   0.25084979753146774
2.742811117622192   0.31978829938547776   0.25084979753146774
1.0438557681016338   -0.07208256192891205   -0.09966929652043922
1.0438557681016338   -0.07208256192891205   -0.09966929652043922
1.0438557681016338   -0.07208256192891205   -0.09966929652043922
1.0438557681016338   -0.07208256192891205   -0.09966929652043922
-0.0681134476356155   0.5550560965145112   0.07663989846434231
-0.0681134476356155   0.5550560965145112   0.07663989846434231
-0.0681134476356155   0.5550560965145112   0.07663989846434231
-0.0681134476356155   0.5550560965145112   0.07663989846434231
-3.4658416940441144   -0.14732617496672784   -0.11499633974798021
-3.4658416940441144   -0.14732617496672784   -0.11499633974798021
-3.4658416940441144   -0.14732617496672784   -0.11499633974798021
-3.4658416940441144   -0.14732617496672784   -0.11499633974798021
-3.62691825299289   -0.2752677144606802   -0.0895178978761039
-3.62691825299289   -0.2752677144606802   -0.0895178978761039
-3.62691825299289   -0.2752677144606802   -0.0895178978761039
-3.62691825299289   -0.2752677144606802   -0.0895178978761039
-0.22695316323709816   0.4449677648204301   0.09222754597078898
-0.22695316323709816   0.4449677648204301   0.09222754597078898
-0.22695316323709816   0.4449677648204301   0.09222754597078898
-0.22695316323709816   0.4449677648204301   0.09222754597078898
-1.8426006845749738   0.14545649933806326   0.03620582421338164
-1.8426006845749738   0.14545649933806326   0.03620582421338164
-1.8426006845749738   0.14545649933806326   0.03620582421338164
-1.8426006845749738   0.14545649933806326   0.03620582421338164
-0.22373993914500606   0.44493651177875204   0.10832491947292756
-0.22373993914500606   0.44493651177875204   0.10832491947292756
-0.22373993914500606   0.44493651177875204   0.10832491947292756
-0.22373993914500606   0.44493651177875204   0.10832491947292756
-3.6270874846326007   -0.2721924689665799   -0.09343930156875821
-3.6270874846326007   -0.2721924689665799   -0.09343930156875821
-3.6270874846326007   -0.2721924689665799   -0.09343930156875821
-3.6270874846326007   -0.2721924689665799   -0.09343930156875821
-3.7870389037275385   -0.38432278382367724   -0.060296855757958706
-3.7870389037275385   -0.38432278382367724   -0.060296855757958706
-3.7870389037275385   -0.38432278382367724   -0.060296855757958706
-3.7870389037275385   -0.38432278382367724   -0.060296855757958706
-0.3899017146267574   0.3215738508847724   0.11524177269937796
-0.3899017146267574   0.3215738508847724   0.11524177269937796
-0.3899017146267574   0.3215738508847724   0.11524177269937796
-0.3899017146267574   0.3215738508847724   0.11524177269937796
-2.0043668196143085   0.03810419708989621   -0.01213867682985538
-2.0043668196143085   0.03810419708989621   -0.01213867682985538
-2.0043668196143085   0.03810419708989621   -0.01213867682985538
-2.0043668196143085   0.03810419708989621   -0.01213867682985538
-0.3834808863420144   0.3351934531721604   0.13372631183570538
-0.3834808863420144   0.3351934531721604   0.13372631183570538
-0.3834808863420144   0.3351934531721604   0.13372631183570538
-0.3834808863420144   0.3351934531721604   0.13372631183570538
-3.7925227630785963   -0.39700541717738   -0.07503351915954568
-3.7925227630785963   -0.39700541717738   -0.07503351915954568
-3.7925227630785963   -0.39700541717738   -0.07503351915954568
-3.7925227630785963   -0.39700541717738   -0.07503351915954568
-3.9453483201491415   -0.48400210523350407   -0.03141136557948476
-3.9453483201491415   -0.48400210523350407   -0.03141136557948476
-3.9453483201491415   -0.48400210523350407   -0.03141136557948476
-3.9453483201491415   -0.48400210523350407   -0.03141136557948476
-0.5534632794323979   0.202228396414723   0.1348822576595621
-0.5534632794323979   0.202228396414723   0.1348822576595621
-0.5534632794323979   0.202228396414723   0.1348822576595621
-0.5534632794323979   0.202228396414723   0.1348822576595621
-2.17348808412166   -0.0701849949779465   -0.06593422406426257
-2.17348808412166   -0.0701849949779465   -0.06593422406426257
-2.17348808412166   -0.0701849949779465   -0.06593422406426257
-2.17348808412166   -0.0701849949779465   -0.06593422406426257
-3.2518429022976862   0.6392672740519445   0.1684041699654587
-3.2518429022976862   0.6392672740519445   0.1684041699654587
-3.2518429022976862   0.6392672740519445   0.1684041699654587
-3.2518429022976862   0.6392672740519445   0.1684041699654587
-6.650692571184702   -0.2548773383046048   -0.208001473743819
-6.650692571184702   -0.2548773383046048   -0.208001473743819
-6.650692571184702   -0.2548773383046048   -0.208001473743819
-6.650692571184702   -0.2548773383046048   -0.208001473743819
-6.738870662980987   -0.16937128335990215   0.02149642134211993
-6.738870662980987   -0.16937128335990215   0.02149642134211993
-6.738870662980987   -0.16937128335990215   0.02149642134211993
-6.738870662980987   -0.16937128335990215   0.02149642134211993
-3.4956912051687934   0.319042194802725   -0.02769256801902542
-3.4956912051687934   0.319042194802725   -0.02769256801902542
-3.4956912051687934   0.319042194802725   -0.02769256801902542
-3.4956912051687934   0.319042194802725   -0.02769256801902542
-5.001758836714911   0.14007522541109196   0.06142505058366632
-5.001758836714911   0.14007522541109196   0.06142505058366632
-5.001758836714911   0.14007522541109196   0.06142505058366632
-5.001758836714911   0.14007522541109196   0.06142505058366632
-3.4077126320505493   0.5323412808606212   0.19890121151429874
-3.4077126320505493   0.5323412808606212   0.19890121151429874
-3.4077126320505493   0.5323412808606212   0.19890121151429874
-3.4077126320505493   0.5323412808606212   0.19890121151429874
-6.825947373247756   -0.3817685065663232   -0.20148990678530443
-6.825947373247756   -0.3817685065663232   -0.20148990678530443
-6.825947373247756   -0.3817685065663232   -0.20148990678530443
-6.825947373247756   -0.3817685065663232   -0.20148990678530443
-6.9252720521929065   -0.27958009564902353   0.032566436170684665
-6.9252720521929065   -0.27958009564902353   0.032566436170684665
-6.9252720521929065   -0.27958009564902353   0.032566436170684665
-6.9252720521929065   -0.27958009564902353   0.032566436170684665
-3.658004274454104   0.20478139377109195   -0.004227886985524454
-3.658004274454104   0.20478139377109195   -0.004227886985524454
-3.658004274454104   0.20478139377109195   -0.004227886985524454
-3.658004274454104   0.20478139377109195   -0.004227886985524454
-5.139141419836535   0.04398484182626605   0.01635381037502992
-5.139141419836535   0.04398484182626605   0.01635381037502992
-5.139141419836535   0.04398484182626605   0.01635381037502992
-5.139141419836535   0.04398484182626605   0.01635381037502992
-3.5664000433867584   0.4311632927521426   0.2274113693701213
-3.5664000433867584   0.4311632927521426   0.2274113693701213
-3.5664000433867584   0.4311632927521426   0.2274113693701213
-3.5664000433867584   0.4311632927521426   0.2274113693701213
-7.012126650538383   -0.5012123619081683   -0.18007428929754754
-7.012126650538383   -0.5012123619081683   -0.18007428929754754
-7.012126650538383   -0.5012123619081683   -0.18007428929754754
-7.012126650538383   -0.5012123619081683   -0.18007428929754754
-7.09451787453513   -0.3979892419615729   0.06716843054995858
-7.09451787453513   -0.3979892419615729   0.06716843054995858
-7.09451787453513   -0.3979892419615729   0.06716843054995858
-7.09451787453513   -0.3979892419615729   0.06716843054995858
-3.8248365032755833   0.07436733109858407   0.01277828245624979
-3.8248365032755833   0.07436733109858407   0.01277828245624979
-3.8248365032755833   0.07436733109858407   0.01277828245624979
-3.8248365032755833   0.07436733109858407   0.01277828245624979
-5.346859908816905   -0.07585192985821321   -0.04060790285861249
-5.346859908816905   -0.07585192985821321   -0.04060790285861249
-5.346859908816905   -0.07585192985821321   -0.04060790285861249
-5.346859908816905   -0.07585192985821321   -0.04060790285861249
-6.395740407220186   0.5732377321732445   0.23864427560090606
-6.395740407220186   0.5732377321732445   0.23864427560090606
-6.395740407220186   0.5732377321732445   0.23864427560090606
-6.395740407220186   0.5732377321732445   0.23864427560090606
-9.67253808479781   -0.4453951798925031   -0.2311026254567814
-9.67253808479781   -0.4453951798925031   -0.2311026254567814
-9.67253808479781   -0.4453951798925031   -0.2311026254567814
-9.67253808479781   -0.4453951798925031   -0.2311026254567814
-9.782470658255686   -0.08979440335814992   0.22034640026786279
-9.782470658255686   -0.08979440335814992   0.22034640026786279
-9.782470658255686   -0.08979440335814992   0.22034640026786279
-9.782470658255686   -0.08979440335814992   0.22034640026786279
-6.704877237646169   0.15829600335958305   -0.13620373870327795
-6.704877237646169   0.15829600335958305   -0.13620373870327795
-6.704877237646169   0.15829600335958305   -0.13620373870327795
-6.704877237646169   0.15829600335958305   -0.13620373870327795
-7.779323010512948   0.1302806980822495   0.18950628404373082
-7.779323010512948   0.1302806980822495   0.18950628404373082
-7.779323010512948   0.1302806980822495   0.18950628404373082
-7.779323010512948   0.1302806980822495   0.18950628404373082
-6.539170957869773   0.5707674911442533   0.27985617239396676
-6.539170957869773   0.5707674911442533   0.27985617239396676
-6.539170957869773   0.5707674911442533   0.27985617239396676
-6.539170957869773   0.5707674911442533   0.27985617239396676
-9.945293631092904   -0.49938258420363546   -0.18418028307263712
-9.945293631092904   -0.49938258420363546   -0.18418028307263712
-9.945293631092904   -0.49938258420363546   -0.18418028307263712
-9.945293631092904   -0.49938258420363546   -0.18418028307263712
-10.026282269814844   -0.1478656305020576   0.2757400714492013
-10.026282269814844   -0.1478656305020576   0.2757400714492013
-10.026282269814844   -0.1478656305020576   0.2757400714492013
-10.026282269814844   -0.1478656305020576   0.2757400714492013
-6.8801109864232695   0.09563383123082425   -0.11684216186097768
-6.8801109864232695   0.09563383123082425   -0.11684216186097768
-6.8801109864232695   0.09563383123082425   -0.11684216186097768
-6.8801109864232695   0.09563383123082425   -0.11684216186097768
-8.117657908375415   0.06530507456074064   0.11403413225746689
-8.117657908375415   0.06530507456074064   0.11403413225746689
-8.117657908375415   0.06530507456074064   0.11403413225746689
-8.117657908375415   0.06530507456074064   0.11403413225746689
-6.7043235050468155   0.5274366028434838   0.3302924734086329
-6.7043235050468155   0.5274366028434838   0.3302924734086329
-6.7043235050468155   0.5274366028434838   0.3302924734086329
-6.7043235050468155   0.5274366028434838   0.3302924734086329
-10.197403452160346   -0.5750021030837076   -0.15272936769656292
-10.197403452160346   -0.5750021030837076   -0.15272936769656292
-10.197403452160346   -0.5750021030837076   -0.15272936769656292
-10.197403452160346   -0.5750021030837076   -0.15272936769656292
-10.348008483165318   -0.35288159296334   0.2713829691950648
-10.348008483165318   -0.35288159296334   0.2713829691950648
-10.348008483165318   -0.35288159296334   0.2713829691950648
-10.348008483165318   -0.35288159296334   0.2713829691950648
-7.064939257727783   -0.07711115751757003   -0.10581656985730808
-7.064939257727783   -0.07711115751757003   -0.10581656985730808
-7.064939257727783   -0.07711115751757003   -0.10581656985730808
-7.064939257727783   -0.07711115751757003   -0.10581656985730808
-8.207845606715354   -0.014972222439112892   0.08834047144523838
-8.207845606715354   -0.014972222439112892   0.08834047144523838
-8.207845606715354   -0.014972222439112892   0.08834047144523838
-8.207845606715354   -0.014972222439112892   0.08834047144523838
4.485561196617016   0.2520814983170918   -0.30816861454538635
4.485561196617016   0.2520814983170918   -0.30816861454538635
4.485561196617016   0.2520814983170918   -0.30816861454538635
4.485561196617016   0.2520814983170918   -0.30816861454538635
1.9162292410353234   0.12692484386935982   0.13315186487211195
1.9162292410353234   0.12692484386935982   0.13315186487211195
1.9162292410353234   0.12692484386935982   0.13315186487211195
1.9162292410353234   0.12692484386935982   0.13315186487211195
1.597914443749715   -0.4471721172360046   -0.28697784744424815
1.597914443749715   -0.4471721172360046   -0.28697784744424815
1.597914443749715   -0.4471721172360046   -0.28697784744424815
1.597914443749715   -0.4471721172360046   -0.28697784744424815
4.377790166101158   0.5127035593862627   0.16167081698015165
4.377790166101158   0.5127035593862627   0.16167081698015165
4.377790166101158   0.5127035593862627   0.16167081698015165
4.377790166101158   0.5127035593862627   0.16167081698015165
2.9303937687453345   0.06523166979630934   -0.08014995327908225
2.9303937687453345   0.06523166979630934   -0.08014995327908225
2.9303937687453345   0.06523166979630934   -0.08014995327908225
2.9303937687453345   0.06523166979630934   -0.08014995327908225
4.200150344240458   0.0732547381363069   -0.28707947107343396
4.200150344240458   0.0732547381363069   -0.28707947107343396
4.200150344240458   0.0732547381363069   -0.28707947107343396
4.200150344240458   0.0732547381363069   -0.28707947107343396
1.772224319020342   -0.011053242576123612   0.14845265424903667
1.772224319020342   -0.011053242576123612   0.14845265424903667
1.772224319020342   -0.011053242576123612   0.14845265424903667
1.772224319020342   -0.011053242576123612   0.14845265424903667
1.4620787510135562   -0.49957437525090437   -0.24394889462640482
1.4620787510135562   -0.49957437525090437   -0.24394889462640482
1.4620787510135562   -0.49957437525090437   -0.24394889462640482
1.4620787510135562   -0.49957437525090437   -0.24394889462640482
4.154465789902247   0.43840148187815037   0.20784131896983415
4.154465789902247   0.43840148187815037   0.20784131896983415
4.154465789902247   0.43840148187815037   0.20784131896983415
4.154465789902247   0.43840148187815037   0.20784131896983415
2.7888283020116766   -0.020912444219502557   -0.13168577329111175
2.7888283020116766   -0.020912444219502557   -0.13168577329111175
2.7888283020116766   -0.020912444219502557   -0.13168577329111175
2.7888283020116766   -0.020912444219502557   -0.13168577329111175
3.979867204787163   0.006185891236336061   -0.23293601596380983
3.979867204787163   0.006185891236336061   -0.23293601596380983
3.979867204787163   0.006185891236336061   -0.23293601596380983
3.979867204787163   0.006185891236336061   -0.23293601596380983
1.6318186636056122   -0.07221745713212208   0.1773937502151069
1.6318186636056122   -0.07221745713212208   0.1773937502151069
1.6318186636056122   -0.07221745713212208   0.1773937502151069
1.6318186636056122   -0.07221745713212208   0.1773937502151069
1.3404997253465025   -0.5482531276479053   -0.20322076633034675
1.3404997253465025   -0.5482531276479053   -0.20322076633034675
1.3404997253465025   -0.5482531276479053   -0.20322076633034675
1.3404997253465025   -0.5482531276479053   -0.20322076633034675
3.894042114479715   0.33997364873453295   0.23680558723888848
3.894042114479715   0.33997364873453295   0.23680558723888848
3.894042114479715   0.33997364873453295   0.23680558723888848
3.894042114479715   0.33997364873453295   0.23680558723888848
2.552652683975097   -0.09201525779519204   -0.20188707015502455
2.552652683975097   -0.09201525779519204   -0.20188707015502455
2.552652683975097   -0.09201525779519204   -0.20188707015502455
2.552652683975097   -0.09201525779519204   -0.20188707015502455
1.9273790110995248   0.37289672465794127   -0.05707116559549702
1.9273790110995248   0.37289672465794127   -0.05707116559549702
1.9273790110995248   0.37289672465794127   -0.05707116559549702
1.9273790110995248   0.37289672465794127   -0.05707116559549702
-0.5973929534028621   0.03504295745152075   0.0189933601749004
-0.5973929534028621   0.03504295745152075   0.0189933601749004
-0.5973929534028621   0.03504295745152075   0.0189933601749004
-0.5973929534028621   0.03504295745152075   0.0189933601749004
-0.8149884910226787   -0.30930939512315103   -0.17623495157504643
-0.8149884910226787   -0.30930939512315103   -0.17623495157504643
-0.8149884910226787   -0.30930939512315103   -0.17623495157504643
-0.8149884910226787   -0.30930939512315103   -0.17623495157504643
1.8722730990893468   0.44888970359074376   0.1887536084271934
1.8722730990893468   0.44888970359074376   0.1887536084271934
1.8722730990893468   0.44888970359074376   0.1887536084271934
1.8722730990893468   0.44888970359074376   0.1887536084271934
0.5836749027485149   0.1302813782237741   0.02224162622069257
0.5836749027485149   0.1302813782237741   0.02224162622069257
0.5836749027485149   0.1302813782237741   0.02224162622069257
0.5836749027485149   0.1302813782237741   0.02224162622069257
1.7865175751001423   0.24000995569233424   -0.031144263620441412
1.7865175751001423   0.24000995569233424   -0.031144263620441412
1.7865175751001423   0.24000995569233424   -0.031144263620441412
1.7865175751001423   0.24000995569233424   -0.031144263620441412
-0.73045469966401   -0.10165137985527833   0.03877598995043957
-0.73045469966401   -0.10165137985527833   0.03877598995043957
-0.73045469966401   -0.10165137985527833   0.03877598995043957
-0.73045469966401   -0.10165137985527833   0.03877598995043957
-0.9413845215884385   -0.4147566359479221   -0.1423208860594941
-0.9413845215884385   -0.4147566359479221   -0.1423208860594941
-0.9413845215884385   -0.4147566359479221   -0.1423208860594941
-0.9413845215884385   -0.4147566359479221   -0.1423208860594941
1.7173372024252005   0.3275692564464116   0.20519973073451542
1.7173372024252005   0.3275692564464116   0.20519973073451542
1.7173372024252005   0.3275692564464116   0.20519973073451542
1.7173372024252005   0.3275692564464116   0.20519973073451542
0.42814544792539677   0.01151800133466907   -0.03481605885671921
0.42814544792539677   0.01151800133466907   -0.03481605885671921
0.42814544792539677   0.01151800133466907   -0.03481605885671921
0.42814544792539677   0.01151800133466907   -0.03481605885671921
1.6342911054632587   0.12695863929050255   -0.009420136919313898
1.6342911054632587   0.12695863929050255   -0.009420136919313898
1.6342911054632587   0.12695863929050255   -0.009420136919313898
1.6342911054632587   0.12695863929050255   -0.009420136919313898
-0.8614835582510535   -0.21729115241653119   0.05971844709605542
-0.8614835582510535   -0.21729115241653119   0.05971844709605542
-0.8614835582510535   -0.21729115241653119   0.05971844709605542
-0.8614835582510535   -0.21729115241653119   0.05971844709605542
-1.0661471685498576   -0.5143680804631259   -0.11097381553950113
-1.0661471685498576   -0.5143680804631259   -0.11097381553950113
-1.0661471685498576   -0.5143680804631259   -0.11097381553950113
-1.0661471685498576   -0.5143680804631259   -0.11097381553950113
1.5775170226450712   0.21052973255433538   0.22308285996029023
1.5775170226450712   0.21052973255433538   0.22308285996029023
1.5775170226450712   0.21052973255433538   0.22308285996029023
1.5775170226450712   0.21052973255433538   0.22308285996029023
0.3027498981510886   -0.08761340871708108   -0.08538269134616329
0.3027498981510886   -0.08761340871708108   -0.08538269134616329
0.3027498981510886   -0.08761340871708108   -0.08538269134616329
0.3027498981510886   -0.08761340871708108   -0.08538269134616329
-0.5042596695185315   0.47660837108137144   0.043094365966687476
-0.5042596695185315   0.47660837108137144   0.043094365966687476
-0.5042596695185315   0.47660837108137144   0.043094365966687476
-0.5042596695185315   0.47660837108137144   0.043094365966687476
-3.074244130172737   -0.07474419190394066   -0.09316519438587659
-3.074244130172737   -0.07474419190394066   -0.09316519438587659
-3.074244130172737   -0.07474419190394066   -0.09316519438587659
-3.074244130172737   -0.07474419190394066   -0.09316519438587659
-3.1987484507867356   -0.18152009698363158   -0.06841647549988214
-3.1987484507867356   -0.18152009698363158   -0.06841647549988214
-3.1987484507867356   -0.18152009698363158   -0.06841647549988214
-3.1987484507867356   -0.18152009698363158   -0.06841647549988214
-0.6348020775820437   0.3424039805468483   0.0729837399581296
-0.6348020775820437   0.3424039805468483   0.0729837399581296
-0.6348020775820437   0.3424039805468483   0.0729837399581296
-0.6348020775820437   0.3424039805468483   0.0729837399581296
-1.8485421913563775   0.13862667969448256   0.0363079517540984
-1.8485421913563775   0.13862667969448256   0.0363079517540984
-1.8485421913563775   0.13862667969448256   0.0363079517540984
-1.8485421913563775   0.13862667969448256   0.0363079517540984
-0.6307495147251909   0.3607442435720852   0.07490629121715686
-0.6307495147251909   0.3607442435720852   0.07490629121715686
-0.6307495147251909   0.3607442435720852   0.07490629121715686
-0.6307495147251909   0.3607442435720852   0.07490629121715686
-3.203102272030743   -0.2001616183960231   -0.07154406030752772
-3.203102272030743   -0.2001616183960231   -0.07154406030752772
-3.203102272030743   -0.2001616183960231   -0.07154406030752772
-3.203102272030743   -0.2001616183960231   -0.07154406030752772
-3.3264151518831313   -0.2964067284911329   -0.038147686923774876
-3.3264151518831313   -0.2964067284911329   -0.038147686923774876
-3.3264151518831313   -0.2964067284911329   -0.038147686923774876
-3.3264151518831313   -0.2964067284911329   -0.038147686923774876
-0.7674165218812469   0.21754047920874647   0.09522199731979564
-0.7674165218812469   0.21754047920874647   0.09522199731979564
-0.7674165218812469   0.21754047920874647   0.09522199731979564
-0.7674165218812469   0.21754047920874647   0.09522199731979564
-1.9798174697277902   0.0269348134864561   -0.012827742258668395
-1.9798174697277902   0.0269348134864561   -0.012827742258668395
-1.9798174697277902   0.0269348134864561   -0.012827742258668395
-1.9798174697277902   0.0269348134864561   -0.012827742258668395
-0.7606224986706878   0.24477321504364863   0.10195937753768927
-0.7606224986706878   0.24477321504364863   0.10195937753768927
-0.7606224986706878   0.24477321504364863   0.10195937753768927
-0.7606224986706878   0.24477321504364863   0.10195937753768927
-3.335171514350762   -0.32560180358306573   -0.052734424169995534
-3.335171514350762   -0.32560180358306573   -0.052734424169995534
-3.335171514350762   -0.32560180358306573   -0.052734424169995534
-3.335171514350762   -0.32560180358306573   -0.052734424169995534
-3.451998145202378   -0.4062088861468235   -0.008769289378190687
-3.451998145202378   -0.4062088861468235   -0.008769289378190687
-3.451998145202378   -0.4062088861468235   -0.008769289378190687
-3.451998145202378   -0.4062088861468235   -0.008769289378190687
-0.8988526343323077   0.09618992726833014   0.11494084781677685
-0.8988526343323077   0.09618992726833014   0.11494084781677685
-0.8988526343323077   0.09618992726833014   0.11494084781677685
-0.8988526343323077   0.09618992726833014   0.11494084781677685
-2.1164415129498617   -0.08490565487953655   -0.0660528552390345
-2.1164415129498617   -0.08490565487953655   -0.0660528552390345
-2.1164415129498617   -0.08490565487953655   -0.0660528552390345
-2.1164415129498617   -0.08490565487953655   -0.0660528552390345
-2.8994861963677234   0.5651169066288368   0.14076337610641093
-2.8994861963677234   0.5651169066288368   0.14076337610641093
-2.8994861963677234   0.5651169066288368   0.14076337610641093
-2.8994861963677234   0.5651169066288368   0.14076337610641093
-5.504751503985426   -0.18363624339928886   -0.19045393877955746
-5.504751503985426   -0.18363624339928886   -0.19045393877955746
-5.504751503985426   -0.18363624339928886   -0.19045393877955746
-5.504751503985426   -0.18363624339928886   -0.19045393877955746
-5.5517224897264805   -0.07715827756589455   0.0473363546955643
-5.5517224897264805   -0.07715827756589455   0.0473363546955643
-5.5517224897264805   -0.07715827756589455   0.0473363546955643
-5.5517224897264805   -0.07715827756589455   0.0473363546955643
-3.1124493270615097   0.22284703460449917   -0.04128798846194323
-3.1124493270615097   0.22284703460449917   -0.04128798846194323
-3.1124493270615097   0.22284703460449917   -0.04128798846194323
-3.1124493270615097   0.22284703460449917   -0.04128798846194323
-4.242021076240713   0.13315086748138816   0.05289425780092433
-4.242021076240713   0.13315086748138816   0.05289425780092433
-4.242021076240713   0.13315086748138816   0.05289425780092433
-4.242021076240713   0.13315086748138816   0.05289425780092433
-3.0235858073802127   0.4534809307283888   0.17239571382071317
-3.0235858073802127   0.4534809307283888   0.17239571382071317
-3.0235858073802127   0.4534809307283888   0.17239571382071317
-3.0235858073802127   0.4534809307283888   0.17239571382071317
-5.644384151508849   -0.31159031579085605   -0.18153991599137906
-5.644384151508849   -0.31159031579085605   -0.18153991599137906
-5.644384151508849   -0.31159031579085605   -0.18153991599137906
-5.644384151508849   -0.31159031579085605   -0.18153991599137906
-5.702123294932971   -0.19090740717645094   0.06144712875562708
-5.702123294932971   -0.19090740717645094   0.06144712875562708
-5.702123294932971   -0.19090740717645094   0.06144712875562708
-5.702123294932971   -0.19090740717645094   0.06144712875562708
-3.2414609213421652   0.10783350315039042   -0.01761676586053093
-3.2414609213421652   0.10783350315039042   -0.01761676586053093
-3.2414609213421652   0.10783350315039042   -0.01761676586053093
-3.2414609213421652   0.10783350315039042   -0.01761676586053093
-4.3529603523356375   0.03163224106462037   0.003566021516653639
-4.3529603523356375   0.03163224106462037   0.003566021516653639
-4.3529603523356375   0.03163224106462037   0.003566021516653639
-4.3529603523356375   0.03163224106462037   0.003566021516653639
-3.1494214256249737   0.3478553200909936   0.20255889578485353
-3.1494214256249737   0.3478553200909936   0.20255889578485353
-3.1494214256249737   0.3478553200909936   0.20255889578485353
-3.1494214256249737   0.3478553200909936   0.20255889578485353
-5.794449260621381   -0.43121569408827265   -0.15987441277463108
-5.794449260621381   -0.43121569408827265   -0.15987441277463108
-5.794449260621381   -0.43121569408827265   -0.15987441277463108
-5.794449260621381   -0.43121569408827265   -0.15987441277463108
-5.836203854406952   -0.31186588245506797   0.09297956581935862
-5.836203854406952   -0.31186588245506797   0.09297956581935862
-5.836203854406952   -0.31186588245506797   0.09297956581935862
-5.836203854406952   -0.31186588245506797   0.09297956581935862
-3.372695499710589   -0.019455072950625873   0.0009901248845254063
-3.372695499710589   -0.019455072950625873   0.0009901248845254063
-3.372695499710589   -0.019455072950625873   0.0009901248845254063
-3.372695499710589   -0.019455072950625873   0.0009901248845254063
-4.518294293920545   -0.08566592773597959   -0.053476046508637715
-4.518294293920545   -0.08566592773597959   -0.053476046508637715
-4.518294293920545   -0.08566592773597959   -0.053476046508637715
-4.518294293920545   -0.08566592773597959   -0.053476046508637715
-5.280913444412825   0.5234752470105686   0.2216248686735911
-5.280913444412825   0.5234752470105686   0.2216248686735911
-5.280913444412825   0.5234752470105686   0.2216248686735911
-5.280913444412825   0.5234752470105686   0.2216248686735911
-7.784610247630558   -0.3573522239645377   -0.24917186840163408
-7.784610247630558   -0.3573522239645377   -0.24917186840163408
-7.784610247630558   -0.3573522239645377   -0.24917186840163408
-7.784610247630558   -0.3573522239645377   -0.24917186840163408
-7.8613634987180205   -0.001789828715154318   0.21985336199464023
-7.8613634987180205   -0.001789828715154318   0.21985336199464023
-7.8613634987180205   -0.001789828715154318   0.21985336199464023
-7.8613634987180205   -0.001789828715154318   0.21985336199464023
-5.561036979534875   0.0738245110809963   -0.1502188829933917
-5.561036979534875   0.0738245110809963   -0.1502188829933917
-5.561036979534875   0.0738245110809963   -0.1502188829933917
-5.561036979534875   0.0738245110809963   -0.1502188829933917
-6.3310307940760575   0.12279153341730309   0.15939517743866305
-6.3310307940760575   0.12279153341730309   0.15939517743866305
-6.3310307940760575   0.12279153341730309   0.15939517743866305
-6.3310307940760575   0.12279153341730309   0.15939517743866305
-5.39346304244518   0.5000955440397203   0.2613797694964193
-5.39346304244518   0.5000955440397203   0.2613797694964193
-5.39346304244518   0.5000955440397203   0.2613797694964193
-5.39346304244518   0.5000955440397203   0.2613797694964193
-8.032152894395498   -0.43127632026172336   -0.20460712484612154
-8.032152894395498   -0.43127632026172336   -0.20460712484612154
-8.032152894395498   -0.43127632026172336   -0.20460712484612154
-8.032152894395498   -0.43127632026172336   -0.20460712484612154
-8.0735771050622   -0.06425317951033294   0.2771889030721643
-8.0735771050622   -0.06425317951033294   0.2771889030721643
-8.0735771050622   -0.06425317951033294   0.2771889030721643
-8.0735771050622   -0.06425317951033294   0.2771889030721643
-5.699711929086822   0.010736632632189158   -0.12814008182236464
-5.699711929086822   0.010736632632189158   -0.12814008182236464
-5.699711929086822   0.010736632632189158   -0.12814008182236464
-5.699711929086822   0.010736632632189158   -0.12814008182236464
-6.615633940767181   0.05084214281712396   0.08229684452248454
-6.615633940767181   0.05084214281712396   0.08229684452248454
-6.615633940767181   0.05084214281712396   0.08229684452248454
-6.615633940767181   0.05084214281712396   0.08229684452248454
-5.524251939698829   0.45179447708157006   0.30810202066831066
-5.524251939698829   0.45179447708157006   0.30810202066831066
-5.524251939698829   0.45179447708157006   0.30810202066831066
-5.524251939698829   0.45179447708157006   0.30810202066831066
-8.251372149706727   -0.5076460792162345   -0.168393420444579
-8.251372149706727   -0.5076460792162345   -0.168393420444579
-8.251372149706727   -0.5076460792162345   -0.168393420444579
-8.251372149706727   -0.5076460792162345   -0.168393420444579
-8.357484236245798   -0.25875610419697237   0.27850367526369385
-8.357484236245798   -0.25875610419697237   0.27850367526369385
-8.357484236245798   -0.25875610419697237   0.27850367526369385
-8.357484236245798   -0.25875610419697237   0.27850367526369385
-5.844677370535065   -0.1479808344472351   -0.11327306282916166
-5.844677370535065   -0.1479808344472351   -0.11327306282916166
-5.844677370535065   -0.1479808344472351   -0.11327306282916166
-5.844677370535065   -0.1479808344472351   -0.11327306282916166
-6.698372825371518   -0.03084173768666898   0.045209192039128654
-6.698372825371518   -0.03084173768666898   0.045209192039128654
-6.698372825371518   -0.03084173768666898   0.045209192039128654
-6.698372825371518   -0.03084173768666898   0.045209192039128654
2.4370078912836255   0.14442180309632957   -0.30014198924134144
2.4370078912836255   0.14442180309632957   -0.30014198924134144
2.4370078912836255   0.14442180309632957   -0.30014198924134144
2.4370078912836255   0.14442180309632957   -0.30014198924134144
0.6993015090421001   0.18183439255369055   0.14432910391755818
0.6993015090421001   0.18183439255369055   0.14432910391755818
0.6993015090421001   0.18183439255369055   0.14432910391755818
0.6993015090421001   0.18183439255369055   0.14432910391755818
0.41945316124196264   -0.3641829884934307   -0.26442491755911984
0.41945316124196264   -0.3641829884934307   -0.26442491755911984
0.41945316124196264   -0.3641829884934307   -0.26442491755911984
0.41945316124196264   -0.3641829884934307   -0.26442491755911984
2.367715460772101   0.4210982060333267   0.17369086868889008
2.367715460772101   0.4210982060333267   0.17369086868889008
2.367715460772101   0.4210982060333267   0.17369086868889008
2.367715460772101   0.4210982060333267   0.17369086868889008
1.393973588964144   0.07002880614909665   -0.0325416906632932
1.393973588964144   0.07002880614909665   -0.0325416906632932
1.393973588964144   0.07002880614909665   -0.0325416906632932
1.393973588964144   0.07002880614909665   -0.0325416906632932
2.1914193918595526   -0.011869177355162797   -0.2748220924853697
2.1914193918595526   -0.011869177355162797   -0.2748220924853697
2.1914193918595526   -0.011869177355162797   -0.2748220924853697
2.1914193918595526   -0.011869177355162797   -0.2748220924853697
0.5902420897783625   0.06327725451890966   0.1620594821105427
0.5902420897783625   0.06327725451890966   0.1620594821105427
0.5902420897783625   0.06327725451890966   0.1620594821105427
0.5902420897783625   0.06327725451890966   0.1620594821105427
0.31369965550179124   -0.4161753487331229   -0.22427669968607641
0.31369965550179124   -0.4161753487331229   -0.22427669968607641
0.31369965550179124   -0.4161753487331229   -0.22427669968607641
0.31369965550179124   -0.4161753487331229   -0.22427669968607641
2.177648986375354   0.34931160931670835   0.2227024302606086
2.177648986375354   0.34931160931670835   0.2227024302606086
2.177648986375354   0.34931160931670835   0.2227024302606086
2.177648986375354   0.34931160931670835   0.2227024302606086
1.26036293919231   -0.011006423808396226   -0.08538371928622397
1.26036293919231   -0.011006423808396226   -0.08538371928622397
1.26036293919231   -0.011006423808396226   -0.08538371928622397
1.26036293919231   -0.011006423808396226   -0.08538371928622397
2.0024797801498164   -0.07860865181364801   -0.22522333973672737
2.0024797801498164   -0.07860865181364801   -0.22522333973672737
2.0024797801498164   -0.07860865181364801   -0.22522333973672737
2.0024797801498164   -0.07860865181364801   -0.22522333973672737
0.48152903081144544   0.004405081481350714   0.19428974664772886
0.48152903081144544   0.004405081481350714   0.19428974664772886
0.48152903081144544   0.004405081481350714   0.19428974664772886
0.48152903081144544   0.004405081481350714   0.19428974664772886
0.21905237464596397   -0.47971731240632765   -0.18665947863166385
0.21905237464596397   -0.47971731240632765   -0.18665947863166385
0.21905237464596397   -0.47971731240632765   -0.18665947863166385
0.21905237464596397   -0.47971731240632765   -0.18665947863166385
1.942530245804458   0.2339114991665616   0.24690404955245432
1.942530245804458   0.2339114991665616   0.24690404955245432
1.942530245804458   0.2339114991665616   0.24690404955245432
1.942530245804458   0.2339114991665616   0.24690404955245432
1.07785960941453   -0.08352791851905195   -0.1496003798324985
1.07785960941453   -0.08352791851905195   -0.1496003798324985
1.07785960941453   -0.08352791851905195   -0.1496003798324985
1.07785960941453   -0.08352791851905195   -0.1496003798324985
0.6698664341610265   0.2670781561187443   -0.08809003405287051
0.6698664341610265   0.2670781561187443   -0.08809003405287051
0.6698664341610265   0.2670781561187443   -0.08809003405287051
0.6698664341610265   0.2670781561187443   -0.08809003405287051
-1.0139463566868396   0.08843865021422723   0.035668305800008016
-1.0139463566868396   0.08843865021422723   0.035668305800008016
-1.0139463566868396   0.08843865021422723   0.035668305800008016
-1.0139463566868396   0.08843865021422723   0.035668305800008016
-1.194115850865052   -0.23292788567410727   -0.1539453879426632
-1.194115850865052   -0.23292788567410727   -0.1539453879426632
-1.194115850865052   -0.23292788567410727   -0.1539453879426632
-1.194115850865052   -0.23292788567410727   -0.1539453879426632
0.644200226476518   0.331821209355434   0.16330621076479584
0.644200226476518   0.331821209355434   0.16330621076479584
0.644200226476518   0.331821209355434   0.16330621076479584
0.644200226476518   0.331821209355434   0.16330621076479584
-0.22926144456501438   0.10885689738610992   0.027025885869373975
-0.22926144456501438   0.10885689738610992   0.027025885869373975
-0.22926144456501438   0.10885689738610992   0.027025885869373975
-0.22926144456501438   0.10885689738610992   0.027025885869373975
0.5593338252381986   0.13559184160066845   -0.06479642767203514
0.5593338252381986   0.13559184160066845   -0.06479642767203514
0.5593338252381986   0.13559184160066845   -0.06479642767203514
0.5593338252381986   0.13559184160066845   -0.06479642767203514
-1.11390806347862   -0.041357131771269956   0.05552279508665927
-1.11390806347862   -0.041357131771269956   0.05552279508665927
-1.11390806347862   -0.041357131771269956   0.05552279508665927
-1.11390806347862   -0.041357131771269956   0.05552279508665927
-1.2887525570092924   -0.3387492736426577   -0.12030316027609277
-1.2887525570092924   -0.3387492736426577   -0.12030316027609277
-1.2887525570092924   -0.3387492736426577   -0.12030316027609277
-1.2887525570092924   -0.3387492736426577   -0.12030316027609277
0.5200231982941588   0.21317117719393391   0.17799448834871215
0.5200231982941588   0.21317117719393391   0.17799448834871215
0.5200231982941588   0.21317117719393391   0.17799448834871215
0.5200231982941588   0.21317117719393391   0.17799448834871215
-0.3460154058340791   -0.004952298188979548   -0.027472250432828783
-0.3460154058340791   -0.004952298188979548   -0.027472250432828783
-0.3460154058340791   -0.004952298188979548   -0.027472250432828783
-0.3460154058340791   -0.004952298188979548   -0.027472250432828783
0.4376932331881535   0.022086403712143696   -0.04257056369953166
0.4376932331881535   0.022086403712143696   -0.04257056369953166
0.4376932331881535   0.022086403712143696   -0.04257056369953166
0.4376932331881535   0.022086403712143696   -0.04257056369953166
-1.2124471255903029   -0.15368903384783852   0.07616375702406614
-1.2124471255903029   -0.15368903384783852   0.07616375702406614
-1.2124471255903029   -0.15368903384783852   0.07616375702406614
-1.2124471255903029   -0.15368903384783852   0.07616375702406614
-1.3826878885763452   -0.444104853519943   -0.08988515918968529
-1.3826878885763452   -0.444104853519943   -0.08988515918968529
-1.3826878885763452   -0.444104853519943   -0.08988515918968529
-1.3826878885763452   -0.444104853519943   -0.08988515918968529
0.4113072235732127   0.09627757057869564   0.19861988301955666
0.4113072235732127   0.09627757057869564   0.19861988301955666
0.4113072235732127   0.09627757057869564   0.19861988301955666
0.4113072235732127   0.09627757057869564   0.19861988301955666
-0.44738957925172834   -0.10731619287680079   -0.07906402469056666
-0.44738957925172834   -0.10731619287680079   -0.07906402469056666
-0.44738957925172834   -0.10731619287680079   -0.07906402469056666
-0.44738957925172834   -0.10731619287680079   -0.07906402469056666
-0.9624638775516099   0.3687906398629472   0.012728711827436123
-0.9624638775516099   0.3687906398629472   0.012728711827436123
-0.9624638775516099   0.3687906398629472   0.012728711827436123
-0.9624638775516099   0.3687906398629472   0.012728711827436123
-2.7053536595500063   -0.030178955375830485   -0.07384195860122927
-2.7053536595500063   -0.030178955375830485   -0.07384195860122927
-2.7053536595500063   -0.030178955375830485   -0.07384195860122927
-2.7053536595500063   -0.030178955375830485   -0.07384195860122927
-2.790454098210045   -0.1120987932217582   -0.04387810825690178
-2.790454098210045   -0.1120987932217582   -0.04387810825690178
-2.790454098210045   -0.1120987932217582   -0.04387810825690178
-2.790454098210045   -0.1120987932217582   -0.04387810825690178
-1.062711808618608   0.21826621020385442   0.051880727411579744
-1.062711808618608   0.21826621020385442   0.051880727411579744
-1.062711808618608   0.21826621020385442   0.051880727411579744
-1.062711808618608   0.21826621020385442   0.051880727411579744
-1.8758442020274684   0.10896509869036813   0.028170957418210407
-1.8758442020274684   0.10896509869036813   0.028170957418210407
-1.8758442020274684   0.10896509869036813   0.028170957418210407
-1.8758442020274684   0.10896509869036813   0.028170957418210407
-1.0574999807335732   0.25209072277753436   0.04411535426308949
-1.0574999807335732   0.25209072277753436   0.04411535426308949
-1.0574999807335732   0.25209072277753436   0.04411535426308949
-1.0574999807335732   0.25209072277753436   0.04411535426308949
-2.7997320152583365   -0.1499893949586974   -0.05237709176145143
-2.7997320152583365   -0.1499893949586974   -0.05237709176145143
-2.7997320152583365   -0.1499893949586974   -0.05237709176145143
-2.7997320152583365   -0.1499893949586974   -0.05237709176145143
-2.884651374917759   -0.22762000239959507   -0.013345557685645285
-2.884651374917759   -0.22762000239959507   -0.013345557685645285
-2.884651374917759   -0.22762000239959507   -0.013345557685645285
-2.884651374917759   -0.22762000239959507   -0.013345557685645285
-1.162627460926155   0.09793558712127626   0.07363745937566002
-1.162627460926155   0.09793558712127626   0.07363745937566002
-1.162627460926155   0.09793558712127626   0.07363745937566002
-1.162627460926155   0.09793558712127626   0.07363745937566002
-1.9741559373548327   -0.0006738609288774455   -0.020738142064981452
-1.9741559373548327   -0.0006738609288774455   -0.020738142064981452
-1.9741559373548327   -0.0006738609288774455   -0.020738142064981452
-1.9741559373548327   -0.0006738609288774455   -0.020738142064981452
-1.1556431965420932   0.13512468208010198   0.0713696863371741
-1.1556431965420932   0.13512468208010198   0.0713696863371741
-1.1556431965420932   0.13512468208010198   0.0713696863371741
-1.1556431965420932   0.13512468208010198   0.0713696863371741
-2.897421570226643   -0.27059502828323767   -0.03422150834642146
-2.897421570226643   -0.27059502828323767   -0.03422150834642146
-2.897421570226643   -0.27059502828323767   -0.03422150834642146
-2.897421570226643   -0.27059502828323767   -0.03422150834642146
-2.9770908454135765   -0.3392140317129869   0.01615926399146031
-2.9770908454135765   -0.3392140317129869   0.01615926399146031
-2.9770908454135765   -0.3392140317129869   0.01615926399146031
-2.9770908454135765   -0.3392140317129869   0.01615926399146031
-1.2607708787445586   -0.018034813927910398   0.09362985037719983
-1.2607708787445586   -0.018034813927910398   0.09362985037719983
-1.2607708787445586   -0.018034813927910398   0.09362985037719983
-1.2607708787445586   -0.018034813927910398   0.09362985037719983
-2.077553247714584   -0.11060201371920375   -0.07381791035966412
-2.077553247714584   -0.11060201371920375   -0.07381791035966412
-2.077553247714584   -0.11060201371920375   -0.07381791035966412
-2.077553247714584   -0.11060201371920375   -0.07381791035966412
-2.568377942176448   0.46491732608047087   0.1159403468102635
-2.568377942176448   0.46491732608047087   0.1159403468102635
-2.568377942176448   0.46491732608047087   0.1159403468102635
-2.568377942176448   0.46491732608047087   0.1159403468102635
-4.357807057728561   -0.12692486473561415   -0.1693079772289661
-4.357807057728561   -0.12692486473561415   -0.1693079772289661
-4.357807057728561   -0.12692486473561415   -0.1693079772289661
-4.357807057728561   -0.12692486473561415   -0.1693079772289661
-4.366300343718124   -0.005075898587169947   0.07294836223632653
-4.366300343718124   -0.005075898587169947   0.07294836223632653
-4.366300343718124   -0.005075898587169947   0.07294836223632653
-4.366300343718124   -0.005075898587169947   0.07294836223632653
-2.747652318326441   0.111914914350564   -0.053882916411237325
-2.747652318326441   0.111914914350564   -0.053882916411237325
-2.747652318326441   0.111914914350564   -0.053882916411237325
-2.747652318326441   0.111914914350564   -0.053882916411237325
-3.492403522623478   0.11109164292129714   0.037365523854343
-3.492403522623478   0.11109164292129714   0.037365523854343
-3.492403522623478   0.11109164292129714   0.037365523854343
-3.492403522623478   0.11109164292129714   0.037365523854343
-2.659536571158399   0.3511744418611865   0.14743629191838306
-2.659536571158399   0.3511744418611865   0.14743629191838306
-2.659536571158399   0.3511744418611865   0.14743629191838306
-2.659536571158399   0.3511744418611865   0.14743629191838306
-4.462248381853183   -0.2521677170647679   -0.15970000996140044
-4.462248381853183   -0.2521677170647679   -0.15970000996140044
-4.462248381853183   -0.2521677170647679   -0.15970000996140044
-4.462248381853183   -0.2521677170647679   -0.15970000996140044
-4.482209546152561   -0.11890651561663768   0.08943176511472398
-4.482209546152561   -0.11890651561663768   0.08943176511472398
-4.482209546152561   -0.11890651561663768   0.08943176511472398
-4.482209546152561   -0.11890651561663768   0.08943176511472398
-2.842344795623457   0.0012242543574807474   -0.030656917971239928
-2.842344795623457   0.0012242543574807474   -0.030656917971239928
-2.842344795623457   0.0012242543574807474   -0.030656917971239928
-2.842344795623457   0.0012242543574807474   -0.030656917971239928
-3.576189868421277   0.008780191515037172   -0.013952159327123598
-3.576189868421277   0.008780191515037172   -0.013952159327123598
-3.576189868421277   0.008780191515037172   -0.013952159327123598
-3.576189868421277   0.008780191515037172   -0.013952159327123598
-2.7518788254431024   0.24487726079993666   0.17801992648813683
-2.7518788254431024   0.24487726079993666   0.17801992648813683
-2.7518788254431024   0.24487726079993666   0.17801992648813683
-2.7518788254431024   0.24487726079993666   0.17801992648813683
-4.57755064209742   -0.36743464782359836   -0.1387455824026721
-4.57755064209742   -0.36743464782359836   -0.1387455824026721
-4.57755064209742   -0.36743464782359836   -0.1387455824026721
-4.57755064209742   -0.36743464782359836   -0.1387455824026721
-4.582459131435236   -0.23734632697542646   0.12129748648516878
-4.582459131435236   -0.23734632697542646   0.12129748648516878
-4.582459131435236   -0.23734632697542646   0.12129748648516878
-4.582459131435236   -0.23734632697542646   0.12129748648516878
-2.9381919240229797   -0.11691965609965971   -0.011640504668974705
-2.9381919240229797   -0.11691965609965971   -0.011640504668974705
-2.9381919240229797   -0.11691965609965971   -0.011640504668974705
-2.9381919240229797   -0.11691965609965971   -0.011640504668974705
-3.700108217606344   -0.10229983883421745   -0.0697270616100959
-3.700108217606344   -0.10229983883421745   -0.0697270616100959
-3.700108217606344   -0.10229983883421745   -0.0697270616100959
-3.700108217606344   -0.10229983883421745   -0.0697270616100959
-4.166003929834247   0.45729997731375815   0.2054828201932894
-4.166003929834247   0.45729997731375815   0.2054828201932894
-4.166003929834247   0.45729997731375815   0.2054828201932894
-4.166003929834247   0.45729997731375815   0.2054828201932894
-5.85228927262707   -0.2681152925988499   -0.25871861365678356
-5.85228927262707   -0.2681152925988499   -0.25871861365678356
-5.85228927262707   -0.2681152925988499   -0.25871861365678356
-5.85228927262707   -0.2681152925988499   -0.25871861365678356
-5.895822741664709   0.08012744871931998   0.21608156732830708
-5.895822741664709   0.08012744871931998   0.21608156732830708
-5.895822741664709   0.08012744871931998   0.21608156732830708
-5.895822741664709   0.08012744871931998   0.21608156732830708
-4.414619320197229   -0.015364134975758281   -0.15835828377072864
-4.414619320197229   -0.015364134975758281   -0.15835828377072864
-4.414619320197229   -0.015364134975758281   -0.15835828377072864
-4.414619320197229   -0.015364134975758281   -0.15835828377072864
-4.86419583755331   0.11090383029646755   0.11686141292363983
-4.86419583755331   0.11090383029646755   0.11686141292363983
-4.86419583755331   0.11090383029646755   0.11686141292363983
-4.86419583755331   0.11090383029646755   0.11686141292363983
-4.248269079093496   0.41502302093528565   0.24300576583692168
-4.248269079093496   0.41502302093528565   0.24300576583692168
-4.248269079093496   0.41502302093528565   0.24300576583692168
-4.248269079093496   0.41502302093528565   0.24300576583692168
-6.070487993752902   -0.3585747181761789   -0.21854252621715847
-6.070487993752902   -0.3585747181761789   -0.21854252621715847
-6.070487993752902   -0.3585747181761789   -0.21854252621715847
-6.070487993752902   -0.3585747181761789   -0.21854252621715847
-6.076105180632628   0.016309932374229508   0.2761196684336415
-6.076105180632628   0.016309932374229508   0.2761196684336415
-6.076105180632628   0.016309932374229508   0.2761196684336415
-6.076105180632628   0.016309932374229508   0.2761196684336415
-4.51894801583301   -0.07713392129983876   -0.1360331776043831
-4.51894801583301   -0.07713392129983876   -0.1360331776043831
-4.51894801583301   -0.07713392129983876   -0.1360331776043831
-4.51894801583301   -0.07713392129983876   -0.1360331776043831
-5.093658068602491   0.03528616569093601   0.040878414020679654
-5.093658068602491   0.03528616569093601   0.040878414020679654
-5.093658068602491   0.03528616569093601   0.040878414020679654
-5.093658068602491   0.03528616569093601   0.040878414020679654
-4.345470214229808   0.36504781149206433   0.2891740976197508
-4.345470214229808   0.36504781149206433   0.2891740976197508
-4.345470214229808   0.36504781149206433   0.2891740976197508
-4.345470214229808   0.36504781149206433   0.2891740976197508
-6.25749255270836   -0.4337813708901581   -0.1807258886806305
-6.25749255270836   -0.4337813708901581   -0.1807258886806305
-6.25749255270836   -0.4337813708901581   -0.1807258886806305
-6.25749255270836   -0.4337813708901581   -0.1807258886806305
-6.325616905222677   -0.164434124958156   0.2854000193038468
-6.325616905222677   -0.164434124958156   0.2854000193038468
-6.325616905222677   -0.164434124958156   0.2854000193038468
-6.325616905222677   -0.164434124958156   0.2854000193038468
-4.626535657315306   -0.21781317834095193   -0.11861829154972
-4.626535657315306   -0.21781317834095193   -0.11861829154972
-4.626535657315306   -0.21781317834095193   -0.11861829154972
-4.626535657315306   -0.21781317834095193   -0.11861829154972
-5.169906426446731   -0.044833529385520654   -0.004632423414029141
-5.169906426446731   -0.044833529385520654   -0.004632423414029141
-5.169906426446731   -0.044833529385520654   -0.004632423414029141
-5.169906426446731   -0.044833529385520654   -0.004632423414029141
0.39636179022740564   0.03272992362697614   -0.29825352190131943
0.39636179022740564   0.03272992362697614   -0.29825352190131943
0.39636179022740564   0.03272992362697614   -0.29825352190131943
0.39636179022740564   0.03272992362697614   -0.29825352190131943
-0.5109578688295598   0.22466575726633928   0.1531531703685893
-0.5109578688295598   0.22466575726633928   0.1531531703685893
-0.5109578688295598   0.22466575726633928   0.1531531703685893
-0.5109578688295598   0.22466575726633928   0.1531531703685893
-0.7539538832215734   -0.2859495907420499   -0.23987877119431922
-0.7539538832215734   -0.2859495907420499   -0.23987877119431922
-0.7539538832215734   -0.2859495907420499   -0.23987877119431922
-0.7539538832215734   -0.2859495907420499   -0.23987877119431922
0.35953676089283115   0.31230082949719845   0.1883935887959247
0.35953676089283115   0.31230082949719845   0.1883935887959247
0.35953676089283115   0.31230082949719845   0.1883935887959247
0.35953676089283115   0.31230082949719845   0.1883935887959247
-0.1356717381804645   0.06847324667187371   0.02615762440972716
-0.1356717381804645   0.06847324667187371   0.02615762440972716
-0.1356717381804645   0.06847324667187371   0.02615762440972716
-0.1356717381804645   0.06847324667187371   0.02615762440972716
0.18547743338893072   -0.10334001418863423   -0.26626220503774495
0.18547743338893072   -0.10334001418863423   -0.26626220503774495
0.18547743338893072   -0.10334001418863423   -0.26626220503774495
0.18547743338893072   -0.10334001418863423   -0.26626220503774495
-0.5902663439507142   0.11931946471074152   0.17328986970718532
-0.5902663439507142   0.11931946471074152   0.17328986970718532
-0.5902663439507142   0.11931946471074152   0.17328986970718532
-0.5902663439507142   0.11931946471074152   0.17328986970718532
-0.8338246134929   -0.33813068604016816   -0.20303544665552
-0.8338246134929   -0.33813068604016816   -0.20303544665552
-0.8338246134929   -0.33813068604016816   -0.20303544665552
-0.8338246134929   -0.33813068604016816   -0.20303544665552
0.1946305094507808   0.2412921974321584   0.2580110459870385
0.1946305094507808   0.2412921974321584   0.2580110459870385
0.1946305094507808   0.2412921974321584   0.2580110459870385
0.1946305094507808   0.2412921974321584   0.2580110459870385
-0.2664563314007373   -0.009656047576567434   -0.03429437190348993
-0.2664563314007373   -0.009656047576567434   -0.03429437190348993
-0.2664563314007373   -0.009656047576567434   -0.03429437190348993
-0.2664563314007373   -0.009656047576567434   -0.03429437190348993
0.016649019337647543   -0.1712914263102071   -0.21931278083626224
0.016649019337647543   -0.1712914263102071   -0.21931278083626224
0.016649019337647543   -0.1712914263102071   -0.21931278083626224
0.016649019337647543   -0.1712914263102071   -0.21931278083626224
-0.670197529745927   0.06009853133603643   0.21687075470313644
-0.670197529745927   0.06009853133603643   0.21687075470313644
-0.670197529745927   0.06009853133603643   0.21687075470313644
-0.670197529745927   0.06009853133603643   0.21687075470313644
-0.9070026818685448   -0.41899522782863097   -0.16809665775026017
-0.9070026818685448   -0.41899522782863097   -0.16809665775026017
-0.9070026818685448   -0.41899522782863097   -0.16809665775026017
-0.9070026818685448   -0.41899522782863097   -0.16809665775026017
-0.03436464059126745   0.09200638654858426   0.2938092905773379
-0.03436464059126745   0.09200638654858426   0.2938092905773379
-0.03436464059126745   0.09200638654858426   0.2938092905773379
-0.03436464059126745   0.09200638654858426   0.2938092905773379
-0.40546489032702215   -0.08859906528875308   -0.10372261869027381
-0.40546489032702215   -0.08859906528875308   -0.10372261869027381
-0.40546489032702215   -0.08859906528875308   -0.10372261869027381
-0.40546489032702215   -0.08859906528875308   -0.10372261869027381
-0.581636231510051   0.143877030780065   -0.11944991654759174
-0.581636231510051   0.143877030780065   -0.11944991654759174
-0.581636231510051   0.143877030780065   -0.11944991654759174
-0.581636231510051   0.143877030780065   -0.11944991654759174
-1.4344996592201735   0.060203962491715834   0.040292522524027055
-1.4344996592201735   0.060203962491715834   0.040292522524027055
-1.4344996592201735   0.060203962491715834   0.040292522524027055
-1.4344996592201735   0.060203962491715834   0.040292522524027055
-1.5594907347951428   -0.16646238023417256   -0.12442077591133102
-1.5594907347951428   -0.16646238023417256   -0.12442077591133102
-1.5594907347951428   -0.16646238023417256   -0.12442077591133102
-1.5594907347951428   -0.16646238023417256   -0.12442077591133102
-0.5973282112115388   0.13862837306239872   0.11867162505140541
-0.5973282112115388   0.13862837306239872   0.11867162505140541
-0.5973282112115388   0.13862837306239872   0.11867162505140541
-0.5973282112115388   0.13862837306239872   0.11867162505140541
-1.0409693422738309   0.04123116079118627   0.021719015133641273
-1.0409693422738309   0.04123116079118627   0.021719015133641273
-1.0409693422738309   0.04123116079118627   0.021719015133641273
-1.0409693422738309   0.04123116079118627   0.021719015133641273
-0.6648548078274961   0.017735302790356122   -0.09806828775633436
-0.6648548078274961   0.017735302790356122   -0.09806828775633436
-0.6648548078274961   0.017735302790356122   -0.09806828775633436
-0.6648548078274961   0.017735302790356122   -0.09806828775633436
-1.5004219238179286   -0.05402709560087493   0.05848799434142704
-1.5004219238179286   -0.05402709560087493   0.05848799434142704
-1.5004219238179286   -0.05402709560087493   0.05848799434142704
-1.5004219238179286   -0.05402709560087493   0.05848799434142704
-1.6215859348302808   -0.26906022673596997   -0.0915533981766129
-1.6215859348302808   -0.26906022673596997   -0.0915533981766129
-1.6215859348302808   -0.26906022673596997   -0.0915533981766129
-1.6215859348302808   -0.26906022673596997   -0.0915533981766129
-0.693775596512781   0.025295688293566043   0.13378326391133688
-0.693775596512781   0.025295688293566043   0.13378326391133688
-0.693775596512781   0.025295688293566043   0.13378326391133688
-0.693775596512781   0.025295688293566043   0.13378326391133688
-1.119432454983371   -0.06151268028086046   -0.029746389772417357
-1.119432454983371   -0.06151268028086046   -0.029746389772417357
-1.119432454983371   -0.06151268028086046   -0.029746389772417357
-1.119432454983371   -0.06151268028086046   -0.029746389772417357
-0.7588041621556985   -0.09283830647309677   -0.07322556953658406
-0.7588041621556985   -0.09283830647309677   -0.07322556953658406
-0.7588041621556985   -0.09283830647309677   -0.07322556953658406
-0.7588041621556985   -0.09283830647309677   -0.07322556953658406
-1.5656239265084875   -0.1599927892904715   0.07918920598685568
-1.5656239265084875   -0.1599927892904715   0.07918920598685568
-1.5656239265084875   -0.1599927892904715   0.07918920598685568
-1.5656239265084875   -0.1599927892904715   0.07918920598685568
-1.6840910106370337   -0.37501197449005885   -0.06242960811372407
-1.6840910106370337   -0.37501197449005885   -0.06242960811372407
-1.6840910106370337   -0.37501197449005885   -0.06242960811372407
-1.6840910106370337   -0.37501197449005885   -0.06242960811372407
-0.774380361896076   -0.08999563976870507   0.16601535405215834
-0.774380361896076   -0.08999563976870507   0.16601535405215834
-0.774380361896076   -0.08999563976870507   0.16601535405215834
-0.774380361896076   -0.08999563976870507   0.16601535405215834
-1.1980622561442165   -0.16358718804854105   -0.08220705473611932
-1.1980622561442165   -0.16358718804854105   -0.08220705473611932
-1.1980622561442165   -0.16358718804854105   -0.08220705473611932
-1.1980622561442165   -0.16358718804854105   -0.08220705473611932
-1.4088793915400915   0.2413365455246883   -0.012738722108550149
-1.4088793915400915   0.2413365455246883   -0.012738722108550149
-1.4088793915400915   0.2413365455246883   -0.012738722108550149
-1.4088793915400915   0.2413365455246883   -0.012738722108550149
-2.3512333479058625   -0.07969786905776927   -0.06592650711343416
-2.3512333479058625   -0.07969786905776927   -0.06592650711343416
-2.3512333479058625   -0.07969786905776927   -0.06592650711343416
-2.3512333479058625   -0.07969786905776927   -0.06592650711343416
-2.3756229447947086   -0.057358507738159314   -0.013331726122633891
-2.3756229447947086   -0.057358507738159314   -0.013331726122633891
-2.3756229447947086   -0.057358507738159314   -0.013331726122633891
-2.3756229447947086   -0.057358507738159314   -0.013331726122633891
-1.495478944036316   0.010933270488465818   0.01824252716014854
-1.495478944036316   0.010933270488465818   0.01824252716014854
-1.495478944036316   0.010933270488465818   0.01824252716014854
-1.495478944036316   0.010933270488465818   0.01824252716014854
-1.9038729944425676   0.02703278500174383   0.006942262405289404
-1.9038729944425676   0.02703278500174383   0.006942262405289404
-1.9038729944425676   0.02703278500174383   0.006942262405289404
-1.9038729944425676   0.02703278500174383   0.006942262405289404
-1.4717355982450586   0.1297198434310649   0.018172683173837023
-1.4717355982450586   0.1297198434310649   0.018172683173837023
-1.4717355982450586   0.1297198434310649   0.018172683173837023
-1.4717355982450586   0.1297198434310649   0.018172683173837023
-2.407481865013765   -0.18426065510855716   -0.04572417984751784
-2.407481865013765   -0.18426065510855716   -0.04572417984751784
-2.407481865013765   -0.18426065510855716   -0.04572417984751784
-2.407481865013765   -0.18426065510855716   -0.04572417984751784
-2.433796093759679   -0.16756670522354777   0.01729463048530991
-2.433796093759679   -0.16756670522354777   0.01729463048530991
-2.433796093759679   -0.16756670522354777   0.01729463048530991
-2.433796093759679   -0.16756670522354777   0.01729463048530991
-1.5614097646222178   -0.09735718264417709   0.03762440877190873
-1.5614097646222178   -0.09735718264417709   0.03762440877190873
-1.5614097646222178   -0.09735718264417709   0.03762440877190873
-1.5614097646222178   -0.09735718264417709   0.03762440877190873
-1.967007301139241   -0.07319345534659655   -0.04033788097374974
-1.967007301139241   -0.07319345534659655   -0.04033788097374974
-1.967007301139241   -0.07319345534659655   -0.04033788097374974
-1.967007301139241   -0.07319345534659655   -0.04033788097374974
-1.536868961957788   0.01746170244145412   0.045509537008427664
-1.536868961957788   0.01746170244145412   0.045509537008427664
-1.536868961957788   0.01746170244145412   0.045509537008427664
-1.536868961957788   0.01746170244145412   0.045509537008427664
-2.4681133612126818   -0.2921620550977514   -0.02969635690549874
-2.4681133612126818   -0.2921620550977514   -0.02969635690549874
-2.4681133612126818   -0.2921620550977514   -0.02969635690549874
-2.4681133612126818   -0.2921620550977514   -0.02969635690549874
-2.490475874799972   -0.27337964159929246   0.04661070807570332
-2.490475874799972   -0.27337964159929246   0.04661070807570332
-2.490475874799972   -0.27337964159929246   0.04661070807570332
-2.490475874799972   -0.27337964159929246   0.04661070807570332
-1.6246395433087957   -0.19964073870624752   0.05945649274363881
-1.6246395433087957   -0.19964073870624752   0.05945649274363881
-1.6246395433087957   -0.19964073870624752   0.05945649274363881
-1.6246395433087957   -0.19964073870624752   0.05945649274363881
-2.034946795665948   -0.17409172157230252   -0.09170306974366298
-2.034946795665948   -0.17409172157230252   -0.09170306974366298
-2.034946795665948   -0.17409172157230252   -0.09170306974366298
-2.034946795665948   -0.17409172157230252   -0.09170306974366298
-2.2324086622351818   0.35143018353779665   0.09706886864446412
-2.2324086622351818   0.35143018353779665   0.09706886864446412
-2.2324086622351818   0.35143018353779665   0.09706886864446412
-2.2324086622351818   0.35143018353779665   0.09706886864446412
-3.230191732469337   -0.1317241397932324   -0.1482407723622949
-3.230191732469337   -0.1317241397932324   -0.1482407723622949
-3.230191732469337   -0.1317241397932324   -0.1482407723622949
-3.230191732469337   -0.1317241397932324   -0.1482407723622949
-3.1860496232819475   0.05531013871167301   0.10149051034981382
-3.1860496232819475   0.05531013871167301   0.10149051034981382
-3.1860496232819475   0.05531013871167301   0.10149051034981382
-3.1860496232819475   0.05531013871167301   0.10149051034981382
-2.3844953349615516   -0.04867737831832453   -0.06637480637668303
-2.3844953349615516   -0.04867737831832453   -0.06637480637668303
-2.3844953349615516   -0.04867737831832453   -0.06637480637668303
-2.3844953349615516   -0.04867737831832453   -0.06637480637668303
-2.748993801979138   0.05707080514813878   0.012682511138991825
-2.748993801979138   0.05707080514813878   0.012682511138991825
-2.748993801979138   0.05707080514813878   0.012682511138991825
-2.748993801979138   0.05707080514813878   0.012682511138991825
-2.287819566808374   0.24026948262550119   0.1280571734453808
-2.287819566808374   0.24026948262550119   0.1280571734453808
-2.287819566808374   0.24026948262550119   0.1280571734453808
-2.287819566808374   0.24026948262550119   0.1280571734453808
-3.294569160904975   -0.24548049170200237   -0.1403165473516485
-3.294569160904975   -0.24548049170200237   -0.1403165473516485
-3.294569160904975   -0.24548049170200237   -0.1403165473516485
-3.294569160904975   -0.24548049170200237   -0.1403165473516485
-3.2641126309344686   -0.053047700399389996   0.11975114355541816
-3.2641126309344686   -0.053047700399389996   0.11975114355541816
-3.2641126309344686   -0.053047700399389996   0.11975114355541816
-3.2641126309344686   -0.053047700399389996   0.11975114355541816
-2.4421745394298875   -0.14696143281687446   -0.045202870272405826
-2.4421745394298875   -0.14696143281687446   -0.045202870272405826
-2.4421745394298875   -0.14696143281687446   -0.045202870272405826
-2.4421745394298875   -0.14696143281687446   -0.045202870272405826
-2.802082581893283   -0.03954545721166758   -0.0385772823615258
-2.802082581893283   -0.03954545721166758   -0.0385772823615258
-2.802082581893283   -0.03954545721166758   -0.0385772823615258
-2.802082581893283   -0.03954545721166758   -0.0385772823615258
-2.3443778630044796   0.13859403356922517   0.15822504546850535
-2.3443778630044796   0.13859403356922517   0.15822504546850535
-2.3443778630044796   0.13859403356922517   0.15822504546850535
-2.3443778630044796   0.13859403356922517   0.15822504546850535
-3.371261571314712   -0.34795543074035107   -0.12108582800496465
-3.371261571314712   -0.34795543074035107   -0.12108582800496465
-3.371261571314712   -0.34795543074035107   -0.12108582800496465
-3.371261571314712   -0.34795543074035107   -0.12108582800496465
-3.3276002866953833   -0.16200723338729695   0.15232997156499714
-3.3276002866953833   -0.16200723338729695   0.15232997156499714
-3.3276002866953833   -0.16200723338729695   0.15232997156499714
-3.3276002866953833   -0.16200723338729695   0.15232997156499714
-2.5000315858551883   -0.24741658165435043   -0.027130907145319044
-2.5000315858551883   -0.24741658165435043   -0.027130907145319044
-2.5000315858551883   -0.24741658165435043   -0.027130907145319044
-2.5000315858551883   -0.24741658165435043   -0.027130907145319044
-2.8817664671631373   -0.13779086840211574   -0.09099721677235242
-2.8817664671631373   -0.13779086840211574   -0.09099721677235242
-2.8817664671631373   -0.13779086840211574   -0.09099721677235242
-2.8817664671631373   -0.13779086840211574   -0.09099721677235242
-3.059741752286427   0.38049577662703293   0.19178921213198824
-3.059741752286427   0.38049577662703293   0.19178921213198824
-3.059741752286427   0.38049577662703293   0.19178921213198824
-3.059741752286427   0.38049577662703293   0.19178921213198824
-3.92346386080341   -0.19510422719550446   -0.24940672849087817
-3.92346386080341   -0.19510422719550446   -0.24940672849087817
-3.92346386080341   -0.19510422719550446   -0.24940672849087817
-3.92346386080341   -0.19510422719550446   -0.24940672849087817
-3.92608943015739   0.15629414839347855   0.21140324303561658
-3.92608943015739   0.15629414839347855   0.21140324303561658
-3.92608943015739   0.15629414839347855   0.21140324303561658
-3.92608943015739   0.15629414839347855   0.21140324303561658
-3.2706273948444293   -0.1134209432268789   -0.15266726552404258
-3.2706273948444293   -0.1134209432268789   -0.15266726552404258
-3.2706273948444293   -0.1134209432268789   -0.15266726552404258
-3.2706273948444293   -0.1134209432268789   -0.15266726552404258
-3.402037934146094   0.09143464115310962   0.06469594574694526
-3.402037934146094   0.09143464115310962   0.06469594574694526
-3.402037934146094   0.09143464115310962   0.06469594574694526
-3.402037934146094   0.09143464115310962   0.06469594574694526
-3.107562337982502   0.32297194444424004   0.2262651311145359
-3.107562337982502   0.32297194444424004   0.2262651311145359
-3.107562337982502   0.32297194444424004   0.2262651311145359
-3.107562337982502   0.32297194444424004   0.2262651311145359
-4.101413650821194   -0.2923579030794863   -0.21656580881031512
-4.101413650821194   -0.2923579030794863   -0.21656580881031512
-4.101413650821194   -0.2923579030794863   -0.21656580881031512
-4.101413650821194   -0.2923579030794863   -0.21656580881031512
-4.06812331779863   0.09475700453093738   0.27259675351511764
-4.06812331779863   0.09475700453093738   0.27259675351511764
-4.06812331779863   0.09475700453093738   0.27259675351511764
-4.06812331779863   0.09475700453093738   0.27259675351511764
-3.3382154774567194   -0.1698842309447417   -0.13392655851054597
-3.3382154774567194   -0.1698842309447417   -0.13392655851054597
-3.3382154774567194   -0.1698842309447417   -0.13392655851054597
-3.3382154774567194   -0.1698842309447417   -0.13392655851054597
-3.570624866296856   0.016472632446767665   -0.006080337267781483
-3.570624866296856   0.016472632446767665   -0.006080337267781483
-3.570624866296856   0.016472632446767665   -0.006080337267781483
-3.570624866296856   0.016472632446767665   -0.006080337267781483
-3.1682498570259647   0.2745131737684531   0.27150413893003084
-3.1682498570259647   0.2745131737684531   0.27150413893003084
-3.1682498570259647   0.2745131737684531   0.27150413893003084
-3.1682498570259647   0.2745131737684531   0.27150413893003084
-4.250638650860215   -0.362190112813068   -0.18303279444868198
-4.250638650860215   -0.362190112813068   -0.18303279444868198
-4.250638650860215   -0.362190112813068   -0.18303279444868198
-4.250638650860215   -0.362190112813068   -0.18303279444868198
-4.278582702241223   -0.06680881031044372   0.28845059352873803
-4.278582702241223   -0.06680881031044372   0.28845059352873803
-4.278582702241223   -0.06680881031044372   0.28845059352873803
-4.278582702241223   -0.06680881031044372   0.28845059352873803
-3.4060449815819807   -0.2862077602874491   -0.11569297596783792
-3.4060449815819807   -0.2862077602874491   -0.11569297596783792
-3.4060449815819807   -0.2862077602874491   -0.11569297596783792
-3.4060449815819807   -0.2862077602874491   -0.11569297596783792
-3.6360993450305514   -0.057551264734463814   -0.05656949518621415
-3.6360993450305514   -0.057551264734463814   -0.05656949518621415
-3.6360993450305514   -0.057551264734463814   -0.05656949518621415
-3.6360993450305514   -0.057551264734463814   -0.05656949518621415
-1.7346230059105698   -0.11383084407960375   -0.315664699280116
-1.7346230059105698   -0.11383084407960375   -0.315664699280116
-1.7346230059105698   -0.11383084407960375   -0.315664699280116
-1.7346230059105698   -0.11383084407960375   -0.315664699280116
-1.69140255676102   0.24343879129226476   0.142420829454595
-1.69140255676102   0.24343879129226476   0.142420829454595
-1.69140255676102   0.24343879129226476   0.142420829454595
-1.69140255676102   0.24343879129226476   0.142420829454595
-1.8989386865622564   -0.2197377152908829   -0.21332368768939444
-1.8989386865622564   -0.2197377152908829   -0.21332368768939444
-1.8989386865622564   -0.2197377152908829   -0.21332368768939444
-1.8989386865622564   -0.2197377152908829   -0.21332368768939444
-1.7686799072111072   0.12276475178896123   0.21512848954914388
-1.7686799072111072   0.12276475178896123   0.21512848954914388
-1.7686799072111072   0.12276475178896123   0.21512848954914388
-1.7686799072111072   0.12276475178896123   0.21512848954914388
-1.6845156152468947   0.0399554139166341   0.1452723870390334
-1.6845156152468947   0.0399554139166341   0.1452723870390334
-1.6845156152468947   0.0399554139166341   0.1452723870390334
-1.6845156152468947   0.0399554139166341   0.1452723870390334
-1.9365258215958387   -0.23738139239735814   -0.2639549381881884
-1.9365258215958387   -0.23738139239735814   -0.2639549381881884
-1.9365258215958387   -0.23738139239735814   -0.2639549381881884
-1.9365258215958387   -0.23738139239735814   -0.2639549381881884
-1.7522179815485577   0.11928321952440496   0.1812589025638125
-1.7522179815485577   0.11928321952440496   0.1812589025638125
-1.7522179815485577   0.11928321952440496   0.1812589025638125
-1.7522179815485577   0.11928321952440496   0.1812589025638125
-1.9606865111632725   -0.27740107002453634   -0.18013827068238192
-1.9606865111632725   -0.27740107002453634   -0.18013827068238192
-1.9606865111632725   -0.27740107002453634   -0.18013827068238192
-1.9606865111632725   -0.27740107002453634   -0.18013827068238192
-1.9297203446932796   0.043983803437943836   0.39868106213146304
-1.9297203446932796   0.043983803437943836   0.39868106213146304
-1.9297203446932796   0.043983803437943836   0.39868106213146304
-1.9297203446932796   0.043983803437943836   0.39868106213146304
-1.8337061740250193   -0.05922527262543764   0.057572761107138576
-1.8337061740250193   -0.05922527262543764   0.057572761107138576
-1.8337061740250193   -0.05922527262543764   0.057572761107138576
-1.8337061740250193   -0.05922527262543764   0.057572761107138576
-2.122213456527276   -0.31469911973414233   -0.20510157386640854
-2.122213456527276   -0.31469911973414233   -0.20510157386640854
-2.122213456527276   -0.31469911973414233   -0.20510157386640854
-2.122213456527276   -0.31469911973414233   -0.20510157386640854
-1.817795616811302   0.031679635665527894   0.22523549538740603
-1.817795616811302   0.031679635665527894   0.22523549538740603
-1.817795616811302   0.031679635665527894   0.22523549538740603
-1.817795616811302   0.031679635665527894   0.22523549538740603
-2.011091682935025   -0.390381704662539   -0.14140412313439824
-2.011091682935025   -0.390381704662539   -0.14140412313439824
-2.011091682935025   -0.390381704662539   -0.14140412313439824
-2.011091682935025   -0.390381704662539   -0.14140412313439824
-2.180379525549806   -0.21633755254056525   0.37331370862146424
-2.180379525549806   -0.21633755254056525   0.37331370862146424
-2.180379525549806   -0.21633755254056525   0.37331370862146424
-2.180379525549806   -0.21633755254056525   0.37331370862146424
-1.961405808411667   -0.17662374263171143   -0.08073085123908372
-1.961405808411667   -0.17662374263171143   -0.08073085123908372
-1.961405808411667   -0.17662374263171143   -0.08073085123908372
-1.961405808411667   -0.17662374263171143   -0.08073085123908372
-1.8124558169803826   -0.056105924695937615   -0.16330075565403107
-1.8124558169803826   -0.056105924695937615   -0.16330075565403107
-1.8124558169803826   -0.056105924695937615   -0.16330075565403107
-1.8124558169803826   -0.056105924695937615   -0.16330075565403107
-1.818009489697167   -0.22259734420379754   -0.009378019835440864
-1.818009489697167   -0.22259734420379754   -0.009378019835440864
-1.818009489697167   -0.22259734420379754   -0.009378019835440864
-1.818009489697167   -0.22259734420379754   -0.009378019835440864
-1.8298110443859037   -0.14767148748356584   -0.08034484450417528
-1.8298110443859037   -0.14767148748356584   -0.08034484450417528
-1.8298110443859037   -0.14767148748356584   -0.08034484450417528
-1.8298110443859037   -0.14767148748356584   -0.08034484450417528
-1.8744072905414728   -0.3062804560970085   -0.00412396677935023
-1.8744072905414728   -0.3062804560970085   -0.00412396677935023
-1.8744072905414728   -0.3062804560970085   -0.00412396677935023
-1.8744072905414728   -0.3062804560970085   -0.00412396677935023
-1.818013079285737   -0.19107838980230404   -0.00770238972957573
-1.818013079285737   -0.19107838980230404   -0.00770238972957573
-1.818013079285737   -0.19107838980230404   -0.00770238972957573
-1.818013079285737   -0.19107838980230404   -0.00770238972957573
-1.8742963022264423   -0.16872455534258823   -0.1411249259586259
-1.8742963022264423   -0.16872455534258823   -0.1411249259586259
-1.8742963022264423   -0.16872455534258823   -0.1411249259586259
-1.8742963022264423   -0.16872455534258823   -0.1411249259586259
-1.8415884806719358   -0.2968938362090148   0.009990322791081196
-1.8415884806719358   -0.2968938362090148   0.009990322791081196
-1.8415884806719358   -0.2968938362090148   0.009990322791081196
-1.8415884806719358   -0.2968938362090148   0.009990322791081196
-1.859250031801044   -0.24484405538888904   -0.05144101921279812
-1.859250031801044   -0.24484405538888904   -0.05144101921279812
-1.859250031801044   -0.24484405538888904   -0.05144101921279812
-1.859250031801044   -0.24484405538888904   -0.05144101921279812
-1.9404034252693918   -0.3965742342935658   0.04045032305605153
-1.9404034252693918   -0.3965742342935658   0.04045032305605153
-1.9404034252693918   -0.3965742342935658   0.04045032305605153
-1.9404034252693918   -0.3965742342935658   0.04045032305605153
-1.8582400398494163   -0.26935871111341103   -0.052403452452340314
-1.8582400398494163   -0.26935871111341103   -0.052403452452340314
-1.8582400398494163   -0.26935871111341103   -0.052403452452340314
-1.8582400398494163   -0.26935871111341103   -0.052403452452340314
-1.944591628580163   -0.27253096371704305   -0.10453396407432665
-1.944591628580163   -0.27253096371704305   -0.10453396407432665
-1.944591628580163   -0.27253096371704305   -0.10453396407432665
-1.944591628580163   -0.27253096371704305   -0.10453396407432665
-1.8700003793817472   -0.38382587685693204   0.03378906435169857
-1.8700003793817472   -0.38382587685693204   0.03378906435169857
-1.8700003793817472   -0.38382587685693204   0.03378906435169857
-1.8700003793817472   -0.38382587685693204   0.03378906435169857
-1.8855004224979788   -0.3499794060105025   -0.02278341655504878
-1.8855004224979788   -0.3499794060105025   -0.02278341655504878
-1.8855004224979788   -0.3499794060105025   -0.02278341655504878
-1.8855004224979788   -0.3499794060105025   -0.02278341655504878
-1.9907221190775704   -0.5118768969256033   0.08193888841592611
-1.9907221190775704   -0.5118768969256033   0.08193888841592611
-1.9907221190775704   -0.5118768969256033   0.08193888841592611
-1.9907221190775704   -0.5118768969256033   0.08193888841592611
-1.9142524205467017   -0.3645200173398056   -0.10952758144171629
-1.9142524205467017   -0.3645200173398056   -0.10952758144171629
-1.9142524205467017   -0.3645200173398056   -0.10952758144171629
-1.9142524205467017   -0.3645200173398056   -0.10952758144171629
-1.7687699732615259   0.04402045910132041   -0.02979824096232246
-1.7687699732615259   0.04402045910132041   -0.02979824096232246
-1.7687699732615259   0.04402045910132041   -0.02979824096232246
-1.7687699732615259   0.04402045910132041   -0.02979824096232246
-1.9851556054696389   -0.3766777982148568   -0.09472268426804281
-1.9851556054696389   -0.3766777982148568   -0.09472268426804281
-1.9851556054696389   -0.3766777982148568   -0.09472268426804281
-1.9851556054696389   -0.3766777982148568   -0.09472268426804281
-1.9027924661522513   -0.06899759453852328   0.025901724141138033
-1.9027924661522513   -0.06899759453852328   0.025901724141138033
-1.9027924661522513   -0.06899759453852328   0.025901724141138033
-1.9027924661522513   -0.06899759453852328   0.025901724141138033
-1.878153758622431   -0.41070208199223   -0.059027821178179875
-1.878153758622431   -0.41070208199223   -0.059027821178179875
-1.878153758622431   -0.41070208199223   -0.059027821178179875
-1.878153758622431   -0.41070208199223   -0.059027821178179875
-1.8824125962116276   -0.20947133100717805   -0.04333879862001456
-1.8824125962116276   -0.20947133100717805   -0.04333879862001456
-1.8824125962116276   -0.20947133100717805   -0.04333879862001456
-1.8824125962116276   -0.20947133100717805   -0.04333879862001456
-1.7947424332957036   -0.05258549008565794   -8.778645108301064e-05
-1.7947424332957036   -0.05258549008565794   -8.778645108301064e-05
-1.7947424332957036   -0.05258549008565794   -8.778645108301064e-05
-1.7947424332957036   -0.05258549008565794   -8.778645108301064e-05
-1.9967683502564366   -0.437678745222553   -0.07529654569578939
-1.9967683502564366   -0.437678745222553   -0.07529654569578939
-1.9967683502564366   -0.437678745222553   -0.07529654569578939
-1.9967683502564366   -0.437678745222553   -0.07529654569578939
-1.9235983036996376   -0.16639462450694079   0.05462573853563255
-1.9235983036996376   -0.16639462450694079   0.05462573853563255
-1.9235983036996376   -0.16639462450694079   0.05462573853563255
-1.9235983036996376   -0.16639462450694079   0.05462573853563255
-1.905696675434769   -0.4875547865422043   -0.04096350622812349
-1.905696675434769   -0.4875547865422043   -0.04096350622812349
-1.905696675434769   -0.4875547865422043   -0.04096350622812349
-1.905696675434769   -0.4875547865422043   -0.04096350622812349
-1.904639398233251   -0.2837710263412959   -0.08166030389058691
-1.904639398233251   -0.2837710263412959   -0.08166030389058691
-1.904639398233251   -0.2837710263412959   -0.08166030389058691
-1.904639398233251   -0.2837710263412959   -0.08166030389058691
-1.8245165638473104   -0.1516891426751715   0.029071407842151877
-1.8245165638473104   -0.1516891426751715   0.029071407842151877
-1.8245165638473104   -0.1516891426751715   0.029071407842151877
-1.8245165638473104   -0.1516891426751715   0.029071407842151877
-2.016578139009512   -0.5140599920963764   -0.0626080704243641
-2.016578139009512   -0.5140599920963764   -0.0626080704243641
-2.016578139009512   -0.5140599920963764   -0.0626080704243641
-2.016578139009512   -0.5140599920963764   -0.0626080704243641
-1.9403251497756946   -0.25813585340425993   0.08266652572059849
-1.9403251497756946   -0.25813585340425993   0.08266652572059849
-1.9403251497756946   -0.25813585340425993   0.08266652572059849
-1.9403251497756946   -0.25813585340425993   0.08266652572059849
-1.9258478274895383   -0.561570498020742   -0.012929349502621222
-1.9258478274895383   -0.561570498020742   -0.012929349502621222
-1.9258478274895383   -0.561570498020742   -0.012929349502621222
-1.9258478274895383   -0.561570498020742   -0.012929349502621222
-1.9312909460096475   -0.36153317639839977   -0.12378254615766517
-1.9312909460096475   -0.36153317639839977   -0.12378254615766517
-1.9312909460096475   -0.36153317639839977   -0.12378254615766517
-1.9312909460096475   -0.36153317639839977   -0.12378254615766517
-1.8331333162332917   0.19589824222183583   0.09281272147700101
-1.8331333162332917   0.19589824222183583   0.09281272147700101
-1.8331333162332917   0.19589824222183583   0.09281272147700101
-1.8331333162332917   0.19589824222183583   0.09281272147700101
-2.152739137576065   -0.2790830996260708   -0.1313773443068654
-2.152739137576065   -0.2790830996260708   -0.1313773443068654
-2.152739137576065   -0.2790830996260708   -0.1313773443068654
-2.152739137576065   -0.2790830996260708   -0.1313773443068654
-2.034710240043698   0.06041111745508204   0.1292825775724959
-2.034710240043698   0.06041111745508204   0.1292825775724959
-2.034710240043698   0.06041111745508204   0.1292825775724959
-2.034710240043698   0.06041111745508204   0.1292825775724959
-1.9732107475882164   -0.31515760377368573   -0.08002967380352562
-1.9732107475882164   -0.31515760377368573   -0.08002967380352562
-1.9732107475882164   -0.31515760377368573   -0.08002967380352562
-1.9732107475882164   -0.31515760377368573   -0.08002967380352562
-1.9985082535647898   -0.08231571421714518   -0.025901127520255418
-1.9985082535647898   -0.08231571421714518   -0.025901127520255418
-1.9985082535647898   -0.08231571421714518   -0.025901127520255418
-1.9985082535647898   -0.08231571421714518   -0.025901127520255418
-1.8507144983791188   0.09567711997262834   0.12161684849564852
-1.8507144983791188   0.09567711997262834   0.12161684849564852
-1.8507144983791188   0.09567711997262834   0.12161684849564852
-1.8507144983791188   0.09567711997262834   0.12161684849564852
-2.171198926316059   -0.36441604335451616   -0.1283336929797126
-2.171198926316059   -0.36441604335451616   -0.1283336929797126
-2.171198926316059   -0.36441604335451616   -0.1283336929797126
-2.171198926316059   -0.36441604335451616   -0.1283336929797126
-2.0715966111656057   -0.03451089679397029   0.14647188157783259
-2.0715966111656057   -0.03451089679397029   0.14647188157783259
-2.0715966111656057   -0.03451089679397029   0.14647188157783259
-2.0715966111656057   -0.03451089679397029   0.14647188157783259
-1.9911732662604602   -0.385834932436141   -0.06380876633931137
-1.9911732662604602   -0.385834932436141   -0.06380876633931137
-1.9911732662604602   -0.385834932436141   -0.06380876633931137
-1.9911732662604602   -0.385834932436141   -0.06380876633931137
-2.0166736884213496   -0.16274511927448626   -0.07080648221689838
-2.0166736884213496   -0.16274511927448626   -0.07080648221689838
-2.0166736884213496   -0.16274511927448626   -0.07080648221689838
-2.0166736884213496   -0.16274511927448626   -0.07080648221689838
-1.8700292584836964   0.006436221207098913   0.14964011890126921
-1.8700292584836964   0.006436221207098913   0.14964011890126921
-1.8700292584836964   0.006436221207098913   0.14964011890126921
-1.8700292584836964   0.006436221207098913   0.14964011890126921
-2.2048732962703057   -0.4389147277651463   -0.1155077129744923
-2.2048732962703057   -0.4389147277651463   -0.1155077129744923
-2.2048732962703057   -0.4389147277651463   -0.1155077129744923
-2.2048732962703057   -0.4389147277651463   -0.1155077129744923
-2.095705369840136   -0.12541860139028294   0.17853277815996574
-2.095705369840136   -0.12541860139028294   0.17853277815996574
-2.095705369840136   -0.12541860139028294   0.17853277815996574
-2.095705369840136   -0.12541860139028294   0.17853277815996574
-2.006409671521031   -0.4567746315857908   -0.04911730482455113
-2.006409671521031   -0.4567746315857908   -0.04911730482455113
-2.006409671521031   -0.4567746315857908   -0.04911730482455113
-2.006409671521031   -0.4567746315857908   -0.04911730482455113
-2.0490206168383414   -0.2383332168487807   -0.11423230660543907
-2.0490206168383414   -0.2383332168487807   -0.11423230660543907
-2.0490206168383414   -0.2383332168487807   -0.11423230660543907
-2.0490206168383414   -0.2383332168487807   -0.11423230660543907
-1.9774933062234348   0.28093747665395524   0.1848312361763231
-1.9774933062234348   0.28093747665395524   0.1848312361763231
-1.9774933062234348   0.28093747665395524   0.1848312361763231
-1.9774933062234348   0.28093747665395524   0.1848312361763231
-2.0968852368758384   -0.16694427014313734   -0.19092248154339939
-2.0968852368758384   -0.16694427014313734   -0.19092248154339939
-2.0968852368758384   -0.16694427014313734   -0.19092248154339939
-2.0968852368758384   -0.16694427014313734   -0.19092248154339939
-2.047748839443898   0.20274963041881322   0.20530704730388621
-2.047748839443898   0.20274963041881322   0.20530704730388621
-2.047748839443898   0.20274963041881322   0.20530704730388621
-2.047748839443898   0.20274963041881322   0.20530704730388621
-2.139695650991537   -0.218567777205725   -0.11666558250589128
-2.139695650991537   -0.218567777205725   -0.11666558250589128
-2.139695650991537   -0.218567777205725   -0.11666558250589128
-2.139695650991537   -0.218567777205725   -0.11666558250589128
-1.9957606601328342   0.051170065503286566   0.006436394006942389
-1.9957606601328342   0.051170065503286566   0.006436394006942389
-1.9957606601328342   0.051170065503286566   0.006436394006942389
-1.9957606601328342   0.051170065503286566   0.006436394006942389
-1.9865734844945113   0.2166656554188356   0.2137118173546118
-1.9865734844945113   0.2166656554188356   0.2137118173546118
-1.9865734844945113   0.2166656554188356   0.2137118173546118
-1.9865734844945113   0.2166656554188356   0.2137118173546118
-2.212188383050241   -0.2438011793150759   -0.170339860993941
-2.212188383050241   -0.2438011793150759   -0.170339860993941
-2.212188383050241   -0.2438011793150759   -0.170339860993941
-2.212188383050241   -0.2438011793150759   -0.170339860993941
-2.1379894911418815   0.14985874871729077   0.2645623534849012
-2.1379894911418815   0.14985874871729077   0.2645623534849012
-2.1379894911418815   0.14985874871729077   0.2645623534849012
-2.1379894911418815   0.14985874871729077   0.2645623534849012
-2.1673343146473503   -0.26004164220816106   -0.1066858904167006
-2.1673343146473503   -0.26004164220816106   -0.1066858904167006
-2.1673343146473503   -0.26004164220816106   -0.1066858904167006
-2.1673343146473503   -0.26004164220816106   -0.1066858904167006
-2.092767263493083   -0.01304026306910916   -0.046178271176384705
-2.092767263493083   -0.01304026306910916   -0.046178271176384705
-2.092767263493083   -0.01304026306910916   -0.046178271176384705
-2.092767263493083   -0.01304026306910916   -0.046178271176384705
-2.0079593010652093   0.17415151924403205   0.2559960160418126
-2.0079593010652093   0.17415151924403205   0.2559960160418126
-2.0079593010652093   0.17415151924403205   0.2559960160418126
-2.0079593010652093   0.17415151924403205   0.2559960160418126
-2.312211193528617   -0.2991811015394764   -0.15750630819201064
-2.312211193528617   -0.2991811015394764   -0.15750630819201064
-2.312211193528617   -0.2991811015394764   -0.15750630819201064
-2.312211193528617   -0.2991811015394764   -0.15750630819201064
-2.298566877361103   0.014989971159446946   0.2828175770456425
-2.298566877361103   0.014989971159446946   0.2828175770456425
-2.298566877361103   0.014989971159446946   0.2828175770456425
-2.298566877361103   0.014989971159446946   0.2828175770456425
-2.192430987072861   -0.33773133651002624   -0.09278257288397938
-2.192430987072861   -0.33773133651002624   -0.09278257288397938
-2.192430987072861   -0.33773133651002624   -0.09278257288397938
-2.192430987072861   -0.33773133651002624   -0.09278257288397938
-2.1388615867997456   -0.07189426435854346   -0.09389197594388692
-2.1388615867997456   -0.07189426435854346   -0.09389197594388692
-2.1388615867997456   -0.07189426435854346   -0.09389197594388692
-2.1388615867997456   -0.07189426435854346   -0.09389197594388692
-4.340880583249437   -0.39553531156208366   -0.40297165832873094
-4.340880583249437   -0.39553531156208366   -0.40297165832873094
-4.340880583249437   -0.39553531156208366   -0.40297165832873094
-4.340880583249437   -0.39553531156208366   -0.40297165832873094
-2.7392744943432006   0.23932243144704302   0.09545146824186643
-2.7392744943432006   0.23932243144704302   0.09545146824186643
-2.7392744943432006   0.23932243144704302   0.09545146824186643
-2.7392744943432006   0.23932243144704302   0.09545146824186643
-2.8748439406269237   -0.1771716603327485   -0.17838953764358834
-2.8748439406269237   -0.1771716603327485   -0.17838953764358834
-2.8748439406269237   -0.1771716603327485   -0.17838953764358834
-2.8748439406269237   -0.1771716603327485   -0.17838953764358834
-4.607523920802164   -0.5110383747414176   0.4549103305709239
-4.607523920802164   -0.5110383747414176   0.4549103305709239
-4.607523920802164   -0.5110383747414176   0.4549103305709239
-4.607523920802164   -0.5110383747414176   0.4549103305709239
-3.348656078860401   -0.12474786580066388   0.4394679834733568
-3.348656078860401   -0.12474786580066388   0.4394679834733568
-3.348656078860401   -0.12474786580066388   0.4394679834733568
-3.348656078860401   -0.12474786580066388   0.4394679834733568
-4.7710805117134525   -0.5796027223056179   -0.2943082764212836
-4.7710805117134525   -0.5796027223056179   -0.2943082764212836
-4.7710805117134525   -0.5796027223056179   -0.2943082764212836
-4.7710805117134525   -0.5796027223056179   -0.2943082764212836
-2.8261014721089506   -0.22342143516187807   0.11157257977540802
-2.8261014721089506   -0.22342143516187807   0.11157257977540802
-2.8261014721089506   -0.22342143516187807   0.11157257977540802
-2.8261014721089506   -0.22342143516187807   0.11157257977540802
-2.9161485143557426   -0.2584529296888983   -0.1270744338402842
-2.9161485143557426   -0.2584529296888983   -0.1270744338402842
-2.9161485143557426   -0.2584529296888983   -0.1270744338402842
-2.9161485143557426   -0.2584529296888983   -0.1270744338402842
-4.750161904439774   -0.7151412214831927   0.013398388873686926
-4.750161904439774   -0.7151412214831927   0.013398388873686926
-4.750161904439774   -0.7151412214831927   0.013398388873686926
-4.750161904439774   -0.7151412214831927   0.013398388873686926
-3.7019207054778382   -0.4316002543107799   0.1007791601399038
-3.7019207054778382   -0.4316002543107799   0.1007791601399038
-3.7019207054778382   -0.4316002543107799   0.1007791601399038
-3.7019207054778382   -0.4316002543107799   0.1007791601399038
-4.7878901576337975   -0.6545526594103089   -0.23583143916928198
-4.7878901576337975   -0.6545526594103089   -0.23583143916928198
-4.7878901576337975   -0.6545526594103089   -0.23583143916928198
-4.7878901576337975   -0.6545526594103089   -0.23583143916928198
-2.913479340838209   -0.35410057143827106   -0.018080924503269827
-2.913479340838209   -0.35410057143827106   -0.018080924503269827
-2.913479340838209   -0.35410057143827106   -0.018080924503269827
-2.913479340838209   -0.35410057143827106   -0.018080924503269827
-2.9155128930008685   -0.4564122345331177   -0.09192633389023512
-2.9155128930008685   -0.4564122345331177   -0.09192633389023512
-2.9155128930008685   -0.4564122345331177   -0.09192633389023512
-2.9155128930008685   -0.4564122345331177   -0.09192633389023512
-4.858919559889173   -1.0939755225371466   0.07494363463382689
-4.858919559889173   -1.0939755225371466   0.07494363463382689
-4.858919559889173   -1.0939755225371466   0.07494363463382689
-4.858919559889173   -1.0939755225371466   0.07494363463382689
-3.6947522535760244   -0.5939588200348449   0.006634793957772993
-3.6947522535760244   -0.5939588200348449   0.006634793957772993
-3.6947522535760244   -0.5939588200348449   0.006634793957772993
-3.6947522535760244   -0.5939588200348449   0.006634793957772993
-2.958339821353577   -0.5007486280338179   -0.25980410732913223
-2.958339821353577   -0.5007486280338179   -0.25980410732913223
-2.958339821353577   -0.5007486280338179   -0.25980410732913223
-2.958339821353577   -0.5007486280338179   -0.25980410732913223
-2.0212289269267463   -1.293426250879162   -0.24311178827732952
-2.0212289269267463   -1.293426250879162   -0.24311178827732952
-2.0212289269267463   -1.293426250879162   -0.24311178827732952
-2.0212289269267463   -1.293426250879162   -0.24311178827732952
-1.7760933729531119   -0.2886332757840002   -0.014201982802670043
-1.7760933729531119   -0.2886332757840002   -0.014201982802670043
-1.7760933729531119   -0.2886332757840002   -0.014201982802670043
-1.7760933729531119   -0.2886332757840002   -0.014201982802670043
-3.140355721793239   -1.375409033558635   -0.30771107024927685
-3.140355721793239   -1.375409033558635   -0.30771107024927685
-3.140355721793239   -1.375409033558635   -0.30771107024927685
-3.140355721793239   -1.375409033558635   -0.30771107024927685
-2.4450184189844237   -0.9183390287605133   -0.07093151761171947
-2.4450184189844237   -0.9183390287605133   -0.07093151761171947
-2.4450184189844237   -0.9183390287605133   -0.07093151761171947
-2.4450184189844237   -0.9183390287605133   -0.07093151761171947
-2.954904209386342   -0.5606062957206638   -0.19525624605275715
-2.954904209386342   -0.5606062957206638   -0.19525624605275715
-2.954904209386342   -0.5606062957206638   -0.19525624605275715
-2.954904209386342   -0.5606062957206638   -0.19525624605275715
-1.9735862221281621   -1.1154773503901267   -0.17482215407181162
-1.9735862221281621   -1.1154773503901267   -0.17482215407181162
-1.9735862221281621   -1.1154773503901267   -0.17482215407181162
-1.9735862221281621   -1.1154773503901267   -0.17482215407181162
-1.7937030581856963   -0.3745156151895945   0.004043051492213032
-1.7937030581856963   -0.3745156151895945   0.004043051492213032
-1.7937030581856963   -0.3745156151895945   0.004043051492213032
-1.7937030581856963   -0.3745156151895945   0.004043051492213032
-3.149131288964693   -1.3684101166754972   -0.18203111989846435
-3.149131288964693   -1.3684101166754972   -0.18203111989846435
-3.149131288964693   -1.3684101166754972   -0.18203111989846435
-3.149131288964693   -1.3684101166754972   -0.18203111989846435
-2.4161051056567646   -0.8608728946305253   -0.07533003430287048
-2.4161051056567646   -0.8608728946305253   -0.07533003430287048
-2.4161051056567646   -0.8608728946305253   -0.07533003430287048
-2.4161051056567646   -0.8608728946305253   -0.07533003430287048
-2.9973047468983225   -0.645255223732482   -0.14605330250959872
-2.9973047468983225   -0.645255223732482   -0.14605330250959872
-2.9973047468983225   -0.645255223732482   -0.14605330250959872
-2.9973047468983225   -0.645255223732482   -0.14605330250959872
-1.9702339495841346   -1.122374857464675   -0.13075216322491193
-1.9702339495841346   -1.122374857464675   -0.13075216322491193
-1.9702339495841346   -1.122374857464675   -0.13075216322491193
-1.9702339495841346   -1.122374857464675   -0.13075216322491193
-1.790030837540463   -0.4821008215448944   0.03012798378236336
-1.790030837540463   -0.4821008215448944   0.03012798378236336
-1.790030837540463   -0.4821008215448944   0.03012798378236336
-1.790030837540463   -0.4821008215448944   0.03012798378236336
-3.138560571097242   -1.3927499188648618   -0.2708270400403946
-3.138560571097242   -1.3927499188648618   -0.2708270400403946
-3.138560571097242   -1.3927499188648618   -0.2708270400403946
-3.138560571097242   -1.3927499188648618   -0.2708270400403946
-2.449662305711288   -0.9265690474710581   -0.13964853367959823
-2.449662305711288   -0.9265690474710581   -0.13964853367959823
-2.449662305711288   -0.9265690474710581   -0.13964853367959823
-2.449662305711288   -0.9265690474710581   -0.13964853367959823
-1.782678908251204   -0.3216629258944107   -0.022125019884369768
-1.782678908251204   -0.3216629258944107   -0.022125019884369768
-1.782678908251204   -0.3216629258944107   -0.022125019884369768
-1.782678908251204   -0.3216629258944107   -0.022125019884369768
-1.483463393979367   -0.9871490609324434   -0.1704400151493209
-1.483463393979367   -0.9871490609324434   -0.1704400151493209
-1.483463393979367   -0.9871490609324434   -0.1704400151493209
-1.483463393979367   -0.9871490609324434   -0.1704400151493209
-1.2778657923753893   -0.2650257884462814   0.06906568030452145
-1.2778657923753893   -0.2650257884462814   0.06906568030452145
-1.2778657923753893   -0.2650257884462814   0.06906568030452145
-1.2778657923753893   -0.2650257884462814   0.06906568030452145
-1.968584697078713   -1.0761618225690015   -0.18913005664569202
-1.968584697078713   -1.0761618225690015   -0.18913005664569202
-1.968584697078713   -1.0761618225690015   -0.18913005664569202
-1.968584697078713   -1.0761618225690015   -0.18913005664569202
-1.6208129093235915   -0.6721770089274858   -0.07885517905681869
-1.6208129093235915   -0.6721770089274858   -0.07885517905681869
-1.6208129093235915   -0.6721770089274858   -0.07885517905681869
-1.6208129093235915   -0.6721770089274858   -0.07885517905681869
-1.7910234068910929   -0.3808062775547041   0.00332084927811157
-1.7910234068910929   -0.3808062775547041   0.00332084927811157
-1.7910234068910929   -0.3808062775547041   0.00332084927811157
-1.7910234068910929   -0.3808062775547041   0.00332084927811157
-1.4660081943530918   -0.9709624452506558   -0.1657096727795849
-1.4660081943530918   -0.9709624452506558   -0.1657096727795849
-1.4660081943530918   -0.9709624452506558   -0.1657096727795849
-1.4660081943530918   -0.9709624452506558   -0.1657096727795849
-1.275826645063984   -0.335523510776021   0.08932284223200788
-1.275826645063984   -0.335523510776021   0.08932284223200788
-1.275826645063984   -0.335523510776021   0.08932284223200788
-1.275826645063984   -0.335523510776021   0.08932284223200788
-1.972284407058913   -1.0932608225696185   -0.17011848549386063
-1.972284407058913   -1.0932608225696185   -0.17011848549386063
-1.972284407058913   -1.0932608225696185   -0.17011848549386063
-1.972284407058913   -1.0932608225696185   -0.17011848549386063
-1.6157855555096854   -0.6990295831580641   -0.10226622436228874
-1.6157855555096854   -0.6990295831580641   -0.10226622436228874
-1.6157855555096854   -0.6990295831580641   -0.10226622436228874
-1.6157855555096854   -0.6990295831580641   -0.10226622436228874
-1.8033618378875096   -0.4522070085236631   0.033440546317200295
-1.8033618378875096   -0.4522070085236631   0.033440546317200295
-1.8033618378875096   -0.4522070085236631   0.033440546317200295
-1.8033618378875096   -0.4522070085236631   0.033440546317200295
-1.4505309059304965   -0.9823590165170752   -0.13736295635949936
-1.4505309059304965   -0.9823590165170752   -0.13736295635949936
-1.4505309059304965   -0.9823590165170752   -0.13736295635949936
-1.4505309059304965   -0.9823590165170752   -0.13736295635949936
-1.2579793981821679   -0.4031522989861121   0.11129321636315756
-1.2579793981821679   -0.4031522989861121   0.11129321636315756
-1.2579793981821679   -0.4031522989861121   0.11129321636315756
-1.2579793981821679   -0.4031522989861121   0.11129321636315756
-1.945805359708006   -1.1078783123695919   -0.12296713623066999
-1.945805359708006   -1.1078783123695919   -0.12296713623066999
-1.945805359708006   -1.1078783123695919   -0.12296713623066999
-1.945805359708006   -1.1078783123695919   -0.12296713623066999
-1.6081667087059304   -0.7339929967353722   -0.11814218276820235
-1.6081667087059304   -0.7339929967353722   -0.11814218276820235
-1.6081667087059304   -0.7339929967353722   -0.11814218276820235
-1.6081667087059304   -0.7339929967353722   -0.11814218276820235
-1.236777256064628   -0.04537244313669184   0.12121405662859239
-1.236777256064628   -0.04537244313669184   0.12121405662859239
-1.236777256064628   -0.04537244313669184   0.12121405662859239
-1.236777256064628   -0.04537244313669184   0.12121405662859239
-1.1574508724444983   -0.5201003261077082   -0.10093006723937975
-1.1574508724444983   -0.5201003261077082   -0.10093006723937975
-1.1574508724444983   -0.5201003261077082   -0.10093006723937975
-1.1574508724444983   -0.5201003261077082   -0.10093006723937975
-0.9955901659125036   -0.07547264446627701   0.14077454105780496
-0.9955901659125036   -0.07547264446627701   0.14077454105780496
-0.9955901659125036   -0.07547264446627701   0.14077454105780496
-0.9955901659125036   -0.07547264446627701   0.14077454105780496
-1.3739102008992299   -0.6042354886784631   -0.0719466620824985
-1.3739102008992299   -0.6042354886784631   -0.0719466620824985
-1.3739102008992299   -0.6042354886784631   -0.0719466620824985
-1.3739102008992299   -0.6042354886784631   -0.0719466620824985
-1.1950037367826154   -0.3086166547532243   -0.0426381452444242
-1.1950037367826154   -0.3086166547532243   -0.0426381452444242
-1.1950037367826154   -0.3086166547532243   -0.0426381452444242
-1.1950037367826154   -0.3086166547532243   -0.0426381452444242
-1.2354477025231885   -0.12364415981343839   0.13977450093268318
-1.2354477025231885   -0.12364415981343839   0.13977450093268318
-1.2354477025231885   -0.12364415981343839   0.13977450093268318
-1.2354477025231885   -0.12364415981343839   0.13977450093268318
-1.14518025879117   -0.5671915678339268   -0.11545699996787717
-1.14518025879117   -0.5671915678339268   -0.11545699996787717
-1.14518025879117   -0.5671915678339268   -0.11545699996787717
-1.14518025879117   -0.5671915678339268   -0.11545699996787717
-0.9946582067526377   -0.1435402451520457   0.15114961057346504
-0.9946582067526377   -0.1435402451520457   0.15114961057346504
-0.9946582067526377   -0.1435402451520457   0.15114961057346504
-0.9946582067526377   -0.1435402451520457   0.15114961057346504
-1.3709013536107901   -0.6408986630809006   -0.08067554819717394
-1.3709013536107901   -0.6408986630809006   -0.08067554819717394
-1.3709013536107901   -0.6408986630809006   -0.08067554819717394
-1.3709013536107901   -0.6408986630809006   -0.08067554819717394
-1.187572976907547   -0.3634907074378529   -0.07215647391106227
-1.187572976907547   -0.3634907074378529   -0.07215647391106227
-1.187572976907547   -0.3634907074378529   -0.07215647391106227
-1.187572976907547   -0.3634907074378529   -0.07215647391106227
-1.2326847265389163   -0.18956140533977955   0.1590703294210744
-1.2326847265389163   -0.18956140533977955   0.1590703294210744
-1.2326847265389163   -0.18956140533977955   0.1590703294210744
-1.2326847265389163   -0.18956140533977955   0.1590703294210744
-1.1396023603799887   -0.6016050294486439   -0.11550637326669212
-1.1396023603799887   -0.6016050294486439   -0.11550637326669212
-1.1396023603799887   -0.6016050294486439   -0.11550637326669212
-1.1396023603799887   -0.6016050294486439   -0.11550637326669212
-0.9835668672841739   -0.20737011051909587   0.17506249627194417
-0.9835668672841739   -0.20737011051909587   0.17506249627194417
-0.9835668672841739   -0.20737011051909587   0.17506249627194417
-0.9835668672841739   -0.20737011051909587   0.17506249627194417
-1.346276467555203   -0.6777534700892524   -0.05559095939887744
-1.346276467555203   -0.6777534700892524   -0.05559095939887744
-1.346276467555203   -0.6777534700892524   -0.05559095939887744
-1.346276467555203   -0.6777534700892524   -0.05559095939887744
-1.1812693557489415   -0.4102688778700944   -0.0923609315656492
-1.1812693557489415   -0.4102688778700944   -0.0923609315656492
-1.1812693557489415   -0.4102688778700944   -0.0923609315656492
-1.1812693557489415   -0.4102688778700944   -0.0923609315656492
-0.9687152217850215   0.13450316764478407   0.1881446923055136
-0.9687152217850215   0.13450316764478407   0.1881446923055136
-0.9687152217850215   0.13450316764478407   0.1881446923055136
-0.9687152217850215   0.13450316764478407   0.1881446923055136
-0.627324953999927   -0.16923057421233015   -0.06127310474315937
-0.627324953999927   -0.16923057421233015   -0.06127310474315937
-0.627324953999927   -0.16923057421233015   -0.06127310474315937
-0.627324953999927   -0.16923057421233015   -0.06127310474315937
-0.5430165853154985   0.16119705519804173   0.18547951383690442
-0.5430165853154985   0.16119705519804173   0.18547951383690442
-0.5430165853154985   0.16119705519804173   0.18547951383690442
-0.5430165853154985   0.16119705519804173   0.18547951383690442
-1.0675941707725152   -0.2631495550209072   -0.031568572687623635
-1.0675941707725152   -0.2631495550209072   -0.031568572687623635
-1.0675941707725152   -0.2631495550209072   -0.031568572687623635
-1.0675941707725152   -0.2631495550209072   -0.031568572687623635
-0.7913289693853637   -0.016221844567826632   -0.0349236739100311
-0.7913289693853637   -0.016221844567826632   -0.0349236739100311
-0.7913289693853637   -0.016221844567826632   -0.0349236739100311
-0.7913289693853637   -0.016221844567826632   -0.0349236739100311
-0.9508634473542007   0.08359906491628405   0.20533642446681838
-0.9508634473542007   0.08359906491628405   0.20533642446681838
-0.9508634473542007   0.08359906491628405   0.20533642446681838
-0.9508634473542007   0.08359906491628405   0.20533642446681838
-0.6607108990020845   -0.18651515500742125   -0.05527984439062466
-0.6607108990020845   -0.18651515500742125   -0.05527984439062466
-0.6607108990020845   -0.18651515500742125   -0.05527984439062466
-0.6607108990020845   -0.18651515500742125   -0.05527984439062466
-0.5652063105863937   0.1284213484997283   0.23350105906178928
-0.5652063105863937   0.1284213484997283   0.23350105906178928
-0.5652063105863937   0.1284213484997283   0.23350105906178928
-0.5652063105863937   0.1284213484997283   0.23350105906178928
-1.060335340244544   -0.2797721661219538   -0.04100413591615812
-1.060335340244544   -0.2797721661219538   -0.04100413591615812
-1.060335340244544   -0.2797721661219538   -0.04100413591615812
-1.060335340244544   -0.2797721661219538   -0.04100413591615812
-0.8123945293301684   -0.05208091534656495   -0.048043062537628925
-0.8123945293301684   -0.05208091534656495   -0.048043062537628925
-0.8123945293301684   -0.05208091534656495   -0.048043062537628925
-0.8123945293301684   -0.05208091534656495   -0.048043062537628925
-0.9379744524195595   0.05447761311510321   0.23655052397170687
-0.9379744524195595   0.05447761311510321   0.23655052397170687
-0.9379744524195595   0.05447761311510321   0.23655052397170687
-0.9379744524195595   0.05447761311510321   0.23655052397170687
-0.6959416689264765   -0.21420290125239638   -0.07755148288643841
-0.6959416689264765   -0.21420290125239638   -0.07755148288643841
-0.6959416689264765   -0.21420290125239638   -0.07755148288643841
-0.6959416689264765   -0.21420290125239638   -0.07755148288643841
-0.6475475605718323   0.03838999073794146   0.24294063685482992
-0.6475475605718323   0.03838999073794146   0.24294063685482992
-0.6475475605718323   0.03838999073794146   0.24294063685482992
-0.6475475605718323   0.03838999073794146   0.24294063685482992
-1.0428161472144661   -0.2939382409622941   -0.03461577293631835
-1.0428161472144661   -0.2939382409622941   -0.03461577293631835
-1.0428161472144661   -0.2939382409622941   -0.03461577293631835
-1.0428161472144661   -0.2939382409622941   -0.03461577293631835
-0.8216345454836927   -0.07760206768221806   -0.07006934316262897
-0.8216345454836927   -0.07760206768221806   -0.07006934316262897
-0.8216345454836927   -0.07760206768221806   -0.07006934316262897
-0.8216345454836927   -0.07760206768221806   -0.07006934316262897
-10.155511734044467   -1.4307408557993972   -0.8386277282891278
-10.155511734044467   -1.4307408557993972   -0.8386277282891278
-10.155511734044467   -1.4307408557993972   -0.8386277282891278
-10.155511734044467   -1.4307408557993972   -0.8386277282891278
-3.5130517420437166   -5.439940154300918   -0.6581324899749141
-3.5130517420437166   -5.439940154300918   -0.6581324899749141
-3.5130517420437166   -5.439940154300918   -0.6581324899749141
-3.5130517420437166   -5.439940154300918   -0.6581324899749141
-2.7272210722506385   -0.22495868528239904   0.005005929314490842
-2.7272210722506385   -0.22495868528239904   0.005005929314490842
-2.7272210722506385   -0.22495868528239904   0.005005929314490842
-2.7272210722506385   -0.22495868528239904   0.005005929314490842
-10.819924114951608   -6.412673229230232   -3.446519468836368
-10.819924114951608   -6.412673229230232   -3.446519468836368
-10.819924114951608   -6.412673229230232   -3.446519468836368
-10.819924114951608   -6.412673229230232   -3.446519468836368
-6.6343087788674024   -3.1927866245666796   -0.46490437770878607
-6.6343087788674024   -3.1927866245666796   -0.46490437770878607
-6.6343087788674024   -3.1927866245666796   -0.46490437770878607
-6.6343087788674024   -3.1927866245666796   -0.46490437770878607
-9.435110817774994   -1.7954692189057413   -1.139656993277865
-9.435110817774994   -1.7954692189057413   -1.139656993277865
-9.435110817774994   -1.7954692189057413   -1.139656993277865
-9.435110817774994   -1.7954692189057413   -1.139656993277865
-3.790164199749916   -4.520292525929563   -1.014375867534717
-3.790164199749916   -4.520292525929563   -1.014375867534717
-3.790164199749916   -4.520292525929563   -1.014375867534717
-3.790164199749916   -4.520292525929563   -1.014375867534717
-2.7790480665080697   -0.3025673146729137   0.10515408499337763
-2.7790480665080697   -0.3025673146729137   0.10515408499337763
-2.7790480665080697   -0.3025673146729137   0.10515408499337763
-2.7790480665080697   -0.3025673146729137   0.10515408499337763
-10.12286640842495   -5.710393206917768   -3.1666519230685437
-10.12286640842495   -5.710393206917768   -3.1666519230685437
-10.12286640842495   -5.710393206917768   -3.1666519230685437
-10.12286640842495   -5.710393206917768   -3.1666519230685437
-6.2469102753588235   -2.875835837082505   0.25533178590894545
-6.2469102753588235   -2.875835837082505   0.25533178590894545
-6.2469102753588235   -2.875835837082505   0.25533178590894545
-6.2469102753588235   -2.875835837082505   0.25533178590894545
-8.858915388044881   -1.7091913346634664   -0.8480986934225762
-8.858915388044881   -1.7091913346634664   -0.8480986934225762
-8.858915388044881   -1.7091913346634664   -0.8480986934225762
-8.858915388044881   -1.7091913346634664   -0.8480986934225762
-3.685675716831926   -3.9464458168710106   -0.7841056644277816
-3.685675716831926   -3.9464458168710106   -0.7841056644277816
-3.685675716831926   -3.9464458168710106   -0.7841056644277816
-3.685675716831926   -3.9464458168710106   -0.7841056644277816
-3.1860809750688266   -0.8070341249085189   -0.1631879620434425
-3.1860809750688266   -0.8070341249085189   -0.1631879620434425
-3.1860809750688266   -0.8070341249085189   -0.1631879620434425
-3.1860809750688266   -0.8070341249085189   -0.1631879620434425
-9.224949827073353   -4.786530367445807   -2.8022960389038323
-9.224949827073353   -4.786530367445807   -2.8022960389038323
-9.224949827073353   -4.786530367445807   -2.8022960389038323
-9.224949827073353   -4.786530367445807   -2.8022960389038323
-5.7845282251894865   -2.4908475193630433   1.067987925587867
-5.7845282251894865   -2.4908475193630433   1.067987925587867
-5.7845282251894865   -2.4908475193630433   1.067987925587867
-5.7845282251894865   -2.4908475193630433   1.067987925587867
-2.6163514110476216   -1.405618823255788   -0.20895216603958364
-2.6163514110476216   -1.405618823255788   -0.20895216603958364
-2.6163514110476216   -1.405618823255788   -0.20895216603958364
-2.6163514110476216   -1.405618823255788   -0.20895216603958364
-1.1997198722235078   -1.6895929120220943   -0.29595628081852055
-1.1997198722235078   -1.6895929120220943   -0.29595628081852055
-1.1997198722235078   -1.6895929120220943   -0.29595628081852055
-1.1997198722235078   -1.6895929120220943   -0.29595628081852055
-1.0644326531901775   -0.8930163150614628   0.02832945363352324
-1.0644326531901775   -0.8930163150614628   0.02832945363352324
-1.0644326531901775   -0.8930163150614628   0.02832945363352324
-1.0644326531901775   -0.8930163150614628   0.02832945363352324
-3.183208901250127   -2.496430008341101   -0.0034618926242331316
-3.183208901250127   -2.496430008341101   -0.0034618926242331316
-3.183208901250127   -2.496430008341101   -0.0034618926242331316
-3.183208901250127   -2.496430008341101   -0.0034618926242331316
-1.7143310108212952   -1.2133788799584355   0.5457440593169158
-1.7143310108212952   -1.2133788799584355   0.5457440593169158
-1.7143310108212952   -1.2133788799584355   0.5457440593169158
-1.7143310108212952   -1.2133788799584355   0.5457440593169158
-2.971455721707992   -1.3069266834522242   -0.13419931980246896
-2.971455721707992   -1.3069266834522242   -0.13419931980246896
-2.971455721707992   -1.3069266834522242   -0.13419931980246896
-2.971455721707992   -1.3069266834522242   -0.13419931980246896
-1.3649286143257124   -2.1712624215437426   -0.19590424556185704
-1.3649286143257124   -2.1712624215437426   -0.19590424556185704
-1.3649286143257124   -2.1712624215437426   -0.19590424556185704
-1.3649286143257124   -2.1712624215437426   -0.19590424556185704
-1.1467252780835195   -0.9258266557880638   0.02848017365752939
-1.1467252780835195   -0.9258266557880638   0.02848017365752939
-1.1467252780835195   -0.9258266557880638   0.02848017365752939
-1.1467252780835195   -0.9258266557880638   0.02848017365752939
-3.3339397689033534   -2.4606660545637005   -0.511205687092231
-3.3339397689033534   -2.4606660545637005   -0.511205687092231
-3.3339397689033534   -2.4606660545637005   -0.511205687092231
-3.3339397689033534   -2.4606660545637005   -0.511205687092231
-2.038442575433822   -1.55996495313724   0.25186752489052366
-2.038442575433822   -1.55996495313724   0.25186752489052366
-2.038442575433822   -1.55996495313724   0.25186752489052366
-2.038442575433822   -1.55996495313724   0.25186752489052366
-3.0625011831220808   -1.3646780283976665   -0.25000078435192274
-3.0625011831220808   -1.3646780283976665   -0.25000078435192274
-3.0625011831220808   -1.3646780283976665   -0.25000078435192274
-3.0625011831220808   -1.3646780283976665   -0.25000078435192274
-1.4097324323377316   -2.013383250427038   -0.19899900297454048
-1.4097324323377316   -2.013383250427038   -0.19899900297454048
-1.4097324323377316   -2.013383250427038   -0.19899900297454048
-1.4097324323377316   -2.013383250427038   -0.19899900297454048
-1.2726842989954656   -0.9570444882909126   0.041823840727575196
-1.2726842989954656   -0.9570444882909126   0.041823840727575196
-1.2726842989954656   -0.9570444882909126   0.041823840727575196
-1.2726842989954656   -0.9570444882909126   0.041823840727575196
-3.5590999622816226   -2.3881797273936733   -0.447137295622252
-3.5590999622816226   -2.3881797273936733   -0.447137295622252
-3.5590999622816226   -2.3881797273936733   -0.447137295622252
-3.5590999622816226   -2.3881797273936733   -0.447137295622252
-2.128809099140081   -1.469613060490577   0.26704117542731215
-2.128809099140081   -1.469613060490577   0.26704117542731215
-2.128809099140081   -1.469613060490577   0.26704117542731215
-2.128809099140081   -1.469613060490577   0.26704117542731215
-0.9574970184567759   -0.8356289729995432   0.06119404899258829
-0.9574970184567759   -0.8356289729995432   0.06119404899258829
-0.9574970184567759   -0.8356289729995432   0.06119404899258829
-0.9574970184567759   -0.8356289729995432   0.06119404899258829
-0.5765233098974082   -0.5114187657829545   -0.14369659077245178
-0.5765233098974082   -0.5114187657829545   -0.14369659077245178
-0.5765233098974082   -0.5114187657829545   -0.14369659077245178
-0.5765233098974082   -0.5114187657829545   -0.14369659077245178
-0.5620067026968807   -0.7445458180257953   0.06237197168850567
-0.5620067026968807   -0.7445458180257953   0.06237197168850567
-0.5620067026968807   -0.7445458180257953   0.06237197168850567
-0.5620067026968807   -0.7445458180257953   0.06237197168850567
-1.0477446370825902   -0.7113367745867254   -0.06991000630326275
-1.0477446370825902   -0.7113367745867254   -0.06991000630326275
-1.0477446370825902   -0.7113367745867254   -0.06991000630326275
-1.0477446370825902   -0.7113367745867254   -0.06991000630326275
-0.6647594563032518   -0.5919764718149493   0.27298671664738994
-0.6647594563032518   -0.5919764718149493   0.27298671664738994
-0.6647594563032518   -0.5919764718149493   0.27298671664738994
-0.6647594563032518   -0.5919764718149493   0.27298671664738994
-1.046558176391846   -0.8408278354914525   0.06551335805518563
-1.046558176391846   -0.8408278354914525   0.06551335805518563
-1.046558176391846   -0.8408278354914525   0.06551335805518563
-1.046558176391846   -0.8408278354914525   0.06551335805518563
-0.5716694553751699   -0.6235310491086133   -0.10695656062012282
-0.5716694553751699   -0.6235310491086133   -0.10695656062012282
-0.5716694553751699   -0.6235310491086133   -0.10695656062012282
-0.5716694553751699   -0.6235310491086133   -0.10695656062012282
-0.5660249805940298   -0.7669680712223024   0.05508584477789852
-0.5660249805940298   -0.7669680712223024   0.05508584477789852
-0.5660249805940298   -0.7669680712223024   0.05508584477789852
-0.5660249805940298   -0.7669680712223024   0.05508584477789852
-1.1090334722998052   -0.8320122669700173   0.12312481375807052
-1.1090334722998052   -0.8320122669700173   0.12312481375807052
-1.1090334722998052   -0.8320122669700173   0.12312481375807052
-1.1090334722998052   -0.8320122669700173   0.12312481375807052
-0.7190249732496933   -0.6588422735189311   0.23350312733972534
-0.7190249732496933   -0.6588422735189311   0.23350312733972534
-0.7190249732496933   -0.6588422735189311   0.23350312733972534
-0.7190249732496933   -0.6588422735189311   0.23350312733972534
-1.1238984923621846   -0.8718353776968939   0.08862282417303427
-1.1238984923621846   -0.8718353776968939   0.08862282417303427
-1.1238984923621846   -0.8718353776968939   0.08862282417303427
-1.1238984923621846   -0.8718353776968939   0.08862282417303427
-0.5985248785738942   -0.774509878537662   -0.09987183780606392
-0.5985248785738942   -0.774509878537662   -0.09987183780606392
-0.5985248785738942   -0.774509878537662   -0.09987183780606392
-0.5985248785738942   -0.774509878537662   -0.09987183780606392
-0.5683877260589842   -0.7923894393854397   0.07705959504112997
-0.5683877260589842   -0.7923894393854397   0.07705959504112997
-0.5683877260589842   -0.7923894393854397   0.07705959504112997
-0.5683877260589842   -0.7923894393854397   0.07705959504112997
-1.2910813522870728   -1.0288448142852966   0.02163890026394033
-1.2910813522870728   -1.0288448142852966   0.02163890026394033
-1.2910813522870728   -1.0288448142852966   0.02163890026394033
-1.2910813522870728   -1.0288448142852966   0.02163890026394033
-0.7988116560358848   -0.7529415961688212   0.11346907377645857
-0.7988116560358848   -0.7529415961688212   0.11346907377645857
-0.7988116560358848   -0.7529415961688212   0.11346907377645857
-0.7988116560358848   -0.7529415961688212   0.11346907377645857
-0.4796507268564444   -0.3320873098436158   0.16133486849302842
-0.4796507268564444   -0.3320873098436158   0.16133486849302842
-0.4796507268564444   -0.3320873098436158   0.16133486849302842
-0.4796507268564444   -0.3320873098436158   0.16133486849302842
-0.329131209460257   0.015115646824155907   -0.03180132386419027
-0.329131209460257   0.015115646824155907   -0.03180132386419027
-0.329131209460257   0.015115646824155907   -0.03180132386419027
-0.329131209460257   0.015115646824155907   -0.03180132386419027
-0.31286399001387366   -0.3575369158242029   0.10049999130344628
-0.31286399001387366   -0.3575369158242029   0.10049999130344628
-0.31286399001387366   -0.3575369158242029   0.10049999130344628
-0.31286399001387366   -0.3575369158242029   0.10049999130344628
-0.4395528934700421   -0.04657170489392471   -0.023333095309172616
-0.4395528934700421   -0.04657170489392471   -0.023333095309172616
-0.4395528934700421   -0.04657170489392471   -0.023333095309172616
-0.4395528934700421   -0.04657170489392471   -0.023333095309172616
-0.3612740777812563   -0.17507616230765846   0.08006535525163268
-0.3612740777812563   -0.17507616230765846   0.08006535525163268
-0.3612740777812563   -0.17507616230765846   0.08006535525163268
-0.3612740777812563   -0.17507616230765846   0.08006535525163268
-0.4710187207385121   -0.37892887294909106   0.15169493640364398
-0.4710187207385121   -0.37892887294909106   0.15169493640364398
-0.4710187207385121   -0.37892887294909106   0.15169493640364398
-0.4710187207385121   -0.37892887294909106   0.15169493640364398
-0.2727209532107307   -0.016502538234363547   -0.03981920227067827
-0.2727209532107307   -0.016502538234363547   -0.03981920227067827
-0.2727209532107307   -0.016502538234363547   -0.03981920227067827
-0.2727209532107307   -0.016502538234363547   -0.03981920227067827
-0.28457884625468843   -0.38904034661354653   0.09229352678349477
-0.28457884625468843   -0.38904034661354653   0.09229352678349477
-0.28457884625468843   -0.38904034661354653   0.09229352678349477
-0.28457884625468843   -0.38904034661354653   0.09229352678349477
-0.4400311269491186   -0.10499189425554828   0.02307893603570065
-0.4400311269491186   -0.10499189425554828   0.02307893603570065
-0.4400311269491186   -0.10499189425554828   0.02307893603570065
-0.4400311269491186   -0.10499189425554828   0.02307893603570065
-0.3288128182815439   -0.20010608930345214   0.09717059891482795
-0.3288128182815439   -0.20010608930345214   0.09717059891482795
-0.3288128182815439   -0.20010608930345214   0.09717059891482795
-0.3288128182815439   -0.20010608930345214   0.09717059891482795
-0.47110066550274715   -0.4102129550145461   0.17295230402655576
-0.47110066550274715   -0.4102129550145461   0.17295230402655576
-0.47110066550274715   -0.4102129550145461   0.17295230402655576
-0.47110066550274715   -0.4102129550145461   0.17295230402655576
-0.2554564593153739   -0.08576643746886274   -0.06536844766461634
-0.2554564593153739   -0.08576643746886274   -0.06536844766461634
-0.2554564593153739   -0.08576643746886274   -0.06536844766461634
-0.2554564593153739   -0.08576643746886274   -0.06536844766461634
-0.2340993405094186   -0.4239758390425936   0.1011200687886316
-0.2340993405094186   -0.4239758390425936   0.1011200687886316
-0.2340993405094186   -0.4239758390425936   0.1011200687886316
-0.2340993405094186   -0.4239758390425936   0.1011200687886316
-0.4693584504507238   -0.25087240819092477   0.03068894188791762
-0.4693584504507238   -0.25087240819092477   0.03068894188791762
-0.4693584504507238   -0.25087240819092477   0.03068894188791762
-0.4693584504507238   -0.25087240819092477   0.03068894188791762
-0.3129330523760122   -0.25361544912399614   0.08613980722606047
-0.3129330523760122   -0.25361544912399614   0.08613980722606047
-0.3129330523760122   -0.25361544912399614   0.08613980722606047
-0.3129330523760122   -0.25361544912399614   0.08613980722606047
-0.30558530172268106   -0.060349375398899986   0.16139323704674538
-0.30558530172268106   -0.060349375398899986   0.16139323704674538
-0.30558530172268106   -0.060349375398899986   0.16139323704674538
-0.30558530172268106   -0.060349375398899986   0.16139323704674538
-0.04823268203110793   0.03849202453144129   -0.003254106926333397
-0.04823268203110793   0.03849202453144129   -0.003254106926333397
-0.04823268203110793   0.03849202453144129   -0.003254106926333397
-0.04823268203110793   0.03849202453144129   -0.003254106926333397
0.02419310894019277   -0.01864902083684867   0.0991468185199609
0.02419310894019277   -0.01864902083684867   0.0991468185199609
0.02419310894019277   -0.01864902083684867   0.0991468185199609
0.02419310894019277   -0.01864902083684867   0.0991468185199609
-0.258214404121558   0.030710080918419938   -0.014499075977598037
-0.258214404121558   0.030710080918419938   -0.014499075977598037
-0.258214404121558   0.030710080918419938   -0.014499075977598037
-0.258214404121558   0.030710080918419938   -0.014499075977598037
-0.14976430556084266   -0.010655791372196684   -0.013102004960482527
-0.14976430556084266   -0.010655791372196684   -0.013102004960482527
-0.14976430556084266   -0.010655791372196684   -0.013102004960482527
-0.14976430556084266   -0.010655791372196684   -0.013102004960482527
-0.2394794615029383   -0.05769646251891275   0.16758218055277155
-0.2394794615029383   -0.05769646251891275   0.16758218055277155
-0.2394794615029383   -0.05769646251891275   0.16758218055277155
-0.2394794615029383   -0.05769646251891275   0.16758218055277155
0.014718632898076588   0.07901798917697726   -0.04589257170444595
0.014718632898076588   0.07901798917697726   -0.04589257170444595
0.014718632898076588   0.07901798917697726   -0.04589257170444595
0.014718632898076588   0.07901798917697726   -0.04589257170444595
0.062134836942776855   -0.02266545493884551   0.12205924281206276
0.062134836942776855   -0.02266545493884551   0.12205924281206276
0.062134836942776855   -0.02266545493884551   0.12205924281206276
0.062134836942776855   -0.02266545493884551   0.12205924281206276
-0.2243316187887656   0.026108454365812536   -0.02161913686625003
-0.2243316187887656   0.026108454365812536   -0.02161913686625003
-0.2243316187887656   0.026108454365812536   -0.02161913686625003
-0.2243316187887656   0.026108454365812536   -0.02161913686625003
-0.09462864589758868   -0.0011235990417793502   0.016500405275933636
-0.09462864589758868   -0.0011235990417793502   0.016500405275933636
-0.09462864589758868   -0.0011235990417793502   0.016500405275933636
-0.09462864589758868   -0.0011235990417793502   0.016500405275933636
-0.2021353042626366   -0.06403096143024938   0.17950185156045687
-0.2021353042626366   -0.06403096143024938   0.17950185156045687
-0.2021353042626366   -0.06403096143024938   0.17950185156045687
-0.2021353042626366   -0.06403096143024938   0.17950185156045687
0.04851723003237286   0.07605266847294141   -0.044746915151744074
0.04851723003237286   0.07605266847294141   -0.044746915151744074
0.04851723003237286   0.07605266847294141   -0.044746915151744074
0.04851723003237286   0.07605266847294141   -0.044746915151744074
0.10212254636484203   -0.03442391622364145   0.11801715717757551
0.10212254636484203   -0.03442391622364145   0.11801715717757551
0.10212254636484203   -0.03442391622364145   0.11801715717757551
0.10212254636484203   -0.03442391622364145   0.11801715717757551
-0.16840483672469184   0.030351320268649312   -0.02473457159897752
-0.16840483672469184   0.030351320268649312   -0.02473457159897752
-0.16840483672469184   0.030351320268649312   -0.02473457159897752
-0.16840483672469184   0.030351320268649312   -0.02473457159897752
-0.044887787398810296   0.005642523366809416   0.0432434751657117
-0.044887787398810296   0.005642523366809416   0.0432434751657117
-0.044887787398810296   0.005642523366809416   0.0432434751657117
-0.044887787398810296   0.005642523366809416   0.0432434751657117
              </DataArray>   
             <DataArray type="Float64" NumberOfComponents="3" Name="Displacements" format="ascii">   
0.0   0.0   0.0
-0.02818839605965826   -0.018435083841136395   -0.00943914770013752
0.0   0.0   0.0
0.0   0.0   0.0
-0.02818839605965826   -0.018435083841136395   -0.00943914770013752
-0.017943253347935666   -0.01655626787494774   -0.006934306246952021
0.0   0.0   0.0
-0.01759289432637357   -0.017390520186987918   -0.005808090469881162
0.0   0.0   0.0
0.0   0.0   0.0
-0.01759289432637357   -0.017390520186987918   -0.005808090469881162
0.0   0.0   0.0
0.0   0.0   0.0
-0.01759289432637357   -0.017390520186987918   -0.005808090469881162
-0.029506055823952198   -0.019642725617810344   -0.007576248430143883
-0.02818839605965826   -0.018435083841136395   -0.00943914770013752
0.0   0.0   0.0
-0.01759289432637357   -0.017390520186987918   -0.005808090469881162
-0.02818839605965826   -0.018435083841136395   -0.00943914770013752
0.0   0.0   0.0
0.0   0.0   0.0
-0.029506055823952198   -0.019642725617810344   -0.007576248430143883
0.0   0.0   0.0
0.0   0.0   0.0
-0.029506055823952198   -0.019642725617810344   -0.007576248430143883
-0.01759289432637357   -0.017390520186987918   -0.005808090469881162
0.0   0.0   0.0
-0.01764737587848231   -0.017817488885396245   -0.0046829421626549276
0.0   0.0   0.0
0.0   0.0   0.0
-0.01764737587848231   -0.017817488885396245   -0.0046829421626549276
0.0   0.0   0.0
0.0   0.0   0.0
-0.01764737587848231   -0.017817488885396245   -0.0046829421626549276
-0.030433669468497862   -0.02022971483997877   -0.005790248249975184
-0.029506055823952198   -0.019642725617810344   -0.007576248430143883
0.0   0.0   0.0
-0.01764737587848231   -0.017817488885396245   -0.0046829421626549276
-0.029506055823952198   -0.019642725617810344   -0.007576248430143883
0.0   0.0   0.0
0.0   0.0   0.0
-0.030433669468497862   -0.02022971483997877   -0.005790248249975184
0.0   0.0   0.0
0.0   0.0   0.0
-0.030433669468497862   -0.02022971483997877   -0.005790248249975184
-0.01764737587848231   -0.017817488885396245   -0.0046829421626549276
0.0   0.0   0.0
-0.017643585906670825   -0.01792643541984029   -0.0035188320890889016
0.0   0.0   0.0
0.0   0.0   0.0
-0.017643585906670825   -0.01792643541984029   -0.0035188320890889016
0.0   0.0   0.0
0.0   0.0   0.0
-0.017643585906670825   -0.01792643541984029   -0.0035188320890889016
-0.0324271753629067   -0.020672354479066967   -0.0037175488339552167
-0.030433669468497862   -0.02022971483997877   -0.005790248249975184
0.0   0.0   0.0
-0.017643585906670825   -0.01792643541984029   -0.0035188320890889016
-0.030433669468497862   -0.02022971483997877   -0.005790248249975184
0.0   0.0   0.0
0.0   0.0   0.0
-0.017943253347935666   -0.01655626787494774   -0.006934306246952021
0.0   0.0   0.0
0.0   0.0   0.0
-0.017943253347935666   -0.01655626787494774   -0.006934306246952021
-0.008165826878488543   -0.015866193435025308   -0.005272288882736307
0.0   0.0   0.0
-0.007858519822771316   -0.016409772967978534   -0.004741199490532847
0.0   0.0   0.0
0.0   0.0   0.0
-0.007858519822771316   -0.016409772967978534   -0.004741199490532847
0.0   0.0   0.0
0.0   0.0   0.0
-0.007858519822771316   -0.016409772967978534   -0.004741199490532847
-0.01759289432637357   -0.017390520186987918   -0.005808090469881162
-0.017943253347935666   -0.01655626787494774   -0.006934306246952021
0.0   0.0   0.0
-0.007858519822771316   -0.016409772967978534   -0.004741199490532847
-0.017943253347935666   -0.01655626787494774   -0.006934306246952021
0.0   0.0   0.0
0.0   0.0   0.0
-0.01759289432637357   -0.017390520186987918   -0.005808090469881162
0.0   0.0   0.0
0.0   0.0   0.0
-0.01759289432637357   -0.017390520186987918   -0.005808090469881162
-0.007858519822771316   -0.016409772967978534   -0.004741199490532847
0.0   0.0   0.0
-0.007687916011792244   -0.016616766284886335   -0.004223432665645742
0.0   0.0   0.0
0.0   0.0   0.0
-0.007687916011792244   -0.016616766284886335   -0.004223432665645742
0.0   0.0   0.0
0.0   0.0   0.0
-0.007687916011792244   -0.016616766284886335   -0.004223432665645742
-0.01764737587848231   -0.017817488885396245   -0.0046829421626549276
-0.01759289432637357   -0.017390520186987918   -0.005808090469881162
0.0   0.0   0.0
-0.007687916011792244   -0.016616766284886335   -0.004223432665645742
-0.01759289432637357   -0.017390520186987918   -0.005808090469881162
0.0   0.0   0.0
0.0   0.0   0.0
-0.01764737587848231   -0.017817488885396245   -0.0046829421626549276
0.0   0.0   0.0
0.0   0.0   0.0
-0.01764737587848231   -0.017817488885396245   -0.0046829421626549276
-0.007687916011792244   -0.016616766284886335   -0.004223432665645742
0.0   0.0   0.0
-0.007533371793432604   -0.016529947130761547   -0.0036875856809866292
0.0   0.0   0.0
0.0   0.0   0.0
-0.007533371793432604   -0.016529947130761547   -0.0036875856809866292
0.0   0.0   0.0
0.0   0.0   0.0
-0.007533371793432604   -0.016529947130761547   -0.0036875856809866292
-0.017643585906670825   -0.01792643541984029   -0.0035188320890889016
-0.01764737587848231   -0.017817488885396245   -0.0046829421626549276
0.0   0.0   0.0
-0.007533371793432604   -0.016529947130761547   -0.0036875856809866292
-0.01764737587848231   -0.017817488885396245   -0.0046829421626549276
0.0   0.0   0.0
0.0   0.0   0.0
-0.008165826878488543   -0.015866193435025308   -0.005272288882736307
0.0   0.0   0.0
0.0   0.0   0.0
-0.008165826878488543   -0.015866193435025308   -0.005272288882736307
0.001076163443034995   -0.015953850498089645   -0.004211861215337088
0.0   0.0   0.0
0.0012700611456907805   -0.01623623038682421   -0.004286751474082828
0.0   0.0   0.0
0.0   0.0   0.0
0.0012700611456907805   -0.01623623038682421   -0.004286751474082828
0.0   0.0   0.0
0.0   0.0   0.0
0.0012700611456907805   -0.01623623038682421   -0.004286751474082828
-0.007858519822771316   -0.016409772967978534   -0.004741199490532847
-0.008165826878488543   -0.015866193435025308   -0.005272288882736307
0.0   0.0   0.0
0.0012700611456907805   -0.01623623038682421   -0.004286751474082828
-0.008165826878488543   -0.015866193435025308   -0.005272288882736307
0.0   0.0   0.0
0.0   0.0   0.0
-0.007858519822771316   -0.016409772967978534   -0.004741199490532847
0.0   0.0   0.0
0.0   0.0   0.0
-0.007858519822771316   -0.016409772967978534   -0.004741199490532847
0.0012700611456907805   -0.01623623038682421   -0.004286751474082828
0.0   0.0   0.0
0.0014224542799492334   -0.016213375723204478   -0.004353928037655916
0.0   0.0   0.0
0.0   0.0   0.0
0.0014224542799492334   -0.016213375723204478   -0.004353928037655916
0.0   0.0   0.0
0.0   0.0   0.0
0.0014224542799492334   -0.016213375723204478   -0.004353928037655916
-0.007687916011792244   -0.016616766284886335   -0.004223432665645742
-0.007858519822771316   -0.016409772967978534   -0.004741199490532847
0.0   0.0   0.0
0.0014224542799492334   -0.016213375723204478   -0.004353928037655916
-0.007858519822771316   -0.016409772967978534   -0.004741199490532847
0.0   0.0   0.0
0.0   0.0   0.0
-0.007687916011792244   -0.016616766284886335   -0.004223432665645742
0.0   0.0   0.0
0.0   0.0   0.0
-0.007687916011792244   -0.016616766284886335   -0.004223432665645742
0.0014224542799492334   -0.016213375723204478   -0.004353928037655916
0.0   0.0   0.0
0.0016291154269286177   -0.015860160422393965   -0.004422400591217894
0.0   0.0   0.0
0.0   0.0   0.0
0.0016291154269286177   -0.015860160422393965   -0.004422400591217894
0.0   0.0   0.0
0.0   0.0   0.0
0.0016291154269286177   -0.015860160422393965   -0.004422400591217894
-0.007533371793432604   -0.016529947130761547   -0.0036875856809866292
-0.007687916011792244   -0.016616766284886335   -0.004223432665645742
0.0   0.0   0.0
0.0016291154269286177   -0.015860160422393965   -0.004422400591217894
-0.007687916011792244   -0.016616766284886335   -0.004223432665645742
0.0   0.0   0.0
0.0   0.0   0.0
0.001076163443034995   -0.015953850498089645   -0.004211861215337088
0.0   0.0   0.0
0.0   0.0   0.0
0.001076163443034995   -0.015953850498089645   -0.004211861215337088
0.01110406382044989   -0.016735271074222378   -0.0036856966840509513
0.0   0.0   0.0
0.011117525792784038   -0.016826141125283706   -0.004398168935578423
0.0   0.0   0.0
0.0   0.0   0.0
0.011117525792784038   -0.016826141125283706   -0.004398168935578423
0.0   0.0   0.0
0.0   0.0   0.0
0.011117525792784038   -0.016826141125283706   -0.004398168935578423
0.0012700611456907805   -0.01623623038682421   -0.004286751474082828
0.001076163443034995   -0.015953850498089645   -0.004211861215337088
0.0   0.0   0.0
0.011117525792784038   -0.016826141125283706   -0.004398168935578423
0.001076163443034995   -0.015953850498089645   -0.004211861215337088
0.0   0.0   0.0
0.0   0.0   0.0
0.0012700611456907805   -0.01623623038682421   -0.004286751474082828
0.0   0.0   0.0
0.0   0.0   0.0
0.0012700611456907805   -0.01623623038682421   -0.004286751474082828
0.011117525792784038   -0.016826141125283706   -0.004398168935578423
0.0   0.0   0.0
0.011064496539920057   -0.016585825171291143   -0.005081009966875371
0.0   0.0   0.0
0.0   0.0   0.0
0.011064496539920057   -0.016585825171291143   -0.005081009966875371
0.0   0.0   0.0
0.0   0.0   0.0
0.011064496539920057   -0.016585825171291143   -0.005081009966875371
0.0014224542799492334   -0.016213375723204478   -0.004353928037655916
0.0012700611456907805   -0.01623623038682421   -0.004286751474082828
0.0   0.0   0.0
0.011064496539920057   -0.016585825171291143   -0.005081009966875371
0.0012700611456907805   -0.01623623038682421   -0.004286751474082828
0.0   0.0   0.0
0.0   0.0   0.0
0.0014224542799492334   -0.016213375723204478   -0.004353928037655916
0.0   0.0   0.0
0.0   0.0   0.0
0.0014224542799492334   -0.016213375723204478   -0.004353928037655916
0.011064496539920057   -0.016585825171291143   -0.005081009966875371
0.0   0.0   0.0
0.011273579926707479   -0.015940192480521493   -0.005750335650638587
0.0   0.0   0.0
0.0   0.0   0.0
0.011273579926707479   -0.015940192480521493   -0.005750335650638587
0.0   0.0   0.0
0.0   0.0   0.0
0.011273579926707479   -0.015940192480521493   -0.005750335650638587
0.0016291154269286177   -0.015860160422393965   -0.004422400591217894
0.0014224542799492334   -0.016213375723204478   -0.004353928037655916
0.0   0.0   0.0
0.011273579926707479   -0.015940192480521493   -0.005750335650638587
0.0014224542799492334   -0.016213375723204478   -0.004353928037655916
0.0   0.0   0.0
0.0   0.0   0.0
0.01110406382044989   -0.016735271074222378   -0.0036856966840509513
0.0   0.0   0.0
0.0   0.0   0.0
0.01110406382044989   -0.016735271074222378   -0.0036856966840509513
0.025035789464345985   -0.018713632570408166   -0.003473319390085078
0.0   0.0   0.0
0.023504485488107966   -0.018511403033305864   -0.00508678732053287
0.0   0.0   0.0
0.0   0.0   0.0
0.023504485488107966   -0.018511403033305864   -0.00508678732053287
0.0   0.0   0.0
0.0   0.0   0.0
0.023504485488107966   -0.018511403033305864   -0.00508678732053287
0.011117525792784038   -0.016826141125283706   -0.004398168935578423
0.01110406382044989   -0.016735271074222378   -0.0036856966840509513
0.0   0.0   0.0
0.023504485488107966   -0.018511403033305864   -0.00508678732053287
0.01110406382044989   -0.016735271074222378   -0.0036856966840509513
0.0   0.0   0.0
0.0   0.0   0.0
0.011117525792784038   -0.016826141125283706   -0.004398168935578423
0.0   0.0   0.0
0.0   0.0   0.0
0.011117525792784038   -0.016826141125283706   -0.004398168935578423
0.023504485488107966   -0.018511403033305864   -0.00508678732053287
0.0   0.0   0.0
0.02279589432025306   -0.018126481479889846   -0.006450669647856137
0.0   0.0   0.0
0.0   0.0   0.0
0.02279589432025306   -0.018126481479889846   -0.006450669647856137
0.0   0.0   0.0
0.0   0.0   0.0
0.02279589432025306   -0.018126481479889846   -0.006450669647856137
0.011064496539920057   -0.016585825171291143   -0.005081009966875371
0.011117525792784038   -0.016826141125283706   -0.004398168935578423
0.0   0.0   0.0
0.02279589432025306   -0.018126481479889846   -0.006450669647856137
0.011117525792784038   -0.016826141125283706   -0.004398168935578423
0.0   0.0   0.0
0.0   0.0   0.0
0.011064496539920057   -0.016585825171291143   -0.005081009966875371
0.0   0.0   0.0
0.0   0.0   0.0
0.011064496539920057   -0.016585825171291143   -0.005081009966875371
0.02279589432025306   -0.018126481479889846   -0.006450669647856137
0.0   0.0   0.0
0.021744785815357364   -0.017139968012354657   -0.00789282399512163
0.0   0.0   0.0
0.0   0.0   0.0
0.021744785815357364   -0.017139968012354657   -0.00789282399512163
0.0   0.0   0.0
0.0   0.0   0.0
0.021744785815357364   -0.017139968012354657   -0.00789282399512163
0.011273579926707479   -0.015940192480521493   -0.005750335650638587
0.011064496539920057   -0.016585825171291143   -0.005081009966875371
0.0   0.0   0.0
0.021744785815357364   -0.017139968012354657   -0.00789282399512163
0.011064496539920057   -0.016585825171291143   -0.005081009966875371
0.0   0.0   0.0
-0.02818839605965826   -0.018435083841136395   -0.00943914770013752
-0.05269396336440308   -0.0515459047828144   -0.012714868003625533
-0.017943253347935666   -0.01655626787494774   -0.006934306246952021
-0.029506055823952198   -0.019642725617810344   -0.007576248430143883
-0.05269396336440308   -0.0515459047828144   -0.012714868003625533
-0.03363454166012272   -0.04985456949707816   -0.010461306267371255
-0.017943253347935666   -0.01655626787494774   -0.006934306246952021
-0.033681669189016356   -0.05070900022281712   -0.00941850490919179
-0.029506055823952198   -0.019642725617810344   -0.007576248430143883
-0.01759289432637357   -0.017390520186987918   -0.005808090469881162
-0.033681669189016356   -0.05070900022281712   -0.00941850490919179
-0.017943253347935666   -0.01655626787494774   -0.006934306246952021
-0.029506055823952198   -0.019642725617810344   -0.007576248430143883
-0.033681669189016356   -0.05070900022281712   -0.00941850490919179
-0.05428252603336811   -0.052737396178213   -0.011020414762177978
-0.05269396336440308   -0.0515459047828144   -0.012714868003625533
-0.029506055823952198   -0.019642725617810344   -0.007576248430143883
-0.033681669189016356   -0.05070900022281712   -0.00941850490919179
-0.05269396336440308   -0.0515459047828144   -0.012714868003625533
-0.017943253347935666   -0.01655626787494774   -0.006934306246952021
-0.029506055823952198   -0.019642725617810344   -0.007576248430143883
-0.05428252603336811   -0.052737396178213   -0.011020414762177978
-0.01759289432637357   -0.017390520186987918   -0.005808090469881162
-0.030433669468497862   -0.02022971483997877   -0.005790248249975184
-0.05428252603336811   -0.052737396178213   -0.011020414762177978
-0.033681669189016356   -0.05070900022281712   -0.00941850490919179
-0.01759289432637357   -0.017390520186987918   -0.005808090469881162
-0.033822263928878236   -0.051229192511655815   -0.00841593511444253
-0.030433669468497862   -0.02022971483997877   -0.005790248249975184
-0.01764737587848231   -0.017817488885396245   -0.0046829421626549276
-0.033822263928878236   -0.051229192511655815   -0.00841593511444253
-0.01759289432637357   -0.017390520186987918   -0.005808090469881162
-0.030433669468497862   -0.02022971483997877   -0.005790248249975184
-0.033822263928878236   -0.051229192511655815   -0.00841593511444253
-0.05538936571966227   -0.0534096516543011   -0.009360592070172527
-0.05428252603336811   -0.052737396178213   -0.011020414762177978
-0.030433669468497862   -0.02022971483997877   -0.005790248249975184
-0.033822263928878236   -0.051229192511655815   -0.00841593511444253
-0.05428252603336811   -0.052737396178213   -0.011020414762177978
-0.01759289432637357   -0.017390520186987918   -0.005808090469881162
-0.030433669468497862   -0.02022971483997877   -0.005790248249975184
-0.05538936571966227   -0.0534096516543011   -0.009360592070172527
-0.01764737587848231   -0.017817488885396245   -0.0046829421626549276
-0.0324271753629067   -0.020672354479066967   -0.0037175488339552167
-0.05538936571966227   -0.0534096516543011   -0.009360592070172527
-0.033822263928878236   -0.051229192511655815   -0.00841593511444253
-0.01764737587848231   -0.017817488885396245   -0.0046829421626549276
-0.03372973747038286   -0.05149801544968481   -0.007477015861575433
-0.0324271753629067   -0.020672354479066967   -0.0037175488339552167
-0.017643585906670825   -0.01792643541984029   -0.0035188320890889016
-0.03372973747038286   -0.05149801544968481   -0.007477015861575433
-0.01764737587848231   -0.017817488885396245   -0.0046829421626549276
-0.0324271753629067   -0.020672354479066967   -0.0037175488339552167
-0.03372973747038286   -0.05149801544968481   -0.007477015861575433
-0.056697944801368666   -0.0537985371087102   -0.007849396744984617
-0.05538936571966227   -0.0534096516543011   -0.009360592070172527
-0.0324271753629067   -0.020672354479066967   -0.0037175488339552167
-0.03372973747038286   -0.05149801544968481   -0.007477015861575433
-0.05538936571966227   -0.0534096516543011   -0.009360592070172527
-0.01764737587848231   -0.017817488885396245   -0.0046829421626549276
-0.017943253347935666   -0.01655626787494774   -0.006934306246952021
-0.03363454166012272   -0.04985456949707816   -0.010461306267371255
-0.008165826878488543   -0.015866193435025308   -0.005272288882736307
-0.01759289432637357   -0.017390520186987918   -0.005808090469881162
-0.03363454166012272   -0.04985456949707816   -0.010461306267371255
-0.015593525993674326   -0.049067620003632254   -0.008922262633200968
-0.008165826878488543   -0.015866193435025308   -0.005272288882736307
-0.015466543176495772   -0.04961206412957842   -0.008388576069040568
-0.01759289432637357   -0.017390520186987918   -0.005808090469881162
-0.007858519822771316   -0.016409772967978534   -0.004741199490532847
-0.015466543176495772   -0.04961206412957842   -0.008388576069040568
-0.008165826878488543   -0.015866193435025308   -0.005272288882736307
-0.01759289432637357   -0.017390520186987918   -0.005808090469881162
-0.015466543176495772   -0.04961206412957842   -0.008388576069040568
-0.033681669189016356   -0.05070900022281712   -0.00941850490919179
-0.03363454166012272   -0.04985456949707816   -0.010461306267371255
-0.01759289432637357   -0.017390520186987918   -0.005808090469881162
-0.015466543176495772   -0.04961206412957842   -0.008388576069040568
-0.03363454166012272   -0.04985456949707816   -0.010461306267371255
-0.008165826878488543   -0.015866193435025308   -0.005272288882736307
-0.01759289432637357   -0.017390520186987918   -0.005808090469881162
-0.033681669189016356   -0.05070900022281712   -0.00941850490919179
-0.007858519822771316   -0.016409772967978534   -0.004741199490532847
-0.01764737587848231   -0.017817488885396245   -0.0046829421626549276
-0.033681669189016356   -0.05070900022281712   -0.00941850490919179
-0.015466543176495772   -0.04961206412957842   -0.008388576069040568
-0.007858519822771316   -0.016409772967978534   -0.004741199490532847
-0.015354866077692552   -0.049875866653926154   -0.00790445830855601
-0.01764737587848231   -0.017817488885396245   -0.0046829421626549276
-0.007687916011792244   -0.016616766284886335   -0.004223432665645742
-0.015354866077692552   -0.049875866653926154   -0.00790445830855601
-0.007858519822771316   -0.016409772967978534   -0.004741199490532847
-0.01764737587848231   -0.017817488885396245   -0.0046829421626549276
-0.015354866077692552   -0.049875866653926154   -0.00790445830855601
-0.033822263928878236   -0.051229192511655815   -0.00841593511444253
-0.033681669189016356   -0.05070900022281712   -0.00941850490919179
-0.01764737587848231   -0.017817488885396245   -0.0046829421626549276
-0.015354866077692552   -0.049875866653926154   -0.00790445830855601
-0.033681669189016356   -0.05070900022281712   -0.00941850490919179
-0.007858519822771316   -0.016409772967978534   -0.004741199490532847
-0.01764737587848231   -0.017817488885396245   -0.0046829421626549276
-0.033822263928878236   -0.051229192511655815   -0.00841593511444253
-0.007687916011792244   -0.016616766284886335   -0.004223432665645742
-0.017643585906670825   -0.01792643541984029   -0.0035188320890889016
-0.033822263928878236   -0.051229192511655815   -0.00841593511444253
-0.015354866077692552   -0.049875866653926154   -0.00790445830855601
-0.007687916011792244   -0.016616766284886335   -0.004223432665645742
-0.015184689296698528   -0.049868990597708815   -0.007482597015139129
-0.017643585906670825   -0.01792643541984029   -0.0035188320890889016
-0.007533371793432604   -0.016529947130761547   -0.0036875856809866292
-0.015184689296698528   -0.049868990597708815   -0.007482597015139129
-0.007687916011792244   -0.016616766284886335   -0.004223432665645742
-0.017643585906670825   -0.01792643541984029   -0.0035188320890889016
-0.015184689296698528   -0.049868990597708815   -0.007482597015139129
-0.03372973747038286   -0.05149801544968481   -0.007477015861575433
-0.033822263928878236   -0.051229192511655815   -0.00841593511444253
-0.017643585906670825   -0.01792643541984029   -0.0035188320890889016
-0.015184689296698528   -0.049868990597708815   -0.007482597015139129
-0.033822263928878236   -0.051229192511655815   -0.00841593511444253
-0.007687916011792244   -0.016616766284886335   -0.004223432665645742
-0.008165826878488543   -0.015866193435025308   -0.005272288882736307
-0.015593525993674326   -0.049067620003632254   -0.008922262633200968
0.001076163443034995   -0.015953850498089645   -0.004211861215337088
-0.007858519822771316   -0.016409772967978534   -0.004741199490532847
-0.015593525993674326   -0.049067620003632254   -0.008922262633200968
0.0018083045330398576   -0.04909059770450316   -0.00794766763958003
0.001076163443034995   -0.015953850498089645   -0.004211861215337088
0.0019656968885311864   -0.04934952332339715   -0.007913725945737653
-0.007858519822771316   -0.016409772967978534   -0.004741199490532847
0.0012700611456907805   -0.01623623038682421   -0.004286751474082828
0.0019656968885311864   -0.04934952332339715   -0.007913725945737653
0.001076163443034995   -0.015953850498089645   -0.004211861215337088
-0.007858519822771316   -0.016409772967978534   -0.004741199490532847
0.0019656968885311864   -0.04934952332339715   -0.007913725945737653
-0.015466543176495772   -0.04961206412957842   -0.008388576069040568
-0.015593525993674326   -0.049067620003632254   -0.008922262633200968
-0.007858519822771316   -0.016409772967978534   -0.004741199490532847
0.0019656968885311864   -0.04934952332339715   -0.007913725945737653
-0.015593525993674326   -0.049067620003632254   -0.008922262633200968
0.001076163443034995   -0.015953850498089645   -0.004211861215337088
-0.007858519822771316   -0.016409772967978534   -0.004741199490532847
-0.015466543176495772   -0.04961206412957842   -0.008388576069040568
0.0012700611456907805   -0.01623623038682421   -0.004286751474082828
-0.007687916011792244   -0.016616766284886335   -0.004223432665645742
-0.015466543176495772   -0.04961206412957842   -0.008388576069040568
0.0019656968885311864   -0.04934952332339715   -0.007913725945737653
0.0012700611456907805   -0.01623623038682421   -0.004286751474082828
0.0020692023125732646   -0.049334412275132106   -0.007936072791662441
-0.007687916011792244   -0.016616766284886335   -0.004223432665645742
0.0014224542799492334   -0.016213375723204478   -0.004353928037655916
0.0020692023125732646   -0.049334412275132106   -0.007936072791662441
0.0012700611456907805   -0.01623623038682421   -0.004286751474082828
-0.007687916011792244   -0.016616766284886335   -0.004223432665645742
0.0020692023125732646   -0.049334412275132106   -0.007936072791662441
-0.015354866077692552   -0.049875866653926154   -0.00790445830855601
-0.015466543176495772   -0.04961206412957842   -0.008388576069040568
-0.007687916011792244   -0.016616766284886335   -0.004223432665645742
0.0020692023125732646   -0.049334412275132106   -0.007936072791662441
-0.015466543176495772   -0.04961206412957842   -0.008388576069040568
0.0012700611456907805   -0.01623623038682421   -0.004286751474082828
-0.007687916011792244   -0.016616766284886335   -0.004223432665645742
-0.015354866077692552   -0.049875866653926154   -0.00790445830855601
0.0014224542799492334   -0.016213375723204478   -0.004353928037655916
-0.007533371793432604   -0.016529947130761547   -0.0036875856809866292
-0.015354866077692552   -0.049875866653926154   -0.00790445830855601
0.0020692023125732646   -0.049334412275132106   -0.007936072791662441
0.0014224542799492334   -0.016213375723204478   -0.004353928037655916
0.002180810679929266   -0.04903686541609185   -0.008015607734555579
-0.007533371793432604   -0.016529947130761547   -0.0036875856809866292
0.0016291154269286177   -0.015860160422393965   -0.004422400591217894
0.002180810679929266   -0.04903686541609185   -0.008015607734555579
0.0014224542799492334   -0.016213375723204478   -0.004353928037655916
-0.007533371793432604   -0.016529947130761547   -0.0036875856809866292
0.002180810679929266   -0.04903686541609185   -0.008015607734555579
-0.015184689296698528   -0.049868990597708815   -0.007482597015139129
-0.015354866077692552   -0.049875866653926154   -0.00790445830855601
-0.007533371793432604   -0.016529947130761547   -0.0036875856809866292
0.002180810679929266   -0.04903686541609185   -0.008015607734555579
-0.015354866077692552   -0.049875866653926154   -0.00790445830855601
0.0014224542799492334   -0.016213375723204478   -0.004353928037655916
0.001076163443034995   -0.015953850498089645   -0.004211861215337088
0.0018083045330398576   -0.04909059770450316   -0.00794766763958003
0.01110406382044989   -0.016735271074222378   -0.0036856966840509513
0.0012700611456907805   -0.01623623038682421   -0.004286751474082828
0.0018083045330398576   -0.04909059770450316   -0.00794766763958003
0.020245182090634813   -0.049894120242877364   -0.007490576112155245
0.01110406382044989   -0.016735271074222378   -0.0036856966840509513
0.020330030522448094   -0.049893940379071064   -0.007972637693852147
0.0012700611456907805   -0.01623623038682421   -0.004286751474082828
0.011117525792784038   -0.016826141125283706   -0.004398168935578423
0.020330030522448094   -0.049893940379071064   -0.007972637693852147
0.01110406382044989   -0.016735271074222378   -0.0036856966840509513
0.0012700611456907805   -0.01623623038682421   -0.004286751474082828
0.020330030522448094   -0.049893940379071064   -0.007972637693852147
0.0019656968885311864   -0.04934952332339715   -0.007913725945737653
0.0018083045330398576   -0.04909059770450316   -0.00794766763958003
0.0012700611456907805   -0.01623623038682421   -0.004286751474082828
0.020330030522448094   -0.049893940379071064   -0.007972637693852147
0.0018083045330398576   -0.04909059770450316   -0.00794766763958003
0.01110406382044989   -0.016735271074222378   -0.0036856966840509513
0.0012700611456907805   -0.01623623038682421   -0.004286751474082828
0.0019656968885311864   -0.04934952332339715   -0.007913725945737653
0.011117525792784038   -0.016826141125283706   -0.004398168935578423
0.0014224542799492334   -0.016213375723204478   -0.004353928037655916
0.0019656968885311864   -0.04934952332339715   -0.007913725945737653
0.020330030522448094   -0.049893940379071064   -0.007972637693852147
0.011117525792784038   -0.016826141125283706   -0.004398168935578423
0.020227740494602967   -0.04962482495289959   -0.008518389901673331
0.0014224542799492334   -0.016213375723204478   -0.004353928037655916
0.011064496539920057   -0.016585825171291143   -0.005081009966875371
0.020227740494602967   -0.04962482495289959   -0.008518389901673331
0.011117525792784038   -0.016826141125283706   -0.004398168935578423
0.0014224542799492334   -0.016213375723204478   -0.004353928037655916
0.020227740494602967   -0.04962482495289959   -0.008518389901673331
0.0020692023125732646   -0.049334412275132106   -0.007936072791662441
0.0019656968885311864   -0.04934952332339715   -0.007913725945737653
0.0014224542799492334   -0.016213375723204478   -0.004353928037655916
0.020227740494602967   -0.04962482495289959   -0.008518389901673331
0.0019656968885311864   -0.04934952332339715   -0.007913725945737653
0.011117525792784038   -0.016826141125283706   -0.004398168935578423
0.0014224542799492334   -0.016213375723204478   -0.004353928037655916
0.0020692023125732646   -0.049334412275132106   -0.007936072791662441
0.011064496539920057   -0.016585825171291143   -0.005081009966875371
0.0016291154269286177   -0.015860160422393965   -0.004422400591217894
0.0020692023125732646   -0.049334412275132106   -0.007936072791662441
0.020227740494602967   -0.04962482495289959   -0.008518389901673331
0.011064496539920057   -0.016585825171291143   -0.005081009966875371
0.020166094995991247   -0.049012859015157756   -0.009107669350663984
0.0016291154269286177   -0.015860160422393965   -0.004422400591217894
0.011273579926707479   -0.015940192480521493   -0.005750335650638587
0.020166094995991247   -0.049012859015157756   -0.009107669350663984
0.011064496539920057   -0.016585825171291143   -0.005081009966875371
0.0016291154269286177   -0.015860160422393965   -0.004422400591217894
0.020166094995991247   -0.049012859015157756   -0.009107669350663984
0.002180810679929266   -0.04903686541609185   -0.008015607734555579
0.0020692023125732646   -0.049334412275132106   -0.007936072791662441
0.0016291154269286177   -0.015860160422393965   -0.004422400591217894
0.020166094995991247   -0.049012859015157756   -0.009107669350663984
0.0020692023125732646   -0.049334412275132106   -0.007936072791662441
0.011064496539920057   -0.016585825171291143   -0.005081009966875371
0.01110406382044989   -0.016735271074222378   -0.0036856966840509513
0.020245182090634813   -0.049894120242877364   -0.007490576112155245
0.025035789464345985   -0.018713632570408166   -0.003473319390085078
0.011117525792784038   -0.016826141125283706   -0.004398168935578423
0.020245182090634813   -0.049894120242877364   -0.007490576112155245
0.04248241335219039   -0.051389144465415815   -0.007362806736794505
0.025035789464345985   -0.018713632570408166   -0.003473319390085078
0.041605894044304245   -0.05125176541309191   -0.008446204118886573
0.011117525792784038   -0.016826141125283706   -0.004398168935578423
0.023504485488107966   -0.018511403033305864   -0.00508678732053287
0.041605894044304245   -0.05125176541309191   -0.008446204118886573
0.025035789464345985   -0.018713632570408166   -0.003473319390085078
0.011117525792784038   -0.016826141125283706   -0.004398168935578423
0.041605894044304245   -0.05125176541309191   -0.008446204118886573
0.020330030522448094   -0.049893940379071064   -0.007972637693852147
0.020245182090634813   -0.049894120242877364   -0.007490576112155245
0.011117525792784038   -0.016826141125283706   -0.004398168935578423
0.041605894044304245   -0.05125176541309191   -0.008446204118886573
0.020245182090634813   -0.049894120242877364   -0.007490576112155245
0.025035789464345985   -0.018713632570408166   -0.003473319390085078
0.011117525792784038   -0.016826141125283706   -0.004398168935578423
0.020330030522448094   -0.049893940379071064   -0.007972637693852147
0.023504485488107966   -0.018511403033305864   -0.00508678732053287
0.011064496539920057   -0.016585825171291143   -0.005081009966875371
0.020330030522448094   -0.049893940379071064   -0.007972637693852147
0.041605894044304245   -0.05125176541309191   -0.008446204118886573
0.023504485488107966   -0.018511403033305864   -0.00508678732053287
0.04082360769072068   -0.050836434700635785   -0.009663709022434751
0.011064496539920057   -0.016585825171291143   -0.005081009966875371
0.02279589432025306   -0.018126481479889846   -0.006450669647856137
0.04082360769072068   -0.050836434700635785   -0.009663709022434751
0.023504485488107966   -0.018511403033305864   -0.00508678732053287
0.011064496539920057   -0.016585825171291143   -0.005081009966875371
0.04082360769072068   -0.050836434700635785   -0.009663709022434751
0.020227740494602967   -0.04962482495289959   -0.008518389901673331
0.020330030522448094   -0.049893940379071064   -0.007972637693852147
0.011064496539920057   -0.016585825171291143   -0.005081009966875371
0.04082360769072068   -0.050836434700635785   -0.009663709022434751
0.020330030522448094   -0.049893940379071064   -0.007972637693852147
0.023504485488107966   -0.018511403033305864   -0.00508678732053287
0.011064496539920057   -0.016585825171291143   -0.005081009966875371
0.020227740494602967   -0.04962482495289959   -0.008518389901673331
0.02279589432025306   -0.018126481479889846   -0.006450669647856137
0.011273579926707479   -0.015940192480521493   -0.005750335650638587
0.020227740494602967   -0.04962482495289959   -0.008518389901673331
0.04082360769072068   -0.050836434700635785   -0.009663709022434751
0.02279589432025306   -0.018126481479889846   -0.006450669647856137
0.039656582237240466   -0.04990967874749213   -0.010930299512253392
0.011273579926707479   -0.015940192480521493   -0.005750335650638587
0.021744785815357364   -0.017139968012354657   -0.00789282399512163
0.039656582237240466   -0.04990967874749213   -0.010930299512253392
0.02279589432025306   -0.018126481479889846   -0.006450669647856137
0.011273579926707479   -0.015940192480521493   -0.005750335650638587
0.039656582237240466   -0.04990967874749213   -0.010930299512253392
0.020166094995991247   -0.049012859015157756   -0.009107669350663984
0.020227740494602967   -0.04962482495289959   -0.008518389901673331
0.011273579926707479   -0.015940192480521493   -0.005750335650638587
0.039656582237240466   -0.04990967874749213   -0.010930299512253392
0.020227740494602967   -0.04962482495289959   -0.008518389901673331
0.02279589432025306   -0.018126481479889846   -0.006450669647856137
-0.05269396336440308   -0.0515459047828144   -0.012714868003625533
-0.07225445641532593   -0.09678333232043417   -0.014475811394552184
-0.03363454166012272   -0.04985456949707816   -0.010461306267371255
-0.05428252603336811   -0.052737396178213   -0.011020414762177978
-0.07225445641532593   -0.09678333232043417   -0.014475811394552184
-0.046448671427514604   -0.09548892330761682   -0.012644695085441408
-0.03363454166012272   -0.04985456949707816   -0.010461306267371255
-0.046559418946038926   -0.09622759449182511   -0.011834515390497508
-0.05428252603336811   -0.052737396178213   -0.011020414762177978
-0.033681669189016356   -0.05070900022281712   -0.00941850490919179
-0.046559418946038926   -0.09622759449182511   -0.011834515390497508
-0.03363454166012272   -0.04985456949707816   -0.010461306267371255
-0.05428252603336811   -0.052737396178213   -0.011020414762177978
-0.046559418946038926   -0.09622759449182511   -0.011834515390497508
-0.07355151860578757   -0.09779234376999708   -0.013209578572177933
-0.07225445641532593   -0.09678333232043417   -0.014475811394552184
-0.05428252603336811   -0.052737396178213   -0.011020414762177978
-0.046559418946038926   -0.09622759449182511   -0.011834515390497508
-0.07225445641532593   -0.09678333232043417   -0.014475811394552184
-0.03363454166012272   -0.04985456949707816   -0.010461306267371255
-0.05428252603336811   -0.052737396178213   -0.011020414762177978
-0.07355151860578757   -0.09779234376999708   -0.013209578572177933
-0.033681669189016356   -0.05070900022281712   -0.00941850490919179
-0.05538936571966227   -0.0534096516543011   -0.009360592070172527
-0.07355151860578757   -0.09779234376999708   -0.013209578572177933
-0.046559418946038926   -0.09622759449182511   -0.011834515390497508
-0.033681669189016356   -0.05070900022281712   -0.00941850490919179
-0.04668874673131507   -0.09674095988749956   -0.011082647183312018
-0.05538936571966227   -0.0534096516543011   -0.009360592070172527
-0.033822263928878236   -0.051229192511655815   -0.00841593511444253
-0.04668874673131507   -0.09674095988749956   -0.011082647183312018
-0.033681669189016356   -0.05070900022281712   -0.00941850490919179
-0.05538936571966227   -0.0534096516543011   -0.009360592070172527
-0.04668874673131507   -0.09674095988749956   -0.011082647183312018
-0.07437328848354209   -0.09842429196412675   -0.012028853356351803
-0.07355151860578757   -0.09779234376999708   -0.013209578572177933
-0.05538936571966227   -0.0534096516543011   -0.009360592070172527
-0.04668874673131507   -0.09674095988749956   -0.011082647183312018
-0.07355151860578757   -0.09779234376999708   -0.013209578572177933
-0.033681669189016356   -0.05070900022281712   -0.00941850490919179
-0.05538936571966227   -0.0534096516543011   -0.009360592070172527
-0.07437328848354209   -0.09842429196412675   -0.012028853356351803
-0.033822263928878236   -0.051229192511655815   -0.00841593511444253
-0.056697944801368666   -0.0537985371087102   -0.007849396744984617
-0.07437328848354209   -0.09842429196412675   -0.012028853356351803
-0.04668874673131507   -0.09674095988749956   -0.011082647183312018
-0.033822263928878236   -0.051229192511655815   -0.00841593511444253
-0.0466106461030281   -0.09707765751426674   -0.01037668924814831
-0.056697944801368666   -0.0537985371087102   -0.007849396744984617
-0.03372973747038286   -0.05149801544968481   -0.007477015861575433
-0.0466106461030281   -0.09707765751426674   -0.01037668924814831
-0.033822263928878236   -0.051229192511655815   -0.00841593511444253
-0.056697944801368666   -0.0537985371087102   -0.007849396744984617
-0.0466106461030281   -0.09707765751426674   -0.01037668924814831
-0.07530830312050055   -0.09887707583977806   -0.010941624264179604
-0.07437328848354209   -0.09842429196412675   -0.012028853356351803
-0.056697944801368666   -0.0537985371087102   -0.007849396744984617
-0.0466106461030281   -0.09707765751426674   -0.01037668924814831
-0.07437328848354209   -0.09842429196412675   -0.012028853356351803
-0.033822263928878236   -0.051229192511655815   -0.00841593511444253
-0.03363454166012272   -0.04985456949707816   -0.010461306267371255
-0.046448671427514604   -0.09548892330761682   -0.012644695085441408
-0.015593525993674326   -0.049067620003632254   -0.008922262633200968
-0.033681669189016356   -0.05070900022281712   -0.00941850490919179
-0.046448671427514604   -0.09548892330761682   -0.012644695085441408
-0.02210506712847729   -0.0948442686978976   -0.011372142209781869
-0.015593525993674326   -0.049067620003632254   -0.008922262633200968
-0.022058567803382934   -0.09531722803294758   -0.010915109823220652
-0.033681669189016356   -0.05070900022281712   -0.00941850490919179
-0.015466543176495772   -0.04961206412957842   -0.008388576069040568
-0.022058567803382934   -0.09531722803294758   -0.010915109823220652
-0.015593525993674326   -0.049067620003632254   -0.008922262633200968
-0.033681669189016356   -0.05070900022281712   -0.00941850490919179
-0.022058567803382934   -0.09531722803294758   -0.010915109823220652
-0.046559418946038926   -0.09622759449182511   -0.011834515390497508
-0.046448671427514604   -0.09548892330761682   -0.012644695085441408
-0.033681669189016356   -0.05070900022281712   -0.00941850490919179
-0.022058567803382934   -0.09531722803294758   -0.010915109823220652
-0.046448671427514604   -0.09548892330761682   -0.012644695085441408
-0.015593525993674326   -0.049067620003632254   -0.008922262633200968
-0.033681669189016356   -0.05070900022281712   -0.00941850490919179
-0.046559418946038926   -0.09622759449182511   -0.011834515390497508
-0.015466543176495772   -0.04961206412957842   -0.008388576069040568
-0.033822263928878236   -0.051229192511655815   -0.00841593511444253
-0.046559418946038926   -0.09622759449182511   -0.011834515390497508
-0.022058567803382934   -0.09531722803294758   -0.010915109823220652
-0.015466543176495772   -0.04961206412957842   -0.008388576069040568
-0.021999564090718245   -0.09559477500058405   -0.010513657640558827
-0.033822263928878236   -0.051229192511655815   -0.00841593511444253
-0.015354866077692552   -0.049875866653926154   -0.00790445830855601
-0.021999564090718245   -0.09559477500058405   -0.010513657640558827
-0.015466543176495772   -0.04961206412957842   -0.008388576069040568
-0.033822263928878236   -0.051229192511655815   -0.00841593511444253
-0.021999564090718245   -0.09559477500058405   -0.010513657640558827
-0.04668874673131507   -0.09674095988749956   -0.011082647183312018
-0.046559418946038926   -0.09622759449182511   -0.011834515390497508
-0.033822263928878236   -0.051229192511655815   -0.00841593511444253
-0.021999564090718245   -0.09559477500058405   -0.010513657640558827
-0.046559418946038926   -0.09622759449182511   -0.011834515390497508
-0.015466543176495772   -0.04961206412957842   -0.008388576069040568
-0.033822263928878236   -0.051229192511655815   -0.00841593511444253
-0.04668874673131507   -0.09674095988749956   -0.011082647183312018
-0.015354866077692552   -0.049875866653926154   -0.00790445830855601
-0.03372973747038286   -0.05149801544968481   -0.007477015861575433
-0.04668874673131507   -0.09674095988749956   -0.011082647183312018
-0.021999564090718245   -0.09559477500058405   -0.010513657640558827
-0.015354866077692552   -0.049875866653926154   -0.00790445830855601
-0.021897028156900852   -0.09568087927101689   -0.010167594858116948
-0.03372973747038286   -0.05149801544968481   -0.007477015861575433
-0.015184689296698528   -0.049868990597708815   -0.007482597015139129
-0.021897028156900852   -0.09568087927101689   -0.010167594858116948
-0.015354866077692552   -0.049875866653926154   -0.00790445830855601
-0.03372973747038286   -0.05149801544968481   -0.007477015861575433
-0.021897028156900852   -0.09568087927101689   -0.010167594858116948
-0.0466106461030281   -0.09707765751426674   -0.01037668924814831
-0.04668874673131507   -0.09674095988749956   -0.011082647183312018
-0.03372973747038286   -0.05149801544968481   -0.007477015861575433
-0.021897028156900852   -0.09568087927101689   -0.010167594858116948
-0.04668874673131507   -0.09674095988749956   -0.011082647183312018
-0.015354866077692552   -0.049875866653926154   -0.00790445830855601
-0.015593525993674326   -0.049067620003632254   -0.008922262633200968
-0.02210506712847729   -0.0948442686978976   -0.011372142209781869
0.0018083045330398576   -0.04909059770450316   -0.00794766763958003
-0.015466543176495772   -0.04961206412957842   -0.008388576069040568
-0.02210506712847729   -0.0948442686978976   -0.011372142209781869
0.0015273500999698367   -0.09481009973156419   -0.010581497801306638
0.0018083045330398576   -0.04909059770450316   -0.00794766763958003
0.0016199887458968041   -0.09502172801504473   -0.01047566444506527
-0.015466543176495772   -0.04961206412957842   -0.008388576069040568
0.0019656968885311864   -0.04934952332339715   -0.007913725945737653
0.0016199887458968041   -0.09502172801504473   -0.01047566444506527
0.0018083045330398576   -0.04909059770450316   -0.00794766763958003
-0.015466543176495772   -0.04961206412957842   -0.008388576069040568
0.0016199887458968041   -0.09502172801504473   -0.01047566444506527
-0.022058567803382934   -0.09531722803294758   -0.010915109823220652
-0.02210506712847729   -0.0948442686978976   -0.011372142209781869
-0.015466543176495772   -0.04961206412957842   -0.008388576069040568
0.0016199887458968041   -0.09502172801504473   -0.01047566444506527
-0.02210506712847729   -0.0948442686978976   -0.011372142209781869
0.0018083045330398576   -0.04909059770450316   -0.00794766763958003
-0.015466543176495772   -0.04961206412957842   -0.008388576069040568
-0.022058567803382934   -0.09531722803294758   -0.010915109823220652
0.0019656968885311864   -0.04934952332339715   -0.007913725945737653
-0.015354866077692552   -0.049875866653926154   -0.00790445830855601
-0.022058567803382934   -0.09531722803294758   -0.010915109823220652
0.0016199887458968041   -0.09502172801504473   -0.01047566444506527
0.0019656968885311864   -0.04934952332339715   -0.007913725945737653
0.001676218336928681   -0.09503874567525525   -0.010423929797195568
-0.015354866077692552   -0.049875866653926154   -0.00790445830855601
0.0020692023125732646   -0.049334412275132106   -0.007936072791662441
0.001676218336928681   -0.09503874567525525   -0.010423929797195568
0.0019656968885311864   -0.04934952332339715   -0.007913725945737653
-0.015354866077692552   -0.049875866653926154   -0.00790445830855601
0.001676218336928681   -0.09503874567525525   -0.010423929797195568
-0.021999564090718245   -0.09559477500058405   -0.010513657640558827
-0.022058567803382934   -0.09531722803294758   -0.010915109823220652
-0.015354866077692552   -0.049875866653926154   -0.00790445830855601
0.001676218336928681   -0.09503874567525525   -0.010423929797195568
-0.022058567803382934   -0.09531722803294758   -0.010915109823220652
0.0019656968885311864   -0.04934952332339715   -0.007913725945737653
-0.015354866077692552   -0.049875866653926154   -0.00790445830855601
-0.021999564090718245   -0.09559477500058405   -0.010513657640558827
0.0020692023125732646   -0.049334412275132106   -0.007936072791662441
-0.015184689296698528   -0.049868990597708815   -0.007482597015139129
-0.021999564090718245   -0.09559477500058405   -0.010513657640558827
0.001676218336928681   -0.09503874567525525   -0.010423929797195568
0.0020692023125732646   -0.049334412275132106   -0.007936072791662441
0.0017143424797662257   -0.0948582394393303   -0.01042961472500199
-0.015184689296698528   -0.049868990597708815   -0.007482597015139129
0.002180810679929266   -0.04903686541609185   -0.008015607734555579
0.0017143424797662257   -0.0948582394393303   -0.01042961472500199
0.0020692023125732646   -0.049334412275132106   -0.007936072791662441
-0.015184689296698528   -0.049868990597708815   -0.007482597015139129
0.0017143424797662257   -0.0948582394393303   -0.01042961472500199
-0.021897028156900852   -0.09568087927101689   -0.010167594858116948
-0.021999564090718245   -0.09559477500058405   -0.010513657640558827
-0.015184689296698528   -0.049868990597708815   -0.007482597015139129
0.0017143424797662257   -0.0948582394393303   -0.01042961472500199
-0.021999564090718245   -0.09559477500058405   -0.010513657640558827
0.0020692023125732646   -0.049334412275132106   -0.007936072791662441
0.0018083045330398576   -0.04909059770450316   -0.00794766763958003
0.0015273500999698367   -0.09481009973156419   -0.010581497801306638
0.020245182090634813   -0.049894120242877364   -0.007490576112155245
0.0019656968885311864   -0.04934952332339715   -0.007913725945737653
0.0015273500999698367   -0.09481009973156419   -0.010581497801306638
0.026165927150350998   -0.09535020666626864   -0.01025899819928966
0.020245182090634813   -0.049894120242877364   -0.007490576112155245
0.02624484419116803   -0.09532260708431675   -0.010511727985169632
0.0019656968885311864   -0.04934952332339715   -0.007913725945737653
0.020330030522448094   -0.049893940379071064   -0.007972637693852147
0.02624484419116803   -0.09532260708431675   -0.010511727985169632
0.020245182090634813   -0.049894120242877364   -0.007490576112155245
0.0019656968885311864   -0.04934952332339715   -0.007913725945737653
0.02624484419116803   -0.09532260708431675   -0.010511727985169632
0.0016199887458968041   -0.09502172801504473   -0.01047566444506527
0.0015273500999698367   -0.09481009973156419   -0.010581497801306638
0.0019656968885311864   -0.04934952332339715   -0.007913725945737653
0.02624484419116803   -0.09532260708431675   -0.010511727985169632
0.0015273500999698367   -0.09481009973156419   -0.010581497801306638
0.020245182090634813   -0.049894120242877364   -0.007490576112155245
0.0019656968885311864   -0.04934952332339715   -0.007913725945737653
0.0016199887458968041   -0.09502172801504473   -0.01047566444506527
0.020330030522448094   -0.049893940379071064   -0.007972637693852147
0.0020692023125732646   -0.049334412275132106   -0.007936072791662441
0.0016199887458968041   -0.09502172801504473   -0.01047566444506527
0.02624484419116803   -0.09532260708431675   -0.010511727985169632
0.020330030522448094   -0.049893940379071064   -0.007972637693852147
0.026168473044961733   -0.09510428368167458   -0.010814581207456434
0.0020692023125732646   -0.049334412275132106   -0.007936072791662441
0.020227740494602967   -0.04962482495289959   -0.008518389901673331
0.026168473044961733   -0.09510428368167458   -0.010814581207456434
0.020330030522448094   -0.049893940379071064   -0.007972637693852147
0.0020692023125732646   -0.049334412275132106   -0.007936072791662441
0.026168473044961733   -0.09510428368167458   -0.010814581207456434
0.001676218336928681   -0.09503874567525525   -0.010423929797195568
0.0016199887458968041   -0.09502172801504473   -0.01047566444506527
0.0020692023125732646   -0.049334412275132106   -0.007936072791662441
0.026168473044961733   -0.09510428368167458   -0.010814581207456434
0.0016199887458968041   -0.09502172801504473   -0.01047566444506527
0.020330030522448094   -0.049893940379071064   -0.007972637693852147
0.0020692023125732646   -0.049334412275132106   -0.007936072791662441
0.001676218336928681   -0.09503874567525525   -0.010423929797195568
0.020227740494602967   -0.04962482495289959   -0.008518389901673331
0.002180810679929266   -0.04903686541609185   -0.008015607734555579
0.001676218336928681   -0.09503874567525525   -0.010423929797195568
0.026168473044961733   -0.09510428368167458   -0.010814581207456434
0.020227740494602967   -0.04962482495289959   -0.008518389901673331
0.026059631246404896   -0.09464832847897726   -0.011173469736824777
0.002180810679929266   -0.04903686541609185   -0.008015607734555579
0.020166094995991247   -0.049012859015157756   -0.009107669350663984
0.026059631246404896   -0.09464832847897726   -0.011173469736824777
0.020227740494602967   -0.04962482495289959   -0.008518389901673331
0.002180810679929266   -0.04903686541609185   -0.008015607734555579
0.026059631246404896   -0.09464832847897726   -0.011173469736824777
0.0017143424797662257   -0.0948582394393303   -0.01042961472500199
0.001676218336928681   -0.09503874567525525   -0.010423929797195568
0.002180810679929266   -0.04903686541609185   -0.008015607734555579
0.026059631246404896   -0.09464832847897726   -0.011173469736824777
0.001676218336928681   -0.09503874567525525   -0.010423929797195568
0.020227740494602967   -0.04962482495289959   -0.008518389901673331
0.020245182090634813   -0.049894120242877364   -0.007490576112155245
0.026165927150350998   -0.09535020666626864   -0.01025899819928966
0.04248241335219039   -0.051389144465415815   -0.007362806736794505
0.020330030522448094   -0.049893940379071064   -0.007972637693852147
0.026165927150350998   -0.09535020666626864   -0.01025899819928966
0.05422044252865708   -0.09633178186662318   -0.010258714710989124
0.04248241335219039   -0.051389144465415815   -0.007362806736794505
0.053734507067086004   -0.0961668191180438   -0.010917091954977568
0.020330030522448094   -0.049893940379071064   -0.007972637693852147
0.041605894044304245   -0.05125176541309191   -0.008446204118886573
0.053734507067086004   -0.0961668191180438   -0.010917091954977568
0.04248241335219039   -0.051389144465415815   -0.007362806736794505
0.020330030522448094   -0.049893940379071064   -0.007972637693852147
0.053734507067086004   -0.0961668191180438   -0.010917091954977568
0.02624484419116803   -0.09532260708431675   -0.010511727985169632
0.026165927150350998   -0.09535020666626864   -0.01025899819928966
0.020330030522448094   -0.049893940379071064   -0.007972637693852147
0.053734507067086004   -0.0961668191180438   -0.010917091954977568
0.026165927150350998   -0.09535020666626864   -0.01025899819928966
0.04248241335219039   -0.051389144465415815   -0.007362806736794505
0.020330030522448094   -0.049893940379071064   -0.007972637693852147
0.02624484419116803   -0.09532260708431675   -0.010511727985169632
0.041605894044304245   -0.05125176541309191   -0.008446204118886573
0.020227740494602967   -0.04962482495289959   -0.008518389901673331
0.02624484419116803   -0.09532260708431675   -0.010511727985169632
0.053734507067086004   -0.0961668191180438   -0.010917091954977568
0.041605894044304245   -0.05125176541309191   -0.008446204118886573
0.05325144612996687   -0.09583012231819882   -0.011665846886745766
0.020227740494602967   -0.04962482495289959   -0.008518389901673331
0.04082360769072068   -0.050836434700635785   -0.009663709022434751
0.05325144612996687   -0.09583012231819882   -0.011665846886745766
0.041605894044304245   -0.05125176541309191   -0.008446204118886573
0.020227740494602967   -0.04962482495289959   -0.008518389901673331
0.05325144612996687   -0.09583012231819882   -0.011665846886745766
0.026168473044961733   -0.09510428368167458   -0.010814581207456434
0.02624484419116803   -0.09532260708431675   -0.010511727985169632
0.020227740494602967   -0.04962482495289959   -0.008518389901673331
0.05325144612996687   -0.09583012231819882   -0.011665846886745766
0.02624484419116803   -0.09532260708431675   -0.010511727985169632
0.041605894044304245   -0.05125176541309191   -0.008446204118886573
0.020227740494602967   -0.04962482495289959   -0.008518389901673331
0.026168473044961733   -0.09510428368167458   -0.010814581207456434
0.04082360769072068   -0.050836434700635785   -0.009663709022434751
0.020166094995991247   -0.049012859015157756   -0.009107669350663984
0.026168473044961733   -0.09510428368167458   -0.010814581207456434
0.05325144612996687   -0.09583012231819882   -0.011665846886745766
0.04082360769072068   -0.050836434700635785   -0.009663709022434751
0.05240244946473519   -0.09512084846010611   -0.01250507221867666
0.020166094995991247   -0.049012859015157756   -0.009107669350663984
0.039656582237240466   -0.04990967874749213   -0.010930299512253392
0.05240244946473519   -0.09512084846010611   -0.01250507221867666
0.04082360769072068   -0.050836434700635785   -0.009663709022434751
0.020166094995991247   -0.049012859015157756   -0.009107669350663984
0.05240244946473519   -0.09512084846010611   -0.01250507221867666
0.026059631246404896   -0.09464832847897726   -0.011173469736824777
0.026168473044961733   -0.09510428368167458   -0.010814581207456434
0.020166094995991247   -0.049012859015157756   -0.009107669350663984
0.05240244946473519   -0.09512084846010611   -0.01250507221867666
0.026168473044961733   -0.09510428368167458   -0.010814581207456434
0.04082360769072068   -0.050836434700635785   -0.009663709022434751
-0.07225445641532593   -0.09678333232043417   -0.014475811394552184
-0.08634418435632421   -0.15049079040005559   -0.015429364163308897
-0.046448671427514604   -0.09548892330761682   -0.012644695085441408
-0.07355151860578757   -0.09779234376999708   -0.013209578572177933
-0.08634418435632421   -0.15049079040005559   -0.015429364163308897
-0.05602947333814902   -0.1496654625319239   -0.013933440639197438
-0.046448671427514604   -0.09548892330761682   -0.012644695085441408
-0.056105599262485796   -0.15030204152629367   -0.013352655156210336
-0.07355151860578757   -0.09779234376999708   -0.013209578572177933
-0.046559418946038926   -0.09622759449182511   -0.011834515390497508
-0.056105599262485796   -0.15030204152629367   -0.013352655156210336
-0.046448671427514604   -0.09548892330761682   -0.012644695085441408
-0.07355151860578757   -0.09779234376999708   -0.013209578572177933
-0.056105599262485796   -0.15030204152629367   -0.013352655156210336
-0.08722289341914417   -0.1513515715007116   -0.01458643020423673
-0.08634418435632421   -0.15049079040005559   -0.015429364163308897
-0.07355151860578757   -0.09779234376999708   -0.013209578572177933
-0.056105599262485796   -0.15030204152629367   -0.013352655156210336
-0.08634418435632421   -0.15049079040005559   -0.015429364163308897
-0.046448671427514604   -0.09548892330761682   -0.012644695085441408
-0.07355151860578757   -0.09779234376999708   -0.013209578572177933
-0.08722289341914417   -0.1513515715007116   -0.01458643020423673
-0.046559418946038926   -0.09622759449182511   -0.011834515390497508
-0.07437328848354209   -0.09842429196412675   -0.012028853356351803
-0.08722289341914417   -0.1513515715007116   -0.01458643020423673
-0.056105599262485796   -0.15030204152629367   -0.013352655156210336
-0.046559418946038926   -0.09622759449182511   -0.011834515390497508
-0.056162701944879795   -0.15080599798492345   -0.012829592540981925
-0.07437328848354209   -0.09842429196412675   -0.012028853356351803
-0.04668874673131507   -0.09674095988749956   -0.011082647183312018
-0.056162701944879795   -0.15080599798492345   -0.012829592540981925
-0.046559418946038926   -0.09622759449182511   -0.011834515390497508
-0.07437328848354209   -0.09842429196412675   -0.012028853356351803
-0.056162701944879795   -0.15080599798492345   -0.012829592540981925
-0.08773139536901266   -0.15195972932817048   -0.013824011403124016
-0.08722289341914417   -0.1513515715007116   -0.01458643020423673
-0.07437328848354209   -0.09842429196412675   -0.012028853356351803
-0.056162701944879795   -0.15080599798492345   -0.012829592540981925
-0.08722289341914417   -0.1513515715007116   -0.01458643020423673
-0.046559418946038926   -0.09622759449182511   -0.011834515390497508
-0.07437328848354209   -0.09842429196412675   -0.012028853356351803
-0.08773139536901266   -0.15195972932817048   -0.013824011403124016
-0.04668874673131507   -0.09674095988749956   -0.011082647183312018
-0.07530830312050055   -0.09887707583977806   -0.010941624264179604
-0.08773139536901266   -0.15195972932817048   -0.013824011403124016
-0.056162701944879795   -0.15080599798492345   -0.012829592540981925
-0.04668874673131507   -0.09674095988749956   -0.011082647183312018
-0.05605533823810961   -0.1512190464032571   -0.012356634387750276
-0.07530830312050055   -0.09887707583977806   -0.010941624264179604
-0.0466106461030281   -0.09707765751426674   -0.01037668924814831
-0.05605533823810961   -0.1512190464032571   -0.012356634387750276
-0.04668874673131507   -0.09674095988749956   -0.011082647183312018
-0.07530830312050055   -0.09887707583977806   -0.010941624264179604
-0.05605533823810961   -0.1512190464032571   -0.012356634387750276
-0.08825589990704594   -0.15250340935341397   -0.013151627998095728
-0.08773139536901266   -0.15195972932817048   -0.013824011403124016
-0.07530830312050055   -0.09887707583977806   -0.010941624264179604
-0.05605533823810961   -0.1512190464032571   -0.012356634387750276
-0.08773139536901266   -0.15195972932817048   -0.013824011403124016
-0.04668874673131507   -0.09674095988749956   -0.011082647183312018
-0.046448671427514604   -0.09548892330761682   -0.012644695085441408
-0.05602947333814902   -0.1496654625319239   -0.013933440639197438
-0.02210506712847729   -0.0948442686978976   -0.011372142209781869
-0.046559418946038926   -0.09622759449182511   -0.011834515390497508
-0.05602947333814902   -0.1496654625319239   -0.013933440639197438
-0.027602940503550062   -0.14924002605705966   -0.012897331449308071
-0.02210506712847729   -0.0948442686978976   -0.011372142209781869
-0.027558987830973988   -0.14964008720258068   -0.012514866167386512
-0.046559418946038926   -0.09622759449182511   -0.011834515390497508
-0.022058567803382934   -0.09531722803294758   -0.010915109823220652
-0.027558987830973988   -0.14964008720258068   -0.012514866167386512
-0.02210506712847729   -0.0948442686978976   -0.011372142209781869
-0.046559418946038926   -0.09622759449182511   -0.011834515390497508
-0.027558987830973988   -0.14964008720258068   -0.012514866167386512
-0.056105599262485796   -0.15030204152629367   -0.013352655156210336
-0.05602947333814902   -0.1496654625319239   -0.013933440639197438
-0.046559418946038926   -0.09622759449182511   -0.011834515390497508
-0.027558987830973988   -0.14964008720258068   -0.012514866167386512
-0.05602947333814902   -0.1496654625319239   -0.013933440639197438
-0.02210506712847729   -0.0948442686978976   -0.011372142209781869
-0.046559418946038926   -0.09622759449182511   -0.011834515390497508
-0.056105599262485796   -0.15030204152629367   -0.013352655156210336
-0.022058567803382934   -0.09531722803294758   -0.010915109823220652
-0.04668874673131507   -0.09674095988749956   -0.011082647183312018
-0.056105599262485796   -0.15030204152629367   -0.013352655156210336
-0.027558987830973988   -0.14964008720258068   -0.012514866167386512
-0.022058567803382934   -0.09531722803294758   -0.010915109823220652
-0.027495727607314755   -0.14992908828653845   -0.012189299669990975
-0.04668874673131507   -0.09674095988749956   -0.011082647183312018
-0.021999564090718245   -0.09559477500058405   -0.010513657640558827
-0.027495727607314755   -0.14992908828653845   -0.012189299669990975
-0.022058567803382934   -0.09531722803294758   -0.010915109823220652
-0.04668874673131507   -0.09674095988749956   -0.011082647183312018
-0.027495727607314755   -0.14992908828653845   -0.012189299669990975
-0.056162701944879795   -0.15080599798492345   -0.012829592540981925
-0.056105599262485796   -0.15030204152629367   -0.013352655156210336
-0.04668874673131507   -0.09674095988749956   -0.011082647183312018
-0.027495727607314755   -0.14992908828653845   -0.012189299669990975
-0.056105599262485796   -0.15030204152629367   -0.013352655156210336
-0.022058567803382934   -0.09531722803294758   -0.010915109823220652
-0.04668874673131507   -0.09674095988749956   -0.011082647183312018
-0.056162701944879795   -0.15080599798492345   -0.012829592540981925
-0.021999564090718245   -0.09559477500058405   -0.010513657640558827
-0.0466106461030281   -0.09707765751426674   -0.01037668924814831
-0.056162701944879795   -0.15080599798492345   -0.012829592540981925
-0.027495727607314755   -0.14992908828653845   -0.012189299669990975
-0.021999564090718245   -0.09559477500058405   -0.010513657640558827
-0.02739730775150461   -0.1501089145989491   -0.011921543275346622
-0.0466106461030281   -0.09707765751426674   -0.01037668924814831
-0.021897028156900852   -0.09568087927101689   -0.010167594858116948
-0.02739730775150461   -0.1501089145989491   -0.011921543275346622
-0.021999564090718245   -0.09559477500058405   -0.010513657640558827
-0.0466106461030281   -0.09707765751426674   -0.01037668924814831
-0.02739730775150461   -0.1501089145989491   -0.011921543275346622
-0.05605533823810961   -0.1512190464032571   -0.012356634387750276
-0.056162701944879795   -0.15080599798492345   -0.012829592540981925
-0.0466106461030281   -0.09707765751426674   -0.01037668924814831
-0.02739730775150461   -0.1501089145989491   -0.011921543275346622
-0.056162701944879795   -0.15080599798492345   -0.012829592540981925
-0.021999564090718245   -0.09559477500058405   -0.010513657640558827
-0.02210506712847729   -0.0948442686978976   -0.011372142209781869
-0.027602940503550062   -0.14924002605705966   -0.012897331449308071
0.0015273500999698367   -0.09481009973156419   -0.010581497801306638
-0.022058567803382934   -0.09531722803294758   -0.010915109823220652
-0.027602940503550062   -0.14924002605705966   -0.012897331449308071
5.374071642958881e-05   -0.14916756641416934   -0.01229216258268399
0.0015273500999698367   -0.09481009973156419   -0.010581497801306638
0.00014379095199344144   -0.14933009820531962   -0.012109455799748332
-0.022058567803382934   -0.09531722803294758   -0.010915109823220652
0.0016199887458968041   -0.09502172801504473   -0.01047566444506527
0.00014379095199344144   -0.14933009820531962   -0.012109455799748332
0.0015273500999698367   -0.09481009973156419   -0.010581497801306638
-0.022058567803382934   -0.09531722803294758   -0.010915109823220652
0.00014379095199344144   -0.14933009820531962   -0.012109455799748332
-0.027558987830973988   -0.14964008720258068   -0.012514866167386512
-0.027602940503550062   -0.14924002605705966   -0.012897331449308071
-0.022058567803382934   -0.09531722803294758   -0.010915109823220652
0.00014379095199344144   -0.14933009820531962   -0.012109455799748332
-0.027602940503550062   -0.14924002605705966   -0.012897331449308071
0.0015273500999698367   -0.09481009973156419   -0.010581497801306638
-0.022058567803382934   -0.09531722803294758   -0.010915109823220652
-0.027558987830973988   -0.14964008720258068   -0.012514866167386512
0.0016199887458968041   -0.09502172801504473   -0.01047566444506527
-0.021999564090718245   -0.09559477500058405   -0.010513657640558827
-0.027558987830973988   -0.14964008720258068   -0.012514866167386512
0.00014379095199344144   -0.14933009820531962   -0.012109455799748332
0.0016199887458968041   -0.09502172801504473   -0.01047566444506527
0.00020545740105855112   -0.1493808148666388   -0.011982896314568742
-0.021999564090718245   -0.09559477500058405   -0.010513657640558827
0.001676218336928681   -0.09503874567525525   -0.010423929797195568
0.00020545740105855112   -0.1493808148666388   -0.011982896314568742
0.0016199887458968041   -0.09502172801504473   -0.01047566444506527
-0.021999564090718245   -0.09559477500058405   -0.010513657640558827
0.00020545740105855112   -0.1493808148666388   -0.011982896314568742
-0.027495727607314755   -0.14992908828653845   -0.012189299669990975
-0.027558987830973988   -0.14964008720258068   -0.012514866167386512
-0.021999564090718245   -0.09559477500058405   -0.010513657640558827
0.00020545740105855112   -0.1493808148666388   -0.011982896314568742
-0.027558987830973988   -0.14964008720258068   -0.012514866167386512
0.0016199887458968041   -0.09502172801504473   -0.01047566444506527
-0.021999564090718245   -0.09559477500058405   -0.010513657640558827
-0.027495727607314755   -0.14992908828653845   -0.012189299669990975
0.001676218336928681   -0.09503874567525525   -0.010423929797195568
-0.021897028156900852   -0.09568087927101689   -0.010167594858116948
-0.027495727607314755   -0.14992908828653845   -0.012189299669990975
0.00020545740105855112   -0.1493808148666388   -0.011982896314568742
0.001676218336928681   -0.09503874567525525   -0.010423929797195568
0.00024134704967264205   -0.14931819043558406   -0.011914994396558487
-0.021897028156900852   -0.09568087927101689   -0.010167594858116948
0.0017143424797662257   -0.0948582394393303   -0.01042961472500199
0.00024134704967264205   -0.14931819043558406   -0.011914994396558487
0.001676218336928681   -0.09503874567525525   -0.010423929797195568
-0.021897028156900852   -0.09568087927101689   -0.010167594858116948
0.00024134704967264205   -0.14931819043558406   -0.011914994396558487
-0.02739730775150461   -0.1501089145989491   -0.011921543275346622
-0.027495727607314755   -0.14992908828653845   -0.012189299669990975
-0.021897028156900852   -0.09568087927101689   -0.010167594858116948
0.00024134704967264205   -0.14931819043558406   -0.011914994396558487
-0.027495727607314755   -0.14992908828653845   -0.012189299669990975
0.001676218336928681   -0.09503874567525525   -0.010423929797195568
0.0015273500999698367   -0.09481009973156419   -0.010581497801306638
5.374071642958881e-05   -0.14916756641416934   -0.01229216258268399
0.026165927150350998   -0.09535020666626864   -0.01025899819928966
0.0016199887458968041   -0.09502172801504473   -0.01047566444506527
5.374071642958881e-05   -0.14916756641416934   -0.01229216258268399
0.02866098572760779   -0.1494181403583686   -0.01211517574394673
0.026165927150350998   -0.09535020666626864   -0.01025899819928966
0.028772413335821583   -0.14935721841277058   -0.012136505123443525
0.0016199887458968041   -0.09502172801504473   -0.01047566444506527
0.02624484419116803   -0.09532260708431675   -0.010511727985169632
0.028772413335821583   -0.14935721841277058   -0.012136505123443525
0.026165927150350998   -0.09535020666626864   -0.01025899819928966
0.0016199887458968041   -0.09502172801504473   -0.01047566444506527
0.028772413335821583   -0.14935721841277058   -0.012136505123443525
0.00014379095199344144   -0.14933009820531962   -0.012109455799748332
5.374071642958881e-05   -0.14916756641416934   -0.01229216258268399
0.0016199887458968041   -0.09502172801504473   -0.01047566444506527
0.028772413335821583   -0.14935721841277058   -0.012136505123443525
5.374071642958881e-05   -0.14916756641416934   -0.01229216258268399
0.026165927150350998   -0.09535020666626864   -0.01025899819928966
0.0016199887458968041   -0.09502172801504473   -0.01047566444506527
0.00014379095199344144   -0.14933009820531962   -0.012109455799748332
0.02624484419116803   -0.09532260708431675   -0.010511727985169632
0.001676218336928681   -0.09503874567525525   -0.010423929797195568
0.00014379095199344144   -0.14933009820531962   -0.012109455799748332
0.028772413335821583   -0.14935721841277058   -0.012136505123443525
0.02624484419116803   -0.09532260708431675   -0.010511727985169632
0.028771920183006745   -0.14919271005030604   -0.012210981942166601
0.001676218336928681   -0.09503874567525525   -0.010423929797195568
0.026168473044961733   -0.09510428368167458   -0.010814581207456434
0.028771920183006745   -0.14919271005030604   -0.012210981942166601
0.02624484419116803   -0.09532260708431675   -0.010511727985169632
0.001676218336928681   -0.09503874567525525   -0.010423929797195568
0.028771920183006745   -0.14919271005030604   -0.012210981942166601
0.00020545740105855112   -0.1493808148666388   -0.011982896314568742
0.00014379095199344144   -0.14933009820531962   -0.012109455799748332
0.001676218336928681   -0.09503874567525525   -0.010423929797195568
0.028771920183006745   -0.14919271005030604   -0.012210981942166601
0.00014379095199344144   -0.14933009820531962   -0.012109455799748332
0.02624484419116803   -0.09532260708431675   -0.010511727985169632
0.001676218336928681   -0.09503874567525525   -0.010423929797195568
0.00020545740105855112   -0.1493808148666388   -0.011982896314568742
0.026168473044961733   -0.09510428368167458   -0.010814581207456434
0.0017143424797662257   -0.0948582394393303   -0.01042961472500199
0.00020545740105855112   -0.1493808148666388   -0.011982896314568742
0.028771920183006745   -0.14919271005030604   -0.012210981942166601
0.026168473044961733   -0.09510428368167458   -0.010814581207456434
0.028700025137001293   -0.14888312263199946   -0.01234060022932347
0.0017143424797662257   -0.0948582394393303   -0.01042961472500199
0.026059631246404896   -0.09464832847897726   -0.011173469736824777
0.028700025137001293   -0.14888312263199946   -0.01234060022932347
0.026168473044961733   -0.09510428368167458   -0.010814581207456434
0.0017143424797662257   -0.0948582394393303   -0.01042961472500199
0.028700025137001293   -0.14888312263199946   -0.01234060022932347
0.00024134704967264205   -0.14931819043558406   -0.011914994396558487
0.00020545740105855112   -0.1493808148666388   -0.011982896314568742
0.0017143424797662257   -0.0948582394393303   -0.01042961472500199
0.028700025137001293   -0.14888312263199946   -0.01234060022932347
0.00020545740105855112   -0.1493808148666388   -0.011982896314568742
0.026168473044961733   -0.09510428368167458   -0.010814581207456434
0.026165927150350998   -0.09535020666626864   -0.01025899819928966
0.02866098572760779   -0.1494181403583686   -0.01211517574394673
0.05422044252865708   -0.09633178186662318   -0.010258714710989124
0.02624484419116803   -0.09532260708431675   -0.010511727985169632
0.02866098572760779   -0.1494181403583686   -0.01211517574394673
0.06025132364006161   -0.14988016140435134   -0.012271318675256148
0.05422044252865708   -0.09633178186662318   -0.010258714710989124
0.0601814094183258   -0.14966824549959587   -0.01251379748968627
0.02624484419116803   -0.09532260708431675   -0.010511727985169632
0.053734507067086004   -0.0961668191180438   -0.010917091954977568
0.0601814094183258   -0.14966824549959587   -0.01251379748968627
0.05422044252865708   -0.09633178186662318   -0.010258714710989124
0.02624484419116803   -0.09532260708431675   -0.010511727985169632
0.0601814094183258   -0.14966824549959587   -0.01251379748968627
0.028772413335821583   -0.14935721841277058   -0.012136505123443525
0.02866098572760779   -0.1494181403583686   -0.01211517574394673
0.02624484419116803   -0.09532260708431675   -0.010511727985169632
0.0601814094183258   -0.14966824549959587   -0.01251379748968627
0.02866098572760779   -0.1494181403583686   -0.01211517574394673
0.05422044252865708   -0.09633178186662318   -0.010258714710989124
0.02624484419116803   -0.09532260708431675   -0.010511727985169632
0.028772413335821583   -0.14935721841277058   -0.012136505123443525
0.053734507067086004   -0.0961668191180438   -0.010917091954977568
0.026168473044961733   -0.09510428368167458   -0.010814581207456434
0.028772413335821583   -0.14935721841277058   -0.012136505123443525
0.0601814094183258   -0.14966824549959587   -0.01251379748968627
0.053734507067086004   -0.0961668191180438   -0.010917091954977568
0.06001809417861251   -0.14939917836139652   -0.012842442919233666
0.026168473044961733   -0.09510428368167458   -0.010814581207456434
0.05325144612996687   -0.09583012231819882   -0.011665846886745766
0.06001809417861251   -0.14939917836139652   -0.012842442919233666
0.053734507067086004   -0.0961668191180438   -0.010917091954977568
0.026168473044961733   -0.09510428368167458   -0.010814581207456434
0.06001809417861251   -0.14939917836139652   -0.012842442919233666
0.028771920183006745   -0.14919271005030604   -0.012210981942166601
0.028772413335821583   -0.14935721841277058   -0.012136505123443525
0.026168473044961733   -0.09510428368167458   -0.010814581207456434
0.06001809417861251   -0.14939917836139652   -0.012842442919233666
0.028772413335821583   -0.14935721841277058   -0.012136505123443525
0.053734507067086004   -0.0961668191180438   -0.010917091954977568
0.026168473044961733   -0.09510428368167458   -0.010814581207456434
0.028771920183006745   -0.14919271005030604   -0.012210981942166601
0.05325144612996687   -0.09583012231819882   -0.011665846886745766
0.026059631246404896   -0.09464832847897726   -0.011173469736824777
0.028771920183006745   -0.14919271005030604   -0.012210981942166601
0.06001809417861251   -0.14939917836139652   -0.012842442919233666
0.05325144612996687   -0.09583012231819882   -0.011665846886745766
0.05959335299479592   -0.14888344261538036   -0.013256631470398473
0.026059631246404896   -0.09464832847897726   -0.011173469736824777
0.05240244946473519   -0.09512084846010611   -0.01250507221867666
0.05959335299479592   -0.14888344261538036   -0.013256631470398473
0.05325144612996687   -0.09583012231819882   -0.011665846886745766
0.026059631246404896   -0.09464832847897726   -0.011173469736824777
0.05959335299479592   -0.14888344261538036   -0.013256631470398473
0.028700025137001293   -0.14888312263199946   -0.01234060022932347
0.028771920183006745   -0.14919271005030604   -0.012210981942166601
0.026059631246404896   -0.09464832847897726   -0.011173469736824777
0.05959335299479592   -0.14888344261538036   -0.013256631470398473
0.028771920183006745   -0.14919271005030604   -0.012210981942166601
0.05325144612996687   -0.09583012231819882   -0.011665846886745766
-0.08634418435632421   -0.15049079040005559   -0.015429364163308897
-0.09490194048712697   -0.20901612019069057   -0.015702350042692187
-0.05602947333814902   -0.1496654625319239   -0.013933440639197438
-0.08722289341914417   -0.1513515715007116   -0.01458643020423673
-0.09490194048712697   -0.20901612019069057   -0.015702350042692187
-0.06233187353603446   -0.2086782034481369   -0.01450818405286857
-0.05602947333814902   -0.1496654625319239   -0.013933440639197438
-0.062314390480582627   -0.2092222539596382   -0.014151351892973138
-0.08722289341914417   -0.1513515715007116   -0.01458643020423673
-0.056105599262485796   -0.15030204152629367   -0.013352655156210336
-0.062314390480582627   -0.2092222539596382   -0.014151351892973138
-0.05602947333814902   -0.1496654625319239   -0.013933440639197438
-0.08722289341914417   -0.1513515715007116   -0.01458643020423673
-0.062314390480582627   -0.2092222539596382   -0.014151351892973138
-0.09531767730264473   -0.20974708349365956   -0.015265758899423066
-0.09490194048712697   -0.20901612019069057   -0.015702350042692187
-0.08722289341914417   -0.1513515715007116   -0.01458643020423673
-0.062314390480582627   -0.2092222539596382   -0.014151351892973138
-0.09490194048712697   -0.20901612019069057   -0.015702350042692187
-0.05602947333814902   -0.1496654625319239   -0.013933440639197438
-0.08722289341914417   -0.1513515715007116   -0.01458643020423673
-0.09531767730264473   -0.20974708349365956   -0.015265758899423066
-0.056105599262485796   -0.15030204152629367   -0.013352655156210336
-0.08773139536901266   -0.15195972932817048   -0.013824011403124016
-0.09531767730264473   -0.20974708349365956   -0.015265758899423066
-0.062314390480582627   -0.2092222539596382   -0.014151351892973138
-0.056105599262485796   -0.15030204152629367   -0.013352655156210336
-0.062238171794473614   -0.2097233332175419   -0.013853744693981698
-0.08773139536901266   -0.15195972932817048   -0.013824011403124016
-0.056162701944879795   -0.15080599798492345   -0.012829592540981925
-0.062238171794473614   -0.2097233332175419   -0.013853744693981698
-0.056105599262485796   -0.15030204152629367   -0.013352655156210336
-0.08773139536901266   -0.15195972932817048   -0.013824011403124016
-0.062238171794473614   -0.2097233332175419   -0.013853744693981698
-0.0954560647307744   -0.21034229418726438   -0.014914436420582744
-0.09531767730264473   -0.20974708349365956   -0.015265758899423066
-0.08773139536901266   -0.15195972932817048   -0.013824011403124016
-0.062238171794473614   -0.2097233332175419   -0.013853744693981698
-0.09531767730264473   -0.20974708349365956   -0.015265758899423066
-0.056105599262485796   -0.15030204152629367   -0.013352655156210336
-0.08773139536901266   -0.15195972932817048   -0.013824011403124016
-0.0954560647307744   -0.21034229418726438   -0.014914436420582744
-0.056162701944879795   -0.15080599798492345   -0.012829592540981925
-0.08825589990704594   -0.15250340935341397   -0.013151627998095728
-0.0954560647307744   -0.21034229418726438   -0.014914436420582744
-0.062238171794473614   -0.2097233332175419   -0.013853744693981698
-0.056162701944879795   -0.15080599798492345   -0.012829592540981925
-0.06203924300266376   -0.21021956054631327   -0.013611281442524716
-0.08825589990704594   -0.15250340935341397   -0.013151627998095728
-0.05605533823810961   -0.1512190464032571   -0.012356634387750276
-0.06203924300266376   -0.21021956054631327   -0.013611281442524716
-0.056162701944879795   -0.15080599798492345   -0.012829592540981925
-0.08825589990704594   -0.15250340935341397   -0.013151627998095728
-0.06203924300266376   -0.21021956054631327   -0.013611281442524716
-0.09550908189584872   -0.21098747935018186   -0.01465562889906973
-0.0954560647307744   -0.21034229418726438   -0.014914436420582744
-0.08825589990704594   -0.15250340935341397   -0.013151627998095728
-0.06203924300266376   -0.21021956054631327   -0.013611281442524716
-0.0954560647307744   -0.21034229418726438   -0.014914436420582744
-0.056162701944879795   -0.15080599798492345   -0.012829592540981925
-0.05602947333814902   -0.1496654625319239   -0.013933440639197438
-0.06233187353603446   -0.2086782034481369   -0.01450818405286857
-0.027602940503550062   -0.14924002605705966   -0.012897331449308071
-0.056105599262485796   -0.15030204152629367   -0.013352655156210336
-0.06233187353603446   -0.2086782034481369   -0.01450818405286857
-0.03207484392633618   -0.2084858523312792   -0.01369495686422888
-0.027602940503550062   -0.14924002605705966   -0.012897331449308071
-0.03196897184242163   -0.20881574561466318   -0.013385004488778732
-0.056105599262485796   -0.15030204152629367   -0.013352655156210336
-0.027558987830973988   -0.14964008720258068   -0.012514866167386512
-0.03196897184242163   -0.20881574561466318   -0.013385004488778732
-0.027602940503550062   -0.14924002605705966   -0.012897331449308071
-0.056105599262485796   -0.15030204152629367   -0.013352655156210336
-0.03196897184242163   -0.20881574561466318   -0.013385004488778732
-0.062314390480582627   -0.2092222539596382   -0.014151351892973138
-0.06233187353603446   -0.2086782034481369   -0.01450818405286857
-0.056105599262485796   -0.15030204152629367   -0.013352655156210336
-0.03196897184242163   -0.20881574561466318   -0.013385004488778732
-0.06233187353603446   -0.2086782034481369   -0.01450818405286857
-0.027602940503550062   -0.14924002605705966   -0.012897331449308071
-0.056105599262485796   -0.15030204152629367   -0.013352655156210336
-0.062314390480582627   -0.2092222539596382   -0.014151351892973138
-0.027558987830973988   -0.14964008720258068   -0.012514866167386512
-0.056162701944879795   -0.15080599798492345   -0.012829592540981925
-0.062314390480582627   -0.2092222539596382   -0.014151351892973138
-0.03196897184242163   -0.20881574561466318   -0.013385004488778732
-0.027558987830973988   -0.14964008720258068   -0.012514866167386512
-0.031837413091385845   -0.20911794955958515   -0.013134363168091067
-0.056162701944879795   -0.15080599798492345   -0.012829592540981925
-0.027495727607314755   -0.14992908828653845   -0.012189299669990975
-0.031837413091385845   -0.20911794955958515   -0.013134363168091067
-0.027558987830973988   -0.14964008720258068   -0.012514866167386512
-0.056162701944879795   -0.15080599798492345   -0.012829592540981925
-0.031837413091385845   -0.20911794955958515   -0.013134363168091067
-0.062238171794473614   -0.2097233332175419   -0.013853744693981698
-0.062314390480582627   -0.2092222539596382   -0.014151351892973138
-0.056162701944879795   -0.15080599798492345   -0.012829592540981925
-0.031837413091385845   -0.20911794955958515   -0.013134363168091067
-0.062314390480582627   -0.2092222539596382   -0.014151351892973138
-0.027558987830973988   -0.14964008720258068   -0.012514866167386512
-0.056162701944879795   -0.15080599798492345   -0.012829592540981925
-0.062238171794473614   -0.2097233332175419   -0.013853744693981698
-0.027495727607314755   -0.14992908828653845   -0.012189299669990975
-0.05605533823810961   -0.1512190464032571   -0.012356634387750276
-0.062238171794473614   -0.2097233332175419   -0.013853744693981698
-0.031837413091385845   -0.20911794955958515   -0.013134363168091067
-0.027495727607314755   -0.14992908828653845   -0.012189299669990975
-0.031678009640138075   -0.2093934440559606   -0.012944423001179678
-0.05605533823810961   -0.1512190464032571   -0.012356634387750276
-0.02739730775150461   -0.1501089145989491   -0.011921543275346622
-0.031678009640138075   -0.2093934440559606   -0.012944423001179678
-0.027495727607314755   -0.14992908828653845   -0.012189299669990975
-0.05605533823810961   -0.1512190464032571   -0.012356634387750276
-0.031678009640138075   -0.2093934440559606   -0.012944423001179678
-0.06203924300266376   -0.21021956054631327   -0.013611281442524716
-0.062238171794473614   -0.2097233332175419   -0.013853744693981698
-0.05605533823810961   -0.1512190464032571   -0.012356634387750276
-0.031678009640138075   -0.2093934440559606   -0.012944423001179678
-0.062238171794473614   -0.2097233332175419   -0.013853744693981698
-0.027495727607314755   -0.14992908828653845   -0.012189299669990975
-0.027602940503550062   -0.14924002605705966   -0.012897331449308071
-0.03207484392633618   -0.2084858523312792   -0.01369495686422888
5.374071642958881e-05   -0.14916756641416934   -0.01229216258268399
-0.027558987830973988   -0.14964008720258068   -0.012514866167386512
-0.03207484392633618   -0.2084858523312792   -0.01369495686422888
-0.002636138934621519   -0.20837670764498314   -0.013272441313921739
5.374071642958881e-05   -0.14916756641416934   -0.01229216258268399
-0.002485593797911364   -0.20848876665895388   -0.013012381950867655
-0.027558987830973988   -0.14964008720258068   -0.012514866167386512
0.00014379095199344144   -0.14933009820531962   -0.012109455799748332
-0.002485593797911364   -0.20848876665895388   -0.013012381950867655
5.374071642958881e-05   -0.14916756641416934   -0.01229216258268399
-0.027558987830973988   -0.14964008720258068   -0.012514866167386512
-0.002485593797911364   -0.20848876665895388   -0.013012381950867655
-0.03196897184242163   -0.20881574561466318   -0.013385004488778732
-0.03207484392633618   -0.2084858523312792   -0.01369495686422888
-0.027558987830973988   -0.14964008720258068   -0.012514866167386512
-0.002485593797911364   -0.20848876665895388   -0.013012381950867655
-0.03207484392633618   -0.2084858523312792   -0.01369495686422888
5.374071642958881e-05   -0.14916756641416934   -0.01229216258268399
-0.027558987830973988   -0.14964008720258068   -0.012514866167386512
-0.03196897184242163   -0.20881574561466318   -0.013385004488778732
0.00014379095199344144   -0.14933009820531962   -0.012109455799748332
-0.027495727607314755   -0.14992908828653845   -0.012189299669990975
-0.03196897184242163   -0.20881574561466318   -0.013385004488778732
-0.002485593797911364   -0.20848876665895388   -0.013012381950867655
0.00014379095199344144   -0.14933009820531962   -0.012109455799748332
-0.00235613615559272   -0.20857121478751203   -0.012811091370414437
-0.027495727607314755   -0.14992908828653845   -0.012189299669990975
0.00020545740105855112   -0.1493808148666388   -0.011982896314568742
-0.00235613615559272   -0.20857121478751203   -0.012811091370414437
0.00014379095199344144   -0.14933009820531962   -0.012109455799748332
-0.027495727607314755   -0.14992908828653845   -0.012189299669990975
-0.00235613615559272   -0.20857121478751203   -0.012811091370414437
-0.031837413091385845   -0.20911794955958515   -0.013134363168091067
-0.03196897184242163   -0.20881574561466318   -0.013385004488778732
-0.027495727607314755   -0.14992908828653845   -0.012189299669990975
-0.00235613615559272   -0.20857121478751203   -0.012811091370414437
-0.03196897184242163   -0.20881574561466318   -0.013385004488778732
0.00014379095199344144   -0.14933009820531962   -0.012109455799748332
-0.027495727607314755   -0.14992908828653845   -0.012189299669990975
-0.031837413091385845   -0.20911794955958515   -0.013134363168091067
0.00020545740105855112   -0.1493808148666388   -0.011982896314568742
-0.02739730775150461   -0.1501089145989491   -0.011921543275346622
-0.031837413091385845   -0.20911794955958515   -0.013134363168091067
-0.00235613615559272   -0.20857121478751203   -0.012811091370414437
0.00020545740105855112   -0.1493808148666388   -0.011982896314568742
-0.002259263434231196   -0.20862365233260993   -0.01267073167018982
-0.02739730775150461   -0.1501089145989491   -0.011921543275346622
0.00024134704967264205   -0.14931819043558406   -0.011914994396558487
-0.002259263434231196   -0.20862365233260993   -0.01267073167018982
0.00020545740105855112   -0.1493808148666388   -0.011982896314568742
-0.02739730775150461   -0.1501089145989491   -0.011921543275346622
-0.002259263434231196   -0.20862365233260993   -0.01267073167018982
-0.031678009640138075   -0.2093934440559606   -0.012944423001179678
-0.031837413091385845   -0.20911794955958515   -0.013134363168091067
-0.02739730775150461   -0.1501089145989491   -0.011921543275346622
-0.002259263434231196   -0.20862365233260993   -0.01267073167018982
-0.031837413091385845   -0.20911794955958515   -0.013134363168091067
0.00020545740105855112   -0.1493808148666388   -0.011982896314568742
5.374071642958881e-05   -0.14916756641416934   -0.01229216258268399
-0.002636138934621519   -0.20837670764498314   -0.013272441313921739
0.02866098572760779   -0.1494181403583686   -0.01211517574394673
0.00014379095199344144   -0.14933009820531962   -0.012109455799748332
-0.002636138934621519   -0.20837670764498314   -0.013272441313921739
0.027702637192493162   -0.20833202277673477   -0.013244037543138196
0.02866098572760779   -0.1494181403583686   -0.01211517574394673
0.027903805376618723   -0.2082332969989037   -0.013036409735862405
0.00014379095199344144   -0.14933009820531962   -0.012109455799748332
0.028772413335821583   -0.14935721841277058   -0.012136505123443525
0.027903805376618723   -0.2082332969989037   -0.013036409735862405
0.02866098572760779   -0.1494181403583686   -0.01211517574394673
0.00014379095199344144   -0.14933009820531962   -0.012109455799748332
0.027903805376618723   -0.2082332969989037   -0.013036409735862405
-0.002485593797911364   -0.20848876665895388   -0.013012381950867655
-0.002636138934621519   -0.20837670764498314   -0.013272441313921739
0.00014379095199344144   -0.14933009820531962   -0.012109455799748332
0.027903805376618723   -0.2082332969989037   -0.013036409735862405
-0.002636138934621519   -0.20837670764498314   -0.013272441313921739
0.02866098572760779   -0.1494181403583686   -0.01211517574394673
0.00014379095199344144   -0.14933009820531962   -0.012109455799748332
-0.002485593797911364   -0.20848876665895388   -0.013012381950867655
0.028772413335821583   -0.14935721841277058   -0.012136505123443525
0.00020545740105855112   -0.1493808148666388   -0.011982896314568742
-0.002485593797911364   -0.20848876665895388   -0.013012381950867655
0.027903805376618723   -0.2082332969989037   -0.013036409735862405
0.028772413335821583   -0.14935721841277058   -0.012136505123443525
0.028035500773472662   -0.20811689048653711   -0.012885890504041961
0.00020545740105855112   -0.1493808148666388   -0.011982896314568742
0.028771920183006745   -0.14919271005030604   -0.012210981942166601
0.028035500773472662   -0.20811689048653711   -0.012885890504041961
0.028772413335821583   -0.14935721841277058   -0.012136505123443525
0.00020545740105855112   -0.1493808148666388   -0.011982896314568742
0.028035500773472662   -0.20811689048653711   -0.012885890504041961
-0.00235613615559272   -0.20857121478751203   -0.012811091370414437
-0.002485593797911364   -0.20848876665895388   -0.013012381950867655
0.00020545740105855112   -0.1493808148666388   -0.011982896314568742
0.028035500773472662   -0.20811689048653711   -0.012885890504041961
-0.002485593797911364   -0.20848876665895388   -0.013012381950867655
0.028772413335821583   -0.14935721841277058   -0.012136505123443525
0.00020545740105855112   -0.1493808148666388   -0.011982896314568742
-0.00235613615559272   -0.20857121478751203   -0.012811091370414437
0.028771920183006745   -0.14919271005030604   -0.012210981942166601
0.00024134704967264205   -0.14931819043558406   -0.011914994396558487
-0.00235613615559272   -0.20857121478751203   -0.012811091370414437
0.028035500773472662   -0.20811689048653711   -0.012885890504041961
0.028771920183006745   -0.14919271005030604   -0.012210981942166601
0.028056077894063402   -0.2079441939303519   -0.012791290753865484
0.00024134704967264205   -0.14931819043558406   -0.011914994396558487
0.028700025137001293   -0.14888312263199946   -0.01234060022932347
0.028056077894063402   -0.2079441939303519   -0.012791290753865484
0.028771920183006745   -0.14919271005030604   -0.012210981942166601
0.00024134704967264205   -0.14931819043558406   -0.011914994396558487
0.028056077894063402   -0.2079441939303519   -0.012791290753865484
-0.002259263434231196   -0.20862365233260993   -0.01267073167018982
-0.00235613615559272   -0.20857121478751203   -0.012811091370414437
0.00024134704967264205   -0.14931819043558406   -0.011914994396558487
0.028056077894063402   -0.2079441939303519   -0.012791290753865484
-0.00235613615559272   -0.20857121478751203   -0.012811091370414437
0.028771920183006745   -0.14919271005030604   -0.012210981942166601
0.02866098572760779   -0.1494181403583686   -0.01211517574394673
0.027702637192493162   -0.20833202277673477   -0.013244037543138196
0.06025132364006161   -0.14988016140435134   -0.012271318675256148
0.028772413335821583   -0.14935721841277058   -0.012136505123443525
0.027702637192493162   -0.20833202277673477   -0.013244037543138196
0.060587189402876725   -0.20827225818959577   -0.01356899501800554
0.06025132364006161   -0.14988016140435134   -0.012271318675256148
0.06098397823740589   -0.20800720953656113   -0.013401644974558265
0.028772413335821583   -0.14935721841277058   -0.012136505123443525
0.0601814094183258   -0.14966824549959587   -0.01251379748968627
0.06098397823740589   -0.20800720953656113   -0.013401644974558265
0.06025132364006161   -0.14988016140435134   -0.012271318675256148
0.028772413335821583   -0.14935721841277058   -0.012136505123443525
0.06098397823740589   -0.20800720953656113   -0.013401644974558265
0.027903805376618723   -0.2082332969989037   -0.013036409735862405
0.027702637192493162   -0.20833202277673477   -0.013244037543138196
0.028772413335821583   -0.14935721841277058   -0.012136505123443525
0.06098397823740589   -0.20800720953656113   -0.013401644974558265
0.027702637192493162   -0.20833202277673477   -0.013244037543138196
0.06025132364006161   -0.14988016140435134   -0.012271318675256148
0.028772413335821583   -0.14935721841277058   -0.012136505123443525
0.027903805376618723   -0.2082332969989037   -0.013036409735862405
0.0601814094183258   -0.14966824549959587   -0.01251379748968627
0.028771920183006745   -0.14919271005030604   -0.012210981942166601
0.027903805376618723   -0.2082332969989037   -0.013036409735862405
0.06098397823740589   -0.20800720953656113   -0.013401644974558265
0.0601814094183258   -0.14966824549959587   -0.01251379748968627
0.06118901250394923   -0.2077971177183491   -0.01332098186891125
0.028771920183006745   -0.14919271005030604   -0.012210981942166601
0.06001809417861251   -0.14939917836139652   -0.012842442919233666
0.06118901250394923   -0.2077971177183491   -0.01332098186891125
0.0601814094183258   -0.14966824549959587   -0.01251379748968627
0.028771920183006745   -0.14919271005030604   -0.012210981942166601
0.06118901250394923   -0.2077971177183491   -0.01332098186891125
0.028035500773472662   -0.20811689048653711   -0.012885890504041961
0.027903805376618723   -0.2082332969989037   -0.013036409735862405
0.028771920183006745   -0.14919271005030604   -0.012210981942166601
0.06118901250394923   -0.2077971177183491   -0.01332098186891125
0.027903805376618723   -0.2082332969989037   -0.013036409735862405
0.0601814094183258   -0.14966824549959587   -0.01251379748968627
0.028771920183006745   -0.14919271005030604   -0.012210981942166601
0.028035500773472662   -0.20811689048653711   -0.012885890504041961
0.06001809417861251   -0.14939917836139652   -0.012842442919233666
0.028700025137001293   -0.14888312263199946   -0.01234060022932347
0.028035500773472662   -0.20811689048653711   -0.012885890504041961
0.06118901250394923   -0.2077971177183491   -0.01332098186891125
0.06001809417861251   -0.14939917836139652   -0.012842442919233666
0.06122808967285913   -0.20745760212980457   -0.013328479005582752
0.028700025137001293   -0.14888312263199946   -0.01234060022932347
0.05959335299479592   -0.14888344261538036   -0.013256631470398473
0.06122808967285913   -0.20745760212980457   -0.013328479005582752
0.06001809417861251   -0.14939917836139652   -0.012842442919233666
0.028700025137001293   -0.14888312263199946   -0.01234060022932347
0.06122808967285913   -0.20745760212980457   -0.013328479005582752
0.028056077894063402   -0.2079441939303519   -0.012791290753865484
0.028035500773472662   -0.20811689048653711   -0.012885890504041961
0.028700025137001293   -0.14888312263199946   -0.01234060022932347
0.06122808967285913   -0.20745760212980457   -0.013328479005582752
0.028035500773472662   -0.20811689048653711   -0.012885890504041961
0.06001809417861251   -0.14939917836139652   -0.012842442919233666
-0.09490194048712697   -0.20901612019069057   -0.015702350042692187
-0.09791343866839786   -0.2686556158647335   -0.015428042760478742
-0.06233187353603446   -0.2086782034481369   -0.01450818405286857
-0.09531767730264473   -0.20974708349365956   -0.015265758899423066
-0.09791343866839786   -0.2686556158647335   -0.015428042760478742
-0.06535481170715053   -0.26881012714431696   -0.014542840452989715
-0.06233187353603446   -0.2086782034481369   -0.01450818405286857
-0.06518422434693952   -0.2692594179802748   -0.014407124226240636
-0.09531767730264473   -0.20974708349365956   -0.015265758899423066
-0.062314390480582627   -0.2092222539596382   -0.014151351892973138
-0.06518422434693952   -0.2692594179802748   -0.014407124226240636
-0.06233187353603446   -0.2086782034481369   -0.01450818405286857
-0.09531767730264473   -0.20974708349365956   -0.015265758899423066
-0.06518422434693952   -0.2692594179802748   -0.014407124226240636
-0.09780818868965228   -0.26925645438966556   -0.01539720404327811
-0.09791343866839786   -0.2686556158647335   -0.015428042760478742
-0.09531767730264473   -0.20974708349365956   -0.015265758899423066
-0.06518422434693952   -0.2692594179802748   -0.014407124226240636
-0.09791343866839786   -0.2686556158647335   -0.015428042760478742
-0.06233187353603446   -0.2086782034481369   -0.01450818405286857
-0.09531767730264473   -0.20974708349365956   -0.015265758899423066
-0.09780818868965228   -0.26925645438966556   -0.01539720404327811
-0.062314390480582627   -0.2092222539596382   -0.014151351892973138
-0.0954560647307744   -0.21034229418726438   -0.014914436420582744
-0.09780818868965228   -0.26925645438966556   -0.01539720404327811
-0.06518422434693952   -0.2692594179802748   -0.014407124226240636
-0.062314390480582627   -0.2092222539596382   -0.014151351892973138
-0.0649152240690837   -0.26975619572126125   -0.014332665795567717
-0.0954560647307744   -0.21034229418726438   -0.014914436420582744
-0.062238171794473614   -0.2097233332175419   -0.013853744693981698
-0.0649152240690837   -0.26975619572126125   -0.014332665795567717
-0.062314390480582627   -0.2092222539596382   -0.014151351892973138
-0.0954560647307744   -0.21034229418726438   -0.014914436420582744
-0.0649152240690837   -0.26975619572126125   -0.014332665795567717
-0.09751476472392469   -0.2698386074926616   -0.015457933014220758
-0.09780818868965228   -0.26925645438966556   -0.01539720404327811
-0.0954560647307744   -0.21034229418726438   -0.014914436420582744
-0.0649152240690837   -0.26975619572126125   -0.014332665795567717
-0.09780818868965228   -0.26925645438966556   -0.01539720404327811
-0.062314390480582627   -0.2092222539596382   -0.014151351892973138
-0.0954560647307744   -0.21034229418726438   -0.014914436420582744
-0.09751476472392469   -0.2698386074926616   -0.015457933014220758
-0.062238171794473614   -0.2097233332175419   -0.013853744693981698
-0.09550908189584872   -0.21098747935018186   -0.01465562889906973
-0.09751476472392469   -0.2698386074926616   -0.015457933014220758
-0.0649152240690837   -0.26975619572126125   -0.014332665795567717
-0.062238171794473614   -0.2097233332175419   -0.013853744693981698
-0.06456511876192284   -0.27033459449820835   -0.014318545712683033
-0.09550908189584872   -0.21098747935018186   -0.01465562889906973
-0.06203924300266376   -0.21021956054631327   -0.013611281442524716
-0.06456511876192284   -0.27033459449820835   -0.014318545712683033
-0.062238171794473614   -0.2097233332175419   -0.013853744693981698
-0.09550908189584872   -0.21098747935018186   -0.01465562889906973
-0.06456511876192284   -0.27033459449820835   -0.014318545712683033
-0.09703463482519843   -0.2705874042920962   -0.015614765430507339
-0.09751476472392469   -0.2698386074926616   -0.015457933014220758
-0.09550908189584872   -0.21098747935018186   -0.01465562889906973
-0.06456511876192284   -0.27033459449820835   -0.014318545712683033
-0.09751476472392469   -0.2698386074926616   -0.015457933014220758
-0.062238171794473614   -0.2097233332175419   -0.013853744693981698
-0.06233187353603446   -0.2086782034481369   -0.01450818405286857
-0.06535481170715053   -0.26881012714431696   -0.014542840452989715
-0.03207484392633618   -0.2084858523312792   -0.01369495686422888
-0.062314390480582627   -0.2092222539596382   -0.014151351892973138
-0.06535481170715053   -0.26881012714431696   -0.014542840452989715
-0.035535393294348155   -0.26884475143127906   -0.013954193023331236
-0.03207484392633618   -0.2084858523312792   -0.01369495686422888
-0.03530517207419586   -0.26910305744291724   -0.013714805218962596
-0.062314390480582627   -0.2092222539596382   -0.014151351892973138
-0.03196897184242163   -0.20881574561466318   -0.013385004488778732
-0.03530517207419586   -0.26910305744291724   -0.013714805218962596
-0.03207484392633618   -0.2084858523312792   -0.01369495686422888
-0.062314390480582627   -0.2092222539596382   -0.014151351892973138
-0.03530517207419586   -0.26910305744291724   -0.013714805218962596
-0.06518422434693952   -0.2692594179802748   -0.014407124226240636
-0.06535481170715053   -0.26881012714431696   -0.014542840452989715
-0.062314390480582627   -0.2092222539596382   -0.014151351892973138
-0.03530517207419586   -0.26910305744291724   -0.013714805218962596
-0.06535481170715053   -0.26881012714431696   -0.014542840452989715
-0.03207484392633618   -0.2084858523312792   -0.01369495686422888
-0.062314390480582627   -0.2092222539596382   -0.014151351892973138
-0.06518422434693952   -0.2692594179802748   -0.014407124226240636
-0.03196897184242163   -0.20881574561466318   -0.013385004488778732
-0.062238171794473614   -0.2097233332175419   -0.013853744693981698
-0.06518422434693952   -0.2692594179802748   -0.014407124226240636
-0.03530517207419586   -0.26910305744291724   -0.013714805218962596
-0.03196897184242163   -0.20881574561466318   -0.013385004488778732
-0.035044341414697595   -0.26941619236021713   -0.013536935068308598
-0.062238171794473614   -0.2097233332175419   -0.013853744693981698
-0.031837413091385845   -0.20911794955958515   -0.013134363168091067
-0.035044341414697595   -0.26941619236021713   -0.013536935068308598
-0.03196897184242163   -0.20881574561466318   -0.013385004488778732
-0.062238171794473614   -0.2097233332175419   -0.013853744693981698
-0.035044341414697595   -0.26941619236021713   -0.013536935068308598
-0.0649152240690837   -0.26975619572126125   -0.014332665795567717
-0.06518422434693952   -0.2692594179802748   -0.014407124226240636
-0.062238171794473614   -0.2097233332175419   -0.013853744693981698
-0.035044341414697595   -0.26941619236021713   -0.013536935068308598
-0.06518422434693952   -0.2692594179802748   -0.014407124226240636
-0.03196897184242163   -0.20881574561466318   -0.013385004488778732
-0.062238171794473614   -0.2097233332175419   -0.013853744693981698
-0.0649152240690837   -0.26975619572126125   -0.014332665795567717
-0.031837413091385845   -0.20911794955958515   -0.013134363168091067
-0.06203924300266376   -0.21021956054631327   -0.013611281442524716
-0.0649152240690837   -0.26975619572126125   -0.014332665795567717
-0.035044341414697595   -0.26941619236021713   -0.013536935068308598
-0.031837413091385845   -0.20911794955958515   -0.013134363168091067
-0.034762962204348206   -0.26978513024094636   -0.013422538969881367
-0.06203924300266376   -0.21021956054631327   -0.013611281442524716
-0.031678009640138075   -0.2093934440559606   -0.012944423001179678
-0.034762962204348206   -0.26978513024094636   -0.013422538969881367
-0.031837413091385845   -0.20911794955958515   -0.013134363168091067
-0.06203924300266376   -0.21021956054631327   -0.013611281442524716
-0.034762962204348206   -0.26978513024094636   -0.013422538969881367
-0.06456511876192284   -0.27033459449820835   -0.014318545712683033
-0.0649152240690837   -0.26975619572126125   -0.014332665795567717
-0.06203924300266376   -0.21021956054631327   -0.013611281442524716
-0.034762962204348206   -0.26978513024094636   -0.013422538969881367
-0.0649152240690837   -0.26975619572126125   -0.014332665795567717
-0.031837413091385845   -0.20911794955958515   -0.013134363168091067
-0.03207484392633618   -0.2084858523312792   -0.01369495686422888
-0.035535393294348155   -0.26884475143127906   -0.013954193023331236
-0.002636138934621519   -0.20837670764498314   -0.013272441313921739
-0.03196897184242163   -0.20881574561466318   -0.013385004488778732
-0.035535393294348155   -0.26884475143127906   -0.013954193023331236
-0.00656055957097102   -0.26868797306351805   -0.013711381075160511
-0.002636138934621519   -0.20837670764498314   -0.013272441313921739
-0.006287656925197297   -0.2687491810767919   -0.01337346801865403
-0.03196897184242163   -0.20881574561466318   -0.013385004488778732
-0.002485593797911364   -0.20848876665895388   -0.013012381950867655
-0.006287656925197297   -0.2687491810767919   -0.01337346801865403
-0.002636138934621519   -0.20837670764498314   -0.013272441313921739
-0.03196897184242163   -0.20881574561466318   -0.013385004488778732
-0.006287656925197297   -0.2687491810767919   -0.01337346801865403
-0.03530517207419586   -0.26910305744291724   -0.013714805218962596
-0.035535393294348155   -0.26884475143127906   -0.013954193023331236
-0.03196897184242163   -0.20881574561466318   -0.013385004488778732
-0.006287656925197297   -0.2687491810767919   -0.01337346801865403
-0.035535393294348155   -0.26884475143127906   -0.013954193023331236
-0.002636138934621519   -0.20837670764498314   -0.013272441313921739
-0.03196897184242163   -0.20881574561466318   -0.013385004488778732
-0.03530517207419586   -0.26910305744291724   -0.013714805218962596
-0.002485593797911364   -0.20848876665895388   -0.013012381950867655
-0.031837413091385845   -0.20911794955958515   -0.013134363168091067
-0.03530517207419586   -0.26910305744291724   -0.013714805218962596
-0.006287656925197297   -0.2687491810767919   -0.01337346801865403
-0.002485593797911364   -0.20848876665895388   -0.013012381950867655
-0.006029735558388452   -0.26886083749476736   -0.013096606019858285
-0.031837413091385845   -0.20911794955958515   -0.013134363168091067
-0.00235613615559272   -0.20857121478751203   -0.012811091370414437
-0.006029735558388452   -0.26886083749476736   -0.013096606019858285
-0.002485593797911364   -0.20848876665895388   -0.013012381950867655
-0.031837413091385845   -0.20911794955958515   -0.013134363168091067
-0.006029735558388452   -0.26886083749476736   -0.013096606019858285
-0.035044341414697595   -0.26941619236021713   -0.013536935068308598
-0.03530517207419586   -0.26910305744291724   -0.013714805218962596
-0.031837413091385845   -0.20911794955958515   -0.013134363168091067
-0.006029735558388452   -0.26886083749476736   -0.013096606019858285
-0.03530517207419586   -0.26910305744291724   -0.013714805218962596
-0.002485593797911364   -0.20848876665895388   -0.013012381950867655
-0.031837413091385845   -0.20911794955958515   -0.013134363168091067
-0.035044341414697595   -0.26941619236021713   -0.013536935068308598
-0.00235613615559272   -0.20857121478751203   -0.012811091370414437
-0.031678009640138075   -0.2093934440559606   -0.012944423001179678
-0.035044341414697595   -0.26941619236021713   -0.013536935068308598
-0.006029735558388452   -0.26886083749476736   -0.013096606019858285
-0.00235613615559272   -0.20857121478751203   -0.012811091370414437
-0.0058116444182023195   -0.2690255316303781   -0.012882944449525454
-0.031678009640138075   -0.2093934440559606   -0.012944423001179678
-0.002259263434231196   -0.20862365233260993   -0.01267073167018982
-0.0058116444182023195   -0.2690255316303781   -0.012882944449525454
-0.00235613615559272   -0.20857121478751203   -0.012811091370414437
-0.031678009640138075   -0.2093934440559606   -0.012944423001179678
-0.0058116444182023195   -0.2690255316303781   -0.012882944449525454
-0.034762962204348206   -0.26978513024094636   -0.013422538969881367
-0.035044341414697595   -0.26941619236021713   -0.013536935068308598
-0.031678009640138075   -0.2093934440559606   -0.012944423001179678
-0.0058116444182023195   -0.2690255316303781   -0.012882944449525454
-0.035044341414697595   -0.26941619236021713   -0.013536935068308598
-0.00235613615559272   -0.20857121478751203   -0.012811091370414437
-0.002636138934621519   -0.20837670764498314   -0.013272441313921739
-0.00656055957097102   -0.26868797306351805   -0.013711381075160511
0.027702637192493162   -0.20833202277673477   -0.013244037543138196
-0.002485593797911364   -0.20848876665895388   -0.013012381950867655
-0.00656055957097102   -0.26868797306351805   -0.013711381075160511
0.023290551020779007   -0.2683388713385162   -0.013825665288447581
0.027702637192493162   -0.20833202277673477   -0.013244037543138196
0.02363932187314276   -0.2682024749584235   -0.013391099135607022
-0.002485593797911364   -0.20848876665895388   -0.013012381950867655
0.027903805376618723   -0.2082332969989037   -0.013036409735862405
0.02363932187314276   -0.2682024749584235   -0.013391099135607022
0.027702637192493162   -0.20833202277673477   -0.013244037543138196
-0.002485593797911364   -0.20848876665895388   -0.013012381950867655
0.02363932187314276   -0.2682024749584235   -0.013391099135607022
-0.006287656925197297   -0.2687491810767919   -0.01337346801865403
-0.00656055957097102   -0.26868797306351805   -0.013711381075160511
-0.002485593797911364   -0.20848876665895388   -0.013012381950867655
0.02363932187314276   -0.2682024749584235   -0.013391099135607022
-0.00656055957097102   -0.26868797306351805   -0.013711381075160511
0.027702637192493162   -0.20833202277673477   -0.013244037543138196
-0.002485593797911364   -0.20848876665895388   -0.013012381950867655
-0.006287656925197297   -0.2687491810767919   -0.01337346801865403
0.027903805376618723   -0.2082332969989037   -0.013036409735862405
-0.00235613615559272   -0.20857121478751203   -0.012811091370414437
-0.006287656925197297   -0.2687491810767919   -0.01337346801865403
0.02363932187314276   -0.2682024749584235   -0.013391099135607022
0.027903805376618723   -0.2082332969989037   -0.013036409735862405
0.023960738907699963   -0.2681316452508955   -0.01301742131247869
-0.00235613615559272   -0.20857121478751203   -0.012811091370414437
0.028035500773472662   -0.20811689048653711   -0.012885890504041961
0.023960738907699963   -0.2681316452508955   -0.01301742131247869
0.027903805376618723   -0.2082332969989037   -0.013036409735862405
-0.00235613615559272   -0.20857121478751203   -0.012811091370414437
0.023960738907699963   -0.2681316452508955   -0.01301742131247869
-0.006029735558388452   -0.26886083749476736   -0.013096606019858285
-0.006287656925197297   -0.2687491810767919   -0.01337346801865403
-0.00235613615559272   -0.20857121478751203   -0.012811091370414437
0.023960738907699963   -0.2681316452508955   -0.01301742131247869
-0.006287656925197297   -0.2687491810767919   -0.01337346801865403
0.027903805376618723   -0.2082332969989037   -0.013036409735862405
-0.00235613615559272   -0.20857121478751203   -0.012811091370414437
-0.006029735558388452   -0.26886083749476736   -0.013096606019858285
0.028035500773472662   -0.20811689048653711   -0.012885890504041961
-0.002259263434231196   -0.20862365233260993   -0.01267073167018982
-0.006029735558388452   -0.26886083749476736   -0.013096606019858285
0.023960738907699963   -0.2681316452508955   -0.01301742131247869
0.028035500773472662   -0.20811689048653711   -0.012885890504041961
0.024130620171584124   -0.26809152497606553   -0.012700657162346207
-0.002259263434231196   -0.20862365233260993   -0.01267073167018982
0.028056077894063402   -0.2079441939303519   -0.012791290753865484
0.024130620171584124   -0.26809152497606553   -0.012700657162346207
0.028035500773472662   -0.20811689048653711   -0.012885890504041961
-0.002259263434231196   -0.20862365233260993   -0.01267073167018982
0.024130620171584124   -0.26809152497606553   -0.012700657162346207
-0.0058116444182023195   -0.2690255316303781   -0.012882944449525454
-0.006029735558388452   -0.26886083749476736   -0.013096606019858285
-0.002259263434231196   -0.20862365233260993   -0.01267073167018982
0.024130620171584124   -0.26809152497606553   -0.012700657162346207
-0.006029735558388452   -0.26886083749476736   -0.013096606019858285
0.028035500773472662   -0.20811689048653711   -0.012885890504041961
0.027702637192493162   -0.20833202277673477   -0.013244037543138196
0.023290551020779007   -0.2683388713385162   -0.013825665288447581
0.060587189402876725   -0.20827225818959577   -0.01356899501800554
0.027903805376618723   -0.2082332969989037   -0.013036409735862405
0.023290551020779007   -0.2683388713385162   -0.013825665288447581
0.05526283127743725   -0.26775341926302165   -0.014314871411989762
0.060587189402876725   -0.20827225818959577   -0.01356899501800554
0.05617727368685924   -0.2674381427664494   -0.013745729736787126
0.027903805376618723   -0.2082332969989037   -0.013036409735862405
0.06098397823740589   -0.20800720953656113   -0.013401644974558265
0.05617727368685924   -0.2674381427664494   -0.013745729736787126
0.060587189402876725   -0.20827225818959577   -0.01356899501800554
0.027903805376618723   -0.2082332969989037   -0.013036409735862405
0.05617727368685924   -0.2674381427664494   -0.013745729736787126
0.02363932187314276   -0.2682024749584235   -0.013391099135607022
0.023290551020779007   -0.2683388713385162   -0.013825665288447581
0.027903805376618723   -0.2082332969989037   -0.013036409735862405
0.05617727368685924   -0.2674381427664494   -0.013745729736787126
0.023290551020779007   -0.2683388713385162   -0.013825665288447581
0.060587189402876725   -0.20827225818959577   -0.01356899501800554
0.027903805376618723   -0.2082332969989037   -0.013036409735862405
0.02363932187314276   -0.2682024749584235   -0.013391099135607022
0.06098397823740589   -0.20800720953656113   -0.013401644974558265
0.028035500773472662   -0.20811689048653711   -0.012885890504041961
0.02363932187314276   -0.2682024749584235   -0.013391099135607022
0.05617727368685924   -0.2674381427664494   -0.013745729736787126
0.06098397823740589   -0.20800720953656113   -0.013401644974558265
0.05680334743446549   -0.2672853846817222   -0.013263207718138985
0.028035500773472662   -0.20811689048653711   -0.012885890504041961
0.06118901250394923   -0.2077971177183491   -0.01332098186891125
0.05680334743446549   -0.2672853846817222   -0.013263207718138985
0.06098397823740589   -0.20800720953656113   -0.013401644974558265
0.028035500773472662   -0.20811689048653711   -0.012885890504041961
0.05680334743446549   -0.2672853846817222   -0.013263207718138985
0.023960738907699963   -0.2681316452508955   -0.01301742131247869
0.02363932187314276   -0.2682024749584235   -0.013391099135607022
0.028035500773472662   -0.20811689048653711   -0.012885890504041961
0.05680334743446549   -0.2672853846817222   -0.013263207718138985
0.02363932187314276   -0.2682024749584235   -0.013391099135607022
0.06098397823740589   -0.20800720953656113   -0.013401644974558265
0.028035500773472662   -0.20811689048653711   -0.012885890504041961
0.023960738907699963   -0.2681316452508955   -0.01301742131247869
0.06118901250394923   -0.2077971177183491   -0.01332098186891125
0.028056077894063402   -0.2079441939303519   -0.012791290753865484
0.023960738907699963   -0.2681316452508955   -0.01301742131247869
0.05680334743446549   -0.2672853846817222   -0.013263207718138985
0.06118901250394923   -0.2077971177183491   -0.01332098186891125
0.05735626800361588   -0.26711757343769155   -0.012870878133730107
0.028056077894063402   -0.2079441939303519   -0.012791290753865484
0.06122808967285913   -0.20745760212980457   -0.013328479005582752
0.05735626800361588   -0.26711757343769155   -0.012870878133730107
0.06118901250394923   -0.2077971177183491   -0.01332098186891125
0.028056077894063402   -0.2079441939303519   -0.012791290753865484
0.05735626800361588   -0.26711757343769155   -0.012870878133730107
0.024130620171584124   -0.26809152497606553   -0.012700657162346207
0.023960738907699963   -0.2681316452508955   -0.01301742131247869
0.028056077894063402   -0.2079441939303519   -0.012791290753865484
0.05735626800361588   -0.26711757343769155   -0.012870878133730107
0.023960738907699963   -0.2681316452508955   -0.01301742131247869
0.06118901250394923   -0.2077971177183491   -0.01332098186891125
-0.09791343866839786   -0.2686556158647335   -0.015428042760478742
-0.09531647547040925   -0.32565891394750407   -0.014743147904057112
-0.06535481170715053   -0.26881012714431696   -0.014542840452989715
-0.09780818868965228   -0.26925645438966556   -0.01539720404327811
-0.09531647547040925   -0.32565891394750407   -0.014743147904057112
-0.06509370582505498   -0.3263162380708002   -0.014208272488386001
-0.06535481170715053   -0.26881012714431696   -0.014542840452989715
-0.06471281415505566   -0.32665225897049577   -0.014288344232490561
-0.09780818868965228   -0.26925645438966556   -0.01539720404327811
-0.06518422434693952   -0.2692594179802748   -0.014407124226240636
-0.06471281415505566   -0.32665225897049577   -0.014288344232490561
-0.06535481170715053   -0.26881012714431696   -0.014542840452989715
-0.09780818868965228   -0.26925645438966556   -0.01539720404327811
-0.06471281415505566   -0.32665225897049577   -0.014288344232490561
-0.09462924722934163   -0.32611250940374903   -0.015120088121253556
-0.09531647547040925   -0.32565891394750407   -0.014743147904057112
-0.09780818868965228   -0.26925645438966556   -0.01539720404327811
-0.06471281415505566   -0.32665225897049577   -0.014288344232490561
-0.09531647547040925   -0.32565891394750407   -0.014743147904057112
-0.06535481170715053   -0.26881012714431696   -0.014542840452989715
-0.09780818868965228   -0.26925645438966556   -0.01539720404327811
-0.09462924722934163   -0.32611250940374903   -0.015120088121253556
-0.06518422434693952   -0.2692594179802748   -0.014407124226240636
-0.09751476472392469   -0.2698386074926616   -0.015457933014220758
-0.09462924722934163   -0.32611250940374903   -0.015120088121253556
-0.06471281415505566   -0.32665225897049577   -0.014288344232490561
-0.06518422434693952   -0.2692594179802748   -0.014407124226240636
-0.06419620941109708   -0.32712934937738114   -0.01443142447845564
-0.09751476472392469   -0.2698386074926616   -0.015457933014220758
-0.0649152240690837   -0.26975619572126125   -0.014332665795567717
-0.06419620941109708   -0.32712934937738114   -0.01443142447845564
-0.06518422434693952   -0.2692594179802748   -0.014407124226240636
-0.09751476472392469   -0.2698386074926616   -0.015457933014220758
-0.06419620941109708   -0.32712934937738114   -0.01443142447845564
-0.09384286967419941   -0.3266675728810111   -0.015596158212019085
-0.09462924722934163   -0.32611250940374903   -0.015120088121253556
-0.09751476472392469   -0.2698386074926616   -0.015457933014220758
-0.06419620941109708   -0.32712934937738114   -0.01443142447845564
-0.09462924722934163   -0.32611250940374903   -0.015120088121253556
-0.06518422434693952   -0.2692594179802748   -0.014407124226240636
-0.09751476472392469   -0.2698386074926616   -0.015457933014220758
-0.09384286967419941   -0.3266675728810111   -0.015596158212019085
-0.0649152240690837   -0.26975619572126125   -0.014332665795567717
-0.09703463482519843   -0.2705874042920962   -0.015614765430507339
-0.09384286967419941   -0.3266675728810111   -0.015596158212019085
-0.06419620941109708   -0.32712934937738114   -0.01443142447845564
-0.0649152240690837   -0.26975619572126125   -0.014332665795567717
-0.06364148347674466   -0.3277765494074197   -0.014639435756129627
-0.09703463482519843   -0.2705874042920962   -0.015614765430507339
-0.06456511876192284   -0.27033459449820835   -0.014318545712683033
-0.06364148347674466   -0.3277765494074197   -0.014639435756129627
-0.0649152240690837   -0.26975619572126125   -0.014332665795567717
-0.09703463482519843   -0.2705874042920962   -0.015614765430507339
-0.06364148347674466   -0.3277765494074197   -0.014639435756129627
-0.09277066770974904   -0.32751164753919754   -0.016173088627068042
-0.09384286967419941   -0.3266675728810111   -0.015596158212019085
-0.09703463482519843   -0.2705874042920962   -0.015614765430507339
-0.06364148347674466   -0.3277765494074197   -0.014639435756129627
-0.09384286967419941   -0.3266675728810111   -0.015596158212019085
-0.0649152240690837   -0.26975619572126125   -0.014332665795567717
-0.06535481170715053   -0.26881012714431696   -0.014542840452989715
-0.06509370582505498   -0.3263162380708002   -0.014208272488386001
-0.035535393294348155   -0.26884475143127906   -0.013954193023331236
-0.06518422434693952   -0.2692594179802748   -0.014407124226240636
-0.06509370582505498   -0.3263162380708002   -0.014208272488386001
-0.038012952422305554   -0.32657793594283535   -0.01386553179762689
-0.035535393294348155   -0.26884475143127906   -0.013954193023331236
-0.03759766293779504   -0.3267532085401638   -0.013691301636963804
-0.06518422434693952   -0.2692594179802748   -0.014407124226240636
-0.03530517207419586   -0.26910305744291724   -0.013714805218962596
-0.03759766293779504   -0.3267532085401638   -0.013691301636963804
-0.035535393294348155   -0.26884475143127906   -0.013954193023331236
-0.06518422434693952   -0.2692594179802748   -0.014407124226240636
-0.03759766293779504   -0.3267532085401638   -0.013691301636963804
-0.06471281415505566   -0.32665225897049577   -0.014288344232490561
-0.06509370582505498   -0.3263162380708002   -0.014208272488386001
-0.06518422434693952   -0.2692594179802748   -0.014407124226240636
-0.03759766293779504   -0.3267532085401638   -0.013691301636963804
-0.06509370582505498   -0.3263162380708002   -0.014208272488386001
-0.035535393294348155   -0.26884475143127906   -0.013954193023331236
-0.06518422434693952   -0.2692594179802748   -0.014407124226240636
-0.06471281415505566   -0.32665225897049577   -0.014288344232490561
-0.03530517207419586   -0.26910305744291724   -0.013714805218962596
-0.0649152240690837   -0.26975619572126125   -0.014332665795567717
-0.06471281415505566   -0.32665225897049577   -0.014288344232490561
-0.03759766293779504   -0.3267532085401638   -0.013691301636963804
-0.03530517207419586   -0.26910305744291724   -0.013714805218962596
-0.03715073347205272   -0.3270642263586399   -0.013579324421388225
-0.0649152240690837   -0.26975619572126125   -0.014332665795567717
-0.035044341414697595   -0.26941619236021713   -0.013536935068308598
-0.03715073347205272   -0.3270642263586399   -0.013579324421388225
-0.03530517207419586   -0.26910305744291724   -0.013714805218962596
-0.0649152240690837   -0.26975619572126125   -0.014332665795567717
-0.03715073347205272   -0.3270642263586399   -0.013579324421388225
-0.06419620941109708   -0.32712934937738114   -0.01443142447845564
-0.06471281415505566   -0.32665225897049577   -0.014288344232490561
-0.0649152240690837   -0.26975619572126125   -0.014332665795567717
-0.03715073347205272   -0.3270642263586399   -0.013579324421388225
-0.06471281415505566   -0.32665225897049577   -0.014288344232490561
-0.03530517207419586   -0.26910305744291724   -0.013714805218962596
-0.0649152240690837   -0.26975619572126125   -0.014332665795567717
-0.06419620941109708   -0.32712934937738114   -0.01443142447845564
-0.035044341414697595   -0.26941619236021713   -0.013536935068308598
-0.06456511876192284   -0.27033459449820835   -0.014318545712683033
-0.06419620941109708   -0.32712934937738114   -0.01443142447845564
-0.03715073347205272   -0.3270642263586399   -0.013579324421388225
-0.035044341414697595   -0.26941619236021713   -0.013536935068308598
-0.036691332548100884   -0.3275149767083668   -0.013532604172586352
-0.06456511876192284   -0.27033459449820835   -0.014318545712683033
-0.034762962204348206   -0.26978513024094636   -0.013422538969881367
-0.036691332548100884   -0.3275149767083668   -0.013532604172586352
-0.035044341414697595   -0.26941619236021713   -0.013536935068308598
-0.06456511876192284   -0.27033459449820835   -0.014318545712683033
-0.036691332548100884   -0.3275149767083668   -0.013532604172586352
-0.06364148347674466   -0.3277765494074197   -0.014639435756129627
-0.06419620941109708   -0.32712934937738114   -0.01443142447845564
-0.06456511876192284   -0.27033459449820835   -0.014318545712683033
-0.036691332548100884   -0.3275149767083668   -0.013532604172586352
-0.06419620941109708   -0.32712934937738114   -0.01443142447845564
-0.035044341414697595   -0.26941619236021713   -0.013536935068308598
-0.035535393294348155   -0.26884475143127906   -0.013954193023331236
-0.038012952422305554   -0.32657793594283535   -0.01386553179762689
-0.00656055957097102   -0.26868797306351805   -0.013711381075160511
-0.03530517207419586   -0.26910305744291724   -0.013714805218962596
-0.038012952422305554   -0.32657793594283535   -0.01386553179762689
-0.01175409847496648   -0.3263802011975477   -0.013806016058788752
-0.00656055957097102   -0.26868797306351805   -0.013711381075160511
-0.011294679581422835   -0.3263856880236573   -0.013386207029118916
-0.03530517207419586   -0.26910305744291724   -0.013714805218962596
-0.006287656925197297   -0.2687491810767919   -0.01337346801865403
-0.011294679581422835   -0.3263856880236573   -0.013386207029118916
-0.00656055957097102   -0.26868797306351805   -0.013711381075160511
-0.03530517207419586   -0.26910305744291724   -0.013714805218962596
-0.011294679581422835   -0.3263856880236573   -0.013386207029118916
-0.03759766293779504   -0.3267532085401638   -0.013691301636963804
-0.038012952422305554   -0.32657793594283535   -0.01386553179762689
-0.03530517207419586   -0.26910305744291724   -0.013714805218962596
-0.011294679581422835   -0.3263856880236573   -0.013386207029118916
-0.038012952422305554   -0.32657793594283535   -0.01386553179762689
-0.00656055957097102   -0.26868797306351805   -0.013711381075160511
-0.03530517207419586   -0.26910305744291724   -0.013714805218962596
-0.03759766293779504   -0.3267532085401638   -0.013691301636963804
-0.006287656925197297   -0.2687491810767919   -0.01337346801865403
-0.035044341414697595   -0.26941619236021713   -0.013536935068308598
-0.03759766293779504   -0.3267532085401638   -0.013691301636963804
-0.011294679581422835   -0.3263856880236573   -0.013386207029118916
-0.006287656925197297   -0.2687491810767919   -0.01337346801865403
-0.010847433917019469   -0.3265168177280084   -0.013028777621472696
-0.035044341414697595   -0.26941619236021713   -0.013536935068308598
-0.006029735558388452   -0.26886083749476736   -0.013096606019858285
-0.010847433917019469   -0.3265168177280084   -0.013028777621472696
-0.006287656925197297   -0.2687491810767919   -0.01337346801865403
-0.035044341414697595   -0.26941619236021713   -0.013536935068308598
-0.010847433917019469   -0.3265168177280084   -0.013028777621472696
-0.03715073347205272   -0.3270642263586399   -0.013579324421388225
-0.03759766293779504   -0.3267532085401638   -0.013691301636963804
-0.035044341414697595   -0.26941619236021713   -0.013536935068308598
-0.010847433917019469   -0.3265168177280084   -0.013028777621472696
-0.03759766293779504   -0.3267532085401638   -0.013691301636963804
-0.006287656925197297   -0.2687491810767919   -0.01337346801865403
-0.035044341414697595   -0.26941619236021713   -0.013536935068308598
-0.03715073347205272   -0.3270642263586399   -0.013579324421388225
-0.006029735558388452   -0.26886083749476736   -0.013096606019858285
-0.034762962204348206   -0.26978513024094636   -0.013422538969881367
-0.03715073347205272   -0.3270642263586399   -0.013579324421388225
-0.010847433917019469   -0.3265168177280084   -0.013028777621472696
-0.006029735558388452   -0.26886083749476736   -0.013096606019858285
-0.010448774818706845   -0.3267845854580699   -0.012735908817890657
-0.034762962204348206   -0.26978513024094636   -0.013422538969881367
-0.0058116444182023195   -0.2690255316303781   -0.012882944449525454
-0.010448774818706845   -0.3267845854580699   -0.012735908817890657
-0.006029735558388452   -0.26886083749476736   -0.013096606019858285
-0.034762962204348206   -0.26978513024094636   -0.013422538969881367
-0.010448774818706845   -0.3267845854580699   -0.012735908817890657
-0.036691332548100884   -0.3275149767083668   -0.013532604172586352
-0.03715073347205272   -0.3270642263586399   -0.013579324421388225
-0.034762962204348206   -0.26978513024094636   -0.013422538969881367
-0.010448774818706845   -0.3267845854580699   -0.012735908817890657
-0.03715073347205272   -0.3270642263586399   -0.013579324421388225
-0.006029735558388452   -0.26886083749476736   -0.013096606019858285
-0.00656055957097102   -0.26868797306351805   -0.013711381075160511
-0.01175409847496648   -0.3263802011975477   -0.013806016058788752
0.023290551020779007   -0.2683388713385162   -0.013825665288447581
-0.006287656925197297   -0.2687491810767919   -0.01337346801865403
-0.01175409847496648   -0.3263802011975477   -0.013806016058788752
0.015417578793269937   -0.32573728004668384   -0.014052010867682948
0.023290551020779007   -0.2683388713385162   -0.013825665288447581
0.0159791316979938   -0.3255615601403967   -0.013389081203030824
-0.006287656925197297   -0.2687491810767919   -0.01337346801865403
0.02363932187314276   -0.2682024749584235   -0.013391099135607022
0.0159791316979938   -0.3255615601403967   -0.013389081203030824
0.023290551020779007   -0.2683388713385162   -0.013825665288447581
-0.006287656925197297   -0.2687491810767919   -0.01337346801865403
0.0159791316979938   -0.3255615601403967   -0.013389081203030824
-0.011294679581422835   -0.3263856880236573   -0.013386207029118916
-0.01175409847496648   -0.3263802011975477   -0.013806016058788752
-0.006287656925197297   -0.2687491810767919   -0.01337346801865403
0.0159791316979938   -0.3255615601403967   -0.013389081203030824
-0.01175409847496648   -0.3263802011975477   -0.013806016058788752
0.023290551020779007   -0.2683388713385162   -0.013825665288447581
-0.006287656925197297   -0.2687491810767919   -0.01337346801865403
-0.011294679581422835   -0.3263856880236573   -0.013386207029118916
0.02363932187314276   -0.2682024749584235   -0.013391099135607022
-0.006029735558388452   -0.26886083749476736   -0.013096606019858285
-0.011294679581422835   -0.3263856880236573   -0.013386207029118916
0.0159791316979938   -0.3255615601403967   -0.013389081203030824
0.02363932187314276   -0.2682024749584235   -0.013391099135607022
0.01655438639146852   -0.325529311392492   -0.01279256508211684
-0.006029735558388452   -0.26886083749476736   -0.013096606019858285
0.023960738907699963   -0.2681316452508955   -0.01301742131247869
0.01655438639146852   -0.325529311392492   -0.01279256508211684
0.02363932187314276   -0.2682024749584235   -0.013391099135607022
-0.006029735558388452   -0.26886083749476736   -0.013096606019858285
0.01655438639146852   -0.325529311392492   -0.01279256508211684
-0.010847433917019469   -0.3265168177280084   -0.013028777621472696
-0.011294679581422835   -0.3263856880236573   -0.013386207029118916
-0.006029735558388452   -0.26886083749476736   -0.013096606019858285
0.01655438639146852   -0.325529311392492   -0.01279256508211684
-0.011294679581422835   -0.3263856880236573   -0.013386207029118916
0.02363932187314276   -0.2682024749584235   -0.013391099135607022
-0.006029735558388452   -0.26886083749476736   -0.013096606019858285
-0.010847433917019469   -0.3265168177280084   -0.013028777621472696
0.023960738907699963   -0.2681316452508955   -0.01301742131247869
-0.0058116444182023195   -0.2690255316303781   -0.012882944449525454
-0.010847433917019469   -0.3265168177280084   -0.013028777621472696
0.01655438639146852   -0.325529311392492   -0.01279256508211684
0.023960738907699963   -0.2681316452508955   -0.01301742131247869
0.016935985301192485   -0.3256139451078808   -0.012253716652089934
-0.0058116444182023195   -0.2690255316303781   -0.012882944449525454
0.024130620171584124   -0.26809152497606553   -0.012700657162346207
0.016935985301192485   -0.3256139451078808   -0.012253716652089934
0.023960738907699963   -0.2681316452508955   -0.01301742131247869
-0.0058116444182023195   -0.2690255316303781   -0.012882944449525454
0.016935985301192485   -0.3256139451078808   -0.012253716652089934
-0.010448774818706845   -0.3267845854580699   -0.012735908817890657
-0.010847433917019469   -0.3265168177280084   -0.013028777621472696
-0.0058116444182023195   -0.2690255316303781   -0.012882944449525454
0.016935985301192485   -0.3256139451078808   -0.012253716652089934
-0.010847433917019469   -0.3265168177280084   -0.013028777621472696
0.023960738907699963   -0.2681316452508955   -0.01301742131247869
0.023290551020779007   -0.2683388713385162   -0.013825665288447581
0.015417578793269937   -0.32573728004668384   -0.014052010867682948
0.05526283127743725   -0.26775341926302165   -0.014314871411989762
0.02363932187314276   -0.2682024749584235   -0.013391099135607022
0.015417578793269937   -0.32573728004668384   -0.014052010867682948
0.044340719322664104   -0.32463242437611706   -0.014692130352497224
0.05526283127743725   -0.26775341926302165   -0.014314871411989762
0.04583412713785016   -0.32426884909934955   -0.013728350702543534
0.02363932187314276   -0.2682024749584235   -0.013391099135607022
0.05617727368685924   -0.2674381427664494   -0.013745729736787126
0.04583412713785016   -0.32426884909934955   -0.013728350702543534
0.05526283127743725   -0.26775341926302165   -0.014314871411989762
0.02363932187314276   -0.2682024749584235   -0.013391099135607022
0.04583412713785016   -0.32426884909934955   -0.013728350702543534
0.0159791316979938   -0.3255615601403967   -0.013389081203030824
0.015417578793269937   -0.32573728004668384   -0.014052010867682948
0.02363932187314276   -0.2682024749584235   -0.013391099135607022
0.04583412713785016   -0.32426884909934955   -0.013728350702543534
0.015417578793269937   -0.32573728004668384   -0.014052010867682948
0.05526283127743725   -0.26775341926302165   -0.014314871411989762
0.02363932187314276   -0.2682024749584235   -0.013391099135607022
0.0159791316979938   -0.3255615601403967   -0.013389081203030824
0.05617727368685924   -0.2674381427664494   -0.013745729736787126
0.023960738907699963   -0.2681316452508955   -0.01301742131247869
0.0159791316979938   -0.3255615601403967   -0.013389081203030824
0.04583412713785016   -0.32426884909934955   -0.013728350702543534
0.05617727368685924   -0.2674381427664494   -0.013745729736787126
0.04693875911895596   -0.32416938027031283   -0.012852809124710148
0.023960738907699963   -0.2681316452508955   -0.01301742131247869
0.05680334743446549   -0.2672853846817222   -0.013263207718138985
0.04693875911895596   -0.32416938027031283   -0.012852809124710148
0.05617727368685924   -0.2674381427664494   -0.013745729736787126
0.023960738907699963   -0.2681316452508955   -0.01301742131247869
0.04693875911895596   -0.32416938027031283   -0.012852809124710148
0.01655438639146852   -0.325529311392492   -0.01279256508211684
0.0159791316979938   -0.3255615601403967   -0.013389081203030824
0.023960738907699963   -0.2681316452508955   -0.01301742131247869
0.04693875911895596   -0.32416938027031283   -0.012852809124710148
0.0159791316979938   -0.3255615601403967   -0.013389081203030824
0.05617727368685924   -0.2674381427664494   -0.013745729736787126
0.023960738907699963   -0.2681316452508955   -0.01301742131247869
0.01655438639146852   -0.325529311392492   -0.01279256508211684
0.05680334743446549   -0.2672853846817222   -0.013263207718138985
0.024130620171584124   -0.26809152497606553   -0.012700657162346207
0.01655438639146852   -0.325529311392492   -0.01279256508211684
0.04693875911895596   -0.32416938027031283   -0.012852809124710148
0.05680334743446549   -0.2672853846817222   -0.013263207718138985
0.04805641835825176   -0.32416796346639426   -0.012069465461464961
0.024130620171584124   -0.26809152497606553   -0.012700657162346207
0.05735626800361588   -0.26711757343769155   -0.012870878133730107
0.04805641835825176   -0.32416796346639426   -0.012069465461464961
0.05680334743446549   -0.2672853846817222   -0.013263207718138985
0.024130620171584124   -0.26809152497606553   -0.012700657162346207
0.04805641835825176   -0.32416796346639426   -0.012069465461464961
0.016935985301192485   -0.3256139451078808   -0.012253716652089934
0.01655438639146852   -0.325529311392492   -0.01279256508211684
0.024130620171584124   -0.26809152497606553   -0.012700657162346207
0.04805641835825176   -0.32416796346639426   -0.012069465461464961
0.01655438639146852   -0.325529311392492   -0.01279256508211684
0.05680334743446549   -0.2672853846817222   -0.013263207718138985
-0.09531647547040925   -0.32565891394750407   -0.014743147904057112
-0.08697948365550462   -0.37614013066200463   -0.013742826597787364
-0.06509370582505498   -0.3263162380708002   -0.014208272488386001
-0.09462924722934163   -0.32611250940374903   -0.015120088121253556
-0.08697948365550462   -0.37614013066200463   -0.013742826597787364
-0.06153243009476901   -0.37732960207597716   -0.013655354205741092
-0.06509370582505498   -0.3263162380708002   -0.014208272488386001
-0.06089473389011575   -0.3775018866132524   -0.01393610151851445
-0.09462924722934163   -0.32611250940374903   -0.015120088121253556
-0.06471281415505566   -0.32665225897049577   -0.014288344232490561
-0.06089473389011575   -0.3775018866132524   -0.01393610151851445
-0.06509370582505498   -0.3263162380708002   -0.014208272488386001
-0.09462924722934163   -0.32611250940374903   -0.015120088121253556
-0.06089473389011575   -0.3775018866132524   -0.01393610151851445
-0.08565398249258523   -0.37639610350803115   -0.014527528475650604
-0.08697948365550462   -0.37614013066200463   -0.013742826597787364
-0.09462924722934163   -0.32611250940374903   -0.015120088121253556
-0.06089473389011575   -0.3775018866132524   -0.01393610151851445
-0.08697948365550462   -0.37614013066200463   -0.013742826597787364
-0.06509370582505498   -0.3263162380708002   -0.014208272488386001
-0.09462924722934163   -0.32611250940374903   -0.015120088121253556
-0.08565398249258523   -0.37639610350803115   -0.014527528475650604
-0.06471281415505566   -0.32665225897049577   -0.014288344232490561
-0.09384286967419941   -0.3266675728810111   -0.015596158212019085
-0.08565398249258523   -0.37639610350803115   -0.014527528475650604
-0.06089473389011575   -0.3775018866132524   -0.01393610151851445
-0.06471281415505566   -0.32665225897049577   -0.014288344232490561
-0.06009388607693713   -0.377913429798556   -0.014280983794880592
-0.09384286967419941   -0.3266675728810111   -0.015596158212019085
-0.06419620941109708   -0.32712934937738114   -0.01443142447845564
-0.06009388607693713   -0.377913429798556   -0.014280983794880592
-0.06471281415505566   -0.32665225897049577   -0.014288344232490561
-0.09384286967419941   -0.3266675728810111   -0.015596158212019085
-0.06009388607693713   -0.377913429798556   -0.014280983794880592
-0.08433044434490619   -0.37687902465976447   -0.015416678947525662
-0.08565398249258523   -0.37639610350803115   -0.014527528475650604
-0.09384286967419941   -0.3266675728810111   -0.015596158212019085
-0.06009388607693713   -0.377913429798556   -0.014280983794880592
-0.08565398249258523   -0.37639610350803115   -0.014527528475650604
-0.06471281415505566   -0.32665225897049577   -0.014288344232490561
-0.09384286967419941   -0.3266675728810111   -0.015596158212019085
-0.08433044434490619   -0.37687902465976447   -0.015416678947525662
-0.06419620941109708   -0.32712934937738114   -0.01443142447845564
-0.09277066770974904   -0.32751164753919754   -0.016173088627068042
-0.08433044434490619   -0.37687902465976447   -0.015416678947525662
-0.06009388607693713   -0.377913429798556   -0.014280983794880592
-0.06419620941109708   -0.32712934937738114   -0.01443142447845564
-0.05930343692304727   -0.37858758240057644   -0.014689403084371874
-0.09277066770974904   -0.32751164753919754   -0.016173088627068042
-0.06364148347674466   -0.3277765494074197   -0.014639435756129627
-0.05930343692304727   -0.37858758240057644   -0.014689403084371874
-0.06419620941109708   -0.32712934937738114   -0.01443142447845564
-0.09277066770974904   -0.32751164753919754   -0.016173088627068042
-0.05930343692304727   -0.37858758240057644   -0.014689403084371874
-0.08263467753974449   -0.37777951574881063   -0.016408241899242622
-0.08433044434490619   -0.37687902465976447   -0.015416678947525662
-0.09277066770974904   -0.32751164753919754   -0.016173088627068042
-0.05930343692304727   -0.37858758240057644   -0.014689403084371874
-0.08433044434490619   -0.37687902465976447   -0.015416678947525662
-0.06419620941109708   -0.32712934937738114   -0.01443142447845564
-0.06509370582505498   -0.3263162380708002   -0.014208272488386001
-0.06153243009476901   -0.37732960207597716   -0.013655354205741092
-0.038012952422305554   -0.32657793594283535   -0.01386553179762689
-0.06471281415505566   -0.32665225897049577   -0.014288344232490561
-0.06153243009476901   -0.37732960207597716   -0.013655354205741092
-0.03951578793473048   -0.377889471620348   -0.01361982175821055
-0.038012952422305554   -0.32657793594283535   -0.01386553179762689
-0.03886101554261934   -0.3779463869941755   -0.01349485243471597
-0.06471281415505566   -0.32665225897049577   -0.014288344232490561
-0.03759766293779504   -0.3267532085401638   -0.013691301636963804
-0.03886101554261934   -0.3779463869941755   -0.01349485243471597
-0.038012952422305554   -0.32657793594283535   -0.01386553179762689
-0.06471281415505566   -0.32665225897049577   -0.014288344232490561
-0.03886101554261934   -0.3779463869941755   -0.01349485243471597
-0.06089473389011575   -0.3775018866132524   -0.01393610151851445
-0.06153243009476901   -0.37732960207597716   -0.013655354205741092
-0.06471281415505566   -0.32665225897049577   -0.014288344232490561
-0.03886101554261934   -0.3779463869941755   -0.01349485243471597
-0.06153243009476901   -0.37732960207597716   -0.013655354205741092
-0.038012952422305554   -0.32657793594283535   -0.01386553179762689
-0.06471281415505566   -0.32665225897049577   -0.014288344232490561
-0.06089473389011575   -0.3775018866132524   -0.01393610151851445
-0.03759766293779504   -0.3267532085401638   -0.013691301636963804
-0.06419620941109708   -0.32712934937738114   -0.01443142447845564
-0.06089473389011575   -0.3775018866132524   -0.01393610151851445
-0.03886101554261934   -0.3779463869941755   -0.01349485243471597
-0.03759766293779504   -0.3267532085401638   -0.013691301636963804
-0.0381854095268029   -0.3782168260893609   -0.013432122064332426
-0.06419620941109708   -0.32712934937738114   -0.01443142447845564
-0.03715073347205272   -0.3270642263586399   -0.013579324421388225
-0.0381854095268029   -0.3782168260893609   -0.013432122064332426
-0.03759766293779504   -0.3267532085401638   -0.013691301636963804
-0.06419620941109708   -0.32712934937738114   -0.01443142447845564
-0.0381854095268029   -0.3782168260893609   -0.013432122064332426
-0.06009388607693713   -0.377913429798556   -0.014280983794880592
-0.06089473389011575   -0.3775018866132524   -0.01393610151851445
-0.06419620941109708   -0.32712934937738114   -0.01443142447845564
-0.0381854095268029   -0.3782168260893609   -0.013432122064332426
-0.06089473389011575   -0.3775018866132524   -0.01393610151851445
-0.03759766293779504   -0.3267532085401638   -0.013691301636963804
-0.06419620941109708   -0.32712934937738114   -0.01443142447845564
-0.06009388607693713   -0.377913429798556   -0.014280983794880592
-0.03715073347205272   -0.3270642263586399   -0.013579324421388225
-0.06364148347674466   -0.3277765494074197   -0.014639435756129627
-0.06009388607693713   -0.377913429798556   -0.014280983794880592
-0.0381854095268029   -0.3782168260893609   -0.013432122064332426
-0.03715073347205272   -0.3270642263586399   -0.013579324421388225
-0.03751101409669349   -0.378713624261256   -0.013430751383977103
-0.06364148347674466   -0.3277765494074197   -0.014639435756129627
-0.036691332548100884   -0.3275149767083668   -0.013532604172586352
-0.03751101409669349   -0.378713624261256   -0.013430751383977103
-0.03715073347205272   -0.3270642263586399   -0.013579324421388225
-0.06364148347674466   -0.3277765494074197   -0.014639435756129627
-0.03751101409669349   -0.378713624261256   -0.013430751383977103
-0.05930343692304727   -0.37858758240057644   -0.014689403084371874
-0.06009388607693713   -0.377913429798556   -0.014280983794880592
-0.06364148347674466   -0.3277765494074197   -0.014639435756129627
-0.03751101409669349   -0.378713624261256   -0.013430751383977103
-0.06009388607693713   -0.377913429798556   -0.014280983794880592
-0.03715073347205272   -0.3270642263586399   -0.013579324421388225
-0.038012952422305554   -0.32657793594283535   -0.01386553179762689
-0.03951578793473048   -0.377889471620348   -0.01361982175821055
-0.01175409847496648   -0.3263802011975477   -0.013806016058788752
-0.03759766293779504   -0.3267532085401638   -0.013691301636963804
-0.03951578793473048   -0.377889471620348   -0.01361982175821055
-0.018231883314434354   -0.3777931604089837   -0.013775634867908447
-0.01175409847496648   -0.3263802011975477   -0.013806016058788752
-0.01751462595952124   -0.3777207067560079   -0.013259238903525322
-0.03759766293779504   -0.3267532085401638   -0.013691301636963804
-0.011294679581422835   -0.3263856880236573   -0.013386207029118916
-0.01751462595952124   -0.3777207067560079   -0.013259238903525322
-0.01175409847496648   -0.3263802011975477   -0.013806016058788752
-0.03759766293779504   -0.3267532085401638   -0.013691301636963804
-0.01751462595952124   -0.3777207067560079   -0.013259238903525322
-0.03886101554261934   -0.3779463869941755   -0.01349485243471597
-0.03951578793473048   -0.377889471620348   -0.01361982175821055
-0.03759766293779504   -0.3267532085401638   -0.013691301636963804
-0.01751462595952124   -0.3777207067560079   -0.013259238903525322
-0.03951578793473048   -0.377889471620348   -0.01361982175821055
-0.01175409847496648   -0.3263802011975477   -0.013806016058788752
-0.03759766293779504   -0.3267532085401638   -0.013691301636963804
-0.03886101554261934   -0.3779463869941755   -0.01349485243471597
-0.011294679581422835   -0.3263856880236573   -0.013386207029118916
-0.03715073347205272   -0.3270642263586399   -0.013579324421388225
-0.03886101554261934   -0.3779463869941755   -0.01349485243471597
-0.01751462595952124   -0.3777207067560079   -0.013259238903525322
-0.011294679581422835   -0.3263856880236573   -0.013386207029118916
-0.016818813114117967   -0.37784102995391317   -0.012809175119538623
-0.03715073347205272   -0.3270642263586399   -0.013579324421388225
-0.010847433917019469   -0.3265168177280084   -0.013028777621472696
-0.016818813114117967   -0.37784102995391317   -0.012809175119538623
-0.011294679581422835   -0.3263856880236573   -0.013386207029118916
-0.03715073347205272   -0.3270642263586399   -0.013579324421388225
-0.016818813114117967   -0.37784102995391317   -0.012809175119538623
-0.0381854095268029   -0.3782168260893609   -0.013432122064332426
-0.03886101554261934   -0.3779463869941755   -0.01349485243471597
-0.03715073347205272   -0.3270642263586399   -0.013579324421388225
-0.016818813114117967   -0.37784102995391317   -0.012809175119538623
-0.03886101554261934   -0.3779463869941755   -0.01349485243471597
-0.011294679581422835   -0.3263856880236573   -0.013386207029118916
-0.03715073347205272   -0.3270642263586399   -0.013579324421388225
-0.0381854095268029   -0.3782168260893609   -0.013432122064332426
-0.010847433917019469   -0.3265168177280084   -0.013028777621472696
-0.036691332548100884   -0.3275149767083668   -0.013532604172586352
-0.0381854095268029   -0.3782168260893609   -0.013432122064332426
-0.016818813114117967   -0.37784102995391317   -0.012809175119538623
-0.010847433917019469   -0.3265168177280084   -0.013028777621472696
-0.01619044352164682   -0.37818263076321507   -0.012419656344591955
-0.036691332548100884   -0.3275149767083668   -0.013532604172586352
-0.010448774818706845   -0.3267845854580699   -0.012735908817890657
-0.01619044352164682   -0.37818263076321507   -0.012419656344591955
-0.010847433917019469   -0.3265168177280084   -0.013028777621472696
-0.036691332548100884   -0.3275149767083668   -0.013532604172586352
-0.01619044352164682   -0.37818263076321507   -0.012419656344591955
-0.03751101409669349   -0.378713624261256   -0.013430751383977103
-0.0381854095268029   -0.3782168260893609   -0.013432122064332426
-0.036691332548100884   -0.3275149767083668   -0.013532604172586352
-0.01619044352164682   -0.37818263076321507   -0.012419656344591955
-0.0381854095268029   -0.3782168260893609   -0.013432122064332426
-0.010847433917019469   -0.3265168177280084   -0.013028777621472696
-0.01175409847496648   -0.3263802011975477   -0.013806016058788752
-0.018231883314434354   -0.3777931604089837   -0.013775634867908447
0.015417578793269937   -0.32573728004668384   -0.014052010867682948
-0.011294679581422835   -0.3263856880236573   -0.013386207029118916
-0.018231883314434354   -0.3777931604089837   -0.013775634867908447
0.0040623494122587886   -0.3770173012112331   -0.01415783251337947
0.015417578793269937   -0.32573728004668384   -0.014052010867682948
0.004934340770662493   -0.3767801823692896   -0.013251512543609885
-0.011294679581422835   -0.3263856880236573   -0.013386207029118916
0.0159791316979938   -0.3255615601403967   -0.013389081203030824
0.004934340770662493   -0.3767801823692896   -0.013251512543609885
0.015417578793269937   -0.32573728004668384   -0.014052010867682948
-0.011294679581422835   -0.3263856880236573   -0.013386207029118916
0.004934340770662493   -0.3767801823692896   -0.013251512543609885
-0.01751462595952124   -0.3777207067560079   -0.013259238903525322
-0.018231883314434354   -0.3777931604089837   -0.013775634867908447
-0.011294679581422835   -0.3263856880236573   -0.013386207029118916
0.004934340770662493   -0.3767801823692896   -0.013251512543609885
-0.018231883314434354   -0.3777931604089837   -0.013775634867908447
0.015417578793269937   -0.32573728004668384   -0.014052010867682948
-0.011294679581422835   -0.3263856880236573   -0.013386207029118916
-0.01751462595952124   -0.3777207067560079   -0.013259238903525322
0.0159791316979938   -0.3255615601403967   -0.013389081203030824
-0.010847433917019469   -0.3265168177280084   -0.013028777621472696
-0.01751462595952124   -0.3777207067560079   -0.013259238903525322
0.004934340770662493   -0.3767801823692896   -0.013251512543609885
0.0159791316979938   -0.3255615601403967   -0.013389081203030824
0.0058523655721508415   -0.37675863827631834   -0.012429352293069287
-0.010847433917019469   -0.3265168177280084   -0.013028777621472696
0.01655438639146852   -0.325529311392492   -0.01279256508211684
0.0058523655721508415   -0.37675863827631834   -0.012429352293069287
0.0159791316979938   -0.3255615601403967   -0.013389081203030824
-0.010847433917019469   -0.3265168177280084   -0.013028777621472696
0.0058523655721508415   -0.37675863827631834   -0.012429352293069287
-0.016818813114117967   -0.37784102995391317   -0.012809175119538623
-0.01751462595952124   -0.3777207067560079   -0.013259238903525322
-0.010847433917019469   -0.3265168177280084   -0.013028777621472696
0.0058523655721508415   -0.37675863827631834   -0.012429352293069287
-0.01751462595952124   -0.3777207067560079   -0.013259238903525322
0.0159791316979938   -0.3255615601403967   -0.013389081203030824
-0.010847433917019469   -0.3265168177280084   -0.013028777621472696
-0.016818813114117967   -0.37784102995391317   -0.012809175119538623
0.01655438639146852   -0.325529311392492   -0.01279256508211684
-0.010448774818706845   -0.3267845854580699   -0.012735908817890657
-0.016818813114117967   -0.37784102995391317   -0.012809175119538623
0.0058523655721508415   -0.37675863827631834   -0.012429352293069287
0.01655438639146852   -0.325529311392492   -0.01279256508211684
0.006523800354952906   -0.37694299297682143   -0.011665175821452003
-0.010448774818706845   -0.3267845854580699   -0.012735908817890657
0.016935985301192485   -0.3256139451078808   -0.012253716652089934
0.006523800354952906   -0.37694299297682143   -0.011665175821452003
0.01655438639146852   -0.325529311392492   -0.01279256508211684
-0.010448774818706845   -0.3267845854580699   -0.012735908817890657
0.006523800354952906   -0.37694299297682143   -0.011665175821452003
-0.01619044352164682   -0.37818263076321507   -0.012419656344591955
-0.016818813114117967   -0.37784102995391317   -0.012809175119538623
-0.010448774818706845   -0.3267845854580699   -0.012735908817890657
0.006523800354952906   -0.37694299297682143   -0.011665175821452003
-0.016818813114117967   -0.37784102995391317   -0.012809175119538623
0.01655438639146852   -0.325529311392492   -0.01279256508211684
0.015417578793269937   -0.32573728004668384   -0.014052010867682948
0.0040623494122587886   -0.3770173012112331   -0.01415783251337947
0.044340719322664104   -0.32463242437611706   -0.014692130352497224
0.0159791316979938   -0.3255615601403967   -0.013389081203030824
0.0040623494122587886   -0.3770173012112331   -0.01415783251337947
0.027855312513141613   -0.3754879349405394   -0.014979435811123808
0.044340719322664104   -0.32463242437611706   -0.014692130352497224
0.030056563381026184   -0.37503208578143543   -0.01359275802346777
0.0159791316979938   -0.3255615601403967   -0.013389081203030824
0.04583412713785016   -0.32426884909934955   -0.013728350702543534
0.030056563381026184   -0.37503208578143543   -0.01359275802346777
0.044340719322664104   -0.32463242437611706   -0.014692130352497224
0.0159791316979938   -0.3255615601403967   -0.013389081203030824
0.030056563381026184   -0.37503208578143543   -0.01359275802346777
0.004934340770662493   -0.3767801823692896   -0.013251512543609885
0.0040623494122587886   -0.3770173012112331   -0.01415783251337947
0.0159791316979938   -0.3255615601403967   -0.013389081203030824
0.030056563381026184   -0.37503208578143543   -0.01359275802346777
0.0040623494122587886   -0.3770173012112331   -0.01415783251337947
0.044340719322664104   -0.32463242437611706   -0.014692130352497224
0.0159791316979938   -0.3255615601403967   -0.013389081203030824
0.004934340770662493   -0.3767801823692896   -0.013251512543609885
0.04583412713785016   -0.32426884909934955   -0.013728350702543534
0.01655438639146852   -0.325529311392492   -0.01279256508211684
0.004934340770662493   -0.3767801823692896   -0.013251512543609885
0.030056563381026184   -0.37503208578143543   -0.01359275802346777
0.04583412713785016   -0.32426884909934955   -0.013728350702543534
0.031743777559604974   -0.37495318106089015   -0.012310415894000526
0.01655438639146852   -0.325529311392492   -0.01279256508211684
0.04693875911895596   -0.32416938027031283   -0.012852809124710148
0.031743777559604974   -0.37495318106089015   -0.012310415894000526
0.04583412713785016   -0.32426884909934955   -0.013728350702543534
0.01655438639146852   -0.325529311392492   -0.01279256508211684
0.031743777559604974   -0.37495318106089015   -0.012310415894000526
0.0058523655721508415   -0.37675863827631834   -0.012429352293069287
0.004934340770662493   -0.3767801823692896   -0.013251512543609885
0.01655438639146852   -0.325529311392492   -0.01279256508211684
0.031743777559604974   -0.37495318106089015   -0.012310415894000526
0.004934340770662493   -0.3767801823692896   -0.013251512543609885
0.04583412713785016   -0.32426884909934955   -0.013728350702543534
0.01655438639146852   -0.325529311392492   -0.01279256508211684
0.0058523655721508415   -0.37675863827631834   -0.012429352293069287
0.04693875911895596   -0.32416938027031283   -0.012852809124710148
0.016935985301192485   -0.3256139451078808   -0.012253716652089934
0.0058523655721508415   -0.37675863827631834   -0.012429352293069287
0.031743777559604974   -0.37495318106089015   -0.012310415894000526
0.04693875911895596   -0.32416938027031283   -0.012852809124710148
0.033488634734789614   -0.37508720084147373   -0.011142943383511754
0.016935985301192485   -0.3256139451078808   -0.012253716652089934
0.04805641835825176   -0.32416796346639426   -0.012069465461464961
0.033488634734789614   -0.37508720084147373   -0.011142943383511754
0.04693875911895596   -0.32416938027031283   -0.012852809124710148
0.016935985301192485   -0.3256139451078808   -0.012253716652089934
0.033488634734789614   -0.37508720084147373   -0.011142943383511754
0.006523800354952906   -0.37694299297682143   -0.011665175821452003
0.0058523655721508415   -0.37675863827631834   -0.012429352293069287
0.016935985301192485   -0.3256139451078808   -0.012253716652089934
0.033488634734789614   -0.37508720084147373   -0.011142943383511754
0.0058523655721508415   -0.37675863827631834   -0.012429352293069287
0.04693875911895596   -0.32416938027031283   -0.012852809124710148
-0.08697948365550462   -0.37614013066200463   -0.013742826597787364
-0.07278209231612737   -0.4157842258299885   -0.012463652539306936
-0.06153243009476901   -0.37732960207597716   -0.013655354205741092
-0.08565398249258523   -0.37639610350803115   -0.014527528475650604
-0.07278209231612737   -0.4157842258299885   -0.012463652539306936
-0.05467995663220914   -0.4175497589236714   -0.012994088557011065
-0.06153243009476901   -0.37732960207597716   -0.013655354205741092
-0.05375736350082506   -0.41745739588037695   -0.01342637823898886
-0.08565398249258523   -0.37639610350803115   -0.014527528475650604
-0.06089473389011575   -0.3775018866132524   -0.01393610151851445
-0.05375736350082506   -0.41745739588037695   -0.01342637823898886
-0.06153243009476901   -0.37732960207597716   -0.013655354205741092
-0.08565398249258523   -0.37639610350803115   -0.014527528475650604
-0.05375736350082506   -0.41745739588037695   -0.01342637823898886
-0.07079936746510951   -0.41573359823601047   -0.013629478486468715
-0.07278209231612737   -0.4157842258299885   -0.012463652539306936
-0.08565398249258523   -0.37639610350803115   -0.014527528475650604
-0.05375736350082506   -0.41745739588037695   -0.01342637823898886
-0.07278209231612737   -0.4157842258299885   -0.012463652539306936
-0.06153243009476901   -0.37732960207597716   -0.013655354205741092
-0.08565398249258523   -0.37639610350803115   -0.014527528475650604
-0.07079936746510951   -0.41573359823601047   -0.013629478486468715
-0.06089473389011575   -0.3775018866132524   -0.01393610151851445
-0.08433044434490619   -0.37687902465976447   -0.015416678947525662
-0.07079936746510951   -0.41573359823601047   -0.013629478486468715
-0.05375736350082506   -0.41745739588037695   -0.01342637823898886
-0.06089473389011575   -0.3775018866132524   -0.01393610151851445
-0.052673218703972645   -0.4177090146597409   -0.013924374933763712
-0.08433044434490619   -0.37687902465976447   -0.015416678947525662
-0.06009388607693713   -0.377913429798556   -0.014280983794880592
-0.052673218703972645   -0.4177090146597409   -0.013924374933763712
-0.06089473389011575   -0.3775018866132524   -0.01393610151851445
-0.08433044434490619   -0.37687902465976447   -0.015416678947525662
-0.052673218703972645   -0.4177090146597409   -0.013924374933763712
-0.06897071837293633   -0.4160448926862994   -0.014887771426900525
-0.07079936746510951   -0.41573359823601047   -0.013629478486468715
-0.08433044434490619   -0.37687902465976447   -0.015416678947525662
-0.052673218703972645   -0.4177090146597409   -0.013924374933763712
-0.07079936746510951   -0.41573359823601047   -0.013629478486468715
-0.06089473389011575   -0.3775018866132524   -0.01393610151851445
-0.08433044434490619   -0.37687902465976447   -0.015416678947525662
-0.06897071837293633   -0.4160448926862994   -0.014887771426900525
-0.06009388607693713   -0.377913429798556   -0.014280983794880592
-0.08263467753974449   -0.37777951574881063   -0.016408241899242622
-0.06897071837293633   -0.4160448926862994   -0.014887771426900525
-0.052673218703972645   -0.4177090146597409   -0.013924374933763712
-0.06009388607693713   -0.377913429798556   -0.014280983794880592
-0.05168963320614943   -0.41831020120007695   -0.014483855840078257
-0.08263467753974449   -0.37777951574881063   -0.016408241899242622
-0.05930343692304727   -0.37858758240057644   -0.014689403084371874
-0.05168963320614943   -0.41831020120007695   -0.014483855840078257
-0.06009388607693713   -0.377913429798556   -0.014280983794880592
-0.08263467753974449   -0.37777951574881063   -0.016408241899242622
-0.05168963320614943   -0.41831020120007695   -0.014483855840078257
-0.06674106681691078   -0.4168794581117389   -0.016232972599805707
-0.06897071837293633   -0.4160448926862994   -0.014887771426900525
-0.08263467753974449   -0.37777951574881063   -0.016408241899242622
-0.05168963320614943   -0.41831020120007695   -0.014483855840078257
-0.06897071837293633   -0.4160448926862994   -0.014887771426900525
-0.06009388607693713   -0.377913429798556   -0.014280983794880592
-0.06153243009476901   -0.37732960207597716   -0.013655354205741092
-0.05467995663220914   -0.4175497589236714   -0.012994088557011065
-0.03951578793473048   -0.377889471620348   -0.01361982175821055
-0.06089473389011575   -0.3775018866132524   -0.01393610151851445
-0.05467995663220914   -0.4175497589236714   -0.012994088557011065
-0.0399113927349897   -0.41870084499465   -0.013408974993686491
-0.03951578793473048   -0.377889471620348   -0.01361982175821055
-0.038963757820350144   -0.4185543427329154   -0.013276573523236688
-0.06089473389011575   -0.3775018866132524   -0.01393610151851445
-0.03886101554261934   -0.3779463869941755   -0.01349485243471597
-0.038963757820350144   -0.4185543427329154   -0.013276573523236688
-0.03951578793473048   -0.377889471620348   -0.01361982175821055
-0.06089473389011575   -0.3775018866132524   -0.01393610151851445
-0.038963757820350144   -0.4185543427329154   -0.013276573523236688
-0.05375736350082506   -0.41745739588037695   -0.01342637823898886
-0.05467995663220914   -0.4175497589236714   -0.012994088557011065
-0.06089473389011575   -0.3775018866132524   -0.01393610151851445
-0.038963757820350144   -0.4185543427329154   -0.013276573523236688
-0.05467995663220914   -0.4175497589236714   -0.012994088557011065
-0.03951578793473048   -0.377889471620348   -0.01361982175821055
-0.06089473389011575   -0.3775018866132524   -0.01393610151851445
-0.05375736350082506   -0.41745739588037695   -0.01342637823898886
-0.03886101554261934   -0.3779463869941755   -0.01349485243471597
-0.06009388607693713   -0.377913429798556   -0.014280983794880592
-0.05375736350082506   -0.41745739588037695   -0.01342637823898886
-0.038963757820350144   -0.4185543427329154   -0.013276573523236688
-0.03886101554261934   -0.3779463869941755   -0.01349485243471597
-0.03803001246252533   -0.41870445568117737   -0.013207924783084649
-0.06009388607693713   -0.377913429798556   -0.014280983794880592
-0.0381854095268029   -0.3782168260893609   -0.013432122064332426
-0.03803001246252533   -0.41870445568117737   -0.013207924783084649
-0.03886101554261934   -0.3779463869941755   -0.01349485243471597
-0.06009388607693713   -0.377913429798556   -0.014280983794880592
-0.03803001246252533   -0.41870445568117737   -0.013207924783084649
-0.052673218703972645   -0.4177090146597409   -0.013924374933763712
-0.05375736350082506   -0.41745739588037695   -0.01342637823898886
-0.06009388607693713   -0.377913429798556   -0.014280983794880592
-0.03803001246252533   -0.41870445568117737   -0.013207924783084649
-0.05375736350082506   -0.41745739588037695   -0.01342637823898886
-0.03886101554261934   -0.3779463869941755   -0.01349485243471597
-0.06009388607693713   -0.377913429798556   -0.014280983794880592
-0.052673218703972645   -0.4177090146597409   -0.013924374933763712
-0.0381854095268029   -0.3782168260893609   -0.013432122064332426
-0.05930343692304727   -0.37858758240057644   -0.014689403084371874
-0.052673218703972645   -0.4177090146597409   -0.013924374933763712
-0.03803001246252533   -0.41870445568117737   -0.013207924783084649
-0.0381854095268029   -0.3782168260893609   -0.013432122064332426
-0.037171454644125655   -0.41916127760723715   -0.013216483194179464
-0.05930343692304727   -0.37858758240057644   -0.014689403084371874
-0.03751101409669349   -0.378713624261256   -0.013430751383977103
-0.037171454644125655   -0.41916127760723715   -0.013216483194179464
-0.0381854095268029   -0.3782168260893609   -0.013432122064332426
-0.05930343692304727   -0.37858758240057644   -0.014689403084371874
-0.037171454644125655   -0.41916127760723715   -0.013216483194179464
-0.05168963320614943   -0.41831020120007695   -0.014483855840078257
-0.052673218703972645   -0.4177090146597409   -0.013924374933763712
-0.05930343692304727   -0.37858758240057644   -0.014689403084371874
-0.037171454644125655   -0.41916127760723715   -0.013216483194179464
-0.052673218703972645   -0.4177090146597409   -0.013924374933763712
-0.0381854095268029   -0.3782168260893609   -0.013432122064332426
-0.03951578793473048   -0.377889471620348   -0.01361982175821055
-0.0399113927349897   -0.41870084499465   -0.013408974993686491
-0.018231883314434354   -0.3777931604089837   -0.013775634867908447
-0.03886101554261934   -0.3779463869941755   -0.01349485243471597
-0.0399113927349897   -0.41870084499465   -0.013408974993686491
-0.025768439516344815   -0.41931608157242084   -0.013896950587375128
-0.018231883314434354   -0.3777931604089837   -0.013775634867908447
-0.02469995794004438   -0.41910609319330694   -0.013232415464745807
-0.03886101554261934   -0.3779463869941755   -0.01349485243471597
-0.01751462595952124   -0.3777207067560079   -0.013259238903525322
-0.02469995794004438   -0.41910609319330694   -0.013232415464745807
-0.018231883314434354   -0.3777931604089837   -0.013775634867908447
-0.03886101554261934   -0.3779463869941755   -0.01349485243471597
-0.02469995794004438   -0.41910609319330694   -0.013232415464745807
-0.038963757820350144   -0.4185543427329154   -0.013276573523236688
-0.0399113927349897   -0.41870084499465   -0.013408974993686491
-0.03886101554261934   -0.3779463869941755   -0.01349485243471597
-0.02469995794004438   -0.41910609319330694   -0.013232415464745807
-0.0399113927349897   -0.41870084499465   -0.013408974993686491
-0.018231883314434354   -0.3777931604089837   -0.013775634867908447
-0.03886101554261934   -0.3779463869941755   -0.01349485243471597
-0.038963757820350144   -0.4185543427329154   -0.013276573523236688
-0.01751462595952124   -0.3777207067560079   -0.013259238903525322
-0.0381854095268029   -0.3782168260893609   -0.013432122064332426
-0.038963757820350144   -0.4185543427329154   -0.013276573523236688
-0.02469995794004438   -0.41910609319330694   -0.013232415464745807
-0.01751462595952124   -0.3777207067560079   -0.013259238903525322
-0.023681895940172847   -0.4191563502147754   -0.01262398650802908
-0.0381854095268029   -0.3782168260893609   -0.013432122064332426
-0.016818813114117967   -0.37784102995391317   -0.012809175119538623
-0.023681895940172847   -0.4191563502147754   -0.01262398650802908
-0.01751462595952124   -0.3777207067560079   -0.013259238903525322
-0.0381854095268029   -0.3782168260893609   -0.013432122064332426
-0.023681895940172847   -0.4191563502147754   -0.01262398650802908
-0.03803001246252533   -0.41870445568117737   -0.013207924783084649
-0.038963757820350144   -0.4185543427329154   -0.013276573523236688
-0.0381854095268029   -0.3782168260893609   -0.013432122064332426
-0.023681895940172847   -0.4191563502147754   -0.01262398650802908
-0.038963757820350144   -0.4185543427329154   -0.013276573523236688
-0.01751462595952124   -0.3777207067560079   -0.013259238903525322
-0.0381854095268029   -0.3782168260893609   -0.013432122064332426
-0.03803001246252533   -0.41870445568117737   -0.013207924783084649
-0.016818813114117967   -0.37784102995391317   -0.012809175119538623
-0.03751101409669349   -0.378713624261256   -0.013430751383977103
-0.03803001246252533   -0.41870445568117737   -0.013207924783084649
-0.023681895940172847   -0.4191563502147754   -0.01262398650802908
-0.016818813114117967   -0.37784102995391317   -0.012809175119538623
-0.02283610395350725   -0.4195186241408435   -0.01210729026816384
-0.03751101409669349   -0.378713624261256   -0.013430751383977103
-0.01619044352164682   -0.37818263076321507   -0.012419656344591955
-0.02283610395350725   -0.4195186241408435   -0.01210729026816384
-0.016818813114117967   -0.37784102995391317   -0.012809175119538623
-0.03751101409669349   -0.378713624261256   -0.013430751383977103
-0.02283610395350725   -0.4195186241408435   -0.01210729026816384
-0.037171454644125655   -0.41916127760723715   -0.013216483194179464
-0.03803001246252533   -0.41870445568117737   -0.013207924783084649
-0.03751101409669349   -0.378713624261256   -0.013430751383977103
-0.02283610395350725   -0.4195186241408435   -0.01210729026816384
-0.03803001246252533   -0.41870445568117737   -0.013207924783084649
-0.016818813114117967   -0.37784102995391317   -0.012809175119538623
-0.018231883314434354   -0.3777931604089837   -0.013775634867908447
-0.025768439516344815   -0.41931608157242084   -0.013896950587375128
0.0040623494122587886   -0.3770173012112331   -0.01415783251337947
-0.01751462595952124   -0.3777207067560079   -0.013259238903525322
-0.025768439516344815   -0.41931608157242084   -0.013896950587375128
-0.010712342156956073   -0.41918309937112536   -0.014469801643172842
0.0040623494122587886   -0.3770173012112331   -0.01415783251337947
-0.00934053473122617   -0.41885427709087386   -0.013296763396842944
-0.01751462595952124   -0.3777207067560079   -0.013259238903525322
0.004934340770662493   -0.3767801823692896   -0.013251512543609885
-0.00934053473122617   -0.41885427709087386   -0.013296763396842944
0.0040623494122587886   -0.3770173012112331   -0.01415783251337947
-0.01751462595952124   -0.3777207067560079   -0.013259238903525322
-0.00934053473122617   -0.41885427709087386   -0.013296763396842944
-0.02469995794004438   -0.41910609319330694   -0.013232415464745807
-0.025768439516344815   -0.41931608157242084   -0.013896950587375128
-0.01751462595952124   -0.3777207067560079   -0.013259238903525322
-0.00934053473122617   -0.41885427709087386   -0.013296763396842944
-0.025768439516344815   -0.41931608157242084   -0.013896950587375128
0.0040623494122587886   -0.3770173012112331   -0.01415783251337947
-0.01751462595952124   -0.3777207067560079   -0.013259238903525322
-0.02469995794004438   -0.41910609319330694   -0.013232415464745807
0.004934340770662493   -0.3767801823692896   -0.013251512543609885
-0.016818813114117967   -0.37784102995391317   -0.012809175119538623
-0.02469995794004438   -0.41910609319330694   -0.013232415464745807
-0.00934053473122617   -0.41885427709087386   -0.013296763396842944
0.004934340770662493   -0.3767801823692896   -0.013251512543609885
-0.007940146207372434   -0.41879498928188114   -0.012183893686308893
-0.016818813114117967   -0.37784102995391317   -0.012809175119538623
0.0058523655721508415   -0.37675863827631834   -0.012429352293069287
-0.007940146207372434   -0.41879498928188114   -0.012183893686308893
0.004934340770662493   -0.3767801823692896   -0.013251512543609885
-0.016818813114117967   -0.37784102995391317   -0.012809175119538623
-0.007940146207372434   -0.41879498928188114   -0.012183893686308893
-0.023681895940172847   -0.4191563502147754   -0.01262398650802908
-0.02469995794004438   -0.41910609319330694   -0.013232415464745807
-0.016818813114117967   -0.37784102995391317   -0.012809175119538623
-0.007940146207372434   -0.41879498928188114   -0.012183893686308893
-0.02469995794004438   -0.41910609319330694   -0.013232415464745807
0.004934340770662493   -0.3767801823692896   -0.013251512543609885
-0.016818813114117967   -0.37784102995391317   -0.012809175119538623
-0.023681895940172847   -0.4191563502147754   -0.01262398650802908
0.0058523655721508415   -0.37675863827631834   -0.012429352293069287
-0.01619044352164682   -0.37818263076321507   -0.012419656344591955
-0.023681895940172847   -0.4191563502147754   -0.01262398650802908
-0.007940146207372434   -0.41879498928188114   -0.012183893686308893
0.0058523655721508415   -0.37675863827631834   -0.012429352293069287
-0.006901633723901252   -0.4190642768813336   -0.011174256168124074
-0.01619044352164682   -0.37818263076321507   -0.012419656344591955
0.006523800354952906   -0.37694299297682143   -0.011665175821452003
-0.006901633723901252   -0.4190642768813336   -0.011174256168124074
0.0058523655721508415   -0.37675863827631834   -0.012429352293069287
-0.01619044352164682   -0.37818263076321507   -0.012419656344591955
-0.006901633723901252   -0.4190642768813336   -0.011174256168124074
-0.02283610395350725   -0.4195186241408435   -0.01210729026816384
-0.023681895940172847   -0.4191563502147754   -0.01262398650802908
-0.01619044352164682   -0.37818263076321507   -0.012419656344591955
-0.006901633723901252   -0.4190642768813336   -0.011174256168124074
-0.023681895940172847   -0.4191563502147754   -0.01262398650802908
0.0058523655721508415   -0.37675863827631834   -0.012429352293069287
0.0040623494122587886   -0.3770173012112331   -0.01415783251337947
-0.010712342156956073   -0.41918309937112536   -0.014469801643172842
0.027855312513141613   -0.3754879349405394   -0.014979435811123808
0.004934340770662493   -0.3767801823692896   -0.013251512543609885
-0.010712342156956073   -0.41918309937112536   -0.014469801643172842
0.005525246316523456   -0.41774375229140237   -0.015650528583794794
0.027855312513141613   -0.3754879349405394   -0.014979435811123808
0.00870608182414997   -0.4170260406495719   -0.013730536954142452
0.004934340770662493   -0.3767801823692896   -0.013251512543609885
0.030056563381026184   -0.37503208578143543   -0.01359275802346777
0.00870608182414997   -0.4170260406495719   -0.013730536954142452
0.027855312513141613   -0.3754879349405394   -0.014979435811123808
0.004934340770662493   -0.3767801823692896   -0.013251512543609885
0.00870608182414997   -0.4170260406495719   -0.013730536954142452
-0.00934053473122617   -0.41885427709087386   -0.013296763396842944
-0.010712342156956073   -0.41918309937112536   -0.014469801643172842
0.004934340770662493   -0.3767801823692896   -0.013251512543609885
0.00870608182414997   -0.4170260406495719   -0.013730536954142452
-0.010712342156956073   -0.41918309937112536   -0.014469801643172842
0.027855312513141613   -0.3754879349405394   -0.014979435811123808
0.004934340770662493   -0.3767801823692896   -0.013251512543609885
-0.00934053473122617   -0.41885427709087386   -0.013296763396842944
0.030056563381026184   -0.37503208578143543   -0.01359275802346777
0.0058523655721508415   -0.37675863827631834   -0.012429352293069287
-0.00934053473122617   -0.41885427709087386   -0.013296763396842944
0.00870608182414997   -0.4170260406495719   -0.013730536954142452
0.030056563381026184   -0.37503208578143543   -0.01359275802346777
0.011206728111380994   -0.41687963157106506   -0.01192915663251259
0.0058523655721508415   -0.37675863827631834   -0.012429352293069287
0.031743777559604974   -0.37495318106089015   -0.012310415894000526
0.011206728111380994   -0.41687963157106506   -0.01192915663251259
0.030056563381026184   -0.37503208578143543   -0.01359275802346777
0.0058523655721508415   -0.37675863827631834   -0.012429352293069287
0.011206728111380994   -0.41687963157106506   -0.01192915663251259
-0.007940146207372434   -0.41879498928188114   -0.012183893686308893
-0.00934053473122617   -0.41885427709087386   -0.013296763396842944
0.0058523655721508415   -0.37675863827631834   -0.012429352293069287
0.011206728111380994   -0.41687963157106506   -0.01192915663251259
-0.00934053473122617   -0.41885427709087386   -0.013296763396842944
0.030056563381026184   -0.37503208578143543   -0.01359275802346777
0.0058523655721508415   -0.37675863827631834   -0.012429352293069287
-0.007940146207372434   -0.41879498928188114   -0.012183893686308893
0.031743777559604974   -0.37495318106089015   -0.012310415894000526
0.006523800354952906   -0.37694299297682143   -0.011665175821452003
-0.007940146207372434   -0.41879498928188114   -0.012183893686308893
0.011206728111380994   -0.41687963157106506   -0.01192915663251259
0.031743777559604974   -0.37495318106089015   -0.012310415894000526
0.013801288131596787   -0.41699745926415016   -0.01028565219917089
0.006523800354952906   -0.37694299297682143   -0.011665175821452003
0.033488634734789614   -0.37508720084147373   -0.011142943383511754
0.013801288131596787   -0.41699745926415016   -0.01028565219917089
0.031743777559604974   -0.37495318106089015   -0.012310415894000526
0.006523800354952906   -0.37694299297682143   -0.011665175821452003
0.013801288131596787   -0.41699745926415016   -0.01028565219917089
-0.006901633723901252   -0.4190642768813336   -0.011174256168124074
-0.007940146207372434   -0.41879498928188114   -0.012183893686308893
0.006523800354952906   -0.37694299297682143   -0.011665175821452003
0.013801288131596787   -0.41699745926415016   -0.01028565219917089
-0.007940146207372434   -0.41879498928188114   -0.012183893686308893
0.031743777559604974   -0.37495318106089015   -0.012310415894000526
-0.07278209231612737   -0.4157842258299885   -0.012463652539306936
-0.05322560519827417   -0.43931998096998837   -0.010963266612703299
-0.05467995663220914   -0.4175497589236714   -0.012994088557011065
-0.07079936746510951   -0.41573359823601047   -0.013629478486468715
-0.05322560519827417   -0.43931998096998837   -0.010963266612703299
-0.04483834180421252   -0.4415561268053444   -0.01231161850539859
-0.05467995663220914   -0.4175497589236714   -0.012994088557011065
-0.04367151210627934   -0.4411109482222486   -0.0127704115269491
-0.07079936746510951   -0.41573359823601047   -0.013629478486468715
-0.05375736350082506   -0.41745739588037695   -0.01342637823898886
-0.04367151210627934   -0.4411109482222486   -0.0127704115269491
-0.05467995663220914   -0.4175497589236714   -0.012994088557011065
-0.07079936746510951   -0.41573359823601047   -0.013629478486468715
-0.04367151210627934   -0.4411109482222486   -0.0127704115269491
-0.05075065863716733   -0.43881888594813295   -0.01236275843287366
-0.05322560519827417   -0.43931998096998837   -0.010963266612703299
-0.07079936746510951   -0.41573359823601047   -0.013629478486468715
-0.04367151210627934   -0.4411109482222486   -0.0127704115269491
-0.05322560519827417   -0.43931998096998837   -0.010963266612703299
-0.05467995663220914   -0.4175497589236714   -0.012994088557011065
-0.07079936746510951   -0.41573359823601047   -0.013629478486468715
-0.05075065863716733   -0.43881888594813295   -0.01236275843287366
-0.05375736350082506   -0.41745739588037695   -0.01342637823898886
-0.06897071837293633   -0.4160448926862994   -0.014887771426900525
-0.05075065863716733   -0.43881888594813295   -0.01236275843287366
-0.04367151210627934   -0.4411109482222486   -0.0127704115269491
-0.05375736350082506   -0.41745739588037695   -0.01342637823898886
-0.04238083849938094   -0.44112853155973797   -0.013233777558479013
-0.06897071837293633   -0.4160448926862994   -0.014887771426900525
-0.052673218703972645   -0.4177090146597409   -0.013924374933763712
-0.04238083849938094   -0.44112853155973797   -0.013233777558479013
-0.05375736350082506   -0.41745739588037695   -0.01342637823898886
-0.06897071837293633   -0.4160448926862994   -0.014887771426900525
-0.04238083849938094   -0.44112853155973797   -0.013233777558479013
-0.04861486756804779   -0.4388567918333047   -0.01375647099540127
-0.05075065863716733   -0.43881888594813295   -0.01236275843287366
-0.06897071837293633   -0.4160448926862994   -0.014887771426900525
-0.04238083849938094   -0.44112853155973797   -0.013233777558479013
-0.05075065863716733   -0.43881888594813295   -0.01236275843287366
-0.05375736350082506   -0.41745739588037695   -0.01342637823898886
-0.06897071837293633   -0.4160448926862994   -0.014887771426900525
-0.04861486756804779   -0.4388567918333047   -0.01375647099540127
-0.052673218703972645   -0.4177090146597409   -0.013924374933763712
-0.06674106681691078   -0.4168794581117389   -0.016232972599805707
-0.04861486756804779   -0.4388567918333047   -0.01375647099540127
-0.04238083849938094   -0.44112853155973797   -0.013233777558479013
-0.052673218703972645   -0.4177090146597409   -0.013924374933763712
-0.041180922734228596   -0.44161081928249923   -0.013703667090372329
-0.06674106681691078   -0.4168794581117389   -0.016232972599805707
-0.05168963320614943   -0.41831020120007695   -0.014483855840078257
-0.041180922734228596   -0.44161081928249923   -0.013703667090372329
-0.052673218703972645   -0.4177090146597409   -0.013924374933763712
-0.06674106681691078   -0.4168794581117389   -0.016232972599805707
-0.041180922734228596   -0.44161081928249923   -0.013703667090372329
-0.046082832153365484   -0.4394641733492132   -0.015180327361266838
-0.04861486756804779   -0.4388567918333047   -0.01375647099540127
-0.06674106681691078   -0.4168794581117389   -0.016232972599805707
-0.041180922734228596   -0.44161081928249923   -0.013703667090372329
-0.04861486756804779   -0.4388567918333047   -0.01375647099540127
-0.052673218703972645   -0.4177090146597409   -0.013924374933763712
-0.05467995663220914   -0.4175497589236714   -0.012994088557011065
-0.04483834180421252   -0.4415561268053444   -0.01231161850539859
-0.0399113927349897   -0.41870084499465   -0.013408974993686491
-0.05375736350082506   -0.41745739588037695   -0.01342637823898886
-0.04483834180421252   -0.4415561268053444   -0.01231161850539859
-0.03871317661116651   -0.4438163021220842   -0.013504407950744233
-0.0399113927349897   -0.41870084499465   -0.013408974993686491
-0.0374805235342029   -0.4433603805460912   -0.013178354124470184
-0.05375736350082506   -0.41745739588037695   -0.01342637823898886
-0.038963757820350144   -0.4185543427329154   -0.013276573523236688
-0.0374805235342029   -0.4433603805460912   -0.013178354124470184
-0.0399113927349897   -0.41870084499465   -0.013408974993686491
-0.05375736350082506   -0.41745739588037695   -0.01342637823898886
-0.0374805235342029   -0.4433603805460912   -0.013178354124470184
-0.04367151210627934   -0.4411109482222486   -0.0127704115269491
-0.04483834180421252   -0.4415561268053444   -0.01231161850539859
-0.05375736350082506   -0.41745739588037695   -0.01342637823898886
-0.0374805235342029   -0.4433603805460912   -0.013178354124470184
-0.04483834180421252   -0.4415561268053444   -0.01231161850539859
-0.0399113927349897   -0.41870084499465   -0.013408974993686491
-0.05375736350082506   -0.41745739588037695   -0.01342637823898886
-0.04367151210627934   -0.4411109482222486   -0.0127704115269491
-0.038963757820350144   -0.4185543427329154   -0.013276573523236688
-0.052673218703972645   -0.4177090146597409   -0.013924374933763712
-0.04367151210627934   -0.4411109482222486   -0.0127704115269491
-0.0374805235342029   -0.4433603805460912   -0.013178354124470184
-0.038963757820350144   -0.4185543427329154   -0.013276573523236688
-0.036289456846826953   -0.4433489170537999   -0.012848135217833682
-0.052673218703972645   -0.4177090146597409   -0.013924374933763712
-0.03803001246252533   -0.41870445568117737   -0.013207924783084649
-0.036289456846826953   -0.4433489170537999   -0.012848135217833682
-0.038963757820350144   -0.4185543427329154   -0.013276573523236688
-0.052673218703972645   -0.4177090146597409   -0.013924374933763712
-0.036289456846826953   -0.4433489170537999   -0.012848135217833682
-0.04238083849938094   -0.44112853155973797   -0.013233777558479013
-0.04367151210627934   -0.4411109482222486   -0.0127704115269491
-0.052673218703972645   -0.4177090146597409   -0.013924374933763712
-0.036289456846826953   -0.4433489170537999   -0.012848135217833682
-0.04367151210627934   -0.4411109482222486   -0.0127704115269491
-0.038963757820350144   -0.4185543427329154   -0.013276573523236688
-0.052673218703972645   -0.4177090146597409   -0.013924374933763712
-0.04238083849938094   -0.44112853155973797   -0.013233777558479013
-0.03803001246252533   -0.41870445568117737   -0.013207924783084649
-0.05168963320614943   -0.41831020120007695   -0.014483855840078257
-0.04238083849938094   -0.44112853155973797   -0.013233777558479013
-0.036289456846826953   -0.4433489170537999   -0.012848135217833682
-0.03803001246252533   -0.41870445568117737   -0.013207924783084649
-0.03504715874816539   -0.44377242992856136   -0.012530687393958594
-0.05168963320614943   -0.41831020120007695   -0.014483855840078257
-0.037171454644125655   -0.41916127760723715   -0.013216483194179464
-0.03504715874816539   -0.44377242992856136   -0.012530687393958594
-0.03803001246252533   -0.41870445568117737   -0.013207924783084649
-0.05168963320614943   -0.41831020120007695   -0.014483855840078257
-0.03504715874816539   -0.44377242992856136   -0.012530687393958594
-0.041180922734228596   -0.44161081928249923   -0.013703667090372329
-0.04238083849938094   -0.44112853155973797   -0.013233777558479013
-0.05168963320614943   -0.41831020120007695   -0.014483855840078257
-0.03504715874816539   -0.44377242992856136   -0.012530687393958594
-0.04238083849938094   -0.44112853155973797   -0.013233777558479013
-0.03803001246252533   -0.41870445568117737   -0.013207924783084649
-0.0399113927349897   -0.41870084499465   -0.013408974993686491
-0.03871317661116651   -0.4438163021220842   -0.013504407950744233
-0.025768439516344815   -0.41931608157242084   -0.013896950587375128
-0.038963757820350144   -0.4185543427329154   -0.013276573523236688
-0.03871317661116651   -0.4438163021220842   -0.013504407950744233
-0.033125522473393294   -0.4465607111540844   -0.014815642248708214
-0.025768439516344815   -0.41931608157242084   -0.013896950587375128
-0.031613402109147995   -0.4461668032530041   -0.013660375046979992
-0.038963757820350144   -0.4185543427329154   -0.013276573523236688
-0.02469995794004438   -0.41910609319330694   -0.013232415464745807
-0.031613402109147995   -0.4461668032530041   -0.013660375046979992
-0.025768439516344815   -0.41931608157242084   -0.013896950587375128
-0.038963757820350144   -0.4185543427329154   -0.013276573523236688
-0.031613402109147995   -0.4461668032530041   -0.013660375046979992
-0.0374805235342029   -0.4433603805460912   -0.013178354124470184
-0.03871317661116651   -0.4438163021220842   -0.013504407950744233
-0.038963757820350144   -0.4185543427329154   -0.013276573523236688
-0.031613402109147995   -0.4461668032530041   -0.013660375046979992
-0.03871317661116651   -0.4438163021220842   -0.013504407950744233
-0.025768439516344815   -0.41931608157242084   -0.013896950587375128
-0.038963757820350144   -0.4185543427329154   -0.013276573523236688
-0.0374805235342029   -0.4433603805460912   -0.013178354124470184
-0.02469995794004438   -0.41910609319330694   -0.013232415464745807
-0.03803001246252533   -0.41870445568117737   -0.013207924783084649
-0.0374805235342029   -0.4433603805460912   -0.013178354124470184
-0.031613402109147995   -0.4461668032530041   -0.013660375046979992
-0.02469995794004438   -0.41910609319330694   -0.013232415464745807
-0.03021342688609072   -0.4461438035548036   -0.012509692199498112
-0.03803001246252533   -0.41870445568117737   -0.013207924783084649
-0.023681895940172847   -0.4191563502147754   -0.01262398650802908
-0.03021342688609072   -0.4461438035548036   -0.012509692199498112
-0.02469995794004438   -0.41910609319330694   -0.013232415464745807
-0.03803001246252533   -0.41870445568117737   -0.013207924783084649
-0.03021342688609072   -0.4461438035548036   -0.012509692199498112
-0.036289456846826953   -0.4433489170537999   -0.012848135217833682
-0.0374805235342029   -0.4433603805460912   -0.013178354124470184
-0.03803001246252533   -0.41870445568117737   -0.013207924783084649
-0.03021342688609072   -0.4461438035548036   -0.012509692199498112
-0.0374805235342029   -0.4433603805460912   -0.013178354124470184
-0.02469995794004438   -0.41910609319330694   -0.013232415464745807
-0.03803001246252533   -0.41870445568117737   -0.013207924783084649
-0.036289456846826953   -0.4433489170537999   -0.012848135217833682
-0.023681895940172847   -0.4191563502147754   -0.01262398650802908
-0.037171454644125655   -0.41916127760723715   -0.013216483194179464
-0.036289456846826953   -0.4433489170537999   -0.012848135217833682
-0.03021342688609072   -0.4461438035548036   -0.012509692199498112
-0.023681895940172847   -0.4191563502147754   -0.01262398650802908
-0.028708932535139366   -0.44647117852599183   -0.01135528979552771
-0.037171454644125655   -0.41916127760723715   -0.013216483194179464
-0.02283610395350725   -0.4195186241408435   -0.01210729026816384
-0.028708932535139366   -0.44647117852599183   -0.01135528979552771
-0.023681895940172847   -0.4191563502147754   -0.01262398650802908
-0.037171454644125655   -0.41916127760723715   -0.013216483194179464
-0.028708932535139366   -0.44647117852599183   -0.01135528979552771
-0.03504715874816539   -0.44377242992856136   -0.012530687393958594
-0.036289456846826953   -0.4433489170537999   -0.012848135217833682
-0.037171454644125655   -0.41916127760723715   -0.013216483194179464
-0.028708932535139366   -0.44647117852599183   -0.01135528979552771
-0.036289456846826953   -0.4433489170537999   -0.012848135217833682
-0.023681895940172847   -0.4191563502147754   -0.01262398650802908
-0.025768439516344815   -0.41931608157242084   -0.013896950587375128
-0.033125522473393294   -0.4465607111540844   -0.014815642248708214
-0.010712342156956073   -0.41918309937112536   -0.014469801643172842
-0.02469995794004438   -0.41910609319330694   -0.013232415464745807
-0.033125522473393294   -0.4465607111540844   -0.014815642248708214
-0.02762633068522663   -0.45   -0.01581410678155333
-0.010712342156956073   -0.41918309937112536   -0.014469801643172842
-0.025726992233141722   -0.45   -0.014066464859239604
-0.02469995794004438   -0.41910609319330694   -0.013232415464745807
-0.00934053473122617   -0.41885427709087386   -0.013296763396842944
-0.025726992233141722   -0.45   -0.014066464859239604
-0.010712342156956073   -0.41918309937112536   -0.014469801643172842
-0.02469995794004438   -0.41910609319330694   -0.013232415464745807
-0.025726992233141722   -0.45   -0.014066464859239604
-0.031613402109147995   -0.4461668032530041   -0.013660375046979992
-0.033125522473393294   -0.4465607111540844   -0.014815642248708214
-0.02469995794004438   -0.41910609319330694   -0.013232415464745807
-0.025726992233141722   -0.45   -0.014066464859239604
-0.033125522473393294   -0.4465607111540844   -0.014815642248708214
-0.010712342156956073   -0.41918309937112536   -0.014469801643172842
-0.02469995794004438   -0.41910609319330694   -0.013232415464745807
-0.031613402109147995   -0.4461668032530041   -0.013660375046979992
-0.00934053473122617   -0.41885427709087386   -0.013296763396842944
-0.023681895940172847   -0.4191563502147754   -0.01262398650802908
-0.031613402109147995   -0.4461668032530041   -0.013660375046979992
-0.025726992233141722   -0.45   -0.014066464859239604
-0.00934053473122617   -0.41885427709087386   -0.013296763396842944
-0.023820662317820807   -0.45   -0.012298028124876476
-0.023681895940172847   -0.4191563502147754   -0.01262398650802908
-0.007940146207372434   -0.41879498928188114   -0.012183893686308893
-0.023820662317820807   -0.45   -0.012298028124876476
-0.00934053473122617   -0.41885427709087386   -0.013296763396842944
-0.023681895940172847   -0.4191563502147754   -0.01262398650802908
-0.023820662317820807   -0.45   -0.012298028124876476
-0.03021342688609072   -0.4461438035548036   -0.012509692199498112
-0.031613402109147995   -0.4461668032530041   -0.013660375046979992
-0.023681895940172847   -0.4191563502147754   -0.01262398650802908
-0.023820662317820807   -0.45   -0.012298028124876476
-0.031613402109147995   -0.4461668032530041   -0.013660375046979992
-0.00934053473122617   -0.41885427709087386   -0.013296763396842944
-0.023681895940172847   -0.4191563502147754   -0.01262398650802908
-0.03021342688609072   -0.4461438035548036   -0.012509692199498112
-0.007940146207372434   -0.41879498928188114   -0.012183893686308893
-0.02283610395350725   -0.4195186241408435   -0.01210729026816384
-0.03021342688609072   -0.4461438035548036   -0.012509692199498112
-0.023820662317820807   -0.45   -0.012298028124876476
-0.007940146207372434   -0.41879498928188114   -0.012183893686308893
-0.02195462569753621   -0.45   -0.010552795623213795
-0.02283610395350725   -0.4195186241408435   -0.01210729026816384
-0.006901633723901252   -0.4190642768813336   -0.011174256168124074
-0.02195462569753621   -0.45   -0.010552795623213795
-0.007940146207372434   -0.41879498928188114   -0.012183893686308893
-0.02283610395350725   -0.4195186241408435   -0.01210729026816384
-0.02195462569753621   -0.45   -0.010552795623213795
-0.028708932535139366   -0.44647117852599183   -0.01135528979552771
-0.03021342688609072   -0.4461438035548036   -0.012509692199498112
-0.02283610395350725   -0.4195186241408435   -0.01210729026816384
-0.02195462569753621   -0.45   -0.010552795623213795
-0.03021342688609072   -0.4461438035548036   -0.012509692199498112
-0.007940146207372434   -0.41879498928188114   -0.012183893686308893
-0.010712342156956073   -0.41918309937112536   -0.014469801643172842
-0.02762633068522663   -0.45   -0.01581410678155333
0.005525246316523456   -0.41774375229140237   -0.015650528583794794
-0.00934053473122617   -0.41885427709087386   -0.013296763396842944
-0.02762633068522663   -0.45   -0.01581410678155333
-0.02365956618897815   -0.45   -0.017023410855762932
0.005525246316523456   -0.41774375229140237   -0.015650528583794794
-0.019704790296272687   -0.45   -0.014498797794218792
-0.00934053473122617   -0.41885427709087386   -0.013296763396842944
0.00870608182414997   -0.4170260406495719   -0.013730536954142452
-0.019704790296272687   -0.45   -0.014498797794218792
0.005525246316523456   -0.41774375229140237   -0.015650528583794794
-0.00934053473122617   -0.41885427709087386   -0.013296763396842944
-0.019704790296272687   -0.45   -0.014498797794218792
-0.025726992233141722   -0.45   -0.014066464859239604
-0.02762633068522663   -0.45   -0.01581410678155333
-0.00934053473122617   -0.41885427709087386   -0.013296763396842944
-0.019704790296272687   -0.45   -0.014498797794218792
-0.02762633068522663   -0.45   -0.01581410678155333
0.005525246316523456   -0.41774375229140237   -0.015650528583794794
-0.00934053473122617   -0.41885427709087386   -0.013296763396842944
-0.025726992233141722   -0.45   -0.014066464859239604
0.00870608182414997   -0.4170260406495719   -0.013730536954142452
-0.007940146207372434   -0.41879498928188114   -0.012183893686308893
-0.025726992233141722   -0.45   -0.014066464859239604
-0.019704790296272687   -0.45   -0.014498797794218792
0.00870608182414997   -0.4170260406495719   -0.013730536954142452
-0.016550748073941152   -0.45   -0.012083480766331048
-0.007940146207372434   -0.41879498928188114   -0.012183893686308893
0.011206728111380994   -0.41687963157106506   -0.01192915663251259
-0.016550748073941152   -0.45   -0.012083480766331048
0.00870608182414997   -0.4170260406495719   -0.013730536954142452
-0.007940146207372434   -0.41879498928188114   -0.012183893686308893
-0.016550748073941152   -0.45   -0.012083480766331048
-0.023820662317820807   -0.45   -0.012298028124876476
-0.025726992233141722   -0.45   -0.014066464859239604
-0.007940146207372434   -0.41879498928188114   -0.012183893686308893
-0.016550748073941152   -0.45   -0.012083480766331048
-0.025726992233141722   -0.45   -0.014066464859239604
0.00870608182414997   -0.4170260406495719   -0.013730536954142452
-0.007940146207372434   -0.41879498928188114   -0.012183893686308893
-0.023820662317820807   -0.45   -0.012298028124876476
0.011206728111380994   -0.41687963157106506   -0.01192915663251259
-0.006901633723901252   -0.4190642768813336   -0.011174256168124074
-0.023820662317820807   -0.45   -0.012298028124876476
-0.016550748073941152   -0.45   -0.012083480766331048
0.011206728111380994   -0.41687963157106506   -0.01192915663251259
-0.012653876669442605   -0.45   -0.00957629233887621
-0.006901633723901252   -0.4190642768813336   -0.011174256168124074
0.013801288131596787   -0.41699745926415016   -0.01028565219917089
-0.012653876669442605   -0.45   -0.00957629233887621
0.011206728111380994   -0.41687963157106506   -0.01192915663251259
-0.006901633723901252   -0.4190642768813336   -0.011174256168124074
-0.012653876669442605   -0.45   -0.00957629233887621
-0.02195462569753621   -0.45   -0.010552795623213795
-0.023820662317820807   -0.45   -0.012298028124876476
-0.006901633723901252   -0.4190642768813336   -0.011174256168124074
-0.012653876669442605   -0.45   -0.00957629233887621
-0.023820662317820807   -0.45   -0.012298028124876476
0.011206728111380994   -0.41687963157106506   -0.01192915663251259
-0.05322560519827417   -0.43931998096998837   -0.010963266612703299
-0.031588547673944756   -0.44036198291898343   -0.009380455335138937
-0.04483834180421252   -0.4415561268053444   -0.01231161850539859
-0.05075065863716733   -0.43881888594813295   -0.01236275843287366
-0.031588547673944756   -0.44036198291898343   -0.009380455335138937
-0.033598440365202736   -0.4420787065180585   -0.011116117697946468
-0.04483834180421252   -0.4415561268053444   -0.01231161850539859
-0.03271720618454452   -0.4414715074782756   -0.011744339503456361
-0.05075065863716733   -0.43881888594813295   -0.01236275843287366
-0.04367151210627934   -0.4411109482222486   -0.0127704115269491
-0.03271720618454452   -0.4414715074782756   -0.011744339503456361
-0.04483834180421252   -0.4415561268053444   -0.01231161850539859
-0.05075065863716733   -0.43881888594813295   -0.01236275843287366
-0.03271720618454452   -0.4414715074782756   -0.011744339503456361
-0.0293489332236069   -0.43958283570927076   -0.010850389165136816
-0.031588547673944756   -0.44036198291898343   -0.009380455335138937
-0.05075065863716733   -0.43881888594813295   -0.01236275843287366
-0.03271720618454452   -0.4414715074782756   -0.011744339503456361
-0.031588547673944756   -0.44036198291898343   -0.009380455335138937
-0.04483834180421252   -0.4415561268053444   -0.01231161850539859
-0.05075065863716733   -0.43881888594813295   -0.01236275843287366
-0.0293489332236069   -0.43958283570927076   -0.010850389165136816
-0.04367151210627934   -0.4411109482222486   -0.0127704115269491
-0.04861486756804779   -0.4388567918333047   -0.01375647099540127
-0.0293489332236069   -0.43958283570927076   -0.010850389165136816
-0.03271720618454452   -0.4414715074782756   -0.011744339503456361
-0.04367151210627934   -0.4411109482222486   -0.0127704115269491
-0.031684624910051785   -0.44124287600389905   -0.012323212412919216
-0.04861486756804779   -0.4388567918333047   -0.01375647099540127
-0.04238083849938094   -0.44112853155973797   -0.013233777558479013
-0.031684624910051785   -0.44124287600389905   -0.012323212412919216
-0.04367151210627934   -0.4411109482222486   -0.0127704115269491
-0.04861486756804779   -0.4388567918333047   -0.01375647099540127
-0.031684624910051785   -0.44124287600389905   -0.012323212412919216
-0.02748429481024304   -0.43933790131375683   -0.012259043538915182
-0.0293489332236069   -0.43958283570927076   -0.010850389165136816
-0.04861486756804779   -0.4388567918333047   -0.01375647099540127
-0.031684624910051785   -0.44124287600389905   -0.012323212412919216
-0.0293489332236069   -0.43958283570927076   -0.010850389165136816
-0.04367151210627934   -0.4411109482222486   -0.0127704115269491
-0.04861486756804779   -0.4388567918333047   -0.01375647099540127
-0.02748429481024304   -0.43933790131375683   -0.012259043538915182
-0.04238083849938094   -0.44112853155973797   -0.013233777558479013
-0.046082832153365484   -0.4394641733492132   -0.015180327361266838
-0.02748429481024304   -0.43933790131375683   -0.012259043538915182
-0.031684624910051785   -0.44124287600389905   -0.012323212412919216
-0.04238083849938094   -0.44112853155973797   -0.013233777558479013
-0.030799446000623124   -0.44139591318739796   -0.01284963165971855
-0.046082832153365484   -0.4394641733492132   -0.015180327361266838
-0.041180922734228596   -0.44161081928249923   -0.013703667090372329
-0.030799446000623124   -0.44139591318739796   -0.01284963165971855
-0.04238083849938094   -0.44112853155973797   -0.013233777558479013
-0.046082832153365484   -0.4394641733492132   -0.015180327361266838
-0.030799446000623124   -0.44139591318739796   -0.01284963165971855
-0.025377014423669696   -0.4395290522196891   -0.013600000866176654
-0.02748429481024304   -0.43933790131375683   -0.012259043538915182
-0.046082832153365484   -0.4394641733492132   -0.015180327361266838
-0.030799446000623124   -0.44139591318739796   -0.01284963165971855
-0.02748429481024304   -0.43933790131375683   -0.012259043538915182
-0.04238083849938094   -0.44112853155973797   -0.013233777558479013
-0.04483834180421252   -0.4415561268053444   -0.01231161850539859
-0.033598440365202736   -0.4420787065180585   -0.011116117697946468
-0.03871317661116651   -0.4438163021220842   -0.013504407950744233
-0.04367151210627934   -0.4411109482222486   -0.0127704115269491
-0.033598440365202736   -0.4420787065180585   -0.011116117697946468
-0.03627987195633794   -0.44314753485986785   -0.012504996479805493
-0.03871317661116651   -0.4438163021220842   -0.013504407950744233
-0.03549927547022724   -0.442605661453313   -0.01252250727764689
-0.04367151210627934   -0.4411109482222486   -0.0127704115269491
-0.0374805235342029   -0.4433603805460912   -0.013178354124470184
-0.03549927547022724   -0.442605661453313   -0.01252250727764689
-0.03871317661116651   -0.4438163021220842   -0.013504407950744233
-0.04367151210627934   -0.4411109482222486   -0.0127704115269491
-0.03549927547022724   -0.442605661453313   -0.01252250727764689
-0.03271720618454452   -0.4414715074782756   -0.011744339503456361
-0.033598440365202736   -0.4420787065180585   -0.011116117697946468
-0.04367151210627934   -0.4411109482222486   -0.0127704115269491
-0.03549927547022724   -0.442605661453313   -0.01252250727764689
-0.033598440365202736   -0.4420787065180585   -0.011116117697946468
-0.03871317661116651   -0.4438163021220842   -0.013504407950744233
-0.04367151210627934   -0.4411109482222486   -0.0127704115269491
-0.03271720618454452   -0.4414715074782756   -0.011744339503456361
-0.0374805235342029   -0.4433603805460912   -0.013178354124470184
-0.04238083849938094   -0.44112853155973797   -0.013233777558479013
-0.03271720618454452   -0.4414715074782756   -0.011744339503456361
-0.03549927547022724   -0.442605661453313   -0.01252250727764689
-0.0374805235342029   -0.4433603805460912   -0.013178354124470184
-0.0346301447494851   -0.44240671583576713   -0.01247602858329183
-0.04238083849938094   -0.44112853155973797   -0.013233777558479013
-0.036289456846826953   -0.4433489170537999   -0.012848135217833682
-0.0346301447494851   -0.44240671583576713   -0.01247602858329183
-0.0374805235342029   -0.4433603805460912   -0.013178354124470184
-0.04238083849938094   -0.44112853155973797   -0.013233777558479013
-0.0346301447494851   -0.44240671583576713   -0.01247602858329183
-0.031684624910051785   -0.44124287600389905   -0.012323212412919216
-0.03271720618454452   -0.4414715074782756   -0.011744339503456361
-0.04238083849938094   -0.44112853155973797   -0.013233777558479013
-0.0346301447494851   -0.44240671583576713   -0.01247602858329183
-0.03271720618454452   -0.4414715074782756   -0.011744339503456361
-0.0374805235342029   -0.4433603805460912   -0.013178354124470184
-0.04238083849938094   -0.44112853155973797   -0.013233777558479013
-0.031684624910051785   -0.44124287600389905   -0.012323212412919216
-0.036289456846826953   -0.4433489170537999   -0.012848135217833682
-0.041180922734228596   -0.44161081928249923   -0.013703667090372329
-0.031684624910051785   -0.44124287600389905   -0.012323212412919216
-0.0346301447494851   -0.44240671583576713   -0.01247602858329183
-0.036289456846826953   -0.4433489170537999   -0.012848135217833682
-0.03374614679009442   -0.4425346453127686   -0.01237935515181393
-0.041180922734228596   -0.44161081928249923   -0.013703667090372329
-0.03504715874816539   -0.44377242992856136   -0.012530687393958594
-0.03374614679009442   -0.4425346453127686   -0.01237935515181393
-0.036289456846826953   -0.4433489170537999   -0.012848135217833682
-0.041180922734228596   -0.44161081928249923   -0.013703667090372329
-0.03374614679009442   -0.4425346453127686   -0.01237935515181393
-0.030799446000623124   -0.44139591318739796   -0.01284963165971855
-0.031684624910051785   -0.44124287600389905   -0.012323212412919216
-0.041180922734228596   -0.44161081928249923   -0.013703667090372329
-0.03374614679009442   -0.4425346453127686   -0.01237935515181393
-0.031684624910051785   -0.44124287600389905   -0.012323212412919216
-0.036289456846826953   -0.4433489170537999   -0.012848135217833682
-0.03871317661116651   -0.4438163021220842   -0.013504407950744233
-0.03627987195633794   -0.44314753485986785   -0.012504996479805493
-0.033125522473393294   -0.4465607111540844   -0.014815642248708214
-0.0374805235342029   -0.4433603805460912   -0.013178354124470184
-0.03627987195633794   -0.44314753485986785   -0.012504996479805493
-0.03914926172090101   -0.4436083082230611   -0.013870770970812626
-0.033125522473393294   -0.4465607111540844   -0.014815642248708214
-0.038340691435243456   -0.44309257290480353   -0.013301146196705728
-0.0374805235342029   -0.4433603805460912   -0.013178354124470184
-0.031613402109147995   -0.4461668032530041   -0.013660375046979992
-0.038340691435243456   -0.44309257290480353   -0.013301146196705728
-0.033125522473393294   -0.4465607111540844   -0.014815642248708214
-0.0374805235342029   -0.4433603805460912   -0.013178354124470184
-0.038340691435243456   -0.44309257290480353   -0.013301146196705728
-0.03549927547022724   -0.442605661453313   -0.01252250727764689
-0.03627987195633794   -0.44314753485986785   -0.012504996479805493
-0.0374805235342029   -0.4433603805460912   -0.013178354124470184
-0.038340691435243456   -0.44309257290480353   -0.013301146196705728
-0.03627987195633794   -0.44314753485986785   -0.012504996479805493
-0.033125522473393294   -0.4465607111540844   -0.014815642248708214
-0.0374805235342029   -0.4433603805460912   -0.013178354124470184
-0.03549927547022724   -0.442605661453313   -0.01252250727764689
-0.031613402109147995   -0.4461668032530041   -0.013660375046979992
-0.036289456846826953   -0.4433489170537999   -0.012848135217833682
-0.03549927547022724   -0.442605661453313   -0.01252250727764689
-0.038340691435243456   -0.44309257290480353   -0.013301146196705728
-0.031613402109147995   -0.4461668032530041   -0.013660375046979992
-0.037370017783587804   -0.442925469464622   -0.012653615765176917
-0.036289456846826953   -0.4433489170537999   -0.012848135217833682
-0.03021342688609072   -0.4461438035548036   -0.012509692199498112
-0.037370017783587804   -0.442925469464622   -0.012653615765176917
-0.031613402109147995   -0.4461668032530041   -0.013660375046979992
-0.036289456846826953   -0.4433489170537999   -0.012848135217833682
-0.037370017783587804   -0.442925469464622   -0.012653615765176917
-0.0346301447494851   -0.44240671583576713   -0.01247602858329183
-0.03549927547022724   -0.442605661453313   -0.01252250727764689
-0.036289456846826953   -0.4433489170537999   -0.012848135217833682
-0.037370017783587804   -0.442925469464622   -0.012653615765176917
-0.03549927547022724   -0.442605661453313   -0.01252250727764689
-0.031613402109147995   -0.4461668032530041   -0.013660375046979992
-0.036289456846826953   -0.4433489170537999   -0.012848135217833682
-0.0346301447494851   -0.44240671583576713   -0.01247602858329183
-0.03021342688609072   -0.4461438035548036   -0.012509692199498112
-0.03504715874816539   -0.44377242992856136   -0.012530687393958594
-0.0346301447494851   -0.44240671583576713   -0.01247602858329183
-0.037370017783587804   -0.442925469464622   -0.012653615765176917
-0.03021342688609072   -0.4461438035548036   -0.012509692199498112
-0.036371289277009715   -0.44305125510436577   -0.011963426530237907
-0.03504715874816539   -0.44377242992856136   -0.012530687393958594
-0.028708932535139366   -0.44647117852599183   -0.01135528979552771
-0.036371289277009715   -0.44305125510436577   -0.011963426530237907
-0.03021342688609072   -0.4461438035548036   -0.012509692199498112
-0.03504715874816539   -0.44377242992856136   -0.012530687393958594
-0.036371289277009715   -0.44305125510436577   -0.011963426530237907
-0.03374614679009442   -0.4425346453127686   -0.01237935515181393
-0.0346301447494851   -0.44240671583576713   -0.01247602858329183
-0.03504715874816539   -0.44377242992856136   -0.012530687393958594
-0.036371289277009715   -0.44305125510436577   -0.011963426530237907
-0.0346301447494851   -0.44240671583576713   -0.01247602858329183
-0.03021342688609072   -0.4461438035548036   -0.012509692199498112
-0.033125522473393294   -0.4465607111540844   -0.014815642248708214
-0.03914926172090101   -0.4436083082230611   -0.013870770970812626
-0.02762633068522663   -0.45   -0.01581410678155333
-0.031613402109147995   -0.4461668032530041   -0.013660375046979992
-0.03914926172090101   -0.4436083082230611   -0.013870770970812626
-0.043301543898847494   -0.44314517675432014   -0.015165239164497048
-0.02762633068522663   -0.45   -0.01581410678155333
-0.04224500108995879   -0.4426600338800565   -0.014037338935591379
-0.031613402109147995   -0.4461668032530041   -0.013660375046979992
-0.025726992233141722   -0.45   -0.014066464859239604
-0.04224500108995879   -0.4426600338800565   -0.014037338935591379
-0.02762633068522663   -0.45   -0.01581410678155333
-0.031613402109147995   -0.4461668032530041   -0.013660375046979992
-0.04224500108995879   -0.4426600338800565   -0.014037338935591379
-0.038340691435243456   -0.44309257290480353   -0.013301146196705728
-0.03914926172090101   -0.4436083082230611   -0.013870770970812626
-0.031613402109147995   -0.4461668032530041   -0.013660375046979992
-0.04224500108995879   -0.4426600338800565   -0.014037338935591379
-0.03914926172090101   -0.4436083082230611   -0.013870770970812626
-0.02762633068522663   -0.45   -0.01581410678155333
-0.031613402109147995   -0.4461668032530041   -0.013660375046979992
-0.038340691435243456   -0.44309257290480353   -0.013301146196705728
-0.025726992233141722   -0.45   -0.014066464859239604
-0.03021342688609072   -0.4461438035548036   -0.012509692199498112
-0.038340691435243456   -0.44309257290480353   -0.013301146196705728
-0.04224500108995879   -0.4426600338800565   -0.014037338935591379
-0.025726992233141722   -0.45   -0.014066464859239604
-0.040852891788388065   -0.4425472820772424   -0.012822986270715809
-0.03021342688609072   -0.4461438035548036   -0.012509692199498112
-0.023820662317820807   -0.45   -0.012298028124876476
-0.040852891788388065   -0.4425472820772424   -0.012822986270715809
-0.025726992233141722   -0.45   -0.014066464859239604
-0.03021342688609072   -0.4461438035548036   -0.012509692199498112
-0.040852891788388065   -0.4425472820772424   -0.012822986270715809
-0.037370017783587804   -0.442925469464622   -0.012653615765176917
-0.038340691435243456   -0.44309257290480353   -0.013301146196705728
-0.03021342688609072   -0.4461438035548036   -0.012509692199498112
-0.040852891788388065   -0.4425472820772424   -0.012822986270715809
-0.038340691435243456   -0.44309257290480353   -0.013301146196705728
-0.025726992233141722   -0.45   -0.014066464859239604
-0.03021342688609072   -0.4461438035548036   -0.012509692199498112
-0.037370017783587804   -0.442925469464622   -0.012653615765176917
-0.023820662317820807   -0.45   -0.012298028124876476
-0.028708932535139366   -0.44647117852599183   -0.01135528979552771
-0.037370017783587804   -0.442925469464622   -0.012653615765176917
-0.040852891788388065   -0.4425472820772424   -0.012822986270715809
-0.023820662317820807   -0.45   -0.012298028124876476
-0.03954029597077249   -0.4427343407351348   -0.011561078869584332
-0.028708932535139366   -0.44647117852599183   -0.01135528979552771
-0.02195462569753621   -0.45   -0.010552795623213795
-0.03954029597077249   -0.4427343407351348   -0.011561078869584332
-0.023820662317820807   -0.45   -0.012298028124876476
-0.028708932535139366   -0.44647117852599183   -0.01135528979552771
-0.03954029597077249   -0.4427343407351348   -0.011561078869584332
-0.036371289277009715   -0.44305125510436577   -0.011963426530237907
-0.037370017783587804   -0.442925469464622   -0.012653615765176917
-0.028708932535139366   -0.44647117852599183   -0.01135528979552771
-0.03954029597077249   -0.4427343407351348   -0.011561078869584332
-0.037370017783587804   -0.442925469464622   -0.012653615765176917
-0.023820662317820807   -0.45   -0.012298028124876476
-0.02762633068522663   -0.45   -0.01581410678155333
-0.043301543898847494   -0.44314517675432014   -0.015165239164497048
-0.02365956618897815   -0.45   -0.017023410855762932
-0.025726992233141722   -0.45   -0.014066464859239604
-0.043301543898847494   -0.44314517675432014   -0.015165239164497048
-0.051329970262534406   -0.4409726299262692   -0.01653180394942376
-0.02365956618897815   -0.45   -0.017023410855762932
-0.04854250241031196   -0.44056675550413454   -0.01468090144064621
-0.025726992233141722   -0.45   -0.014066464859239604
-0.019704790296272687   -0.45   -0.014498797794218792
-0.04854250241031196   -0.44056675550413454   -0.01468090144064621
-0.02365956618897815   -0.45   -0.017023410855762932
-0.025726992233141722   -0.45   -0.014066464859239604
-0.04854250241031196   -0.44056675550413454   -0.01468090144064621
-0.04224500108995879   -0.4426600338800565   -0.014037338935591379
-0.043301543898847494   -0.44314517675432014   -0.015165239164497048
-0.025726992233141722   -0.45   -0.014066464859239604
-0.04854250241031196   -0.44056675550413454   -0.01468090144064621
-0.043301543898847494   -0.44314517675432014   -0.015165239164497048
-0.02365956618897815   -0.45   -0.017023410855762932
-0.025726992233141722   -0.45   -0.014066464859239604
-0.04224500108995879   -0.4426600338800565   -0.014037338935591379
-0.019704790296272687   -0.45   -0.014498797794218792
-0.023820662317820807   -0.45   -0.012298028124876476
-0.04224500108995879   -0.4426600338800565   -0.014037338935591379
-0.04854250241031196   -0.44056675550413454   -0.01468090144064621
-0.019704790296272687   -0.45   -0.014498797794218792
-0.045976969015639496   -0.44050901383494884   -0.012703264407503233
-0.023820662317820807   -0.45   -0.012298028124876476
-0.016550748073941152   -0.45   -0.012083480766331048
-0.045976969015639496   -0.44050901383494884   -0.012703264407503233
-0.019704790296272687   -0.45   -0.014498797794218792
-0.023820662317820807   -0.45   -0.012298028124876476
-0.045976969015639496   -0.44050901383494884   -0.012703264407503233
-0.040852891788388065   -0.4425472820772424   -0.012822986270715809
-0.04224500108995879   -0.4426600338800565   -0.014037338935591379
-0.023820662317820807   -0.45   -0.012298028124876476
-0.045976969015639496   -0.44050901383494884   -0.012703264407503233
-0.04224500108995879   -0.4426600338800565   -0.014037338935591379
-0.019704790296272687   -0.45   -0.014498797794218792
-0.023820662317820807   -0.45   -0.012298028124876476
-0.040852891788388065   -0.4425472820772424   -0.012822986270715809
-0.016550748073941152   -0.45   -0.012083480766331048
-0.02195462569753621   -0.45   -0.010552795623213795
-0.040852891788388065   -0.4425472820772424   -0.012822986270715809
-0.045976969015639496   -0.44050901383494884   -0.012703264407503233
-0.016550748073941152   -0.45   -0.012083480766331048
-0.04273779450676376   -0.4410425032993306   -0.01063323042865135
-0.02195462569753621   -0.45   -0.010552795623213795
-0.012653876669442605   -0.45   -0.00957629233887621
-0.04273779450676376   -0.4410425032993306   -0.01063323042865135
-0.016550748073941152   -0.45   -0.012083480766331048
-0.02195462569753621   -0.45   -0.010552795623213795
-0.04273779450676376   -0.4410425032993306   -0.01063323042865135
-0.03954029597077249   -0.4427343407351348   -0.011561078869584332
-0.040852891788388065   -0.4425472820772424   -0.012822986270715809
-0.02195462569753621   -0.45   -0.010552795623213795
-0.04273779450676376   -0.4410425032993306   -0.01063323042865135
-0.040852891788388065   -0.4425472820772424   -0.012822986270715809
-0.016550748073941152   -0.45   -0.012083480766331048
-0.031588547673944756   -0.44036198291898343   -0.009380455335138937
-0.012604150988653858   -0.42349323852758025   -0.008113745758575045
-0.033598440365202736   -0.4420787065180585   -0.011116117697946468
-0.0293489332236069   -0.43958283570927076   -0.010850389165136816
-0.012604150988653858   -0.42349323852758025   -0.008113745758575045
-0.023987204455151828   -0.4247827381205796   -0.00995587168141424
-0.033598440365202736   -0.4420787065180585   -0.011116117697946468
-0.02336232626653227   -0.4240483758372463   -0.010514700246568313
-0.0293489332236069   -0.43958283570927076   -0.010850389165136816
-0.03271720618454452   -0.4414715074782756   -0.011744339503456361
-0.02336232626653227   -0.4240483758372463   -0.010514700246568313
-0.033598440365202736   -0.4420787065180585   -0.011116117697946468
-0.0293489332236069   -0.43958283570927076   -0.010850389165136816
-0.02336232626653227   -0.4240483758372463   -0.010514700246568313
-0.01082341384997934   -0.4225854698251237   -0.00938063549060277
-0.012604150988653858   -0.42349323852758025   -0.008113745758575045
-0.0293489332236069   -0.43958283570927076   -0.010850389165136816
-0.02336232626653227   -0.4240483758372463   -0.010514700246568313
-0.012604150988653858   -0.42349323852758025   -0.008113745758575045
-0.033598440365202736   -0.4420787065180585   -0.011116117697946468
-0.0293489332236069   -0.43958283570927076   -0.010850389165136816
-0.01082341384997934   -0.4225854698251237   -0.00938063549060277
-0.03271720618454452   -0.4414715074782756   -0.011744339503456361
-0.02748429481024304   -0.43933790131375683   -0.012259043538915182
-0.01082341384997934   -0.4225854698251237   -0.00938063549060277
-0.02336232626653227   -0.4240483758372463   -0.010514700246568313
-0.03271720618454452   -0.4414715074782756   -0.011744339503456361
-0.022660128273056523   -0.42363675809482165   -0.01102245087987792
-0.02748429481024304   -0.43933790131375683   -0.012259043538915182
-0.031684624910051785   -0.44124287600389905   -0.012323212412919216
-0.022660128273056523   -0.42363675809482165   -0.01102245087987792
-0.03271720618454452   -0.4414715074782756   -0.011744339503456361
-0.02748429481024304   -0.43933790131375683   -0.012259043538915182
-0.022660128273056523   -0.42363675809482165   -0.01102245087987792
-0.009422312549368159   -0.4221477363740702   -0.010571772218840796
-0.01082341384997934   -0.4225854698251237   -0.00938063549060277
-0.02748429481024304   -0.43933790131375683   -0.012259043538915182
-0.022660128273056523   -0.42363675809482165   -0.01102245087987792
-0.01082341384997934   -0.4225854698251237   -0.00938063549060277
-0.03271720618454452   -0.4414715074782756   -0.011744339503456361
-0.02748429481024304   -0.43933790131375683   -0.012259043538915182
-0.009422312549368159   -0.4221477363740702   -0.010571772218840796
-0.031684624910051785   -0.44124287600389905   -0.012323212412919216
-0.025377014423669696   -0.4395290522196891   -0.013600000866176654
-0.009422312549368159   -0.4221477363740702   -0.010571772218840796
-0.022660128273056523   -0.42363675809482165   -0.01102245087987792
-0.031684624910051785   -0.44124287600389905   -0.012323212412919216
-0.022121374174500958   -0.4235364458803405   -0.011480711422162568
-0.025377014423669696   -0.4395290522196891   -0.013600000866176654
-0.030799446000623124   -0.44139591318739796   -0.01284963165971855
-0.022121374174500958   -0.4235364458803405   -0.011480711422162568
-0.031684624910051785   -0.44124287600389905   -0.012323212412919216
-0.025377014423669696   -0.4395290522196891   -0.013600000866176654
-0.022121374174500958   -0.4235364458803405   -0.011480711422162568
-0.007895110416741407   -0.4220553293677767   -0.011683897857680935
-0.009422312549368159   -0.4221477363740702   -0.010571772218840796
-0.025377014423669696   -0.4395290522196891   -0.013600000866176654
-0.022121374174500958   -0.4235364458803405   -0.011480711422162568
-0.009422312549368159   -0.4221477363740702   -0.010571772218840796
-0.031684624910051785   -0.44124287600389905   -0.012323212412919216
-0.033598440365202736   -0.4420787065180585   -0.011116117697946468
-0.023987204455151828   -0.4247827381205796   -0.00995587168141424
-0.03627987195633794   -0.44314753485986785   -0.012504996479805493
-0.03271720618454452   -0.4414715074782756   -0.011744339503456361
-0.023987204455151828   -0.4247827381205796   -0.00995587168141424
-0.03520264135146894   -0.4252395619865023   -0.011460501366337392
-0.03627987195633794   -0.44314753485986785   -0.012504996479805493
-0.03467642941454967   -0.42459871302906776   -0.011492437694494819
-0.03271720618454452   -0.4414715074782756   -0.011744339503456361
-0.03549927547022724   -0.442605661453313   -0.01252250727764689
-0.03467642941454967   -0.42459871302906776   -0.011492437694494819
-0.03627987195633794   -0.44314753485986785   -0.012504996479805493
-0.03271720618454452   -0.4414715074782756   -0.011744339503456361
-0.03467642941454967   -0.42459871302906776   -0.011492437694494819
-0.02336232626653227   -0.4240483758372463   -0.010514700246568313
-0.023987204455151828   -0.4247827381205796   -0.00995587168141424
-0.03271720618454452   -0.4414715074782756   -0.011744339503456361
-0.03467642941454967   -0.42459871302906776   -0.011492437694494819
-0.023987204455151828   -0.4247827381205796   -0.00995587168141424
-0.03627987195633794   -0.44314753485986785   -0.012504996479805493
-0.03271720618454452   -0.4414715074782756   -0.011744339503456361
-0.02336232626653227   -0.4240483758372463   -0.010514700246568313
-0.03549927547022724   -0.442605661453313   -0.01252250727764689
-0.031684624910051785   -0.44124287600389905   -0.012323212412919216
-0.02336232626653227   -0.4240483758372463   -0.010514700246568313
-0.03467642941454967   -0.42459871302906776   -0.011492437694494819
-0.03549927547022724   -0.442605661453313   -0.01252250727764689
-0.034132325256136034   -0.4242488686235614   -0.011477088967029743
-0.031684624910051785   -0.44124287600389905   -0.012323212412919216
-0.0346301447494851   -0.44240671583576713   -0.01247602858329183
-0.034132325256136034   -0.4242488686235614   -0.011477088967029743
-0.03549927547022724   -0.442605661453313   -0.01252250727764689
-0.031684624910051785   -0.44124287600389905   -0.012323212412919216
-0.034132325256136034   -0.4242488686235614   -0.011477088967029743
-0.022660128273056523   -0.42363675809482165   -0.01102245087987792
-0.02336232626653227   -0.4240483758372463   -0.010514700246568313
-0.031684624910051785   -0.44124287600389905   -0.012323212412919216
-0.034132325256136034   -0.4242488686235614   -0.011477088967029743
-0.02336232626653227   -0.4240483758372463   -0.010514700246568313
-0.03549927547022724   -0.442605661453313   -0.01252250727764689
-0.031684624910051785   -0.44124287600389905   -0.012323212412919216
-0.022660128273056523   -0.42363675809482165   -0.01102245087987792
-0.0346301447494851   -0.44240671583576713   -0.01247602858329183
-0.030799446000623124   -0.44139591318739796   -0.01284963165971855
-0.022660128273056523   -0.42363675809482165   -0.01102245087987792
-0.034132325256136034   -0.4242488686235614   -0.011477088967029743
-0.0346301447494851   -0.44240671583576713   -0.01247602858329183
-0.033607413570944385   -0.42417568040631576   -0.011413924679699252
-0.030799446000623124   -0.44139591318739796   -0.01284963165971855
-0.03374614679009442   -0.4425346453127686   -0.01237935515181393
-0.033607413570944385   -0.42417568040631576   -0.011413924679699252
-0.0346301447494851   -0.44240671583576713   -0.01247602858329183
-0.030799446000623124   -0.44139591318739796   -0.01284963165971855
-0.033607413570944385   -0.42417568040631576   -0.011413924679699252
-0.022121374174500958   -0.4235364458803405   -0.011480711422162568
-0.022660128273056523   -0.42363675809482165   -0.01102245087987792
-0.030799446000623124   -0.44139591318739796   -0.01284963165971855
-0.033607413570944385   -0.42417568040631576   -0.011413924679699252
-0.022660128273056523   -0.42363675809482165   -0.01102245087987792
-0.0346301447494851   -0.44240671583576713   -0.01247602858329183
-0.03627987195633794   -0.44314753485986785   -0.012504996479805493
-0.03520264135146894   -0.4252395619865023   -0.011460501366337392
-0.03914926172090101   -0.4436083082230611   -0.013870770970812626
-0.03549927547022724   -0.442605661453313   -0.01252250727764689
-0.03520264135146894   -0.4252395619865023   -0.011460501366337392
-0.04633734916437709   -0.4248375304170173   -0.012868164537364704
-0.03914926172090101   -0.4436083082230611   -0.013870770970812626
-0.045815286152619136   -0.42426884189285224   -0.012395075071016913
-0.03549927547022724   -0.442605661453313   -0.01252250727764689
-0.038340691435243456   -0.44309257290480353   -0.013301146196705728
-0.045815286152619136   -0.42426884189285224   -0.012395075071016913
-0.03914926172090101   -0.4436083082230611   -0.013870770970812626
-0.03549927547022724   -0.442605661453313   -0.01252250727764689
-0.045815286152619136   -0.42426884189285224   -0.012395075071016913
-0.03467642941454967   -0.42459871302906776   -0.011492437694494819
-0.03520264135146894   -0.4252395619865023   -0.011460501366337392
-0.03549927547022724   -0.442605661453313   -0.01252250727764689
-0.045815286152619136   -0.42426884189285224   -0.012395075071016913
-0.03520264135146894   -0.4252395619865023   -0.011460501366337392
-0.03914926172090101   -0.4436083082230611   -0.013870770970812626
-0.03549927547022724   -0.442605661453313   -0.01252250727764689
-0.03467642941454967   -0.42459871302906776   -0.011492437694494819
-0.038340691435243456   -0.44309257290480353   -0.013301146196705728
-0.0346301447494851   -0.44240671583576713   -0.01247602858329183
-0.03467642941454967   -0.42459871302906776   -0.011492437694494819
-0.045815286152619136   -0.42426884189285224   -0.012395075071016913
-0.038340691435243456   -0.44309257290480353   -0.013301146196705728
-0.04522938417948174   -0.42398617537337374   -0.011875361175201406
-0.0346301447494851   -0.44240671583576713   -0.01247602858329183
-0.037370017783587804   -0.442925469464622   -0.012653615765176917
-0.04522938417948174   -0.42398617537337374   -0.011875361175201406
-0.038340691435243456   -0.44309257290480353   -0.013301146196705728
-0.0346301447494851   -0.44240671583576713   -0.01247602858329183
-0.04522938417948174   -0.42398617537337374   -0.011875361175201406
-0.034132325256136034   -0.4242488686235614   -0.011477088967029743
-0.03467642941454967   -0.42459871302906776   -0.011492437694494819
-0.0346301447494851   -0.44240671583576713   -0.01247602858329183
-0.04522938417948174   -0.42398617537337374   -0.011875361175201406
-0.03467642941454967   -0.42459871302906776   -0.011492437694494819
-0.038340691435243456   -0.44309257290480353   -0.013301146196705728
-0.0346301447494851   -0.44240671583576713   -0.01247602858329183
-0.034132325256136034   -0.4242488686235614   -0.011477088967029743
-0.037370017783587804   -0.442925469464622   -0.012653615765176917
-0.03374614679009442   -0.4425346453127686   -0.01237935515181393
-0.034132325256136034   -0.4242488686235614   -0.011477088967029743
-0.04522938417948174   -0.42398617537337374   -0.011875361175201406
-0.037370017783587804   -0.442925469464622   -0.012653615765176917
-0.04464061901582608   -0.42396152071523474   -0.011303335103850856
-0.03374614679009442   -0.4425346453127686   -0.01237935515181393
-0.036371289277009715   -0.44305125510436577   -0.011963426530237907
-0.04464061901582608   -0.42396152071523474   -0.011303335103850856
-0.037370017783587804   -0.442925469464622   -0.012653615765176917
-0.03374614679009442   -0.4425346453127686   -0.01237935515181393
-0.04464061901582608   -0.42396152071523474   -0.011303335103850856
-0.033607413570944385   -0.42417568040631576   -0.011413924679699252
-0.034132325256136034   -0.4242488686235614   -0.011477088967029743
-0.03374614679009442   -0.4425346453127686   -0.01237935515181393
-0.04464061901582608   -0.42396152071523474   -0.011303335103850856
-0.034132325256136034   -0.4242488686235614   -0.011477088967029743
-0.037370017783587804   -0.442925469464622   -0.012653615765176917
-0.03914926172090101   -0.4436083082230611   -0.013870770970812626
-0.04633734916437709   -0.4248375304170173   -0.012868164537364704
-0.043301543898847494   -0.44314517675432014   -0.015165239164497048
-0.038340691435243456   -0.44309257290480353   -0.013301146196705728
-0.04633734916437709   -0.4248375304170173   -0.012868164537364704
-0.058579255229434045   -0.4235226673693426   -0.014159444573066263
-0.043301543898847494   -0.44314517675432014   -0.015165239164497048
-0.05794140036068595   -0.42302664717141786   -0.013193043976402809
-0.038340691435243456   -0.44309257290480353   -0.013301146196705728
-0.04224500108995879   -0.4426600338800565   -0.014037338935591379
-0.05794140036068595   -0.42302664717141786   -0.013193043976402809
-0.043301543898847494   -0.44314517675432014   -0.015165239164497048
-0.038340691435243456   -0.44309257290480353   -0.013301146196705728
-0.05794140036068595   -0.42302664717141786   -0.013193043976402809
-0.045815286152619136   -0.42426884189285224   -0.012395075071016913
-0.04633734916437709   -0.4248375304170173   -0.012868164537364704
-0.038340691435243456   -0.44309257290480353   -0.013301146196705728
-0.05794140036068595   -0.42302664717141786   -0.013193043976402809
-0.04633734916437709   -0.4248375304170173   -0.012868164537364704
-0.043301543898847494   -0.44314517675432014   -0.015165239164497048
-0.038340691435243456   -0.44309257290480353   -0.013301146196705728
-0.045815286152619136   -0.42426884189285224   -0.012395075071016913
-0.04224500108995879   -0.4426600338800565   -0.014037338935591379
-0.037370017783587804   -0.442925469464622   -0.012653615765176917
-0.045815286152619136   -0.42426884189285224   -0.012395075071016913
-0.05794140036068595   -0.42302664717141786   -0.013193043976402809
-0.04224500108995879   -0.4426600338800565   -0.014037338935591379
-0.05706191118072408   -0.4228108877927498   -0.012183318065873737
-0.037370017783587804   -0.442925469464622   -0.012653615765176917
-0.040852891788388065   -0.4425472820772424   -0.012822986270715809
-0.05706191118072408   -0.4228108877927498   -0.012183318065873737
-0.04224500108995879   -0.4426600338800565   -0.014037338935591379
-0.037370017783587804   -0.442925469464622   -0.012653615765176917
-0.05706191118072408   -0.4228108877927498   -0.012183318065873737
-0.04522938417948174   -0.42398617537337374   -0.011875361175201406
-0.045815286152619136   -0.42426884189285224   -0.012395075071016913
-0.037370017783587804   -0.442925469464622   -0.012653615765176917
-0.05706191118072408   -0.4228108877927498   -0.012183318065873737
-0.045815286152619136   -0.42426884189285224   -0.012395075071016913
-0.04224500108995879   -0.4426600338800565   -0.014037338935591379
-0.037370017783587804   -0.442925469464622   -0.012653615765176917
-0.04522938417948174   -0.42398617537337374   -0.011875361175201406
-0.040852891788388065   -0.4425472820772424   -0.012822986270715809
-0.036371289277009715   -0.44305125510436577   -0.011963426530237907
-0.04522938417948174   -0.42398617537337374   -0.011875361175201406
-0.05706191118072408   -0.4228108877927498   -0.012183318065873737
-0.040852891788388065   -0.4425472820772424   -0.012822986270715809
-0.05629225441890042   -0.42287583458394273   -0.011101806819449963
-0.036371289277009715   -0.44305125510436577   -0.011963426530237907
-0.03954029597077249   -0.4427343407351348   -0.011561078869584332
-0.05629225441890042   -0.42287583458394273   -0.011101806819449963
-0.040852891788388065   -0.4425472820772424   -0.012822986270715809
-0.036371289277009715   -0.44305125510436577   -0.011963426530237907
-0.05629225441890042   -0.42287583458394273   -0.011101806819449963
-0.04464061901582608   -0.42396152071523474   -0.011303335103850856
-0.04522938417948174   -0.42398617537337374   -0.011875361175201406
-0.036371289277009715   -0.44305125510436577   -0.011963426530237907
-0.05629225441890042   -0.42287583458394273   -0.011101806819449963
-0.04522938417948174   -0.42398617537337374   -0.011875361175201406
-0.040852891788388065   -0.4425472820772424   -0.012822986270715809
-0.043301543898847494   -0.44314517675432014   -0.015165239164497048
-0.058579255229434045   -0.4235226673693426   -0.014159444573066263
-0.051329970262534406   -0.4409726299262692   -0.01653180394942376
-0.04224500108995879   -0.4426600338800565   -0.014037338935591379
-0.058579255229434045   -0.4235226673693426   -0.014159444573066263
-0.07434569998988347   -0.42138428783636717   -0.015393557523508643
-0.051329970262534406   -0.4409726299262692   -0.01653180394942376
-0.07230901433559066   -0.4208487629390091   -0.013868338994943528
-0.04224500108995879   -0.4426600338800565   -0.014037338935591379
-0.04854250241031196   -0.44056675550413454   -0.01468090144064621
-0.07230901433559066   -0.4208487629390091   -0.013868338994943528
-0.051329970262534406   -0.4409726299262692   -0.01653180394942376
-0.04224500108995879   -0.4426600338800565   -0.014037338935591379
-0.07230901433559066   -0.4208487629390091   -0.013868338994943528
-0.05794140036068595   -0.42302664717141786   -0.013193043976402809
-0.058579255229434045   -0.4235226673693426   -0.014159444573066263
-0.04224500108995879   -0.4426600338800565   -0.014037338935591379
-0.07230901433559066   -0.4208487629390091   -0.013868338994943528
-0.058579255229434045   -0.4235226673693426   -0.014159444573066263
-0.051329970262534406   -0.4409726299262692   -0.01653180394942376
-0.04224500108995879   -0.4426600338800565   -0.014037338935591379
-0.05794140036068595   -0.42302664717141786   -0.013193043976402809
-0.04854250241031196   -0.44056675550413454   -0.01468090144064621
-0.040852891788388065   -0.4425472820772424   -0.012822986270715809
-0.05794140036068595   -0.42302664717141786   -0.013193043976402809
-0.07230901433559066   -0.4208487629390091   -0.013868338994943528
-0.04854250241031196   -0.44056675550413454   -0.01468090144064621
-0.07047979288626491   -0.42064919129313993   -0.0122525360719398
-0.040852891788388065   -0.4425472820772424   -0.012822986270715809
-0.045976969015639496   -0.44050901383494884   -0.012703264407503233
-0.07047979288626491   -0.42064919129313993   -0.0122525360719398
-0.04854250241031196   -0.44056675550413454   -0.01468090144064621
-0.040852891788388065   -0.4425472820772424   -0.012822986270715809
-0.07047979288626491   -0.42064919129313993   -0.0122525360719398
-0.05706191118072408   -0.4228108877927498   -0.012183318065873737
-0.05794140036068595   -0.42302664717141786   -0.013193043976402809
-0.040852891788388065   -0.4425472820772424   -0.012822986270715809
-0.07047979288626491   -0.42064919129313993   -0.0122525360719398
-0.05794140036068595   -0.42302664717141786   -0.013193043976402809
-0.04854250241031196   -0.44056675550413454   -0.01468090144064621
-0.040852891788388065   -0.4425472820772424   -0.012822986270715809
-0.05706191118072408   -0.4228108877927498   -0.012183318065873737
-0.045976969015639496   -0.44050901383494884   -0.012703264407503233
-0.03954029597077249   -0.4427343407351348   -0.011561078869584332
-0.05706191118072408   -0.4228108877927498   -0.012183318065873737
-0.07047979288626491   -0.42064919129313993   -0.0122525360719398
-0.045976969015639496   -0.44050901383494884   -0.012703264407503233
-0.06810856505506195   -0.4208873605779236   -0.010561645107600878
-0.03954029597077249   -0.4427343407351348   -0.011561078869584332
-0.04273779450676376   -0.4410425032993306   -0.01063323042865135
-0.06810856505506195   -0.4208873605779236   -0.010561645107600878
-0.045976969015639496   -0.44050901383494884   -0.012703264407503233
-0.03954029597077249   -0.4427343407351348   -0.011561078869584332
-0.06810856505506195   -0.4208873605779236   -0.010561645107600878
-0.05629225441890042   -0.42287583458394273   -0.011101806819449963
-0.05706191118072408   -0.4228108877927498   -0.012183318065873737
-0.03954029597077249   -0.4427343407351348   -0.011561078869584332
-0.06810856505506195   -0.4208873605779236   -0.010561645107600878
-0.05706191118072408   -0.4228108877927498   -0.012183318065873737
-0.045976969015639496   -0.44050901383494884   -0.012703264407503233
-0.012604150988653858   -0.42349323852758025   -0.008113745758575045
0.002741361858990831   -0.3926379365502392   -0.006718948672253913
-0.023987204455151828   -0.4247827381205796   -0.00995587168141424
-0.01082341384997934   -0.4225854698251237   -0.00938063549060277
0.002741361858990831   -0.3926379365502392   -0.006718948672253913
-0.01638181347882166   -0.3935792787584321   -0.008526133761500135
-0.023987204455151828   -0.4247827381205796   -0.00995587168141424
-0.01605208824208485   -0.39280997643463456   -0.008967886081827794
-0.01082341384997934   -0.4225854698251237   -0.00938063549060277
-0.02336232626653227   -0.4240483758372463   -0.010514700246568313
-0.01605208824208485   -0.39280997643463456   -0.008967886081827794
-0.023987204455151828   -0.4247827381205796   -0.00995587168141424
-0.01082341384997934   -0.4225854698251237   -0.00938063549060277
-0.01605208824208485   -0.39280997643463456   -0.008967886081827794
0.003978900098144363   -0.3917164875128252   -0.007723828315268895
0.002741361858990831   -0.3926379365502392   -0.006718948672253913
-0.01082341384997934   -0.4225854698251237   -0.00938063549060277
-0.01605208824208485   -0.39280997643463456   -0.008967886081827794
0.002741361858990831   -0.3926379365502392   -0.006718948672253913
-0.023987204455151828   -0.4247827381205796   -0.00995587168141424
-0.01082341384997934   -0.4225854698251237   -0.00938063549060277
0.003978900098144363   -0.3917164875128252   -0.007723828315268895
-0.02336232626653227   -0.4240483758372463   -0.010514700246568313
-0.009422312549368159   -0.4221477363740702   -0.010571772218840796
0.003978900098144363   -0.3917164875128252   -0.007723828315268895
-0.01605208824208485   -0.39280997643463456   -0.008967886081827794
-0.02336232626653227   -0.4240483758372463   -0.010514700246568313
-0.015677629395693664   -0.3923028700305379   -0.00935744755724626
-0.009422312549368159   -0.4221477363740702   -0.010571772218840796
-0.022660128273056523   -0.42363675809482165   -0.01102245087987792
-0.015677629395693664   -0.3923028700305379   -0.00935744755724626
-0.02336232626653227   -0.4240483758372463   -0.010514700246568313
-0.009422312549368159   -0.4221477363740702   -0.010571772218840796
-0.015677629395693664   -0.3923028700305379   -0.00935744755724626
0.0048886021630386925   -0.3911785818812514   -0.008655663647745568
0.003978900098144363   -0.3917164875128252   -0.007723828315268895
-0.009422312549368159   -0.4221477363740702   -0.010571772218840796
-0.015677629395693664   -0.3923028700305379   -0.00935744755724626
0.003978900098144363   -0.3917164875128252   -0.007723828315268895
-0.02336232626653227   -0.4240483758372463   -0.010514700246568313
-0.009422312549368159   -0.4221477363740702   -0.010571772218840796
0.0048886021630386925   -0.3911785818812514   -0.008655663647745568
-0.022660128273056523   -0.42363675809482165   -0.01102245087987792
-0.007895110416741407   -0.4220553293677767   -0.011683897857680935
0.0048886021630386925   -0.3911785818812514   -0.008655663647745568
-0.015677629395693664   -0.3923028700305379   -0.00935744755724626
-0.022660128273056523   -0.42363675809482165   -0.01102245087987792
-0.01545387809919836   -0.3920431163053042   -0.009699964233374459
-0.007895110416741407   -0.4220553293677767   -0.011683897857680935
-0.022121374174500958   -0.4235364458803405   -0.011480711422162568
-0.01545387809919836   -0.3920431163053042   -0.009699964233374459
-0.022660128273056523   -0.42363675809482165   -0.01102245087987792
-0.007895110416741407   -0.4220553293677767   -0.011683897857680935
-0.01545387809919836   -0.3920431163053042   -0.009699964233374459
0.005859710572631926   -0.39090518812044506   -0.009514052032203225
0.0048886021630386925   -0.3911785818812514   -0.008655663647745568
-0.007895110416741407   -0.4220553293677767   -0.011683897857680935
-0.01545387809919836   -0.3920431163053042   -0.009699964233374459
0.0048886021630386925   -0.3911785818812514   -0.008655663647745568
-0.022660128273056523   -0.42363675809482165   -0.01102245087987792
-0.023987204455151828   -0.4247827381205796   -0.00995587168141424
-0.01638181347882166   -0.3935792787584321   -0.008526133761500135
-0.03520264135146894   -0.4252395619865023   -0.011460501366337392
-0.02336232626653227   -0.4240483758372463   -0.010514700246568313
-0.01638181347882166   -0.3935792787584321   -0.008526133761500135
-0.034862129922728045   -0.3937588582863247   -0.010018230937018301
-0.03520264135146894   -0.4252395619865023   -0.011460501366337392
-0.034619011048822035   -0.3930977402293693   -0.010030450390087464
-0.02336232626653227   -0.4240483758372463   -0.010514700246568313
-0.03467642941454967   -0.42459871302906776   -0.011492437694494819
-0.034619011048822035   -0.3930977402293693   -0.010030450390087464
-0.03520264135146894   -0.4252395619865023   -0.011460501366337392
-0.02336232626653227   -0.4240483758372463   -0.010514700246568313
-0.034619011048822035   -0.3930977402293693   -0.010030450390087464
-0.01605208824208485   -0.39280997643463456   -0.008967886081827794
-0.01638181347882166   -0.3935792787584321   -0.008526133761500135
-0.02336232626653227   -0.4240483758372463   -0.010514700246568313
-0.034619011048822035   -0.3930977402293693   -0.010030450390087464
-0.01638181347882166   -0.3935792787584321   -0.008526133761500135
-0.03520264135146894   -0.4252395619865023   -0.011460501366337392
-0.02336232626653227   -0.4240483758372463   -0.010514700246568313
-0.01605208824208485   -0.39280997643463456   -0.008967886081827794
-0.03467642941454967   -0.42459871302906776   -0.011492437694494819
-0.022660128273056523   -0.42363675809482165   -0.01102245087987792
-0.01605208824208485   -0.39280997643463456   -0.008967886081827794
-0.034619011048822035   -0.3930977402293693   -0.010030450390087464
-0.03467642941454967   -0.42459871302906776   -0.011492437694494819
-0.034369145944903964   -0.392671375055512   -0.009992708573275815
-0.022660128273056523   -0.42363675809482165   -0.01102245087987792
-0.034132325256136034   -0.4242488686235614   -0.011477088967029743
-0.034369145944903964   -0.392671375055512   -0.009992708573275815
-0.03467642941454967   -0.42459871302906776   -0.011492437694494819
-0.022660128273056523   -0.42363675809482165   -0.01102245087987792
-0.034369145944903964   -0.392671375055512   -0.009992708573275815
-0.015677629395693664   -0.3923028700305379   -0.00935744755724626
-0.01605208824208485   -0.39280997643463456   -0.008967886081827794
-0.022660128273056523   -0.42363675809482165   -0.01102245087987792
-0.034369145944903964   -0.392671375055512   -0.009992708573275815
-0.01605208824208485   -0.39280997643463456   -0.008967886081827794
-0.03467642941454967   -0.42459871302906776   -0.011492437694494819
-0.022660128273056523   -0.42363675809482165   -0.01102245087987792
-0.015677629395693664   -0.3923028700305379   -0.00935744755724626
-0.034132325256136034   -0.4242488686235614   -0.011477088967029743
-0.022121374174500958   -0.4235364458803405   -0.011480711422162568
-0.015677629395693664   -0.3923028700305379   -0.00935744755724626
-0.034369145944903964   -0.392671375055512   -0.009992708573275815
-0.034132325256136034   -0.4242488686235614   -0.011477088967029743
-0.03415055081203754   -0.3924757673186056   -0.00990826581799332
-0.022121374174500958   -0.4235364458803405   -0.011480711422162568
-0.033607413570944385   -0.42417568040631576   -0.011413924679699252
-0.03415055081203754   -0.3924757673186056   -0.00990826581799332
-0.034132325256136034   -0.4242488686235614   -0.011477088967029743
-0.022121374174500958   -0.4235364458803405   -0.011480711422162568
-0.03415055081203754   -0.3924757673186056   -0.00990826581799332
-0.01545387809919836   -0.3920431163053042   -0.009699964233374459
-0.015677629395693664   -0.3923028700305379   -0.00935744755724626
-0.022121374174500958   -0.4235364458803405   -0.011480711422162568
-0.03415055081203754   -0.3924757673186056   -0.00990826581799332
-0.015677629395693664   -0.3923028700305379   -0.00935744755724626
-0.034132325256136034   -0.4242488686235614   -0.011477088967029743
-0.03520264135146894   -0.4252395619865023   -0.011460501366337392
-0.034862129922728045   -0.3937588582863247   -0.010018230937018301
-0.04633734916437709   -0.4248375304170173   -0.012868164537364704
-0.03467642941454967   -0.42459871302906776   -0.011492437694494819
-0.034862129922728045   -0.3937588582863247   -0.010018230937018301
-0.053047823752997186   -0.39317226732553096   -0.011365407650625957
-0.04633734916437709   -0.4248375304170173   -0.012868164537364704
-0.05282140544695975   -0.3926016064671292   -0.01095850582753137
-0.03467642941454967   -0.42459871302906776   -0.011492437694494819
-0.045815286152619136   -0.42426884189285224   -0.012395075071016913
-0.05282140544695975   -0.3926016064671292   -0.01095850582753137
-0.04633734916437709   -0.4248375304170173   -0.012868164537364704
-0.03467642941454967   -0.42459871302906776   -0.011492437694494819
-0.05282140544695975   -0.3926016064671292   -0.01095850582753137
-0.034619011048822035   -0.3930977402293693   -0.010030450390087464
-0.034862129922728045   -0.3937588582863247   -0.010018230937018301
-0.03467642941454967   -0.42459871302906776   -0.011492437694494819
-0.05282140544695975   -0.3926016064671292   -0.01095850582753137
-0.034862129922728045   -0.3937588582863247   -0.010018230937018301
-0.04633734916437709   -0.4248375304170173   -0.012868164537364704
-0.03467642941454967   -0.42459871302906776   -0.011492437694494819
-0.034619011048822035   -0.3930977402293693   -0.010030450390087464
-0.045815286152619136   -0.42426884189285224   -0.012395075071016913
-0.034132325256136034   -0.4242488686235614   -0.011477088967029743
-0.034619011048822035   -0.3930977402293693   -0.010030450390087464
-0.05282140544695975   -0.3926016064671292   -0.01095850582753137
-0.045815286152619136   -0.42426884189285224   -0.012395075071016913
-0.05254788777435984   -0.3922630948066709   -0.010502689878325078
-0.034132325256136034   -0.4242488686235614   -0.011477088967029743
-0.04522938417948174   -0.42398617537337374   -0.011875361175201406
-0.05254788777435984   -0.3922630948066709   -0.010502689878325078
-0.045815286152619136   -0.42426884189285224   -0.012395075071016913
-0.034132325256136034   -0.4242488686235614   -0.011477088967029743
-0.05254788777435984   -0.3922630948066709   -0.010502689878325078
-0.034369145944903964   -0.392671375055512   -0.009992708573275815
-0.034619011048822035   -0.3930977402293693   -0.010030450390087464
-0.034132325256136034   -0.4242488686235614   -0.011477088967029743
-0.05254788777435984   -0.3922630948066709   -0.010502689878325078
-0.034619011048822035   -0.3930977402293693   -0.010030450390087464
-0.045815286152619136   -0.42426884189285224   -0.012395075071016913
-0.034132325256136034   -0.4242488686235614   -0.011477088967029743
-0.034369145944903964   -0.392671375055512   -0.009992708573275815
-0.04522938417948174   -0.42398617537337374   -0.011875361175201406
-0.033607413570944385   -0.42417568040631576   -0.011413924679699252
-0.034369145944903964   -0.392671375055512   -0.009992708573275815
-0.05254788777435984   -0.3922630948066709   -0.010502689878325078
-0.04522938417948174   -0.42398617537337374   -0.011875361175201406
-0.052281585954737766   -0.39214571449325697   -0.009999475084746136
-0.033607413570944385   -0.42417568040631576   -0.011413924679699252
-0.04464061901582608   -0.42396152071523474   -0.011303335103850856
-0.052281585954737766   -0.39214571449325697   -0.009999475084746136
-0.04522938417948174   -0.42398617537337374   -0.011875361175201406
-0.033607413570944385   -0.42417568040631576   -0.011413924679699252
-0.052281585954737766   -0.39214571449325697   -0.009999475084746136
-0.03415055081203754   -0.3924757673186056   -0.00990826581799332
-0.034369145944903964   -0.392671375055512   -0.009992708573275815
-0.033607413570944385   -0.42417568040631576   -0.011413924679699252
-0.052281585954737766   -0.39214571449325697   -0.009999475084746136
-0.034369145944903964   -0.392671375055512   -0.009992708573275815
-0.04522938417948174   -0.42398617537337374   -0.011875361175201406
-0.04633734916437709   -0.4248375304170173   -0.012868164537364704
-0.053047823752997186   -0.39317226732553096   -0.011365407650625957
-0.058579255229434045   -0.4235226673693426   -0.014159444573066263
-0.045815286152619136   -0.42426884189285224   -0.012395075071016913
-0.053047823752997186   -0.39317226732553096   -0.011365407650625957
-0.07211124453470051   -0.39184086624370934   -0.012561746026764086
-0.058579255229434045   -0.4235226673693426   -0.014159444573066263
-0.07181670768122339   -0.3913569737127463   -0.011735394548195008
-0.045815286152619136   -0.42426884189285224   -0.012395075071016913
-0.05794140036068595   -0.42302664717141786   -0.013193043976402809
-0.07181670768122339   -0.3913569737127463   -0.011735394548195008
-0.058579255229434045   -0.4235226673693426   -0.014159444573066263
-0.045815286152619136   -0.42426884189285224   -0.012395075071016913
-0.07181670768122339   -0.3913569737127463   -0.011735394548195008
-0.05282140544695975   -0.3926016064671292   -0.01095850582753137
-0.053047823752997186   -0.39317226732553096   -0.011365407650625957
-0.045815286152619136   -0.42426884189285224   -0.012395075071016913
-0.07181670768122339   -0.3913569737127463   -0.011735394548195008
-0.053047823752997186   -0.39317226732553096   -0.011365407650625957
-0.058579255229434045   -0.4235226673693426   -0.014159444573066263
-0.045815286152619136   -0.42426884189285224   -0.012395075071016913
-0.05282140544695975   -0.3926016064671292   -0.01095850582753137
-0.05794140036068595   -0.42302664717141786   -0.013193043976402809
-0.04522938417948174   -0.42398617537337374   -0.011875361175201406
-0.05282140544695975   -0.3926016064671292   -0.01095850582753137
-0.07181670768122339   -0.3913569737127463   -0.011735394548195008
-0.05794140036068595   -0.42302664717141786   -0.013193043976402809
-0.07131808020249421   -0.3910981184523718   -0.01086758720677035
-0.04522938417948174   -0.42398617537337374   -0.011875361175201406
-0.05706191118072408   -0.4228108877927498   -0.012183318065873737
-0.07131808020249421   -0.3910981184523718   -0.01086758720677035
-0.05794140036068595   -0.42302664717141786   -0.013193043976402809
-0.04522938417948174   -0.42398617537337374   -0.011875361175201406
-0.07131808020249421   -0.3910981184523718   -0.01086758720677035
-0.05254788777435984   -0.3922630948066709   -0.010502689878325078
-0.05282140544695975   -0.3926016064671292   -0.01095850582753137
-0.04522938417948174   -0.42398617537337374   -0.011875361175201406
-0.07131808020249421   -0.3910981184523718   -0.01086758720677035
-0.05282140544695975   -0.3926016064671292   -0.01095850582753137
-0.05794140036068595   -0.42302664717141786   -0.013193043976402809
-0.04522938417948174   -0.42398617537337374   -0.011875361175201406
-0.05254788777435984   -0.3922630948066709   -0.010502689878325078
-0.05706191118072408   -0.4228108877927498   -0.012183318065873737
-0.04464061901582608   -0.42396152071523474   -0.011303335103850856
-0.05254788777435984   -0.3922630948066709   -0.010502689878325078
-0.07131808020249421   -0.3910981184523718   -0.01086758720677035
-0.05706191118072408   -0.4228108877927498   -0.012183318065873737
-0.07091161441906138   -0.3910777138075657   -0.009945520155033425
-0.04464061901582608   -0.42396152071523474   -0.011303335103850856
-0.05629225441890042   -0.42287583458394273   -0.011101806819449963
-0.07091161441906138   -0.3910777138075657   -0.009945520155033425
-0.05706191118072408   -0.4228108877927498   -0.012183318065873737
-0.04464061901582608   -0.42396152071523474   -0.011303335103850856
-0.07091161441906138   -0.3910777138075657   -0.009945520155033425
-0.052281585954737766   -0.39214571449325697   -0.009999475084746136
-0.05254788777435984   -0.3922630948066709   -0.010502689878325078
-0.04464061901582608   -0.42396152071523474   -0.011303335103850856
-0.07091161441906138   -0.3910777138075657   -0.009945520155033425
-0.05254788777435984   -0.3922630948066709   -0.010502689878325078
-0.05706191118072408   -0.4228108877927498   -0.012183318065873737
-0.058579255229434045   -0.4235226673693426   -0.014159444573066263
-0.07211124453470051   -0.39184086624370934   -0.012561746026764086
-0.07434569998988347   -0.42138428783636717   -0.015393557523508643
-0.05794140036068595   -0.42302664717141786   -0.013193043976402809
-0.07211124453470051   -0.39184086624370934   -0.012561746026764086
-0.09434640812531127   -0.3899278023301082   -0.01367346468127776
-0.07434569998988347   -0.42138428783636717   -0.015393557523508643
-0.09285021570198189   -0.38942485662980697   -0.012380885521919318
-0.05794140036068595   -0.42302664717141786   -0.013193043976402809
-0.07230901433559066   -0.4208487629390091   -0.013868338994943528
-0.09285021570198189   -0.38942485662980697   -0.012380885521919318
-0.07434569998988347   -0.42138428783636717   -0.015393557523508643
-0.05794140036068595   -0.42302664717141786   -0.013193043976402809
-0.09285021570198189   -0.38942485662980697   -0.012380885521919318
-0.07181670768122339   -0.3913569737127463   -0.011735394548195008
-0.07211124453470051   -0.39184086624370934   -0.012561746026764086
-0.05794140036068595   -0.42302664717141786   -0.013193043976402809
-0.09285021570198189   -0.38942485662980697   -0.012380885521919318
-0.07211124453470051   -0.39184086624370934   -0.012561746026764086
-0.07434569998988347   -0.42138428783636717   -0.015393557523508643
-0.05794140036068595   -0.42302664717141786   -0.013193043976402809
-0.07181670768122339   -0.3913569737127463   -0.011735394548195008
-0.07230901433559066   -0.4208487629390091   -0.013868338994943528
-0.05706191118072408   -0.4228108877927498   -0.012183318065873737
-0.07181670768122339   -0.3913569737127463   -0.011735394548195008
-0.09285021570198189   -0.38942485662980697   -0.012380885521919318
-0.07230901433559066   -0.4208487629390091   -0.013868338994943528
-0.09154928901988954   -0.38918761370766747   -0.01102012600983888
-0.05706191118072408   -0.4228108877927498   -0.012183318065873737
-0.07047979288626491   -0.42064919129313993   -0.0122525360719398
-0.09154928901988954   -0.38918761370766747   -0.01102012600983888
-0.07230901433559066   -0.4208487629390091   -0.013868338994943528
-0.05706191118072408   -0.4228108877927498   -0.012183318065873737
-0.09154928901988954   -0.38918761370766747   -0.01102012600983888
-0.07131808020249421   -0.3910981184523718   -0.01086758720677035
-0.07181670768122339   -0.3913569737127463   -0.011735394548195008
-0.05706191118072408   -0.4228108877927498   -0.012183318065873737
-0.09154928901988954   -0.38918761370766747   -0.01102012600983888
-0.07181670768122339   -0.3913569737127463   -0.011735394548195008
-0.07230901433559066   -0.4208487629390091   -0.013868338994943528
-0.05706191118072408   -0.4228108877927498   -0.012183318065873737
-0.07131808020249421   -0.3910981184523718   -0.01086758720677035
-0.07047979288626491   -0.42064919129313993   -0.0122525360719398
-0.05629225441890042   -0.42287583458394273   -0.011101806819449963
-0.07131808020249421   -0.3910981184523718   -0.01086758720677035
-0.09154928901988954   -0.38918761370766747   -0.01102012600983888
-0.07047979288626491   -0.42064919129313993   -0.0122525360719398
-0.08979558018755963   -0.3893154061999713   -0.00959988985882545
-0.05629225441890042   -0.42287583458394273   -0.011101806819449963
-0.06810856505506195   -0.4208873605779236   -0.010561645107600878
-0.08979558018755963   -0.3893154061999713   -0.00959988985882545
-0.07047979288626491   -0.42064919129313993   -0.0122525360719398
-0.05629225441890042   -0.42287583458394273   -0.011101806819449963
-0.08979558018755963   -0.3893154061999713   -0.00959988985882545
-0.07091161441906138   -0.3910777138075657   -0.009945520155033425
-0.07131808020249421   -0.3910981184523718   -0.01086758720677035
-0.05629225441890042   -0.42287583458394273   -0.011101806819449963
-0.08979558018755963   -0.3893154061999713   -0.00959988985882545
-0.07131808020249421   -0.3910981184523718   -0.01086758720677035
-0.07047979288626491   -0.42064919129313993   -0.0122525360719398
0.002741361858990831   -0.3926379365502392   -0.006718948672253913
0.014341243896606124   -0.35087974237050934   -0.005122684263507713
-0.01638181347882166   -0.3935792787584321   -0.008526133761500135
0.003978900098144363   -0.3917164875128252   -0.007723828315268895
0.014341243896606124   -0.35087974237050934   -0.005122684263507713
-0.010916427337064636   -0.35149818443916364   -0.006847031089123826
-0.01638181347882166   -0.3935792787584321   -0.008526133761500135
-0.010849891333969946   -0.3507330659118629   -0.007151581332202148
0.003978900098144363   -0.3917164875128252   -0.007723828315268895
-0.01605208824208485   -0.39280997643463456   -0.008967886081827794
-0.010849891333969946   -0.3507330659118629   -0.007151581332202148
-0.01638181347882166   -0.3935792787584321   -0.008526133761500135
0.003978900098144363   -0.3917164875128252   -0.007723828315268895
-0.010849891333969946   -0.3507330659118629   -0.007151581332202148
0.015069914538684323   -0.349981094777767   -0.005862199666059074
0.014341243896606124   -0.35087974237050934   -0.005122684263507713
0.003978900098144363   -0.3917164875128252   -0.007723828315268895
-0.010849891333969946   -0.3507330659118629   -0.007151581332202148
0.014341243896606124   -0.35087974237050934   -0.005122684263507713
-0.01638181347882166   -0.3935792787584321   -0.008526133761500135
0.003978900098144363   -0.3917164875128252   -0.007723828315268895
0.015069914538684323   -0.349981094777767   -0.005862199666059074
-0.01605208824208485   -0.39280997643463456   -0.008967886081827794
0.0048886021630386925   -0.3911785818812514   -0.008655663647745568
0.015069914538684323   -0.349981094777767   -0.005862199666059074
-0.010849891333969946   -0.3507330659118629   -0.007151581332202148
-0.01605208824208485   -0.39280997643463456   -0.008967886081827794
-0.010765586854272782   -0.35017394163667503   -0.007408618888020132
0.0048886021630386925   -0.3911785818812514   -0.008655663647745568
-0.015677629395693664   -0.3923028700305379   -0.00935744755724626
-0.010765586854272782   -0.35017394163667503   -0.007408618888020132
-0.01605208824208485   -0.39280997643463456   -0.008967886081827794
0.0048886021630386925   -0.3911785818812514   -0.008655663647745568
-0.010765586854272782   -0.35017394163667503   -0.007408618888020132
0.015534082631083437   -0.3493860967463623   -0.0065346145586084176
0.015069914538684323   -0.349981094777767   -0.005862199666059074
0.0048886021630386925   -0.3911785818812514   -0.008655663647745568
-0.010765586854272782   -0.35017394163667503   -0.007408618888020132
0.015069914538684323   -0.349981094777767   -0.005862199666059074
-0.01605208824208485   -0.39280997643463456   -0.008967886081827794
0.0048886021630386925   -0.3911785818812514   -0.008655663647745568
0.015534082631083437   -0.3493860967463623   -0.0065346145586084176
-0.015677629395693664   -0.3923028700305379   -0.00935744755724626
0.005859710572631926   -0.39090518812044506   -0.009514052032203225
0.015534082631083437   -0.3493860967463623   -0.0065346145586084176
-0.010765586854272782   -0.35017394163667503   -0.007408618888020132
-0.015677629395693664   -0.3923028700305379   -0.00935744755724626
-0.010809560964500833   -0.3498031696308263   -0.007621616582878828
0.005859710572631926   -0.39090518812044506   -0.009514052032203225
-0.01545387809919836   -0.3920431163053042   -0.009699964233374459
-0.010809560964500833   -0.3498031696308263   -0.007621616582878828
-0.015677629395693664   -0.3923028700305379   -0.00935744755724626
0.005859710572631926   -0.39090518812044506   -0.009514052032203225
-0.010809560964500833   -0.3498031696308263   -0.007621616582878828
0.016008033317223808   -0.34898086335578976   -0.00714129691147562
0.015534082631083437   -0.3493860967463623   -0.0065346145586084176
0.005859710572631926   -0.39090518812044506   -0.009514052032203225
-0.010809560964500833   -0.3498031696308263   -0.007621616582878828
0.015534082631083437   -0.3493860967463623   -0.0065346145586084176
-0.015677629395693664   -0.3923028700305379   -0.00935744755724626
-0.01638181347882166   -0.3935792787584321   -0.008526133761500135
-0.010916427337064636   -0.35149818443916364   -0.006847031089123826
-0.034862129922728045   -0.3937588582863247   -0.010018230937018301
-0.01605208824208485   -0.39280997643463456   -0.008967886081827794
-0.010916427337064636   -0.35149818443916364   -0.006847031089123826
-0.03520568583550435   -0.3514994192565942   -0.008273041131852553
-0.034862129922728045   -0.3937588582863247   -0.010018230937018301
-0.03520981003361946   -0.3508508023499586   -0.008244404720984403
-0.01605208824208485   -0.39280997643463456   -0.008967886081827794
-0.034619011048822035   -0.3930977402293693   -0.010030450390087464
-0.03520981003361946   -0.3508508023499586   -0.008244404720984403
-0.034862129922728045   -0.3937588582863247   -0.010018230937018301
-0.01605208824208485   -0.39280997643463456   -0.008967886081827794
-0.03520981003361946   -0.3508508023499586   -0.008244404720984403
-0.010849891333969946   -0.3507330659118629   -0.007151581332202148
-0.010916427337064636   -0.35149818443916364   -0.006847031089123826
-0.01605208824208485   -0.39280997643463456   -0.008967886081827794
-0.03520981003361946   -0.3508508023499586   -0.008244404720984403
-0.010916427337064636   -0.35149818443916364   -0.006847031089123826
-0.034862129922728045   -0.3937588582863247   -0.010018230937018301
-0.01605208824208485   -0.39280997643463456   -0.008967886081827794
-0.010849891333969946   -0.3507330659118629   -0.007151581332202148
-0.034619011048822035   -0.3930977402293693   -0.010030450390087464
-0.015677629395693664   -0.3923028700305379   -0.00935744755724626
-0.010849891333969946   -0.3507330659118629   -0.007151581332202148
-0.03520981003361946   -0.3508508023499586   -0.008244404720984403
-0.034619011048822035   -0.3930977402293693   -0.010030450390087464
-0.035212370042684155   -0.35038385211839057   -0.00816848755640974
-0.015677629395693664   -0.3923028700305379   -0.00935744755724626
-0.034369145944903964   -0.392671375055512   -0.009992708573275815
-0.035212370042684155   -0.35038385211839057   -0.00816848755640974
-0.034619011048822035   -0.3930977402293693   -0.010030450390087464
-0.015677629395693664   -0.3923028700305379   -0.00935744755724626
-0.035212370042684155   -0.35038385211839057   -0.00816848755640974
-0.010765586854272782   -0.35017394163667503   -0.007408618888020132
-0.010849891333969946   -0.3507330659118629   -0.007151581332202148
-0.015677629395693664   -0.3923028700305379   -0.00935744755724626
-0.035212370042684155   -0.35038385211839057   -0.00816848755640974
-0.010849891333969946   -0.3507330659118629   -0.007151581332202148
-0.034619011048822035   -0.3930977402293693   -0.010030450390087464
-0.015677629395693664   -0.3923028700305379   -0.00935744755724626
-0.010765586854272782   -0.35017394163667503   -0.007408618888020132
-0.034369145944903964   -0.392671375055512   -0.009992708573275815
-0.01545387809919836   -0.3920431163053042   -0.009699964233374459
-0.010765586854272782   -0.35017394163667503   -0.007408618888020132
-0.035212370042684155   -0.35038385211839057   -0.00816848755640974
-0.034369145944903964   -0.392671375055512   -0.009992708573275815
-0.03524752150152033   -0.35009886986083893   -0.00804768117580721
-0.01545387809919836   -0.3920431163053042   -0.009699964233374459
-0.03415055081203754   -0.3924757673186056   -0.00990826581799332
-0.03524752150152033   -0.35009886986083893   -0.00804768117580721
-0.034369145944903964   -0.392671375055512   -0.009992708573275815
-0.01545387809919836   -0.3920431163053042   -0.009699964233374459
-0.03524752150152033   -0.35009886986083893   -0.00804768117580721
-0.010809560964500833   -0.3498031696308263   -0.007621616582878828
-0.010765586854272782   -0.35017394163667503   -0.007408618888020132
-0.01545387809919836   -0.3920431163053042   -0.009699964233374459
-0.03524752150152033   -0.35009886986083893   -0.00804768117580721
-0.010765586854272782   -0.35017394163667503   -0.007408618888020132
-0.034369145944903964   -0.392671375055512   -0.009992708573275815
-0.034862129922728045   -0.3937588582863247   -0.010018230937018301
-0.03520568583550435   -0.3514994192565942   -0.008273041131852553
-0.053047823752997186   -0.39317226732553096   -0.011365407650625957
-0.034619011048822035   -0.3930977402293693   -0.010030450390087464
-0.03520568583550435   -0.3514994192565942   -0.008273041131852553
-0.05907852550405932   -0.3508964071380871   -0.009523409412139397
-0.053047823752997186   -0.39317226732553096   -0.011365407650625957
-0.059100488716439484   -0.3503505413376543   -0.009165554739551536
-0.034619011048822035   -0.3930977402293693   -0.010030450390087464
-0.05282140544695975   -0.3926016064671292   -0.01095850582753137
-0.059100488716439484   -0.3503505413376543   -0.009165554739551536
-0.053047823752997186   -0.39317226732553096   -0.011365407650625957
-0.034619011048822035   -0.3930977402293693   -0.010030450390087464
-0.059100488716439484   -0.3503505413376543   -0.009165554739551536
-0.03520981003361946   -0.3508508023499586   -0.008244404720984403
-0.03520568583550435   -0.3514994192565942   -0.008273041131852553
-0.034619011048822035   -0.3930977402293693   -0.010030450390087464
-0.059100488716439484   -0.3503505413376543   -0.009165554739551536
-0.03520568583550435   -0.3514994192565942   -0.008273041131852553
-0.053047823752997186   -0.39317226732553096   -0.011365407650625957
-0.034619011048822035   -0.3930977402293693   -0.010030450390087464
-0.03520981003361946   -0.3508508023499586   -0.008244404720984403
-0.05282140544695975   -0.3926016064671292   -0.01095850582753137
-0.034369145944903964   -0.392671375055512   -0.009992708573275815
-0.03520981003361946   -0.3508508023499586   -0.008244404720984403
-0.059100488716439484   -0.3503505413376543   -0.009165554739551536
-0.05282140544695975   -0.3926016064671292   -0.01095850582753137
-0.05908165981642912   -0.34998472932057756   -0.008761304628155142
-0.034369145944903964   -0.392671375055512   -0.009992708573275815
-0.05254788777435984   -0.3922630948066709   -0.010502689878325078
-0.05908165981642912   -0.34998472932057756   -0.008761304628155142
-0.05282140544695975   -0.3926016064671292   -0.01095850582753137
-0.034369145944903964   -0.392671375055512   -0.009992708573275815
-0.05908165981642912   -0.34998472932057756   -0.008761304628155142
-0.035212370042684155   -0.35038385211839057   -0.00816848755640974
-0.03520981003361946   -0.3508508023499586   -0.008244404720984403
-0.034369145944903964   -0.392671375055512   -0.009992708573275815
-0.05908165981642912   -0.34998472932057756   -0.008761304628155142
-0.03520981003361946   -0.3508508023499586   -0.008244404720984403
-0.05282140544695975   -0.3926016064671292   -0.01095850582753137
-0.034369145944903964   -0.392671375055512   -0.009992708573275815
-0.035212370042684155   -0.35038385211839057   -0.00816848755640974
-0.05254788777435984   -0.3922630948066709   -0.010502689878325078
-0.03415055081203754   -0.3924757673186056   -0.00990826581799332
-0.035212370042684155   -0.35038385211839057   -0.00816848755640974
-0.05908165981642912   -0.34998472932057756   -0.008761304628155142
-0.05254788777435984   -0.3922630948066709   -0.010502689878325078
-0.059070041124325304   -0.3497957483759245   -0.008312027763083499
-0.03415055081203754   -0.3924757673186056   -0.00990826581799332
-0.052281585954737766   -0.39214571449325697   -0.009999475084746136
-0.059070041124325304   -0.3497957483759245   -0.008312027763083499
-0.05254788777435984   -0.3922630948066709   -0.010502689878325078
-0.03415055081203754   -0.3924757673186056   -0.00990826581799332
-0.059070041124325304   -0.3497957483759245   -0.008312027763083499
-0.03524752150152033   -0.35009886986083893   -0.00804768117580721
-0.035212370042684155   -0.35038385211839057   -0.00816848755640974
-0.03415055081203754   -0.3924757673186056   -0.00990826581799332
-0.059070041124325304   -0.3497957483759245   -0.008312027763083499
-0.035212370042684155   -0.35038385211839057   -0.00816848755640974
-0.05254788777435984   -0.3922630948066709   -0.010502689878325078
-0.053047823752997186   -0.39317226732553096   -0.011365407650625957
-0.05907852550405932   -0.3508964071380871   -0.009523409412139397
-0.07211124453470051   -0.39184086624370934   -0.012561746026764086
-0.05282140544695975   -0.3926016064671292   -0.01095850582753137
-0.05907852550405932   -0.3508964071380871   -0.009523409412139397
-0.08369802334879066   -0.34971245504902587   -0.010599905773012385
-0.07211124453470051   -0.39184086624370934   -0.012561746026764086
-0.08367058699319763   -0.34926532690361867   -0.009909026792945223
-0.05282140544695975   -0.3926016064671292   -0.01095850582753137
-0.07181670768122339   -0.3913569737127463   -0.011735394548195008
-0.08367058699319763   -0.34926532690361867   -0.009909026792945223
-0.07211124453470051   -0.39184086624370934   -0.012561746026764086
-0.05282140544695975   -0.3926016064671292   -0.01095850582753137
-0.08367058699319763   -0.34926532690361867   -0.009909026792945223
-0.059100488716439484   -0.3503505413376543   -0.009165554739551536
-0.05907852550405932   -0.3508964071380871   -0.009523409412139397
-0.05282140544695975   -0.3926016064671292   -0.01095850582753137
-0.08367058699319763   -0.34926532690361867   -0.009909026792945223
-0.05907852550405932   -0.3508964071380871   -0.009523409412139397
-0.07211124453470051   -0.39184086624370934   -0.012561746026764086
-0.05282140544695975   -0.3926016064671292   -0.01095850582753137
-0.059100488716439484   -0.3503505413376543   -0.009165554739551536
-0.07181670768122339   -0.3913569737127463   -0.011735394548195008
-0.05254788777435984   -0.3922630948066709   -0.010502689878325078
-0.059100488716439484   -0.3503505413376543   -0.009165554739551536
-0.08367058699319763   -0.34926532690361867   -0.009909026792945223
-0.07181670768122339   -0.3913569737127463   -0.011735394548195008
-0.08346625921362005   -0.348991201589773   -0.009178724514277668
-0.05254788777435984   -0.3922630948066709   -0.010502689878325078
-0.07131808020249421   -0.3910981184523718   -0.01086758720677035
-0.08346625921362005   -0.348991201589773   -0.009178724514277668
-0.07181670768122339   -0.3913569737127463   -0.011735394548195008
-0.05254788777435984   -0.3922630948066709   -0.010502689878325078
-0.08346625921362005   -0.348991201589773   -0.009178724514277668
-0.05908165981642912   -0.34998472932057756   -0.008761304628155142
-0.059100488716439484   -0.3503505413376543   -0.009165554739551536
-0.05254788777435984   -0.3922630948066709   -0.010502689878325078
-0.08346625921362005   -0.348991201589773   -0.009178724514277668
-0.059100488716439484   -0.3503505413376543   -0.009165554739551536
-0.07181670768122339   -0.3913569737127463   -0.011735394548195008
-0.05254788777435984   -0.3922630948066709   -0.010502689878325078
-0.05908165981642912   -0.34998472932057756   -0.008761304628155142
-0.07131808020249421   -0.3910981184523718   -0.01086758720677035
-0.052281585954737766   -0.39214571449325697   -0.009999475084746136
-0.05908165981642912   -0.34998472932057756   -0.008761304628155142
-0.08346625921362005   -0.348991201589773   -0.009178724514277668
-0.07131808020249421   -0.3910981184523718   -0.01086758720677035
-0.08332920048311226   -0.3489087035258229   -0.008399811962339057
-0.052281585954737766   -0.39214571449325697   -0.009999475084746136
-0.07091161441906138   -0.3910777138075657   -0.009945520155033425
-0.08332920048311226   -0.3489087035258229   -0.008399811962339057
-0.07131808020249421   -0.3910981184523718   -0.01086758720677035
-0.052281585954737766   -0.39214571449325697   -0.009999475084746136
-0.08332920048311226   -0.3489087035258229   -0.008399811962339057
-0.059070041124325304   -0.3497957483759245   -0.008312027763083499
-0.05908165981642912   -0.34998472932057756   -0.008761304628155142
-0.052281585954737766   -0.39214571449325697   -0.009999475084746136
-0.08332920048311226   -0.3489087035258229   -0.008399811962339057
-0.05908165981642912   -0.34998472932057756   -0.008761304628155142
-0.07131808020249421   -0.3910981184523718   -0.01086758720677035
-0.07211124453470051   -0.39184086624370934   -0.012561746026764086
-0.08369802334879066   -0.34971245504902587   -0.010599905773012385
-0.09434640812531127   -0.3899278023301082   -0.01367346468127776
-0.07181670768122339   -0.3913569737127463   -0.011735394548195008
-0.08369802334879066   -0.34971245504902587   -0.010599905773012385
-0.1111966528668801   -0.3480848936050417   -0.011568514501160823
-0.09434640812531127   -0.3899278023301082   -0.01367346468127776
-0.11017986421370919   -0.34764711609235066   -0.010512870197579386
-0.07181670768122339   -0.3913569737127463   -0.011735394548195008
-0.09285021570198189   -0.38942485662980697   -0.012380885521919318
-0.11017986421370919   -0.34764711609235066   -0.010512870197579386
-0.09434640812531127   -0.3899278023301082   -0.01367346468127776
-0.07181670768122339   -0.3913569737127463   -0.011735394548195008
-0.11017986421370919   -0.34764711609235066   -0.010512870197579386
-0.08367058699319763   -0.34926532690361867   -0.009909026792945223
-0.08369802334879066   -0.34971245504902587   -0.010599905773012385
-0.07181670768122339   -0.3913569737127463   -0.011735394548195008
-0.11017986421370919   -0.34764711609235066   -0.010512870197579386
-0.08369802334879066   -0.34971245504902587   -0.010599905773012385
-0.09434640812531127   -0.3899278023301082   -0.01367346468127776
-0.07181670768122339   -0.3913569737127463   -0.011735394548195008
-0.08367058699319763   -0.34926532690361867   -0.009909026792945223
-0.09285021570198189   -0.38942485662980697   -0.012380885521919318
-0.07131808020249421   -0.3910981184523718   -0.01086758720677035
-0.08367058699319763   -0.34926532690361867   -0.009909026792945223
-0.11017986421370919   -0.34764711609235066   -0.010512870197579386
-0.09285021570198189   -0.38942485662980697   -0.012380885521919318
-0.10930875396336003   -0.3474063700057931   -0.009391106381332818
-0.07131808020249421   -0.3910981184523718   -0.01086758720677035
-0.09154928901988954   -0.38918761370766747   -0.01102012600983888
-0.10930875396336003   -0.3474063700057931   -0.009391106381332818
-0.09285021570198189   -0.38942485662980697   -0.012380885521919318
-0.07131808020249421   -0.3910981184523718   -0.01086758720677035
-0.10930875396336003   -0.3474063700057931   -0.009391106381332818
-0.08346625921362005   -0.348991201589773   -0.009178724514277668
-0.08367058699319763   -0.34926532690361867   -0.009909026792945223
-0.07131808020249421   -0.3910981184523718   -0.01086758720677035
-0.10930875396336003   -0.3474063700057931   -0.009391106381332818
-0.08367058699319763   -0.34926532690361867   -0.009909026792945223
-0.09285021570198189   -0.38942485662980697   -0.012380885521919318
-0.07131808020249421   -0.3910981184523718   -0.01086758720677035
-0.08346625921362005   -0.348991201589773   -0.009178724514277668
-0.09154928901988954   -0.38918761370766747   -0.01102012600983888
-0.07091161441906138   -0.3910777138075657   -0.009945520155033425
-0.08346625921362005   -0.348991201589773   -0.009178724514277668
-0.10930875396336003   -0.3474063700057931   -0.009391106381332818
-0.09154928901988954   -0.38918761370766747   -0.01102012600983888
-0.10804948258758028   -0.34747014521345604   -0.008212218428828548
-0.07091161441906138   -0.3910777138075657   -0.009945520155033425
-0.08979558018755963   -0.3893154061999713   -0.00959988985882545
-0.10804948258758028   -0.34747014521345604   -0.008212218428828548
-0.09154928901988954   -0.38918761370766747   -0.01102012600983888
-0.07091161441906138   -0.3910777138075657   -0.009945520155033425
-0.10804948258758028   -0.34747014521345604   -0.008212218428828548
-0.08332920048311226   -0.3489087035258229   -0.008399811962339057
-0.08346625921362005   -0.348991201589773   -0.009178724514277668
-0.07091161441906138   -0.3910777138075657   -0.009945520155033425
-0.10804948258758028   -0.34747014521345604   -0.008212218428828548
-0.08346625921362005   -0.348991201589773   -0.009178724514277668
-0.09154928901988954   -0.38918761370766747   -0.01102012600983888
0.014341243896606124   -0.35087974237050934   -0.005122684263507713
0.022286082447600265   -0.30076768991203573   -0.003410068675930242
-0.010916427337064636   -0.35149818443916364   -0.006847031089123826
0.015069914538684323   -0.349981094777767   -0.005862199666059074
0.022286082447600265   -0.30076768991203573   -0.003410068675930242
-0.007622763204048677   -0.3010676383685503   -0.00503275117665459
-0.010916427337064636   -0.35149818443916364   -0.006847031089123826
-0.007767303990002167   -0.3003208838406682   -0.005194988486494887
0.015069914538684323   -0.349981094777767   -0.005862199666059074
-0.010849891333969946   -0.3507330659118629   -0.007151581332202148
-0.007767303990002167   -0.3003208838406682   -0.005194988486494887
-0.010916427337064636   -0.35149818443916364   -0.006847031089123826
0.015069914538684323   -0.349981094777767   -0.005862199666059074
-0.007767303990002167   -0.3003208838406682   -0.005194988486494887
0.02256623130693147   -0.2999019559566788   -0.003890886065869779
0.022286082447600265   -0.30076768991203573   -0.003410068675930242
0.015069914538684323   -0.349981094777767   -0.005862199666059074
-0.007767303990002167   -0.3003208838406682   -0.005194988486494887
0.022286082447600265   -0.30076768991203573   -0.003410068675930242
-0.010916427337064636   -0.35149818443916364   -0.006847031089123826
0.015069914538684323   -0.349981094777767   -0.005862199666059074
0.02256623130693147   -0.2999019559566788   -0.003890886065869779
-0.010849891333969946   -0.3507330659118629   -0.007151581332202148
0.015534082631083437   -0.3493860967463623   -0.0065346145586084176
0.02256623130693147   -0.2999019559566788   -0.003890886065869779
-0.007767303990002167   -0.3003208838406682   -0.005194988486494887
-0.010849891333969946   -0.3507330659118629   -0.007151581332202148
-0.007919679778320452   -0.29972602767449363   -0.00531500118439819
0.015534082631083437   -0.3493860967463623   -0.0065346145586084176
-0.010765586854272782   -0.35017394163667503   -0.007408618888020132
-0.007919679778320452   -0.29972602767449363   -0.00531500118439819
-0.010849891333969946   -0.3507330659118629   -0.007151581332202148
0.015534082631083437   -0.3493860967463623   -0.0065346145586084176
-0.007919679778320452   -0.29972602767449363   -0.00531500118439819
0.022645773849692373   -0.29926589346258947   -0.004309456228052492
0.02256623130693147   -0.2999019559566788   -0.003890886065869779
0.015534082631083437   -0.3493860967463623   -0.0065346145586084176
-0.007919679778320452   -0.29972602767449363   -0.00531500118439819
0.02256623130693147   -0.2999019559566788   -0.003890886065869779
-0.010849891333969946   -0.3507330659118629   -0.007151581332202148
0.015534082631083437   -0.3493860967463623   -0.0065346145586084176
0.022645773849692373   -0.29926589346258947   -0.004309456228052492
-0.010765586854272782   -0.35017394163667503   -0.007408618888020132
0.016008033317223808   -0.34898086335578976   -0.00714129691147562
0.022645773849692373   -0.29926589346258947   -0.004309456228052492
-0.007919679778320452   -0.29972602767449363   -0.00531500118439819
-0.010765586854272782   -0.35017394163667503   -0.007408618888020132
-0.008175648413012934   -0.2992646916069181   -0.005394227622018679
0.016008033317223808   -0.34898086335578976   -0.00714129691147562
-0.010809560964500833   -0.3498031696308263   -0.007621616582878828
-0.008175648413012934   -0.2992646916069181   -0.005394227622018679
-0.010765586854272782   -0.35017394163667503   -0.007408618888020132
0.016008033317223808   -0.34898086335578976   -0.00714129691147562
-0.008175648413012934   -0.2992646916069181   -0.005394227622018679
0.022684157464370518   -0.2987492896016787   -0.00466870096621737
0.022645773849692373   -0.29926589346258947   -0.004309456228052492
0.016008033317223808   -0.34898086335578976   -0.00714129691147562
-0.008175648413012934   -0.2992646916069181   -0.005394227622018679
0.022645773849692373   -0.29926589346258947   -0.004309456228052492
-0.010765586854272782   -0.35017394163667503   -0.007408618888020132
-0.010916427337064636   -0.35149818443916364   -0.006847031089123826
-0.007622763204048677   -0.3010676383685503   -0.00503275117665459
-0.03520568583550435   -0.3514994192565942   -0.008273041131852553
-0.010849891333969946   -0.3507330659118629   -0.007151581332202148
-0.007622763204048677   -0.3010676383685503   -0.00503275117665459
-0.036280244522656546   -0.300907861468094   -0.0063736235907412234
-0.03520568583550435   -0.3514994192565942   -0.008273041131852553
-0.03647814858782978   -0.3002819958243211   -0.00629620111761686
-0.010849891333969946   -0.3507330659118629   -0.007151581332202148
-0.03520981003361946   -0.3508508023499586   -0.008244404720984403
-0.03647814858782978   -0.3002819958243211   -0.00629620111761686
-0.03520568583550435   -0.3514994192565942   -0.008273041131852553
-0.010849891333969946   -0.3507330659118629   -0.007151581332202148
-0.03647814858782978   -0.3002819958243211   -0.00629620111761686
-0.007767303990002167   -0.3003208838406682   -0.005194988486494887
-0.007622763204048677   -0.3010676383685503   -0.00503275117665459
-0.010849891333969946   -0.3507330659118629   -0.007151581332202148
-0.03647814858782978   -0.3002819958243211   -0.00629620111761686
-0.007622763204048677   -0.3010676383685503   -0.00503275117665459
-0.03520568583550435   -0.3514994192565942   -0.008273041131852553
-0.010849891333969946   -0.3507330659118629   -0.007151581332202148
-0.007767303990002167   -0.3003208838406682   -0.005194988486494887
-0.03520981003361946   -0.3508508023499586   -0.008244404720984403
-0.010765586854272782   -0.35017394163667503   -0.007408618888020132
-0.007767303990002167   -0.3003208838406682   -0.005194988486494887
-0.03647814858782978   -0.3002819958243211   -0.00629620111761686
-0.03520981003361946   -0.3508508023499586   -0.008244404720984403
-0.03667874639813814   -0.29978638611638647   -0.00617535470663082
-0.010765586854272782   -0.35017394163667503   -0.007408618888020132
-0.035212370042684155   -0.35038385211839057   -0.00816848755640974
-0.03667874639813814   -0.29978638611638647   -0.00617535470663082
-0.03520981003361946   -0.3508508023499586   -0.008244404720984403
-0.010765586854272782   -0.35017394163667503   -0.007408618888020132
-0.03667874639813814   -0.29978638611638647   -0.00617535470663082
-0.007919679778320452   -0.29972602767449363   -0.00531500118439819
-0.007767303990002167   -0.3003208838406682   -0.005194988486494887
-0.010765586854272782   -0.35017394163667503   -0.007408618888020132
-0.03667874639813814   -0.29978638611638647   -0.00617535470663082
-0.007767303990002167   -0.3003208838406682   -0.005194988486494887
-0.03520981003361946   -0.3508508023499586   -0.008244404720984403
-0.010765586854272782   -0.35017394163667503   -0.007408618888020132
-0.007919679778320452   -0.29972602767449363   -0.00531500118439819
-0.035212370042684155   -0.35038385211839057   -0.00816848755640974
-0.010809560964500833   -0.3498031696308263   -0.007621616582878828
-0.007919679778320452   -0.29972602767449363   -0.00531500118439819
-0.03667874639813814   -0.29978638611638647   -0.00617535470663082
-0.035212370042684155   -0.35038385211839057   -0.00816848755640974
-0.03691020487492904   -0.2994232678372715   -0.006013120672926714
-0.010809560964500833   -0.3498031696308263   -0.007621616582878828
-0.03524752150152033   -0.35009886986083893   -0.00804768117580721
-0.03691020487492904   -0.2994232678372715   -0.006013120672926714
-0.035212370042684155   -0.35038385211839057   -0.00816848755640974
-0.010809560964500833   -0.3498031696308263   -0.007621616582878828
-0.03691020487492904   -0.2994232678372715   -0.006013120672926714
-0.008175648413012934   -0.2992646916069181   -0.005394227622018679
-0.007919679778320452   -0.29972602767449363   -0.00531500118439819
-0.010809560964500833   -0.3498031696308263   -0.007621616582878828
-0.03691020487492904   -0.2994232678372715   -0.006013120672926714
-0.007919679778320452   -0.29972602767449363   -0.00531500118439819
-0.035212370042684155   -0.35038385211839057   -0.00816848755640974
-0.03520568583550435   -0.3514994192565942   -0.008273041131852553
-0.036280244522656546   -0.300907861468094   -0.0063736235907412234
-0.05907852550405932   -0.3508964071380871   -0.009523409412139397
-0.03520981003361946   -0.3508508023499586   -0.008244404720984403
-0.036280244522656546   -0.300907861468094   -0.0063736235907412234
-0.06445072029719497   -0.3003155600479444   -0.007523093748242813
-0.05907852550405932   -0.3508964071380871   -0.009523409412139397
-0.06466367093603317   -0.29979990997830874   -0.007207055780027584
-0.03520981003361946   -0.3508508023499586   -0.008244404720984403
-0.059100488716439484   -0.3503505413376543   -0.009165554739551536
-0.06466367093603317   -0.29979990997830874   -0.007207055780027584
-0.05907852550405932   -0.3508964071380871   -0.009523409412139397
-0.03520981003361946   -0.3508508023499586   -0.008244404720984403
-0.06466367093603317   -0.29979990997830874   -0.007207055780027584
-0.03647814858782978   -0.3002819958243211   -0.00629620111761686
-0.036280244522656546   -0.300907861468094   -0.0063736235907412234
-0.03520981003361946   -0.3508508023499586   -0.008244404720984403
-0.06466367093603317   -0.29979990997830874   -0.007207055780027584
-0.036280244522656546   -0.300907861468094   -0.0063736235907412234
-0.05907852550405932   -0.3508964071380871   -0.009523409412139397
-0.03520981003361946   -0.3508508023499586   -0.008244404720984403
-0.03647814858782978   -0.3002819958243211   -0.00629620111761686
-0.059100488716439484   -0.3503505413376543   -0.009165554739551536
-0.035212370042684155   -0.35038385211839057   -0.00816848755640974
-0.03647814858782978   -0.3002819958243211   -0.00629620111761686
-0.06466367093603317   -0.29979990997830874   -0.007207055780027584
-0.059100488716439484   -0.3503505413376543   -0.009165554739551536
-0.06484050128074033   -0.29941326309435   -0.00684833450925148
-0.035212370042684155   -0.35038385211839057   -0.00816848755640974
-0.05908165981642912   -0.34998472932057756   -0.008761304628155142
-0.06484050128074033   -0.29941326309435   -0.00684833450925148
-0.059100488716439484   -0.3503505413376543   -0.009165554739551536
-0.035212370042684155   -0.35038385211839057   -0.00816848755640974
-0.06484050128074033   -0.29941326309435   -0.00684833450925148
-0.03667874639813814   -0.29978638611638647   -0.00617535470663082
-0.03647814858782978   -0.3002819958243211   -0.00629620111761686
-0.035212370042684155   -0.35038385211839057   -0.00816848755640974
-0.06484050128074033   -0.29941326309435   -0.00684833450925148
-0.03647814858782978   -0.3002819958243211   -0.00629620111761686
-0.059100488716439484   -0.3503505413376543   -0.009165554739551536
-0.035212370042684155   -0.35038385211839057   -0.00816848755640974
-0.03667874639813814   -0.29978638611638647   -0.00617535470663082
-0.05908165981642912   -0.34998472932057756   -0.008761304628155142
-0.03524752150152033   -0.35009886986083893   -0.00804768117580721
-0.03667874639813814   -0.29978638611638647   -0.00617535470663082
-0.06484050128074033   -0.29941326309435   -0.00684833450925148
-0.05908165981642912   -0.34998472932057756   -0.008761304628155142
-0.0650223423789143   -0.2991550993377258   -0.006448204804059035
-0.03524752150152033   -0.35009886986083893   -0.00804768117580721
-0.059070041124325304   -0.3497957483759245   -0.008312027763083499
-0.0650223423789143   -0.2991550993377258   -0.006448204804059035
-0.05908165981642912   -0.34998472932057756   -0.008761304628155142
-0.03524752150152033   -0.35009886986083893   -0.00804768117580721
-0.0650223423789143   -0.2991550993377258   -0.006448204804059035
-0.03691020487492904   -0.2994232678372715   -0.006013120672926714
-0.03667874639813814   -0.29978638611638647   -0.00617535470663082
-0.03524752150152033   -0.35009886986083893   -0.00804768117580721
-0.0650223423789143   -0.2991550993377258   -0.006448204804059035
-0.03667874639813814   -0.29978638611638647   -0.00617535470663082
-0.05908165981642912   -0.34998472932057756   -0.008761304628155142
-0.05907852550405932   -0.3508964071380871   -0.009523409412139397
-0.06445072029719497   -0.3003155600479444   -0.007523093748242813
-0.08369802334879066   -0.34971245504902587   -0.010599905773012385
-0.059100488716439484   -0.3503505413376543   -0.009165554739551536
-0.06445072029719497   -0.3003155600479444   -0.007523093748242813
-0.09329154537626355   -0.29930276339230444   -0.008485057862735351
-0.08369802334879066   -0.34971245504902587   -0.010599905773012385
-0.09346874618957997   -0.2988950394860375   -0.007927211213325819
-0.059100488716439484   -0.3503505413376543   -0.009165554739551536
-0.08367058699319763   -0.34926532690361867   -0.009909026792945223
-0.09346874618957997   -0.2988950394860375   -0.007927211213325819
-0.08369802334879066   -0.34971245504902587   -0.010599905773012385
-0.059100488716439484   -0.3503505413376543   -0.009165554739551536
-0.09346874618957997   -0.2988950394860375   -0.007927211213325819
-0.06466367093603317   -0.29979990997830874   -0.007207055780027584
-0.06445072029719497   -0.3003155600479444   -0.007523093748242813
-0.059100488716439484   -0.3503505413376543   -0.009165554739551536
-0.09346874618957997   -0.2988950394860375   -0.007927211213325819
-0.06445072029719497   -0.3003155600479444   -0.007523093748242813
-0.08369802334879066   -0.34971245504902587   -0.010599905773012385
-0.059100488716439484   -0.3503505413376543   -0.009165554739551536
-0.06466367093603317   -0.29979990997830874   -0.007207055780027584
-0.08367058699319763   -0.34926532690361867   -0.009909026792945223
-0.05908165981642912   -0.34998472932057756   -0.008761304628155142
-0.06466367093603317   -0.29979990997830874   -0.007207055780027584
-0.09346874618957997   -0.2988950394860375   -0.007927211213325819
-0.08367058699319763   -0.34926532690361867   -0.009909026792945223
-0.09349493631476634   -0.2986079814258791   -0.007332596974533968
-0.05908165981642912   -0.34998472932057756   -0.008761304628155142
-0.08346625921362005   -0.348991201589773   -0.009178724514277668
-0.09349493631476634   -0.2986079814258791   -0.007332596974533968
-0.08367058699319763   -0.34926532690361867   -0.009909026792945223
-0.05908165981642912   -0.34998472932057756   -0.008761304628155142
-0.09349493631476634   -0.2986079814258791   -0.007332596974533968
-0.06484050128074033   -0.29941326309435   -0.00684833450925148
-0.06466367093603317   -0.29979990997830874   -0.007207055780027584
-0.05908165981642912   -0.34998472932057756   -0.008761304628155142
-0.09349493631476634   -0.2986079814258791   -0.007332596974533968
-0.06466367093603317   -0.29979990997830874   -0.007207055780027584
-0.08367058699319763   -0.34926532690361867   -0.009909026792945223
-0.05908165981642912   -0.34998472932057756   -0.008761304628155142
-0.06484050128074033   -0.29941326309435   -0.00684833450925148
-0.08346625921362005   -0.348991201589773   -0.009178724514277668
-0.059070041124325304   -0.3497957483759245   -0.008312027763083499
-0.06484050128074033   -0.29941326309435   -0.00684833450925148
-0.09349493631476634   -0.2986079814258791   -0.007332596974533968
-0.08346625921362005   -0.348991201589773   -0.009178724514277668
-0.09356316972530272   -0.29846087389389414   -0.006693457646991388
-0.059070041124325304   -0.3497957483759245   -0.008312027763083499
-0.08332920048311226   -0.3489087035258229   -0.008399811962339057
-0.09356316972530272   -0.29846087389389414   -0.006693457646991388
-0.08346625921362005   -0.348991201589773   -0.009178724514277668
-0.059070041124325304   -0.3497957483759245   -0.008312027763083499
-0.09356316972530272   -0.29846087389389414   -0.006693457646991388
-0.0650223423789143   -0.2991550993377258   -0.006448204804059035
-0.06484050128074033   -0.29941326309435   -0.00684833450925148
-0.059070041124325304   -0.3497957483759245   -0.008312027763083499
-0.09356316972530272   -0.29846087389389414   -0.006693457646991388
-0.06484050128074033   -0.29941326309435   -0.00684833450925148
-0.08346625921362005   -0.348991201589773   -0.009178724514277668
-0.08369802334879066   -0.34971245504902587   -0.010599905773012385
-0.09329154537626355   -0.29930276339230444   -0.008485057862735351
-0.1111966528668801   -0.3480848936050417   -0.011568514501160823
-0.08367058699319763   -0.34926532690361867   -0.009909026792945223
-0.09329154537626355   -0.29930276339230444   -0.008485057862735351
-0.12473606175231709   -0.29797830664399144   -0.009306580062574375
-0.1111966528668801   -0.3480848936050417   -0.011568514501160823
-0.12414625326914017   -0.2976059133196913   -0.008494318209855065
-0.08367058699319763   -0.34926532690361867   -0.009909026792945223
-0.11017986421370919   -0.34764711609235066   -0.010512870197579386
-0.12414625326914017   -0.2976059133196913   -0.008494318209855065
-0.1111966528668801   -0.3480848936050417   -0.011568514501160823
-0.08367058699319763   -0.34926532690361867   -0.009909026792945223
-0.12414625326914017   -0.2976059133196913   -0.008494318209855065
-0.09346874618957997   -0.2988950394860375   -0.007927211213325819
-0.09329154537626355   -0.29930276339230444   -0.008485057862735351
-0.08367058699319763   -0.34926532690361867   -0.009909026792945223
-0.12414625326914017   -0.2976059133196913   -0.008494318209855065
-0.09329154537626355   -0.29930276339230444   -0.008485057862735351
-0.1111966528668801   -0.3480848936050417   -0.011568514501160823
-0.08367058699319763   -0.34926532690361867   -0.009909026792945223
-0.09346874618957997   -0.2988950394860375   -0.007927211213325819
-0.11017986421370919   -0.34764711609235066   -0.010512870197579386
-0.08346625921362005   -0.348991201589773   -0.009178724514277668
-0.09346874618957997   -0.2988950394860375   -0.007927211213325819
-0.12414625326914017   -0.2976059133196913   -0.008494318209855065
-0.11017986421370919   -0.34764711609235066   -0.010512870197579386
-0.12364826677214905   -0.29736101283773697   -0.007617946762219421
-0.08346625921362005   -0.348991201589773   -0.009178724514277668
-0.10930875396336003   -0.3474063700057931   -0.009391106381332818
-0.12364826677214905   -0.29736101283773697   -0.007617946762219421
-0.11017986421370919   -0.34764711609235066   -0.010512870197579386
-0.08346625921362005   -0.348991201589773   -0.009178724514277668
-0.12364826677214905   -0.29736101283773697   -0.007617946762219421
-0.09349493631476634   -0.2986079814258791   -0.007332596974533968
-0.09346874618957997   -0.2988950394860375   -0.007927211213325819
-0.08346625921362005   -0.348991201589773   -0.009178724514277668
-0.12364826677214905   -0.29736101283773697   -0.007617946762219421
-0.09346874618957997   -0.2988950394860375   -0.007927211213325819
-0.11017986421370919   -0.34764711609235066   -0.010512870197579386
-0.08346625921362005   -0.348991201589773   -0.009178724514277668
-0.09349493631476634   -0.2986079814258791   -0.007332596974533968
-0.10930875396336003   -0.3474063700057931   -0.009391106381332818
-0.08332920048311226   -0.3489087035258229   -0.008399811962339057
-0.09349493631476634   -0.2986079814258791   -0.007332596974533968
-0.12364826677214905   -0.29736101283773697   -0.007617946762219421
-0.10930875396336003   -0.3474063700057931   -0.009391106381332818
-0.12282233373680139   -0.2973545743332309   -0.006685431906306573
-0.08332920048311226   -0.3489087035258229   -0.008399811962339057
-0.10804948258758028   -0.34747014521345604   -0.008212218428828548
-0.12282233373680139   -0.2973545743332309   -0.006685431906306573
-0.10930875396336003   -0.3474063700057931   -0.009391106381332818
-0.08332920048311226   -0.3489087035258229   -0.008399811962339057
-0.12282233373680139   -0.2973545743332309   -0.006685431906306573
-0.09356316972530272   -0.29846087389389414   -0.006693457646991388
-0.09349493631476634   -0.2986079814258791   -0.007332596974533968
-0.08332920048311226   -0.3489087035258229   -0.008399811962339057
-0.12282233373680139   -0.2973545743332309   -0.006685431906306573
-0.09349493631476634   -0.2986079814258791   -0.007332596974533968
-0.10930875396336003   -0.3474063700057931   -0.009391106381332818
0.022286082447600265   -0.30076768991203573   -0.003410068675930242
0.026646774900802795   -0.24464170574513786   -0.0017297239194957695
-0.007622763204048677   -0.3010676383685503   -0.00503275117665459
0.02256623130693147   -0.2999019559566788   -0.003890886065869779
0.026646774900802795   -0.24464170574513786   -0.0017297239194957695
-0.006502500289299822   -0.2446278100525989   -0.0032360096798508316
-0.007622763204048677   -0.3010676383685503   -0.00503275117665459
-0.006804097731252214   -0.24390483797675314   -0.003254795354999003
0.02256623130693147   -0.2999019559566788   -0.003890886065869779
-0.007767303990002167   -0.3003208838406682   -0.005194988486494887
-0.006804097731252214   -0.24390483797675314   -0.003254795354999003
-0.007622763204048677   -0.3010676383685503   -0.00503275117665459
0.02256623130693147   -0.2999019559566788   -0.003890886065869779
-0.006804097731252214   -0.24390483797675314   -0.003254795354999003
0.02653930135256338   -0.24381241777195575   -0.0019559146525182643
0.026646774900802795   -0.24464170574513786   -0.0017297239194957695
0.02256623130693147   -0.2999019559566788   -0.003890886065869779
-0.006804097731252214   -0.24390483797675314   -0.003254795354999003
0.026646774900802795   -0.24464170574513786   -0.0017297239194957695
-0.007622763204048677   -0.3010676383685503   -0.00503275117665459
0.02256623130693147   -0.2999019559566788   -0.003890886065869779
0.02653930135256338   -0.24381241777195575   -0.0019559146525182643
-0.007767303990002167   -0.3003208838406682   -0.005194988486494887
0.022645773849692373   -0.29926589346258947   -0.004309456228052492
0.02653930135256338   -0.24381241777195575   -0.0019559146525182643
-0.006804097731252214   -0.24390483797675314   -0.003254795354999003
-0.007767303990002167   -0.3003208838406682   -0.005194988486494887
-0.007139131959971281   -0.24327898697222955   -0.0032363291516709146
0.022645773849692373   -0.29926589346258947   -0.004309456228052492
-0.007919679778320452   -0.29972602767449363   -0.00531500118439819
-0.007139131959971281   -0.24327898697222955   -0.0032363291516709146
-0.007767303990002167   -0.3003208838406682   -0.005194988486494887
0.022645773849692373   -0.29926589346258947   -0.004309456228052492
-0.007139131959971281   -0.24327898697222955   -0.0032363291516709146
0.026291085119056142   -0.24314037353688273   -0.0021223985682295742
0.02653930135256338   -0.24381241777195575   -0.0019559146525182643
0.022645773849692373   -0.29926589346258947   -0.004309456228052492
-0.007139131959971281   -0.24327898697222955   -0.0032363291516709146
0.02653930135256338   -0.24381241777195575   -0.0019559146525182643
-0.007767303990002167   -0.3003208838406682   -0.005194988486494887
0.022645773849692373   -0.29926589346258947   -0.004309456228052492
0.026291085119056142   -0.24314037353688273   -0.0021223985682295742
-0.007919679778320452   -0.29972602767449363   -0.00531500118439819
0.022684157464370518   -0.2987492896016787   -0.00466870096621737
0.026291085119056142   -0.24314037353688273   -0.0021223985682295742
-0.007139131959971281   -0.24327898697222955   -0.0032363291516709146
-0.007919679778320452   -0.29972602767449363   -0.00531500118439819
-0.007553161252494271   -0.24273433461128097   -0.003179142506094251
0.022684157464370518   -0.2987492896016787   -0.00466870096621737
-0.008175648413012934   -0.2992646916069181   -0.005394227622018679
-0.007553161252494271   -0.24273433461128097   -0.003179142506094251
-0.007919679778320452   -0.29972602767449363   -0.00531500118439819
0.022684157464370518   -0.2987492896016787   -0.00466870096621737
-0.007553161252494271   -0.24273433461128097   -0.003179142506094251
0.025946290213594295   -0.24251810631456205   -0.0022333433853330784
0.026291085119056142   -0.24314037353688273   -0.0021223985682295742
0.022684157464370518   -0.2987492896016787   -0.00466870096621737
-0.007553161252494271   -0.24273433461128097   -0.003179142506094251
0.026291085119056142   -0.24314037353688273   -0.0021223985682295742
-0.007919679778320452   -0.29972602767449363   -0.00531500118439819
-0.007622763204048677   -0.3010676383685503   -0.00503275117665459
-0.006502500289299822   -0.2446278100525989   -0.0032360096798508316
-0.036280244522656546   -0.300907861468094   -0.0063736235907412234
-0.007767303990002167   -0.3003208838406682   -0.005194988486494887
-0.006502500289299822   -0.2446278100525989   -0.0032360096798508316
-0.03811552322917543   -0.24432665005925094   -0.004484465900990114
-0.036280244522656546   -0.300907861468094   -0.0063736235907412234
-0.038451189570412284   -0.24372428682278796   -0.004354448323195926
-0.007767303990002167   -0.3003208838406682   -0.005194988486494887
-0.03647814858782978   -0.3002819958243211   -0.00629620111761686
-0.038451189570412284   -0.24372428682278796   -0.004354448323195926
-0.036280244522656546   -0.300907861468094   -0.0063736235907412234
-0.007767303990002167   -0.3003208838406682   -0.005194988486494887
-0.038451189570412284   -0.24372428682278796   -0.004354448323195926
-0.006804097731252214   -0.24390483797675314   -0.003254795354999003
-0.006502500289299822   -0.2446278100525989   -0.0032360096798508316
-0.007767303990002167   -0.3003208838406682   -0.005194988486494887
-0.038451189570412284   -0.24372428682278796   -0.004354448323195926
-0.006502500289299822   -0.2446278100525989   -0.0032360096798508316
-0.036280244522656546   -0.300907861468094   -0.0063736235907412234
-0.007767303990002167   -0.3003208838406682   -0.005194988486494887
-0.006804097731252214   -0.24390483797675314   -0.003254795354999003
-0.03647814858782978   -0.3002819958243211   -0.00629620111761686
-0.007919679778320452   -0.29972602767449363   -0.00531500118439819
-0.006804097731252214   -0.24390483797675314   -0.003254795354999003
-0.038451189570412284   -0.24372428682278796   -0.004354448323195926
-0.03647814858782978   -0.3002819958243211   -0.00629620111761686
-0.0387934850381126   -0.24320100007484577   -0.004185675747143725
-0.007919679778320452   -0.29972602767449363   -0.00531500118439819
-0.03667874639813814   -0.29978638611638647   -0.00617535470663082
-0.0387934850381126   -0.24320100007484577   -0.004185675747143725
-0.03647814858782978   -0.3002819958243211   -0.00629620111761686
-0.007919679778320452   -0.29972602767449363   -0.00531500118439819
-0.0387934850381126   -0.24320100007484577   -0.004185675747143725
-0.007139131959971281   -0.24327898697222955   -0.0032363291516709146
-0.006804097731252214   -0.24390483797675314   -0.003254795354999003
-0.007919679778320452   -0.29972602767449363   -0.00531500118439819
-0.0387934850381126   -0.24320100007484577   -0.004185675747143725
-0.006804097731252214   -0.24390483797675314   -0.003254795354999003
-0.03647814858782978   -0.3002819958243211   -0.00629620111761686
-0.007919679778320452   -0.29972602767449363   -0.00531500118439819
-0.007139131959971281   -0.24327898697222955   -0.0032363291516709146
-0.03667874639813814   -0.29978638611638647   -0.00617535470663082
-0.008175648413012934   -0.2992646916069181   -0.005394227622018679
-0.007139131959971281   -0.24327898697222955   -0.0032363291516709146
-0.0387934850381126   -0.24320100007484577   -0.004185675747143725
-0.03667874639813814   -0.29978638611638647   -0.00617535470663082
-0.03916442728841742   -0.24276158674987447   -0.003979909558149795
-0.008175648413012934   -0.2992646916069181   -0.005394227622018679
-0.03691020487492904   -0.2994232678372715   -0.006013120672926714
-0.03916442728841742   -0.24276158674987447   -0.003979909558149795
-0.03667874639813814   -0.29978638611638647   -0.00617535470663082
-0.008175648413012934   -0.2992646916069181   -0.005394227622018679
-0.03916442728841742   -0.24276158674987447   -0.003979909558149795
-0.007553161252494271   -0.24273433461128097   -0.003179142506094251
-0.007139131959971281   -0.24327898697222955   -0.0032363291516709146
-0.008175648413012934   -0.2992646916069181   -0.005394227622018679
-0.03916442728841742   -0.24276158674987447   -0.003979909558149795
-0.007139131959971281   -0.24327898697222955   -0.0032363291516709146
-0.03667874639813814   -0.29978638611638647   -0.00617535470663082
-0.036280244522656546   -0.300907861468094   -0.0063736235907412234
-0.03811552322917543   -0.24432665005925094   -0.004484465900990114
-0.06445072029719497   -0.3003155600479444   -0.007523093748242813
-0.03647814858782978   -0.3002819958243211   -0.00629620111761686
-0.03811552322917543   -0.24432665005925094   -0.004484465900990114
-0.06919374057414655   -0.24376941313177275   -0.005540670079444504
-0.06445072029719497   -0.3003155600479444   -0.007523093748242813
-0.06953868633870863   -0.243278598738217   -0.00526195125471898
-0.03647814858782978   -0.3002819958243211   -0.00629620111761686
-0.06466367093603317   -0.29979990997830874   -0.007207055780027584
-0.06953868633870863   -0.243278598738217   -0.00526195125471898
-0.06445072029719497   -0.3003155600479444   -0.007523093748242813
-0.03647814858782978   -0.3002819958243211   -0.00629620111761686
-0.06953868633870863   -0.243278598738217   -0.00526195125471898
-0.038451189570412284   -0.24372428682278796   -0.004354448323195926
-0.03811552322917543   -0.24432665005925094   -0.004484465900990114
-0.03647814858782978   -0.3002819958243211   -0.00629620111761686
-0.06953868633870863   -0.243278598738217   -0.00526195125471898
-0.03811552322917543   -0.24432665005925094   -0.004484465900990114
-0.06445072029719497   -0.3003155600479444   -0.007523093748242813
-0.03647814858782978   -0.3002819958243211   -0.00629620111761686
-0.038451189570412284   -0.24372428682278796   -0.004354448323195926
-0.06466367093603317   -0.29979990997830874   -0.007207055780027584
-0.03667874639813814   -0.29978638611638647   -0.00617535470663082
-0.038451189570412284   -0.24372428682278796   -0.004354448323195926
-0.06953868633870863   -0.243278598738217   -0.00526195125471898
-0.06466367093603317   -0.29979990997830874   -0.007207055780027584
-0.06985191163922215   -0.2428663001588408   -0.004945362803433965
-0.03667874639813814   -0.29978638611638647   -0.00617535470663082
-0.06484050128074033   -0.29941326309435   -0.00684833450925148
-0.06985191163922215   -0.2428663001588408   -0.004945362803433965
-0.06466367093603317   -0.29979990997830874   -0.007207055780027584
-0.03667874639813814   -0.29978638611638647   -0.00617535470663082
-0.06985191163922215   -0.2428663001588408   -0.004945362803433965
-0.0387934850381126   -0.24320100007484577   -0.004185675747143725
-0.038451189570412284   -0.24372428682278796   -0.004354448323195926
-0.03667874639813814   -0.29978638611638647   -0.00617535470663082
-0.06985191163922215   -0.2428663001588408   -0.004945362803433965
-0.038451189570412284   -0.24372428682278796   -0.004354448323195926
-0.06466367093603317   -0.29979990997830874   -0.007207055780027584
-0.03667874639813814   -0.29978638611638647   -0.00617535470663082
-0.0387934850381126   -0.24320100007484577   -0.004185675747143725
-0.06484050128074033   -0.29941326309435   -0.00684833450925148
-0.03691020487492904   -0.2994232678372715   -0.006013120672926714
-0.0387934850381126   -0.24320100007484577   -0.004185675747143725
-0.06985191163922215   -0.2428663001588408   -0.004945362803433965
-0.06484050128074033   -0.29941326309435   -0.00684833450925148
-0.07016806656949603   -0.24253325453247634   -0.004592369981669798
-0.03691020487492904   -0.2994232678372715   -0.006013120672926714
-0.0650223423789143   -0.2991550993377258   -0.006448204804059035
-0.07016806656949603   -0.24253325453247634   -0.004592369981669798
-0.06484050128074033   -0.29941326309435   -0.00684833450925148
-0.03691020487492904   -0.2994232678372715   -0.006013120672926714
-0.07016806656949603   -0.24253325453247634   -0.004592369981669798
-0.03916442728841742   -0.24276158674987447   -0.003979909558149795
-0.0387934850381126   -0.24320100007484577   -0.004185675747143725
-0.03691020487492904   -0.2994232678372715   -0.006013120672926714
-0.07016806656949603   -0.24253325453247634   -0.004592369981669798
-0.0387934850381126   -0.24320100007484577   -0.004185675747143725
-0.06484050128074033   -0.29941326309435   -0.00684833450925148
-0.06445072029719497   -0.3003155600479444   -0.007523093748242813
-0.06919374057414655   -0.24376941313177275   -0.005540670079444504
-0.09329154537626355   -0.29930276339230444   -0.008485057862735351
-0.06466367093603317   -0.29979990997830874   -0.007207055780027584
-0.06919374057414655   -0.24376941313177275   -0.005540670079444504
-0.10088617521607919   -0.24294415008344492   -0.006406647785046447
-0.09329154537626355   -0.29930276339230444   -0.008485057862735351
-0.10120704095362228   -0.24256599595238862   -0.005978121043430505
-0.06466367093603317   -0.29979990997830874   -0.007207055780027584
-0.09346874618957997   -0.2988950394860375   -0.007927211213325819
-0.10120704095362228   -0.24256599595238862   -0.005978121043430505
-0.09329154537626355   -0.29930276339230444   -0.008485057862735351
-0.06466367093603317   -0.29979990997830874   -0.007207055780027584
-0.10120704095362228   -0.24256599595238862   -0.005978121043430505
-0.06953868633870863   -0.243278598738217   -0.00526195125471898
-0.06919374057414655   -0.24376941313177275   -0.005540670079444504
-0.06466367093603317   -0.29979990997830874   -0.007207055780027584
-0.10120704095362228   -0.24256599595238862   -0.005978121043430505
-0.06919374057414655   -0.24376941313177275   -0.005540670079444504
-0.09329154537626355   -0.29930276339230444   -0.008485057862735351
-0.06466367093603317   -0.29979990997830874   -0.007207055780027584
-0.06953868633870863   -0.243278598738217   -0.00526195125471898
-0.09346874618957997   -0.2988950394860375   -0.007927211213325819
-0.06484050128074033   -0.29941326309435   -0.00684833450925148
-0.06953868633870863   -0.243278598738217   -0.00526195125471898
-0.10120704095362228   -0.24256599595238862   -0.005978121043430505
-0.09346874618957997   -0.2988950394860375   -0.007927211213325819
-0.10140361934666065   -0.242255885391622   -0.005516882403959251
-0.06484050128074033   -0.29941326309435   -0.00684833450925148
-0.09349493631476634   -0.2986079814258791   -0.007332596974533968
-0.10140361934666065   -0.242255885391622   -0.005516882403959251
-0.09346874618957997   -0.2988950394860375   -0.007927211213325819
-0.06484050128074033   -0.29941326309435   -0.00684833450925148
-0.10140361934666065   -0.242255885391622   -0.005516882403959251
-0.06985191163922215   -0.2428663001588408   -0.004945362803433965
-0.06953868633870863   -0.243278598738217   -0.00526195125471898
-0.06484050128074033   -0.29941326309435   -0.00684833450925148
-0.10140361934666065   -0.242255885391622   -0.005516882403959251
-0.06953868633870863   -0.243278598738217   -0.00526195125471898
-0.09346874618957997   -0.2988950394860375   -0.007927211213325819
-0.06484050128074033   -0.29941326309435   -0.00684833450925148
-0.06985191163922215   -0.2428663001588408   -0.004945362803433965
-0.09349493631476634   -0.2986079814258791   -0.007332596974533968
-0.0650223423789143   -0.2991550993377258   -0.006448204804059035
-0.06985191163922215   -0.2428663001588408   -0.004945362803433965
-0.10140361934666065   -0.242255885391622   -0.005516882403959251
-0.09349493631476634   -0.2986079814258791   -0.007332596974533968
-0.10161838061459103   -0.24203179146218792   -0.005016145374759291
-0.0650223423789143   -0.2991550993377258   -0.006448204804059035
-0.09356316972530272   -0.29846087389389414   -0.006693457646991388
-0.10161838061459103   -0.24203179146218792   -0.005016145374759291
-0.09349493631476634   -0.2986079814258791   -0.007332596974533968
-0.0650223423789143   -0.2991550993377258   -0.006448204804059035
-0.10161838061459103   -0.24203179146218792   -0.005016145374759291
-0.07016806656949603   -0.24253325453247634   -0.004592369981669798
-0.06985191163922215   -0.2428663001588408   -0.004945362803433965
-0.0650223423789143   -0.2991550993377258   -0.006448204804059035
-0.10161838061459103   -0.24203179146218792   -0.005016145374759291
-0.06985191163922215   -0.2428663001588408   -0.004945362803433965
-0.09349493631476634   -0.2986079814258791   -0.007332596974533968
-0.09329154537626355   -0.29930276339230444   -0.008485057862735351
-0.10088617521607919   -0.24294415008344492   -0.006406647785046447
-0.12473606175231709   -0.29797830664399144   -0.009306580062574375
-0.09346874618957997   -0.2988950394860375   -0.007927211213325819
-0.10088617521607919   -0.24294415008344492   -0.006406647785046447
-0.13488963505863502   -0.24193275119511495   -0.007097160727721612
-0.12473606175231709   -0.29797830664399144   -0.009306580062574375
-0.13466756871944802   -0.24161274713350045   -0.006528631693923968
-0.09346874618957997   -0.2988950394860375   -0.007927211213325819
-0.12414625326914017   -0.2976059133196913   -0.008494318209855065
-0.13466756871944802   -0.24161274713350045   -0.006528631693923968
-0.12473606175231709   -0.29797830664399144   -0.009306580062574375
-0.09346874618957997   -0.2988950394860375   -0.007927211213325819
-0.13466756871944802   -0.24161274713350045   -0.006528631693923968
-0.10120704095362228   -0.24256599595238862   -0.005978121043430505
-0.10088617521607919   -0.24294415008344492   -0.006406647785046447
-0.09346874618957997   -0.2988950394860375   -0.007927211213325819
-0.13466756871944802   -0.24161274713350045   -0.006528631693923968
-0.10088617521607919   -0.24294415008344492   -0.006406647785046447
-0.12473606175231709   -0.29797830664399144   -0.009306580062574375
-0.09346874618957997   -0.2988950394860375   -0.007927211213325819
-0.10120704095362228   -0.24256599595238862   -0.005978121043430505
-0.12414625326914017   -0.2976059133196913   -0.008494318209855065
-0.09349493631476634   -0.2986079814258791   -0.007332596974533968
-0.10120704095362228   -0.24256599595238862   -0.005978121043430505
-0.13466756871944802   -0.24161274713350045   -0.006528631693923968
-0.12414625326914017   -0.2976059133196913   -0.008494318209855065
-0.13448676695023068   -0.2413507309915644   -0.005900086336934181
-0.09349493631476634   -0.2986079814258791   -0.007332596974533968
-0.12364826677214905   -0.29736101283773697   -0.007617946762219421
-0.13448676695023068   -0.2413507309915644   -0.005900086336934181
-0.12414625326914017   -0.2976059133196913   -0.008494318209855065
-0.09349493631476634   -0.2986079814258791   -0.007332596974533968
-0.13448676695023068   -0.2413507309915644   -0.005900086336934181
-0.10140361934666065   -0.242255885391622   -0.005516882403959251
-0.10120704095362228   -0.24256599595238862   -0.005978121043430505
-0.09349493631476634   -0.2986079814258791   -0.007332596974533968
-0.13448676695023068   -0.2413507309915644   -0.005900086336934181
-0.10120704095362228   -0.24256599595238862   -0.005978121043430505
-0.12414625326914017   -0.2976059133196913   -0.008494318209855065
-0.09349493631476634   -0.2986079814258791   -0.007332596974533968
-0.10140361934666065   -0.242255885391622   -0.005516882403959251
-0.12364826677214905   -0.29736101283773697   -0.007617946762219421
-0.09356316972530272   -0.29846087389389414   -0.006693457646991388
-0.10140361934666065   -0.242255885391622   -0.005516882403959251
-0.13448676695023068   -0.2413507309915644   -0.005900086336934181
-0.12364826677214905   -0.29736101283773697   -0.007617946762219421
-0.1340410794684124   -0.24125664911791367   -0.005218384984732135
-0.09356316972530272   -0.29846087389389414   -0.006693457646991388
-0.12282233373680139   -0.2973545743332309   -0.006685431906306573
-0.1340410794684124   -0.24125664911791367   -0.005218384984732135
-0.12364826677214905   -0.29736101283773697   -0.007617946762219421
-0.09356316972530272   -0.29846087389389414   -0.006693457646991388
-0.1340410794684124   -0.24125664911791367   -0.005218384984732135
-0.10161838061459103   -0.24203179146218792   -0.005016145374759291
-0.10140361934666065   -0.242255885391622   -0.005516882403959251
-0.09356316972530272   -0.29846087389389414   -0.006693457646991388
-0.1340410794684124   -0.24125664911791367   -0.005218384984732135
-0.10140361934666065   -0.242255885391622   -0.005516882403959251
-0.12364826677214905   -0.29736101283773697   -0.007617946762219421
0.026646774900802795   -0.24464170574513786   -0.0017297239194957695
0.027440885342290913   -0.18473596760327166   -0.0002566125855545279
-0.006502500289299822   -0.2446278100525989   -0.0032360096798508316
0.02653930135256338   -0.24381241777195575   -0.0019559146525182643
0.027440885342290913   -0.18473596760327166   -0.0002566125855545279
-0.007538757629152376   -0.1844219463697467   -0.0016139849669850592
-0.006502500289299822   -0.2446278100525989   -0.0032360096798508316
-0.007950366654987726   -0.18372896528144259   -0.0014900676568076544
0.02653930135256338   -0.24381241777195575   -0.0019559146525182643
-0.006804097731252214   -0.24390483797675314   -0.003254795354999003
-0.007950366654987726   -0.18372896528144259   -0.0014900676568076544
-0.006502500289299822   -0.2446278100525989   -0.0032360096798508316
0.02653930135256338   -0.24381241777195575   -0.0019559146525182643
-0.007950366654987726   -0.18372896528144259   -0.0014900676568076544
0.02699760148901957   -0.183943857252707   -0.00022479511163349213
0.027440885342290913   -0.18473596760327166   -0.0002566125855545279
0.02653930135256338   -0.24381241777195575   -0.0019559146525182643
-0.007950366654987726   -0.18372896528144259   -0.0014900676568076544
0.027440885342290913   -0.18473596760327166   -0.0002566125855545279
-0.006502500289299822   -0.2446278100525989   -0.0032360096798508316
0.02653930135256338   -0.24381241777195575   -0.0019559146525182643
0.02699760148901957   -0.183943857252707   -0.00022479511163349213
-0.006804097731252214   -0.24390483797675314   -0.003254795354999003
0.026291085119056142   -0.24314037353688273   -0.0021223985682295742
0.02699760148901957   -0.183943857252707   -0.00022479511163349213
-0.007950366654987726   -0.18372896528144259   -0.0014900676568076544
-0.006804097731252214   -0.24390483797675314   -0.003254795354999003
-0.008421095541161673   -0.18307233819852367   -0.0013325415993546625
0.026291085119056142   -0.24314037353688273   -0.0021223985682295742
-0.007139131959971281   -0.24327898697222955   -0.0032363291516709146
-0.008421095541161673   -0.18307233819852367   -0.0013325415993546625
-0.006804097731252214   -0.24390483797675314   -0.003254795354999003
0.026291085119056142   -0.24314037353688273   -0.0021223985682295742
-0.008421095541161673   -0.18307233819852367   -0.0013325415993546625
0.02645852303560551   -0.18323215857274056   -0.00012419057417150693
0.02699760148901957   -0.183943857252707   -0.00022479511163349213
0.026291085119056142   -0.24314037353688273   -0.0021223985682295742
-0.008421095541161673   -0.18307233819852367   -0.0013325415993546625
0.02699760148901957   -0.183943857252707   -0.00022479511163349213
-0.006804097731252214   -0.24390483797675314   -0.003254795354999003
0.026291085119056142   -0.24314037353688273   -0.0021223985682295742
0.02645852303560551   -0.18323215857274056   -0.00012419057417150693
-0.007139131959971281   -0.24327898697222955   -0.0032363291516709146
0.025946290213594295   -0.24251810631456205   -0.0022333433853330784
0.02645852303560551   -0.18323215857274056   -0.00012419057417150693
-0.008421095541161673   -0.18307233819852367   -0.0013325415993546625
-0.007139131959971281   -0.24327898697222955   -0.0032363291516709146
-0.008948186525909054   -0.18244321055850482   -0.0011329594118487058
0.025946290213594295   -0.24251810631456205   -0.0022333433853330784
-0.007553161252494271   -0.24273433461128097   -0.003179142506094251
-0.008948186525909054   -0.18244321055850482   -0.0011329594118487058
-0.007139131959971281   -0.24327898697222955   -0.0032363291516709146
0.025946290213594295   -0.24251810631456205   -0.0022333433853330784
-0.008948186525909054   -0.18244321055850482   -0.0011329594118487058
0.025749244672929182   -0.1824857378976052   4.205261863525089e-05
0.02645852303560551   -0.18323215857274056   -0.00012419057417150693
0.025946290213594295   -0.24251810631456205   -0.0022333433853330784
-0.008948186525909054   -0.18244321055850482   -0.0011329594118487058
0.02645852303560551   -0.18323215857274056   -0.00012419057417150693
-0.007139131959971281   -0.24327898697222955   -0.0032363291516709146
-0.006502500289299822   -0.2446278100525989   -0.0032360096798508316
-0.007538757629152376   -0.1844219463697467   -0.0016139849669850592
-0.03811552322917543   -0.24432665005925094   -0.004484465900990114
-0.006804097731252214   -0.24390483797675314   -0.003254795354999003
-0.007538757629152376   -0.1844219463697467   -0.0016139849669850592
-0.040685486049357976   -0.18406253429572098   -0.0027681657361854624
-0.03811552322917543   -0.24432665005925094   -0.004484465900990114
-0.0411036879866067   -0.1834805274472082   -0.0025825640507498213
-0.006804097731252214   -0.24390483797675314   -0.003254795354999003
-0.038451189570412284   -0.24372428682278796   -0.004354448323195926
-0.0411036879866067   -0.1834805274472082   -0.0025825640507498213
-0.03811552322917543   -0.24432665005925094   -0.004484465900990114
-0.006804097731252214   -0.24390483797675314   -0.003254795354999003
-0.0411036879866067   -0.1834805274472082   -0.0025825640507498213
-0.007950366654987726   -0.18372896528144259   -0.0014900676568076544
-0.007538757629152376   -0.1844219463697467   -0.0016139849669850592
-0.006804097731252214   -0.24390483797675314   -0.003254795354999003
-0.0411036879866067   -0.1834805274472082   -0.0025825640507498213
-0.007538757629152376   -0.1844219463697467   -0.0016139849669850592
-0.03811552322917543   -0.24432665005925094   -0.004484465900990114
-0.006804097731252214   -0.24390483797675314   -0.003254795354999003
-0.007950366654987726   -0.18372896528144259   -0.0014900676568076544
-0.038451189570412284   -0.24372428682278796   -0.004354448323195926
-0.007139131959971281   -0.24327898697222955   -0.0032363291516709146
-0.007950366654987726   -0.18372896528144259   -0.0014900676568076544
-0.0411036879866067   -0.1834805274472082   -0.0025825640507498213
-0.038451189570412284   -0.24372428682278796   -0.004354448323195926
-0.041531052546677556   -0.18292679669165385   -0.0023650270671071896
-0.007139131959971281   -0.24327898697222955   -0.0032363291516709146
-0.0387934850381126   -0.24320100007484577   -0.004185675747143725
-0.041531052546677556   -0.18292679669165385   -0.0023650270671071896
-0.038451189570412284   -0.24372428682278796   -0.004354448323195926
-0.007139131959971281   -0.24327898697222955   -0.0032363291516709146
-0.041531052546677556   -0.18292679669165385   -0.0023650270671071896
-0.008421095541161673   -0.18307233819852367   -0.0013325415993546625
-0.007950366654987726   -0.18372896528144259   -0.0014900676568076544
-0.007139131959971281   -0.24327898697222955   -0.0032363291516709146
-0.041531052546677556   -0.18292679669165385   -0.0023650270671071896
-0.007950366654987726   -0.18372896528144259   -0.0014900676568076544
-0.038451189570412284   -0.24372428682278796   -0.004354448323195926
-0.007139131959971281   -0.24327898697222955   -0.0032363291516709146
-0.008421095541161673   -0.18307233819852367   -0.0013325415993546625
-0.0387934850381126   -0.24320100007484577   -0.004185675747143725
-0.007553161252494271   -0.24273433461128097   -0.003179142506094251
-0.008421095541161673   -0.18307233819852367   -0.0013325415993546625
-0.041531052546677556   -0.18292679669165385   -0.0023650270671071896
-0.0387934850381126   -0.24320100007484577   -0.004185675747143725
-0.041985280104877266   -0.1824096303163139   -0.002115137462191614
-0.007553161252494271   -0.24273433461128097   -0.003179142506094251
-0.03916442728841742   -0.24276158674987447   -0.003979909558149795
-0.041985280104877266   -0.1824096303163139   -0.002115137462191614
-0.0387934850381126   -0.24320100007484577   -0.004185675747143725
-0.007553161252494271   -0.24273433461128097   -0.003179142506094251
-0.041985280104877266   -0.1824096303163139   -0.002115137462191614
-0.008948186525909054   -0.18244321055850482   -0.0011329594118487058
-0.008421095541161673   -0.18307233819852367   -0.0013325415993546625
-0.007553161252494271   -0.24273433461128097   -0.003179142506094251
-0.041985280104877266   -0.1824096303163139   -0.002115137462191614
-0.008421095541161673   -0.18307233819852367   -0.0013325415993546625
-0.0387934850381126   -0.24320100007484577   -0.004185675747143725
-0.03811552322917543   -0.24432665005925094   -0.004484465900990114
-0.040685486049357976   -0.18406253429572098   -0.0027681657361854624
-0.06919374057414655   -0.24376941313177275   -0.005540670079444504
-0.038451189570412284   -0.24372428682278796   -0.004354448323195926
-0.040685486049357976   -0.18406253429572098   -0.0027681657361854624
-0.0732964057202095   -0.18363454761521275   -0.003751583680709884
-0.06919374057414655   -0.24376941313177275   -0.005540670079444504
-0.07371092114086862   -0.1831557424077767   -0.0035040808913816787
-0.038451189570412284   -0.24372428682278796   -0.004354448323195926
-0.06953868633870863   -0.243278598738217   -0.00526195125471898
-0.07371092114086862   -0.1831557424077767   -0.0035040808913816787
-0.06919374057414655   -0.24376941313177275   -0.005540670079444504
-0.038451189570412284   -0.24372428682278796   -0.004354448323195926
-0.07371092114086862   -0.1831557424077767   -0.0035040808913816787
-0.0411036879866067   -0.1834805274472082   -0.0025825640507498213
-0.040685486049357976   -0.18406253429572098   -0.0027681657361854624
-0.038451189570412284   -0.24372428682278796   -0.004354448323195926
-0.07371092114086862   -0.1831557424077767   -0.0035040808913816787
-0.040685486049357976   -0.18406253429572098   -0.0027681657361854624
-0.06919374057414655   -0.24376941313177275   -0.005540670079444504
-0.038451189570412284   -0.24372428682278796   -0.004354448323195926
-0.0411036879866067   -0.1834805274472082   -0.0025825640507498213
-0.06953868633870863   -0.243278598738217   -0.00526195125471898
-0.0387934850381126   -0.24320100007484577   -0.004185675747143725
-0.0411036879866067   -0.1834805274472082   -0.0025825640507498213
-0.07371092114086862   -0.1831557424077767   -0.0035040808913816787
-0.06953868633870863   -0.243278598738217   -0.00526195125471898
-0.07409880506468511   -0.1827069381525805   -0.0032257391221373046
-0.0387934850381126   -0.24320100007484577   -0.004185675747143725
-0.06985191163922215   -0.2428663001588408   -0.004945362803433965
-0.07409880506468511   -0.1827069381525805   -0.0032257391221373046
-0.06953868633870863   -0.243278598738217   -0.00526195125471898
-0.0387934850381126   -0.24320100007484577   -0.004185675747143725
-0.07409880506468511   -0.1827069381525805   -0.0032257391221373046
-0.041531052546677556   -0.18292679669165385   -0.0023650270671071896
-0.0411036879866067   -0.1834805274472082   -0.0025825640507498213
-0.0387934850381126   -0.24320100007484577   -0.004185675747143725
-0.07409880506468511   -0.1827069381525805   -0.0032257391221373046
-0.0411036879866067   -0.1834805274472082   -0.0025825640507498213
-0.06953868633870863   -0.243278598738217   -0.00526195125471898
-0.0387934850381126   -0.24320100007484577   -0.004185675747143725
-0.041531052546677556   -0.18292679669165385   -0.0023650270671071896
-0.06985191163922215   -0.2428663001588408   -0.004945362803433965
-0.03916442728841742   -0.24276158674987447   -0.003979909558149795
-0.041531052546677556   -0.18292679669165385   -0.0023650270671071896
-0.07409880506468511   -0.1827069381525805   -0.0032257391221373046
-0.06985191163922215   -0.2428663001588408   -0.004945362803433965
-0.07448807025871026   -0.18228942267878023   -0.002918107363387841
-0.03916442728841742   -0.24276158674987447   -0.003979909558149795
-0.07016806656949603   -0.24253325453247634   -0.004592369981669798
-0.07448807025871026   -0.18228942267878023   -0.002918107363387841
-0.06985191163922215   -0.2428663001588408   -0.004945362803433965
-0.03916442728841742   -0.24276158674987447   -0.003979909558149795
-0.07448807025871026   -0.18228942267878023   -0.002918107363387841
-0.041985280104877266   -0.1824096303163139   -0.002115137462191614
-0.041531052546677556   -0.18292679669165385   -0.0023650270671071896
-0.03916442728841742   -0.24276158674987447   -0.003979909558149795
-0.07448807025871026   -0.18228942267878023   -0.002918107363387841
-0.041531052546677556   -0.18292679669165385   -0.0023650270671071896
-0.06985191163922215   -0.2428663001588408   -0.004945362803433965
-0.06919374057414655   -0.24376941313177275   -0.005540670079444504
-0.0732964057202095   -0.18363454761521275   -0.003751583680709884
-0.10088617521607919   -0.24294415008344492   -0.006406647785046447
-0.06953868633870863   -0.243278598738217   -0.00526195125471898
-0.0732964057202095   -0.18363454761521275   -0.003751583680709884
-0.10649430021614674   -0.18305790906979957   -0.004555884557963044
-0.10088617521607919   -0.24294415008344492   -0.006406647785046447
-0.10689151048205735   -0.18268772475765377   -0.004247202342362208
-0.06953868633870863   -0.243278598738217   -0.00526195125471898
-0.10120704095362228   -0.24256599595238862   -0.005978121043430505
-0.10689151048205735   -0.18268772475765377   -0.004247202342362208
-0.10088617521607919   -0.24294415008344492   -0.006406647785046447
-0.06953868633870863   -0.243278598738217   -0.00526195125471898
-0.10689151048205735   -0.18268772475765377   -0.004247202342362208
-0.07371092114086862   -0.1831557424077767   -0.0035040808913816787
-0.0732964057202095   -0.18363454761521275   -0.003751583680709884
-0.06953868633870863   -0.243278598738217   -0.00526195125471898
-0.10689151048205735   -0.18268772475765377   -0.004247202342362208
-0.0732964057202095   -0.18363454761521275   -0.003751583680709884
-0.10088617521607919   -0.24294415008344492   -0.006406647785046447
-0.06953868633870863   -0.243278598738217   -0.00526195125471898
-0.07371092114086862   -0.1831557424077767   -0.0035040808913816787
-0.10120704095362228   -0.24256599595238862   -0.005978121043430505
-0.06985191163922215   -0.2428663001588408   -0.004945362803433965
-0.07371092114086862   -0.1831557424077767   -0.0035040808913816787
-0.10689151048205735   -0.18268772475765377   -0.004247202342362208
-0.10120704095362228   -0.24256599595238862   -0.005978121043430505
-0.10719417291479785   -0.1823353684891986   -0.003912871728010178
-0.06985191163922215   -0.2428663001588408   -0.004945362803433965
-0.10140361934666065   -0.242255885391622   -0.005516882403959251
-0.10719417291479785   -0.1823353684891986   -0.003912871728010178
-0.10120704095362228   -0.24256599595238862   -0.005978121043430505
-0.06985191163922215   -0.2428663001588408   -0.004945362803433965
-0.10719417291479785   -0.1823353684891986   -0.003912871728010178
-0.07409880506468511   -0.1827069381525805   -0.0032257391221373046
-0.07371092114086862   -0.1831557424077767   -0.0035040808913816787
-0.06985191163922215   -0.2428663001588408   -0.004945362803433965
-0.10719417291479785   -0.1823353684891986   -0.003912871728010178
-0.07371092114086862   -0.1831557424077767   -0.0035040808913816787
-0.10120704095362228   -0.24256599595238862   -0.005978121043430505
-0.06985191163922215   -0.2428663001588408   -0.004945362803433965
-0.07409880506468511   -0.1827069381525805   -0.0032257391221373046
-0.10140361934666065   -0.242255885391622   -0.005516882403959251
-0.07016806656949603   -0.24253325453247634   -0.004592369981669798
-0.07409880506468511   -0.1827069381525805   -0.0032257391221373046
-0.10719417291479785   -0.1823353684891986   -0.003912871728010178
-0.10140361934666065   -0.242255885391622   -0.005516882403959251
-0.10749411353743718   -0.18201590757247732   -0.003546112262517806
-0.07016806656949603   -0.24253325453247634   -0.004592369981669798
-0.10161838061459103   -0.24203179146218792   -0.005016145374759291
-0.10749411353743718   -0.18201590757247732   -0.003546112262517806
-0.10140361934666065   -0.242255885391622   -0.005516882403959251
-0.07016806656949603   -0.24253325453247634   -0.004592369981669798
-0.10749411353743718   -0.18201590757247732   -0.003546112262517806
-0.07448807025871026   -0.18228942267878023   -0.002918107363387841
-0.07409880506468511   -0.1827069381525805   -0.0032257391221373046
-0.07016806656949603   -0.24253325453247634   -0.004592369981669798
-0.10749411353743718   -0.18201590757247732   -0.003546112262517806
-0.07409880506468511   -0.1827069381525805   -0.0032257391221373046
-0.10140361934666065   -0.242255885391622   -0.005516882403959251
-0.10088617521607919   -0.24294415008344492   -0.006406647785046447
-0.10649430021614674   -0.18305790906979957   -0.004555884557963044
-0.13488963505863502   -0.24193275119511495   -0.007097160727721612
-0.10120704095362228   -0.24256599595238862   -0.005978121043430505
-0.10649430021614674   -0.18305790906979957   -0.004555884557963044
-0.14166447899797446   -0.18238002579347798   -0.005157064218943094
-0.13488963505863502   -0.24193275119511495   -0.007097160727721612
-0.1417340508898424   -0.18208217211930025   -0.004818838724768239
-0.10120704095362228   -0.24256599595238862   -0.005978121043430505
-0.13466756871944802   -0.24161274713350045   -0.006528631693923968
-0.1417340508898424   -0.18208217211930025   -0.004818838724768239
-0.13488963505863502   -0.24193275119511495   -0.007097160727721612
-0.10120704095362228   -0.24256599595238862   -0.005978121043430505
-0.1417340508898424   -0.18208217211930025   -0.004818838724768239
-0.10689151048205735   -0.18268772475765377   -0.004247202342362208
-0.10649430021614674   -0.18305790906979957   -0.004555884557963044
-0.10120704095362228   -0.24256599595238862   -0.005978121043430505
-0.1417340508898424   -0.18208217211930025   -0.004818838724768239
-0.10649430021614674   -0.18305790906979957   -0.004555884557963044
-0.13488963505863502   -0.24193275119511495   -0.007097160727721612
-0.10120704095362228   -0.24256599595238862   -0.005978121043430505
-0.10689151048205735   -0.18268772475765377   -0.004247202342362208
-0.13466756871944802   -0.24161274713350045   -0.006528631693923968
-0.10140361934666065   -0.242255885391622   -0.005516882403959251
-0.10689151048205735   -0.18268772475765377   -0.004247202342362208
-0.1417340508898424   -0.18208217211930025   -0.004818838724768239
-0.13466756871944802   -0.24161274713350045   -0.006528631693923968
-0.1418040709597852   -0.18177931459211516   -0.004428857274844905
-0.10140361934666065   -0.242255885391622   -0.005516882403959251
-0.13448676695023068   -0.2413507309915644   -0.005900086336934181
-0.1418040709597852   -0.18177931459211516   -0.004428857274844905
-0.13466756871944802   -0.24161274713350045   -0.006528631693923968
-0.10140361934666065   -0.242255885391622   -0.005516882403959251
-0.1418040709597852   -0.18177931459211516   -0.004428857274844905
-0.10719417291479785   -0.1823353684891986   -0.003912871728010178
-0.10689151048205735   -0.18268772475765377   -0.004247202342362208
-0.10140361934666065   -0.242255885391622   -0.005516882403959251
-0.1418040709597852   -0.18177931459211516   -0.004428857274844905
-0.10689151048205735   -0.18268772475765377   -0.004247202342362208
-0.13466756871944802   -0.24161274713350045   -0.006528631693923968
-0.10140361934666065   -0.242255885391622   -0.005516882403959251
-0.10719417291479785   -0.1823353684891986   -0.003912871728010178
-0.13448676695023068   -0.2413507309915644   -0.005900086336934181
-0.10161838061459103   -0.24203179146218792   -0.005016145374759291
-0.10719417291479785   -0.1823353684891986   -0.003912871728010178
-0.1418040709597852   -0.18177931459211516   -0.004428857274844905
-0.13448676695023068   -0.2413507309915644   -0.005900086336934181
-0.1416787315159122   -0.18157264980086332   -0.003993325497291328
-0.10161838061459103   -0.24203179146218792   -0.005016145374759291
-0.1340410794684124   -0.24125664911791367   -0.005218384984732135
-0.1416787315159122   -0.18157264980086332   -0.003993325497291328
-0.13448676695023068   -0.2413507309915644   -0.005900086336934181
-0.10161838061459103   -0.24203179146218792   -0.005016145374759291
-0.1416787315159122   -0.18157264980086332   -0.003993325497291328
-0.10749411353743718   -0.18201590757247732   -0.003546112262517806
-0.10719417291479785   -0.1823353684891986   -0.003912871728010178
-0.10161838061459103   -0.24203179146218792   -0.005016145374759291
-0.1416787315159122   -0.18157264980086332   -0.003993325497291328
-0.10719417291479785   -0.1823353684891986   -0.003912871728010178
-0.13448676695023068   -0.2413507309915644   -0.005900086336934181
0.027440885342290913   -0.18473596760327166   -0.0002566125855545279
0.024527945594519488   -0.12314089148104623   0.00075918124586319
-0.007538757629152376   -0.1844219463697467   -0.0016139849669850592
0.02699760148901957   -0.183943857252707   -0.00022479511163349213
0.024527945594519488   -0.12314089148104623   0.00075918124586319
-0.010663447524753776   -0.12255442313819795   -0.00032591245397493466
-0.007538757629152376   -0.1844219463697467   -0.0016139849669850592
-0.011152356771535785   -0.12192540859815876   -7.148749369911227e-05
0.02699760148901957   -0.183943857252707   -0.00022479511163349213
-0.007950366654987726   -0.18372896528144259   -0.0014900676568076544
-0.011152356771535785   -0.12192540859815876   -7.148749369911227e-05
-0.007538757629152376   -0.1844219463697467   -0.0016139849669850592
0.02699760148901957   -0.183943857252707   -0.00022479511163349213
-0.011152356771535785   -0.12192540859815876   -7.148749369911227e-05
0.023753328422802738   -0.1223849227698775   0.001079741623150336
0.024527945594519488   -0.12314089148104623   0.00075918124586319
0.02699760148901957   -0.183943857252707   -0.00022479511163349213
-0.011152356771535785   -0.12192540859815876   -7.148749369911227e-05
0.024527945594519488   -0.12314089148104623   0.00075918124586319
-0.007538757629152376   -0.1844219463697467   -0.0016139849669850592
0.02699760148901957   -0.183943857252707   -0.00022479511163349213
0.023753328422802738   -0.1223849227698775   0.001079741623150336
-0.007950366654987726   -0.18372896528144259   -0.0014900676568076544
0.02645852303560551   -0.18323215857274056   -0.00012419057417150693
0.023753328422802738   -0.1223849227698775   0.001079741623150336
-0.011152356771535785   -0.12192540859815876   -7.148749369911227e-05
-0.007950366654987726   -0.18372896528144259   -0.0014900676568076544
-0.011723531306218015   -0.12126055123440883   0.00022759722654154942
0.02645852303560551   -0.18323215857274056   -0.00012419057417150693
-0.008421095541161673   -0.18307233819852367   -0.0013325415993546625
-0.011723531306218015   -0.12126055123440883   0.00022759722654154942
-0.007950366654987726   -0.18372896528144259   -0.0014900676568076544
0.02645852303560551   -0.18323215857274056   -0.00012419057417150693
-0.011723531306218015   -0.12126055123440883   0.00022759722654154942
0.022892704452907343   -0.12163177914248335   0.0015366487906312138
0.023753328422802738   -0.1223849227698775   0.001079741623150336
0.02645852303560551   -0.18323215857274056   -0.00012419057417150693
-0.011723531306218015   -0.12126055123440883   0.00022759722654154942
0.023753328422802738   -0.1223849227698775   0.001079741623150336
-0.007950366654987726   -0.18372896528144259   -0.0014900676568076544
0.02645852303560551   -0.18323215857274056   -0.00012419057417150693
0.022892704452907343   -0.12163177914248335   0.0015366487906312138
-0.008421095541161673   -0.18307233819852367   -0.0013325415993546625
0.025749244672929182   -0.1824857378976052   4.205261863525089e-05
0.022892704452907343   -0.12163177914248335   0.0015366487906312138
-0.011723531306218015   -0.12126055123440883   0.00022759722654154942
-0.008421095541161673   -0.18307233819852367   -0.0013325415993546625
-0.012313441856961418   -0.12055372246849382   0.0005706235466926457
0.025749244672929182   -0.1824857378976052   4.205261863525089e-05
-0.008948186525909054   -0.18244321055850482   -0.0011329594118487058
-0.012313441856961418   -0.12055372246849382   0.0005706235466926457
-0.008421095541161673   -0.18307233819852367   -0.0013325415993546625
0.025749244672929182   -0.1824857378976052   4.205261863525089e-05
-0.012313441856961418   -0.12055372246849382   0.0005706235466926457
0.02184151542069246   -0.12070751286868296   0.0020388025740467257
0.022892704452907343   -0.12163177914248335   0.0015366487906312138
0.025749244672929182   -0.1824857378976052   4.205261863525089e-05
-0.012313441856961418   -0.12055372246849382   0.0005706235466926457
0.022892704452907343   -0.12163177914248335   0.0015366487906312138
-0.008421095541161673   -0.18307233819852367   -0.0013325415993546625
-0.007538757629152376   -0.1844219463697467   -0.0016139849669850592
-0.010663447524753776   -0.12255442313819795   -0.00032591245397493466
-0.040685486049357976   -0.18406253429572098   -0.0027681657361854624
-0.007950366654987726   -0.18372896528144259   -0.0014900676568076544
-0.010663447524753776   -0.12255442313819795   -0.00032591245397493466
-0.043815546856582926   -0.12240296007349541   -0.0013746298141352434
-0.040685486049357976   -0.18406253429572098   -0.0027681657361854624
-0.044255998548423575   -0.12185181234865294   -0.0011397986321889815
-0.007950366654987726   -0.18372896528144259   -0.0014900676568076544
-0.0411036879866067   -0.1834805274472082   -0.0025825640507498213
-0.044255998548423575   -0.12185181234865294   -0.0011397986321889815
-0.040685486049357976   -0.18406253429572098   -0.0027681657361854624
-0.007950366654987726   -0.18372896528144259   -0.0014900676568076544
-0.044255998548423575   -0.12185181234865294   -0.0011397986321889815
-0.011152356771535785   -0.12192540859815876   -7.148749369911227e-05
-0.010663447524753776   -0.12255442313819795   -0.00032591245397493466
-0.007950366654987726   -0.18372896528144259   -0.0014900676568076544
-0.044255998548423575   -0.12185181234865294   -0.0011397986321889815
-0.010663447524753776   -0.12255442313819795   -0.00032591245397493466
-0.040685486049357976   -0.18406253429572098   -0.0027681657361854624
-0.007950366654987726   -0.18372896528144259   -0.0014900676568076544
-0.011152356771535785   -0.12192540859815876   -7.148749369911227e-05
-0.0411036879866067   -0.1834805274472082   -0.0025825640507498213
-0.008421095541161673   -0.18307233819852367   -0.0013325415993546625
-0.011152356771535785   -0.12192540859815876   -7.148749369911227e-05
-0.044255998548423575   -0.12185181234865294   -0.0011397986321889815
-0.0411036879866067   -0.1834805274472082   -0.0025825640507498213
-0.04471125222314523   -0.12127813103707764   -0.0008820325625969489
-0.008421095541161673   -0.18307233819852367   -0.0013325415993546625
-0.041531052546677556   -0.18292679669165385   -0.0023650270671071896
-0.04471125222314523   -0.12127813103707764   -0.0008820325625969489
-0.0411036879866067   -0.1834805274472082   -0.0025825640507498213
-0.008421095541161673   -0.18307233819852367   -0.0013325415993546625
-0.04471125222314523   -0.12127813103707764   -0.0008820325625969489
-0.011723531306218015   -0.12126055123440883   0.00022759722654154942
-0.011152356771535785   -0.12192540859815876   -7.148749369911227e-05
-0.008421095541161673   -0.18307233819852367   -0.0013325415993546625
-0.04471125222314523   -0.12127813103707764   -0.0008820325625969489
-0.011152356771535785   -0.12192540859815876   -7.148749369911227e-05
-0.0411036879866067   -0.1834805274472082   -0.0025825640507498213
-0.008421095541161673   -0.18307233819852367   -0.0013325415993546625
-0.011723531306218015   -0.12126055123440883   0.00022759722654154942
-0.041531052546677556   -0.18292679669165385   -0.0023650270671071896
-0.008948186525909054   -0.18244321055850482   -0.0011329594118487058
-0.011723531306218015   -0.12126055123440883   0.00022759722654154942
-0.04471125222314523   -0.12127813103707764   -0.0008820325625969489
-0.041531052546677556   -0.18292679669165385   -0.0023650270671071896
-0.04518483462428516   -0.12069165913011212   -0.0005966648855654794
-0.008948186525909054   -0.18244321055850482   -0.0011329594118487058
-0.041985280104877266   -0.1824096303163139   -0.002115137462191614
-0.04518483462428516   -0.12069165913011212   -0.0005966648855654794
-0.041531052546677556   -0.18292679669165385   -0.0023650270671071896
-0.008948186525909054   -0.18244321055850482   -0.0011329594118487058
-0.04518483462428516   -0.12069165913011212   -0.0005966648855654794
-0.012313441856961418   -0.12055372246849382   0.0005706235466926457
-0.011723531306218015   -0.12126055123440883   0.00022759722654154942
-0.008948186525909054   -0.18244321055850482   -0.0011329594118487058
-0.04518483462428516   -0.12069165913011212   -0.0005966648855654794
-0.011723531306218015   -0.12126055123440883   0.00022759722654154942
-0.041531052546677556   -0.18292679669165385   -0.0023650270671071896
-0.040685486049357976   -0.18406253429572098   -0.0027681657361854624
-0.043815546856582926   -0.12240296007349541   -0.0013746298141352434
-0.0732964057202095   -0.18363454761521275   -0.003751583680709884
-0.0411036879866067   -0.1834805274472082   -0.0025825640507498213
-0.043815546856582926   -0.12240296007349541   -0.0013746298141352434
-0.07663717517069193   -0.12236130156494486   -0.0023243137684895113
-0.0732964057202095   -0.18363454761521275   -0.003751583680709884
-0.07705751706325868   -0.12187647570487072   -0.002101908588001375
-0.0411036879866067   -0.1834805274472082   -0.0025825640507498213
-0.07371092114086862   -0.1831557424077767   -0.0035040808913816787
-0.07705751706325868   -0.12187647570487072   -0.002101908588001375
-0.0732964057202095   -0.18363454761521275   -0.003751583680709884
-0.0411036879866067   -0.1834805274472082   -0.0025825640507498213
-0.07705751706325868   -0.12187647570487072   -0.002101908588001375
-0.044255998548423575   -0.12185181234865294   -0.0011397986321889815
-0.043815546856582926   -0.12240296007349541   -0.0013746298141352434
-0.0411036879866067   -0.1834805274472082   -0.0025825640507498213
-0.07705751706325868   -0.12187647570487072   -0.002101908588001375
-0.043815546856582926   -0.12240296007349541   -0.0013746298141352434
-0.0732964057202095   -0.18363454761521275   -0.003751583680709884
-0.0411036879866067   -0.1834805274472082   -0.0025825640507498213
-0.044255998548423575   -0.12185181234865294   -0.0011397986321889815
-0.07371092114086862   -0.1831557424077767   -0.0035040808913816787
-0.041531052546677556   -0.18292679669165385   -0.0023650270671071896
-0.044255998548423575   -0.12185181234865294   -0.0011397986321889815
-0.07705751706325868   -0.12187647570487072   -0.002101908588001375
-0.07371092114086862   -0.1831557424077767   -0.0035040808913816787
-0.07745789433412922   -0.12138225409383695   -0.0018595099582016054
-0.041531052546677556   -0.18292679669165385   -0.0023650270671071896
-0.07409880506468511   -0.1827069381525805   -0.0032257391221373046
-0.07745789433412922   -0.12138225409383695   -0.0018595099582016054
-0.07371092114086862   -0.1831557424077767   -0.0035040808913816787
-0.041531052546677556   -0.18292679669165385   -0.0023650270671071896
-0.07745789433412922   -0.12138225409383695   -0.0018595099582016054
-0.04471125222314523   -0.12127813103707764   -0.0008820325625969489
-0.044255998548423575   -0.12185181234865294   -0.0011397986321889815
-0.041531052546677556   -0.18292679669165385   -0.0023650270671071896
-0.07745789433412922   -0.12138225409383695   -0.0018595099582016054
-0.044255998548423575   -0.12185181234865294   -0.0011397986321889815
-0.07371092114086862   -0.1831557424077767   -0.0035040808913816787
-0.041531052546677556   -0.18292679669165385   -0.0023650270671071896
-0.04471125222314523   -0.12127813103707764   -0.0008820325625969489
-0.07409880506468511   -0.1827069381525805   -0.0032257391221373046
-0.041985280104877266   -0.1824096303163139   -0.002115137462191614
-0.04471125222314523   -0.12127813103707764   -0.0008820325625969489
-0.07745789433412922   -0.12138225409383695   -0.0018595099582016054
-0.07409880506468511   -0.1827069381525805   -0.0032257391221373046
-0.07785420326973316   -0.12087591538024178   -0.0015983088063778045
-0.041985280104877266   -0.1824096303163139   -0.002115137462191614
-0.07448807025871026   -0.18228942267878023   -0.002918107363387841
-0.07785420326973316   -0.12087591538024178   -0.0015983088063778045
-0.07409880506468511   -0.1827069381525805   -0.0032257391221373046
-0.041985280104877266   -0.1824096303163139   -0.002115137462191614
-0.07785420326973316   -0.12087591538024178   -0.0015983088063778045
-0.04518483462428516   -0.12069165913011212   -0.0005966648855654794
-0.04471125222314523   -0.12127813103707764   -0.0008820325625969489
-0.041985280104877266   -0.1824096303163139   -0.002115137462191614
-0.07785420326973316   -0.12087591538024178   -0.0015983088063778045
-0.04471125222314523   -0.12127813103707764   -0.0008820325625969489
-0.07409880506468511   -0.1827069381525805   -0.0032257391221373046
-0.0732964057202095   -0.18363454761521275   -0.003751583680709884
-0.07663717517069193   -0.12236130156494486   -0.0023243137684895113
-0.10649430021614674   -0.18305790906979957   -0.004555884557963044
-0.07371092114086862   -0.1831557424077767   -0.0035040808913816787
-0.07663717517069193   -0.12236130156494486   -0.0023243137684895113
-0.1101526872281423   -0.12217288439524465   -0.0031255048149656343
-0.10649430021614674   -0.18305790906979957   -0.004555884557963044
-0.11055343447331037   -0.12177524904709194   -0.0029164429167715463
-0.07371092114086862   -0.1831557424077767   -0.0035040808913816787
-0.10689151048205735   -0.18268772475765377   -0.004247202342362208
-0.11055343447331037   -0.12177524904709194   -0.0029164429167715463
-0.10649430021614674   -0.18305790906979957   -0.004555884557963044
-0.07371092114086862   -0.1831557424077767   -0.0035040808913816787
-0.11055343447331037   -0.12177524904709194   -0.0029164429167715463
-0.07705751706325868   -0.12187647570487072   -0.002101908588001375
-0.07663717517069193   -0.12236130156494486   -0.0023243137684895113
-0.07371092114086862   -0.1831557424077767   -0.0035040808913816787
-0.11055343447331037   -0.12177524904709194   -0.0029164429167715463
-0.07663717517069193   -0.12236130156494486   -0.0023243137684895113
-0.10649430021614674   -0.18305790906979957   -0.004555884557963044
-0.07371092114086862   -0.1831557424077767   -0.0035040808913816787
-0.07705751706325868   -0.12187647570487072   -0.002101908588001375
-0.10689151048205735   -0.18268772475765377   -0.004247202342362208
-0.07409880506468511   -0.1827069381525805   -0.0032257391221373046
-0.07705751706325868   -0.12187647570487072   -0.002101908588001375
-0.11055343447331037   -0.12177524904709194   -0.0029164429167715463
-0.10689151048205735   -0.18268772475765377   -0.004247202342362208
-0.11089379978427202   -0.12135558115311207   -0.0026933632342306733
-0.07409880506468511   -0.1827069381525805   -0.0032257391221373046
-0.10719417291479785   -0.1823353684891986   -0.003912871728010178
-0.11089379978427202   -0.12135558115311207   -0.0026933632342306733
-0.10689151048205735   -0.18268772475765377   -0.004247202342362208
-0.07409880506468511   -0.1827069381525805   -0.0032257391221373046
-0.11089379978427202   -0.12135558115311207   -0.0026933632342306733
-0.07745789433412922   -0.12138225409383695   -0.0018595099582016054
-0.07705751706325868   -0.12187647570487072   -0.002101908588001375
-0.07409880506468511   -0.1827069381525805   -0.0032257391221373046
-0.11089379978427202   -0.12135558115311207   -0.0026933632342306733
-0.07705751706325868   -0.12187647570487072   -0.002101908588001375
-0.10689151048205735   -0.18268772475765377   -0.004247202342362208
-0.07409880506468511   -0.1827069381525805   -0.0032257391221373046
-0.07745789433412922   -0.12138225409383695   -0.0018595099582016054
-0.10719417291479785   -0.1823353684891986   -0.003912871728010178
-0.07448807025871026   -0.18228942267878023   -0.002918107363387841
-0.07745789433412922   -0.12138225409383695   -0.0018595099582016054
-0.11089379978427202   -0.12135558115311207   -0.0026933632342306733
-0.10719417291479785   -0.1823353684891986   -0.003912871728010178
-0.11121554146180831   -0.1209243279982453   -0.0024499887396296142
-0.07448807025871026   -0.18228942267878023   -0.002918107363387841
-0.10749411353743718   -0.18201590757247732   -0.003546112262517806
-0.11121554146180831   -0.1209243279982453   -0.0024499887396296142
-0.10719417291479785   -0.1823353684891986   -0.003912871728010178
-0.07448807025871026   -0.18228942267878023   -0.002918107363387841
-0.11121554146180831   -0.1209243279982453   -0.0024499887396296142
-0.07785420326973316   -0.12087591538024178   -0.0015983088063778045
-0.07745789433412922   -0.12138225409383695   -0.0018595099582016054
-0.07448807025871026   -0.18228942267878023   -0.002918107363387841
-0.11121554146180831   -0.1209243279982453   -0.0024499887396296142
-0.07745789433412922   -0.12138225409383695   -0.0018595099582016054
-0.10719417291479785   -0.1823353684891986   -0.003912871728010178
-0.10649430021614674   -0.18305790906979957   -0.004555884557963044
-0.1101526872281423   -0.12217288439524465   -0.0031255048149656343
-0.14166447899797446   -0.18238002579347798   -0.005157064218943094
-0.10689151048205735   -0.18268772475765377   -0.004247202342362208
-0.1101526872281423   -0.12217288439524465   -0.0031255048149656343
-0.1452427685501627   -0.1218648095469683   -0.0037239028481982775
-0.14166447899797446   -0.18238002579347798   -0.005157064218943094
-0.145496171340352   -0.12152856586388301   -0.0035696958871497524
-0.10689151048205735   -0.18268772475765377   -0.004247202342362208
-0.1417340508898424   -0.18208217211930025   -0.004818838724768239
-0.145496171340352   -0.12152856586388301   -0.0035696958871497524
-0.14166447899797446   -0.18238002579347798   -0.005157064218943094
-0.10689151048205735   -0.18268772475765377   -0.004247202342362208
-0.145496171340352   -0.12152856586388301   -0.0035696958871497524
-0.11055343447331037   -0.12177524904709194   -0.0029164429167715463
-0.1101526872281423   -0.12217288439524465   -0.0031255048149656343
-0.10689151048205735   -0.18268772475765377   -0.004247202342362208
-0.145496171340352   -0.12152856586388301   -0.0035696958871497524
-0.1101526872281423   -0.12217288439524465   -0.0031255048149656343
-0.14166447899797446   -0.18238002579347798   -0.005157064218943094
-0.10689151048205735   -0.18268772475765377   -0.004247202342362208
-0.11055343447331037   -0.12177524904709194   -0.0029164429167715463
-0.1417340508898424   -0.18208217211930025   -0.004818838724768239
-0.10719417291479785   -0.1823353684891986   -0.003912871728010178
-0.11055343447331037   -0.12177524904709194   -0.0029164429167715463
-0.145496171340352   -0.12152856586388301   -0.0035696958871497524
-0.1417340508898424   -0.18208217211930025   -0.004818838724768239
-0.14572787610392357   -0.121149119246252   -0.0033807335482338974
-0.10719417291479785   -0.1823353684891986   -0.003912871728010178
-0.1418040709597852   -0.18177931459211516   -0.004428857274844905
-0.14572787610392357   -0.121149119246252   -0.0033807335482338974
-0.1417340508898424   -0.18208217211930025   -0.004818838724768239
-0.10719417291479785   -0.1823353684891986   -0.003912871728010178
-0.14572787610392357   -0.121149119246252   -0.0033807335482338974
-0.11089379978427202   -0.12135558115311207   -0.0026933632342306733
-0.11055343447331037   -0.12177524904709194   -0.0029164429167715463
-0.10719417291479785   -0.1823353684891986   -0.003912871728010178
-0.14572787610392357   -0.121149119246252   -0.0033807335482338974
-0.11055343447331037   -0.12177524904709194   -0.0029164429167715463
-0.1417340508898424   -0.18208217211930025   -0.004818838724768239
-0.10719417291479785   -0.1823353684891986   -0.003912871728010178
-0.11089379978427202   -0.12135558115311207   -0.0026933632342306733
-0.1418040709597852   -0.18177931459211516   -0.004428857274844905
-0.10749411353743718   -0.18201590757247732   -0.003546112262517806
-0.11089379978427202   -0.12135558115311207   -0.0026933632342306733
-0.14572787610392357   -0.121149119246252   -0.0033807335482338974
-0.1418040709597852   -0.18177931459211516   -0.004428857274844905
-0.14584503608658733   -0.12079784950833576   -0.003165908959999735
-0.10749411353743718   -0.18201590757247732   -0.003546112262517806
-0.1416787315159122   -0.18157264980086332   -0.003993325497291328
-0.14584503608658733   -0.12079784950833576   -0.003165908959999735
-0.1418040709597852   -0.18177931459211516   -0.004428857274844905
-0.10749411353743718   -0.18201590757247732   -0.003546112262517806
-0.14584503608658733   -0.12079784950833576   -0.003165908959999735
-0.11121554146180831   -0.1209243279982453   -0.0024499887396296142
-0.11089379978427202   -0.12135558115311207   -0.0026933632342306733
-0.10749411353743718   -0.18201590757247732   -0.003546112262517806
-0.14584503608658733   -0.12079784950833576   -0.003165908959999735
-0.11089379978427202   -0.12135558115311207   -0.0026933632342306733
-0.1418040709597852   -0.18177931459211516   -0.004428857274844905
0.024527945594519488   -0.12314089148104623   0.00075918124586319
0.017140703210647965   -0.0617542849629924   0.0008104225363105261
-0.010663447524753776   -0.12255442313819795   -0.00032591245397493466
0.023753328422802738   -0.1223849227698775   0.001079741623150336
0.017140703210647965   -0.0617542849629924   0.0008104225363105261
-0.015621449776133615   -0.06094005842235567   0.0003899602518766817
-0.010663447524753776   -0.12255442313819795   -0.00032591245397493466
-0.01610594634933024   -0.060615689711399745   0.0007406327376370462
0.023753328422802738   -0.1223849227698775   0.001079741623150336
-0.011152356771535785   -0.12192540859815876   -7.148749369911227e-05
-0.01610594634933024   -0.060615689711399745   0.0007406327376370462
-0.010663447524753776   -0.12255442313819795   -0.00032591245397493466
0.023753328422802738   -0.1223849227698775   0.001079741623150336
-0.01610594634933024   -0.060615689711399745   0.0007406327376370462
0.015632660027099426   -0.06095436569370168   0.0016812251215164405
0.017140703210647965   -0.0617542849629924   0.0008104225363105261
0.023753328422802738   -0.1223849227698775   0.001079741623150336
-0.01610594634933024   -0.060615689711399745   0.0007406327376370462
0.017140703210647965   -0.0617542849629924   0.0008104225363105261
-0.010663447524753776   -0.12255442313819795   -0.00032591245397493466
0.023753328422802738   -0.1223849227698775   0.001079741623150336
0.015632660027099426   -0.06095436569370168   0.0016812251215164405
-0.011152356771535785   -0.12192540859815876   -7.148749369911227e-05
0.022892704452907343   -0.12163177914248335   0.0015366487906312138
0.015632660027099426   -0.06095436569370168   0.0016812251215164405
-0.01610594634933024   -0.060615689711399745   0.0007406327376370462
-0.011152356771535785   -0.12192540859815876   -7.148749369911227e-05
-0.016739508411606544   -0.06004880396645697   0.0011655309480195991
0.022892704452907343   -0.12163177914248335   0.0015366487906312138
-0.011723531306218015   -0.12126055123440883   0.00022759722654154942
-0.016739508411606544   -0.06004880396645697   0.0011655309480195991
-0.011152356771535785   -0.12192540859815876   -7.148749369911227e-05
0.022892704452907343   -0.12163177914248335   0.0015366487906312138
-0.016739508411606544   -0.06004880396645697   0.0011655309480195991
0.014748157919483525   -0.060294964547690205   0.002332849982563721
0.015632660027099426   -0.06095436569370168   0.0016812251215164405
0.022892704452907343   -0.12163177914248335   0.0015366487906312138
-0.016739508411606544   -0.06004880396645697   0.0011655309480195991
0.015632660027099426   -0.06095436569370168   0.0016812251215164405
-0.011152356771535785   -0.12192540859815876   -7.148749369911227e-05
0.022892704452907343   -0.12163177914248335   0.0015366487906312138
0.014748157919483525   -0.060294964547690205   0.002332849982563721
-0.011723531306218015   -0.12126055123440883   0.00022759722654154942
0.02184151542069246   -0.12070751286868296   0.0020388025740467257
0.014748157919483525   -0.060294964547690205   0.002332849982563721
-0.016739508411606544   -0.06004880396645697   0.0011655309480195991
-0.011723531306218015   -0.12126055123440883   0.00022759722654154942
-0.01727076549532926   -0.059437336771599375   0.0015397565416309226
0.02184151542069246   -0.12070751286868296   0.0020388025740467257
-0.012313441856961418   -0.12055372246849382   0.0005706235466926457
-0.01727076549532926   -0.059437336771599375   0.0015397565416309226
-0.011723531306218015   -0.12126055123440883   0.00022759722654154942
0.02184151542069246   -0.12070751286868296   0.0020388025740467257
-0.01727076549532926   -0.059437336771599375   0.0015397565416309226
0.013616933826507797   -0.05929191591914064   0.0030781518972392763
0.014748157919483525   -0.060294964547690205   0.002332849982563721
0.02184151542069246   -0.12070751286868296   0.0020388025740467257
-0.01727076549532926   -0.059437336771599375   0.0015397565416309226
0.014748157919483525   -0.060294964547690205   0.002332849982563721
-0.011723531306218015   -0.12126055123440883   0.00022759722654154942
-0.010663447524753776   -0.12255442313819795   -0.00032591245397493466
-0.015621449776133615   -0.06094005842235567   0.0003899602518766817
-0.043815546856582926   -0.12240296007349541   -0.0013746298141352434
-0.011152356771535785   -0.12192540859815876   -7.148749369911227e-05
-0.015621449776133615   -0.06094005842235567   0.0003899602518766817
-0.04684367639562082   -0.061831109420064166   -0.00045166222368861085
-0.043815546856582926   -0.12240296007349541   -0.0013746298141352434
-0.047286963780288904   -0.06134268159318434   -0.00020441885072992316
-0.011152356771535785   -0.12192540859815876   -7.148749369911227e-05
-0.044255998548423575   -0.12185181234865294   -0.0011397986321889815
-0.047286963780288904   -0.06134268159318434   -0.00020441885072992316
-0.043815546856582926   -0.12240296007349541   -0.0013746298141352434
-0.011152356771535785   -0.12192540859815876   -7.148749369911227e-05
-0.047286963780288904   -0.06134268159318434   -0.00020441885072992316
-0.01610594634933024   -0.060615689711399745   0.0007406327376370462
-0.015621449776133615   -0.06094005842235567   0.0003899602518766817
-0.011152356771535785   -0.12192540859815876   -7.148749369911227e-05
-0.047286963780288904   -0.06134268159318434   -0.00020441885072992316
-0.015621449776133615   -0.06094005842235567   0.0003899602518766817
-0.043815546856582926   -0.12240296007349541   -0.0013746298141352434
-0.011152356771535785   -0.12192540859815876   -7.148749369911227e-05
-0.01610594634933024   -0.060615689711399745   0.0007406327376370462
-0.044255998548423575   -0.12185181234865294   -0.0011397986321889815
-0.011723531306218015   -0.12126055123440883   0.00022759722654154942
-0.01610594634933024   -0.060615689711399745   0.0007406327376370462
-0.047286963780288904   -0.06134268159318434   -0.00020441885072992316
-0.044255998548423575   -0.12185181234865294   -0.0011397986321889815
-0.04774942986527636   -0.06079316188331512   5.647076083182389e-05
-0.011723531306218015   -0.12126055123440883   0.00022759722654154942
-0.04471125222314523   -0.12127813103707764   -0.0008820325625969489
-0.04774942986527636   -0.06079316188331512   5.647076083182389e-05
-0.044255998548423575   -0.12185181234865294   -0.0011397986321889815
-0.011723531306218015   -0.12126055123440883   0.00022759722654154942
-0.04774942986527636   -0.06079316188331512   5.647076083182389e-05
-0.016739508411606544   -0.06004880396645697   0.0011655309480195991
-0.01610594634933024   -0.060615689711399745   0.0007406327376370462
-0.011723531306218015   -0.12126055123440883   0.00022759722654154942
-0.04774942986527636   -0.06079316188331512   5.647076083182389e-05
-0.01610594634933024   -0.060615689711399745   0.0007406327376370462
-0.044255998548423575   -0.12185181234865294   -0.0011397986321889815
-0.011723531306218015   -0.12126055123440883   0.00022759722654154942
-0.016739508411606544   -0.06004880396645697   0.0011655309480195991
-0.04471125222314523   -0.12127813103707764   -0.0008820325625969489
-0.012313441856961418   -0.12055372246849382   0.0005706235466926457
-0.016739508411606544   -0.06004880396645697   0.0011655309480195991
-0.04774942986527636   -0.06079316188331512   5.647076083182389e-05
-0.04471125222314523   -0.12127813103707764   -0.0008820325625969489
-0.048187725560659644   -0.06019091175036687   0.0003437320082905108
-0.012313441856961418   -0.12055372246849382   0.0005706235466926457
-0.04518483462428516   -0.12069165913011212   -0.0005966648855654794
-0.048187725560659644   -0.06019091175036687   0.0003437320082905108
-0.04471125222314523   -0.12127813103707764   -0.0008820325625969489
-0.012313441856961418   -0.12055372246849382   0.0005706235466926457
-0.048187725560659644   -0.06019091175036687   0.0003437320082905108
-0.01727076549532926   -0.059437336771599375   0.0015397565416309226
-0.016739508411606544   -0.06004880396645697   0.0011655309480195991
-0.012313441856961418   -0.12055372246849382   0.0005706235466926457
-0.048187725560659644   -0.06019091175036687   0.0003437320082905108
-0.016739508411606544   -0.06004880396645697   0.0011655309480195991
-0.04471125222314523   -0.12127813103707764   -0.0008820325625969489
-0.043815546856582926   -0.12240296007349541   -0.0013746298141352434
-0.04684367639562082   -0.061831109420064166   -0.00045166222368861085
-0.07663717517069193   -0.12236130156494486   -0.0023243137684895113
-0.044255998548423575   -0.12185181234865294   -0.0011397986321889815
-0.04684367639562082   -0.061831109420064166   -0.00045166222368861085
-0.07884909315437216   -0.06252690628837515   -0.0013795206265652573
-0.07663717517069193   -0.12236130156494486   -0.0023243137684895113
-0.07924598662288243   -0.06202602315342192   -0.0011888949046376716
-0.044255998548423575   -0.12185181234865294   -0.0011397986321889815
-0.07705751706325868   -0.12187647570487072   -0.002101908588001375
-0.07924598662288243   -0.06202602315342192   -0.0011888949046376716
-0.07663717517069193   -0.12236130156494486   -0.0023243137684895113
-0.044255998548423575   -0.12185181234865294   -0.0011397986321889815
-0.07924598662288243   -0.06202602315342192   -0.0011888949046376716
-0.047286963780288904   -0.06134268159318434   -0.00020441885072992316
-0.04684367639562082   -0.061831109420064166   -0.00045166222368861085
-0.044255998548423575   -0.12185181234865294   -0.0011397986321889815
-0.07924598662288243   -0.06202602315342192   -0.0011888949046376716
-0.04684367639562082   -0.061831109420064166   -0.00045166222368861085
-0.07663717517069193   -0.12236130156494486   -0.0023243137684895113
-0.044255998548423575   -0.12185181234865294   -0.0011397986321889815
-0.047286963780288904   -0.06134268159318434   -0.00020441885072992316
-0.07705751706325868   -0.12187647570487072   -0.002101908588001375
-0.04471125222314523   -0.12127813103707764   -0.0008820325625969489
-0.047286963780288904   -0.06134268159318434   -0.00020441885072992316
-0.07924598662288243   -0.06202602315342192   -0.0011888949046376716
-0.07705751706325868   -0.12187647570487072   -0.002101908588001375
-0.07962500831178855   -0.061497875922953714   -0.0009994458733413438
-0.04471125222314523   -0.12127813103707764   -0.0008820325625969489
-0.07745789433412922   -0.12138225409383695   -0.0018595099582016054
-0.07962500831178855   -0.061497875922953714   -0.0009994458733413438
-0.07705751706325868   -0.12187647570487072   -0.002101908588001375
-0.04471125222314523   -0.12127813103707764   -0.0008820325625969489
-0.07962500831178855   -0.061497875922953714   -0.0009994458733413438
-0.04774942986527636   -0.06079316188331512   5.647076083182389e-05
-0.047286963780288904   -0.06134268159318434   -0.00020441885072992316
-0.04471125222314523   -0.12127813103707764   -0.0008820325625969489
-0.07962500831178855   -0.061497875922953714   -0.0009994458733413438
-0.047286963780288904   -0.06134268159318434   -0.00020441885072992316
-0.07705751706325868   -0.12187647570487072   -0.002101908588001375
-0.04471125222314523   -0.12127813103707764   -0.0008820325625969489
-0.04774942986527636   -0.06079316188331512   5.647076083182389e-05
-0.07745789433412922   -0.12138225409383695   -0.0018595099582016054
-0.04518483462428516   -0.12069165913011212   -0.0005966648855654794
-0.04774942986527636   -0.06079316188331512   5.647076083182389e-05
-0.07962500831178855   -0.061497875922953714   -0.0009994458733413438
-0.07745789433412922   -0.12138225409383695   -0.0018595099582016054
-0.07997365129386316   -0.06092673204702609   -0.0007937833126051751
-0.04518483462428516   -0.12069165913011212   -0.0005966648855654794
-0.07785420326973316   -0.12087591538024178   -0.0015983088063778045
-0.07997365129386316   -0.06092673204702609   -0.0007937833126051751
-0.07745789433412922   -0.12138225409383695   -0.0018595099582016054
-0.04518483462428516   -0.12069165913011212   -0.0005966648855654794
-0.07997365129386316   -0.06092673204702609   -0.0007937833126051751
-0.048187725560659644   -0.06019091175036687   0.0003437320082905108
-0.04774942986527636   -0.06079316188331512   5.647076083182389e-05
-0.04518483462428516   -0.12069165913011212   -0.0005966648855654794
-0.07997365129386316   -0.06092673204702609   -0.0007937833126051751
-0.04774942986527636   -0.06079316188331512   5.647076083182389e-05
-0.07745789433412922   -0.12138225409383695   -0.0018595099582016054
-0.07663717517069193   -0.12236130156494486   -0.0023243137684895113
-0.07884909315437216   -0.06252690628837515   -0.0013795206265652573
-0.1101526872281423   -0.12217288439524465   -0.0031255048149656343
-0.07705751706325868   -0.12187647570487072   -0.002101908588001375
-0.07884909315437216   -0.06252690628837515   -0.0013795206265652573
-0.11197820806520076   -0.0628114548447401   -0.00223727957811466
-0.1101526872281423   -0.12217288439524465   -0.0031255048149656343
-0.11233550257442489   -0.06236001338248423   -0.0020991287109350006
-0.07705751706325868   -0.12187647570487072   -0.002101908588001375
-0.11055343447331037   -0.12177524904709194   -0.0029164429167715463
-0.11233550257442489   -0.06236001338248423   -0.0020991287109350006
-0.1101526872281423   -0.12217288439524465   -0.0031255048149656343
-0.07705751706325868   -0.12187647570487072   -0.002101908588001375
-0.11233550257442489   -0.06236001338248423   -0.0020991287109350006
-0.07924598662288243   -0.06202602315342192   -0.0011888949046376716
-0.07884909315437216   -0.06252690628837515   -0.0013795206265652573
-0.07705751706325868   -0.12187647570487072   -0.002101908588001375
-0.11233550257442489   -0.06236001338248423   -0.0020991287109350006
-0.07884909315437216   -0.06252690628837515   -0.0013795206265652573
-0.1101526872281423   -0.12217288439524465   -0.0031255048149656343
-0.07705751706325868   -0.12187647570487072   -0.002101908588001375
-0.07924598662288243   -0.06202602315342192   -0.0011888949046376716
-0.11055343447331037   -0.12177524904709194   -0.0029164429167715463
-0.07745789433412922   -0.12138225409383695   -0.0018595099582016054
-0.07924598662288243   -0.06202602315342192   -0.0011888949046376716
-0.11233550257442489   -0.06236001338248423   -0.0020991287109350006
-0.11055343447331037   -0.12177524904709194   -0.0029164429167715463
-0.1126538352610157   -0.0618695189788399   -0.001965431793763539
-0.07745789433412922   -0.12138225409383695   -0.0018595099582016054
-0.11089379978427202   -0.12135558115311207   -0.0026933632342306733
-0.1126538352610157   -0.0618695189788399   -0.001965431793763539
-0.11055343447331037   -0.12177524904709194   -0.0029164429167715463
-0.07745789433412922   -0.12138225409383695   -0.0018595099582016054
-0.1126538352610157   -0.0618695189788399   -0.001965431793763539
-0.07962500831178855   -0.061497875922953714   -0.0009994458733413438
-0.07924598662288243   -0.06202602315342192   -0.0011888949046376716
-0.07745789433412922   -0.12138225409383695   -0.0018595099582016054
-0.1126538352610157   -0.0618695189788399   -0.001965431793763539
-0.07924598662288243   -0.06202602315342192   -0.0011888949046376716
-0.11055343447331037   -0.12177524904709194   -0.0029164429167715463
-0.07745789433412922   -0.12138225409383695   -0.0018595099582016054
-0.07962500831178855   -0.061497875922953714   -0.0009994458733413438
-0.11089379978427202   -0.12135558115311207   -0.0026933632342306733
-0.07785420326973316   -0.12087591538024178   -0.0015983088063778045
-0.07962500831178855   -0.061497875922953714   -0.0009994458733413438
-0.1126538352610157   -0.0618695189788399   -0.001965431793763539
-0.11089379978427202   -0.12135558115311207   -0.0026933632342306733
-0.11294187599261175   -0.06134798291419758   -0.0018283675389348972
-0.07785420326973316   -0.12087591538024178   -0.0015983088063778045
-0.11121554146180831   -0.1209243279982453   -0.0024499887396296142
-0.11294187599261175   -0.06134798291419758   -0.0018283675389348972
-0.11089379978427202   -0.12135558115311207   -0.0026933632342306733
-0.07785420326973316   -0.12087591538024178   -0.0015983088063778045
-0.11294187599261175   -0.06134798291419758   -0.0018283675389348972
-0.07997365129386316   -0.06092673204702609   -0.0007937833126051751
-0.07962500831178855   -0.061497875922953714   -0.0009994458733413438
-0.07785420326973316   -0.12087591538024178   -0.0015983088063778045
-0.11294187599261175   -0.06134798291419758   -0.0018283675389348972
-0.07962500831178855   -0.061497875922953714   -0.0009994458733413438
-0.11089379978427202   -0.12135558115311207   -0.0026933632342306733
-0.1101526872281423   -0.12217288439524465   -0.0031255048149656343
-0.11197820806520076   -0.0628114548447401   -0.00223727957811466
-0.1452427685501627   -0.1218648095469683   -0.0037239028481982775
-0.11055343447331037   -0.12177524904709194   -0.0029164429167715463
-0.11197820806520076   -0.0628114548447401   -0.00223727957811466
-0.14626966646219242   -0.06284485869187478   -0.0029533761544990335
-0.1452427685501627   -0.1218648095469683   -0.0037239028481982775
-0.14657806515505603   -0.06240593247046537   -0.0028956388159246567
-0.11055343447331037   -0.12177524904709194   -0.0029164429167715463
-0.145496171340352   -0.12152856586388301   -0.0035696958871497524
-0.14657806515505603   -0.06240593247046537   -0.0028956388159246567
-0.1452427685501627   -0.1218648095469683   -0.0037239028481982775
-0.11055343447331037   -0.12177524904709194   -0.0029164429167715463
-0.14657806515505603   -0.06240593247046537   -0.0028956388159246567
-0.11233550257442489   -0.06236001338248423   -0.0020991287109350006
-0.11197820806520076   -0.0628114548447401   -0.00223727957811466
-0.11055343447331037   -0.12177524904709194   -0.0029164429167715463
-0.14657806515505603   -0.06240593247046537   -0.0028956388159246567
-0.11197820806520076   -0.0628114548447401   -0.00223727957811466
-0.1452427685501627   -0.1218648095469683   -0.0037239028481982775
-0.11055343447331037   -0.12177524904709194   -0.0029164429167715463
-0.11233550257442489   -0.06236001338248423   -0.0020991287109350006
-0.145496171340352   -0.12152856586388301   -0.0035696958871497524
-0.11089379978427202   -0.12135558115311207   -0.0026933632342306733
-0.11233550257442489   -0.06236001338248423   -0.0020991287109350006
-0.14657806515505603   -0.06240593247046537   -0.0028956388159246567
-0.145496171340352   -0.12152856586388301   -0.0035696958871497524
-0.14685436160233117   -0.061932597711231926   -0.0028284036178025857
-0.11089379978427202   -0.12135558115311207   -0.0026933632342306733
-0.14572787610392357   -0.121149119246252   -0.0033807335482338974
-0.14685436160233117   -0.061932597711231926   -0.0028284036178025857
-0.145496171340352   -0.12152856586388301   -0.0035696958871497524
-0.11089379978427202   -0.12135558115311207   -0.0026933632342306733
-0.14685436160233117   -0.061932597711231926   -0.0028284036178025857
-0.1126538352610157   -0.0618695189788399   -0.001965431793763539
-0.11233550257442489   -0.06236001338248423   -0.0020991287109350006
-0.11089379978427202   -0.12135558115311207   -0.0026933632342306733
-0.14685436160233117   -0.061932597711231926   -0.0028284036178025857
-0.11233550257442489   -0.06236001338248423   -0.0020991287109350006
-0.145496171340352   -0.12152856586388301   -0.0035696958871497524
-0.11089379978427202   -0.12135558115311207   -0.0026933632342306733
-0.1126538352610157   -0.0618695189788399   -0.001965431793763539
-0.14572787610392357   -0.121149119246252   -0.0033807335482338974
-0.11121554146180831   -0.1209243279982453   -0.0024499887396296142
-0.1126538352610157   -0.0618695189788399   -0.001965431793763539
-0.14685436160233117   -0.061932597711231926   -0.0028284036178025857
-0.14572787610392357   -0.121149119246252   -0.0033807335482338974
-0.14708852316448554   -0.06143114742684649   -0.0027668739174790662
-0.11121554146180831   -0.1209243279982453   -0.0024499887396296142
-0.14584503608658733   -0.12079784950833576   -0.003165908959999735
-0.14708852316448554   -0.06143114742684649   -0.0027668739174790662
-0.14572787610392357   -0.121149119246252   -0.0033807335482338974
-0.11121554146180831   -0.1209243279982453   -0.0024499887396296142
-0.14708852316448554   -0.06143114742684649   -0.0027668739174790662
-0.11294187599261175   -0.06134798291419758   -0.0018283675389348972
-0.1126538352610157   -0.0618695189788399   -0.001965431793763539
-0.11121554146180831   -0.1209243279982453   -0.0024499887396296142
-0.14708852316448554   -0.06143114742684649   -0.0027668739174790662
-0.1126538352610157   -0.0618695189788399   -0.001965431793763539
-0.14572787610392357   -0.121149119246252   -0.0033807335482338974
0.017140703210647965   -0.0617542849629924   0.0008104225363105261
0.0   0.0   0.0
-0.015621449776133615   -0.06094005842235567   0.0003899602518766817
0.015632660027099426   -0.06095436569370168   0.0016812251215164405
0.0   0.0   0.0
-0.019673458986714087   -0.004882370997770864   -0.00019081521318389894
-0.015621449776133615   -0.06094005842235567   0.0003899602518766817
-0.020846636315862144   -0.0037731991298296428   0.0004761258288031508
0.015632660027099426   -0.06095436569370168   0.0016812251215164405
-0.01610594634933024   -0.060615689711399745   0.0007406327376370462
-0.020846636315862144   -0.0037731991298296428   0.0004761258288031508
-0.015621449776133615   -0.06094005842235567   0.0003899602518766817
0.015632660027099426   -0.06095436569370168   0.0016812251215164405
-0.020846636315862144   -0.0037731991298296428   0.0004761258288031508
0.0   0.0   0.0
0.0   0.0   0.0
0.015632660027099426   -0.06095436569370168   0.0016812251215164405
-0.020846636315862144   -0.0037731991298296428   0.0004761258288031508
0.0   0.0   0.0
-0.015621449776133615   -0.06094005842235567   0.0003899602518766817
0.015632660027099426   -0.06095436569370168   0.0016812251215164405
0.0   0.0   0.0
-0.01610594634933024   -0.060615689711399745   0.0007406327376370462
0.014748157919483525   -0.060294964547690205   0.002332849982563721
0.0   0.0   0.0
-0.020846636315862144   -0.0037731991298296428   0.0004761258288031508
-0.01610594634933024   -0.060615689711399745   0.0007406327376370462
-0.02157973000272344   -0.0032358546366986532   0.0008575837072490746
0.014748157919483525   -0.060294964547690205   0.002332849982563721
-0.016739508411606544   -0.06004880396645697   0.0011655309480195991
-0.02157973000272344   -0.0032358546366986532   0.0008575837072490746
-0.01610594634933024   -0.060615689711399745   0.0007406327376370462
0.014748157919483525   -0.060294964547690205   0.002332849982563721
-0.02157973000272344   -0.0032358546366986532   0.0008575837072490746
0.0   0.0   0.0
0.0   0.0   0.0
0.014748157919483525   -0.060294964547690205   0.002332849982563721
-0.02157973000272344   -0.0032358546366986532   0.0008575837072490746
0.0   0.0   0.0
-0.01610594634933024   -0.060615689711399745   0.0007406327376370462
0.014748157919483525   -0.060294964547690205   0.002332849982563721
0.0   0.0   0.0
-0.016739508411606544   -0.06004880396645697   0.0011655309480195991
0.013616933826507797   -0.05929191591914064   0.0030781518972392763
0.0   0.0   0.0
-0.02157973000272344   -0.0032358546366986532   0.0008575837072490746
-0.016739508411606544   -0.06004880396645697   0.0011655309480195991
-0.022557049166139216   -0.002524114340194733   0.001294756052545191
0.013616933826507797   -0.05929191591914064   0.0030781518972392763
-0.01727076549532926   -0.059437336771599375   0.0015397565416309226
-0.022557049166139216   -0.002524114340194733   0.001294756052545191
-0.016739508411606544   -0.06004880396645697   0.0011655309480195991
0.013616933826507797   -0.05929191591914064   0.0030781518972392763
-0.022557049166139216   -0.002524114340194733   0.001294756052545191
0.0   0.0   0.0
0.0   0.0   0.0
0.013616933826507797   -0.05929191591914064   0.0030781518972392763
-0.022557049166139216   -0.002524114340194733   0.001294756052545191
0.0   0.0   0.0
-0.016739508411606544   -0.06004880396645697   0.0011655309480195991
-0.015621449776133615   -0.06094005842235567   0.0003899602518766817
-0.019673458986714087   -0.004882370997770864   -0.00019081521318389894
-0.04684367639562082   -0.061831109420064166   -0.00045166222368861085
-0.01610594634933024   -0.060615689711399745   0.0007406327376370462
-0.019673458986714087   -0.004882370997770864   -0.00019081521318389894
-0.04826171532434058   -0.006356354405629895   -0.00021664032826978872
-0.04684367639562082   -0.061831109420064166   -0.00045166222368861085
-0.048862043781887125   -0.005743972115235535   -5.061778643786888e-05
-0.01610594634933024   -0.060615689711399745   0.0007406327376370462
-0.047286963780288904   -0.06134268159318434   -0.00020441885072992316
-0.048862043781887125   -0.005743972115235535   -5.061778643786888e-05
-0.04684367639562082   -0.061831109420064166   -0.00045166222368861085
-0.01610594634933024   -0.060615689711399745   0.0007406327376370462
-0.048862043781887125   -0.005743972115235535   -5.061778643786888e-05
-0.020846636315862144   -0.0037731991298296428   0.0004761258288031508
-0.019673458986714087   -0.004882370997770864   -0.00019081521318389894
-0.01610594634933024   -0.060615689711399745   0.0007406327376370462
-0.048862043781887125   -0.005743972115235535   -5.061778643786888e-05
-0.019673458986714087   -0.004882370997770864   -0.00019081521318389894
-0.04684367639562082   -0.061831109420064166   -0.00045166222368861085
-0.01610594634933024   -0.060615689711399745   0.0007406327376370462
-0.020846636315862144   -0.0037731991298296428   0.0004761258288031508
-0.047286963780288904   -0.06134268159318434   -0.00020441885072992316
-0.016739508411606544   -0.06004880396645697   0.0011655309480195991
-0.020846636315862144   -0.0037731991298296428   0.0004761258288031508
-0.048862043781887125   -0.005743972115235535   -5.061778643786888e-05
-0.047286963780288904   -0.06134268159318434   -0.00020441885072992316
-0.04945836269505978   -0.00502910936818054   0.00025052117799795803
-0.016739508411606544   -0.06004880396645697   0.0011655309480195991
-0.04774942986527636   -0.06079316188331512   5.647076083182389e-05
-0.04945836269505978   -0.00502910936818054   0.00025052117799795803
-0.047286963780288904   -0.06134268159318434   -0.00020441885072992316
-0.016739508411606544   -0.06004880396645697   0.0011655309480195991
-0.04945836269505978   -0.00502910936818054   0.00025052117799795803
-0.02157973000272344   -0.0032358546366986532   0.0008575837072490746
-0.020846636315862144   -0.0037731991298296428   0.0004761258288031508
-0.016739508411606544   -0.06004880396645697   0.0011655309480195991
-0.04945836269505978   -0.00502910936818054   0.00025052117799795803
-0.020846636315862144   -0.0037731991298296428   0.0004761258288031508
-0.047286963780288904   -0.06134268159318434   -0.00020441885072992316
-0.016739508411606544   -0.06004880396645697   0.0011655309480195991
-0.02157973000272344   -0.0032358546366986532   0.0008575837072490746
-0.04774942986527636   -0.06079316188331512   5.647076083182389e-05
-0.01727076549532926   -0.059437336771599375   0.0015397565416309226
-0.02157973000272344   -0.0032358546366986532   0.0008575837072490746
-0.04945836269505978   -0.00502910936818054   0.00025052117799795803
-0.04774942986527636   -0.06079316188331512   5.647076083182389e-05
-0.050112884870699925   -0.004206374703247272   0.000536518900953443
-0.01727076549532926   -0.059437336771599375   0.0015397565416309226
-0.048187725560659644   -0.06019091175036687   0.0003437320082905108
-0.050112884870699925   -0.004206374703247272   0.000536518900953443
-0.04774942986527636   -0.06079316188331512   5.647076083182389e-05
-0.01727076549532926   -0.059437336771599375   0.0015397565416309226
-0.050112884870699925   -0.004206374703247272   0.000536518900953443
-0.022557049166139216   -0.002524114340194733   0.001294756052545191
-0.02157973000272344   -0.0032358546366986532   0.0008575837072490746
-0.01727076549532926   -0.059437336771599375   0.0015397565416309226
-0.050112884870699925   -0.004206374703247272   0.000536518900953443
-0.02157973000272344   -0.0032358546366986532   0.0008575837072490746
-0.04774942986527636   -0.06079316188331512   5.647076083182389e-05
-0.04684367639562082   -0.061831109420064166   -0.00045166222368861085
-0.04826171532434058   -0.006356354405629895   -0.00021664032826978872
-0.07884909315437216   -0.06252690628837515   -0.0013795206265652573
-0.047286963780288904   -0.06134268159318434   -0.00020441885072992316
-0.04826171532434058   -0.006356354405629895   -0.00021664032826978872
-0.07963619604940102   -0.006745797641300193   -0.0008176690886879032
-0.07884909315437216   -0.06252690628837515   -0.0013795206265652573
-0.07999788049819943   -0.006261080785811033   -0.0007741521132087391
-0.047286963780288904   -0.06134268159318434   -0.00020441885072992316
-0.07924598662288243   -0.06202602315342192   -0.0011888949046376716
-0.07999788049819943   -0.006261080785811033   -0.0007741521132087391
-0.07884909315437216   -0.06252690628837515   -0.0013795206265652573
-0.047286963780288904   -0.06134268159318434   -0.00020441885072992316
-0.07999788049819943   -0.006261080785811033   -0.0007741521132087391
-0.048862043781887125   -0.005743972115235535   -5.061778643786888e-05
-0.04826171532434058   -0.006356354405629895   -0.00021664032826978872
-0.047286963780288904   -0.06134268159318434   -0.00020441885072992316
-0.07999788049819943   -0.006261080785811033   -0.0007741521132087391
-0.04826171532434058   -0.006356354405629895   -0.00021664032826978872
-0.07884909315437216   -0.06252690628837515   -0.0013795206265652573
-0.047286963780288904   -0.06134268159318434   -0.00020441885072992316
-0.048862043781887125   -0.005743972115235535   -5.061778643786888e-05
-0.07924598662288243   -0.06202602315342192   -0.0011888949046376716
-0.04774942986527636   -0.06079316188331512   5.647076083182389e-05
-0.048862043781887125   -0.005743972115235535   -5.061778643786888e-05
-0.07999788049819943   -0.006261080785811033   -0.0007741521132087391
-0.07924598662288243   -0.06202602315342192   -0.0011888949046376716
-0.08037350395720401   -0.005702074599906691   -0.0006963643980870466
-0.04774942986527636   -0.06079316188331512   5.647076083182389e-05
-0.07962500831178855   -0.061497875922953714   -0.0009994458733413438
-0.08037350395720401   -0.005702074599906691   -0.0006963643980870466
-0.07924598662288243   -0.06202602315342192   -0.0011888949046376716
-0.04774942986527636   -0.06079316188331512   5.647076083182389e-05
-0.08037350395720401   -0.005702074599906691   -0.0006963643980870466
-0.04945836269505978   -0.00502910936818054   0.00025052117799795803
-0.048862043781887125   -0.005743972115235535   -5.061778643786888e-05
-0.04774942986527636   -0.06079316188331512   5.647076083182389e-05
-0.08037350395720401   -0.005702074599906691   -0.0006963643980870466
-0.048862043781887125   -0.005743972115235535   -5.061778643786888e-05
-0.07924598662288243   -0.06202602315342192   -0.0011888949046376716
-0.04774942986527636   -0.06079316188331512   5.647076083182389e-05
-0.04945836269505978   -0.00502910936818054   0.00025052117799795803
-0.07962500831178855   -0.061497875922953714   -0.0009994458733413438
-0.048187725560659644   -0.06019091175036687   0.0003437320082905108
-0.04945836269505978   -0.00502910936818054   0.00025052117799795803
-0.08037350395720401   -0.005702074599906691   -0.0006963643980870466
-0.07962500831178855   -0.061497875922953714   -0.0009994458733413438
-0.08072510316169024   -0.00502788317379215   -0.0005934579707512121
-0.048187725560659644   -0.06019091175036687   0.0003437320082905108
-0.07997365129386316   -0.06092673204702609   -0.0007937833126051751
-0.08072510316169024   -0.00502788317379215   -0.0005934579707512121
-0.07962500831178855   -0.061497875922953714   -0.0009994458733413438
-0.048187725560659644   -0.06019091175036687   0.0003437320082905108
-0.08072510316169024   -0.00502788317379215   -0.0005934579707512121
-0.050112884870699925   -0.004206374703247272   0.000536518900953443
-0.04945836269505978   -0.00502910936818054   0.00025052117799795803
-0.048187725560659644   -0.06019091175036687   0.0003437320082905108
-0.08072510316169024   -0.00502788317379215   -0.0005934579707512121
-0.04945836269505978   -0.00502910936818054   0.00025052117799795803
-0.07962500831178855   -0.061497875922953714   -0.0009994458733413438
-0.07884909315437216   -0.06252690628837515   -0.0013795206265652573
-0.07963619604940102   -0.006745797641300193   -0.0008176690886879032
-0.11197820806520076   -0.0628114548447401   -0.00223727957811466
-0.07924598662288243   -0.06202602315342192   -0.0011888949046376716
-0.07963619604940102   -0.006745797641300193   -0.0008176690886879032
-0.11255381596988671   -0.006653251188838308   -0.001663657402991865
-0.11197820806520076   -0.0628114548447401   -0.00223727957811466
-0.11279744003928305   -0.0062123117121058195   -0.0016453995769241208
-0.07924598662288243   -0.06202602315342192   -0.0011888949046376716
-0.11233550257442489   -0.06236001338248423   -0.0020991287109350006
-0.11279744003928305   -0.0062123117121058195   -0.0016453995769241208
-0.11197820806520076   -0.0628114548447401   -0.00223727957811466
-0.07924598662288243   -0.06202602315342192   -0.0011888949046376716
-0.11279744003928305   -0.0062123117121058195   -0.0016453995769241208
-0.07999788049819943   -0.006261080785811033   -0.0007741521132087391
-0.07963619604940102   -0.006745797641300193   -0.0008176690886879032
-0.07924598662288243   -0.06202602315342192   -0.0011888949046376716
-0.11279744003928305   -0.0062123117121058195   -0.0016453995769241208
-0.07963619604940102   -0.006745797641300193   -0.0008176690886879032
-0.11197820806520076   -0.0628114548447401   -0.00223727957811466
-0.07924598662288243   -0.06202602315342192   -0.0011888949046376716
-0.07999788049819943   -0.006261080785811033   -0.0007741521132087391
-0.11233550257442489   -0.06236001338248423   -0.0020991287109350006
-0.07962500831178855   -0.061497875922953714   -0.0009994458733413438
-0.07999788049819943   -0.006261080785811033   -0.0007741521132087391
-0.11279744003928305   -0.0062123117121058195   -0.0016453995769241208
-0.11233550257442489   -0.06236001338248423   -0.0020991287109350006
-0.1130517672085222   -0.005724973669948597   -0.0016347838548874066
-0.07962500831178855   -0.061497875922953714   -0.0009994458733413438
-0.1126538352610157   -0.0618695189788399   -0.001965431793763539
-0.1130517672085222   -0.005724973669948597   -0.0016347838548874066
-0.11233550257442489   -0.06236001338248423   -0.0020991287109350006
-0.07962500831178855   -0.061497875922953714   -0.0009994458733413438
-0.1130517672085222   -0.005724973669948597   -0.0016347838548874066
-0.08037350395720401   -0.005702074599906691   -0.0006963643980870466
-0.07999788049819943   -0.006261080785811033   -0.0007741521132087391
-0.07962500831178855   -0.061497875922953714   -0.0009994458733413438
-0.1130517672085222   -0.005724973669948597   -0.0016347838548874066
-0.07999788049819943   -0.006261080785811033   -0.0007741521132087391
-0.11233550257442489   -0.06236001338248423   -0.0020991287109350006
-0.07962500831178855   -0.061497875922953714   -0.0009994458733413438
-0.08037350395720401   -0.005702074599906691   -0.0006963643980870466
-0.1126538352610157   -0.0618695189788399   -0.001965431793763539
-0.07997365129386316   -0.06092673204702609   -0.0007937833126051751
-0.08037350395720401   -0.005702074599906691   -0.0006963643980870466
-0.1130517672085222   -0.005724973669948597   -0.0016347838548874066
-0.1126538352610157   -0.0618695189788399   -0.001965431793763539
-0.11324139575667293   -0.005200821519882288   -0.0016330900199685427
-0.07997365129386316   -0.06092673204702609   -0.0007937833126051751
-0.11294187599261175   -0.06134798291419758   -0.0018283675389348972
-0.11324139575667293   -0.005200821519882288   -0.0016330900199685427
-0.1126538352610157   -0.0618695189788399   -0.001965431793763539
-0.07997365129386316   -0.06092673204702609   -0.0007937833126051751
-0.11324139575667293   -0.005200821519882288   -0.0016330900199685427
-0.08072510316169024   -0.00502788317379215   -0.0005934579707512121
-0.08037350395720401   -0.005702074599906691   -0.0006963643980870466
-0.07997365129386316   -0.06092673204702609   -0.0007937833126051751
-0.11324139575667293   -0.005200821519882288   -0.0016330900199685427
-0.08037350395720401   -0.005702074599906691   -0.0006963643980870466
-0.1126538352610157   -0.0618695189788399   -0.001965431793763539
-0.11197820806520076   -0.0628114548447401   -0.00223727957811466
-0.11255381596988671   -0.006653251188838308   -0.001663657402991865
-0.14626966646219242   -0.06284485869187478   -0.0029533761544990335
-0.11233550257442489   -0.06236001338248423   -0.0020991287109350006
-0.11255381596988671   -0.006653251188838308   -0.001663657402991865
-0.14636733477588876   -0.006601530995563118   -0.0024947776355555167
-0.14626966646219242   -0.06284485869187478   -0.0029533761544990335
-0.1465637655978059   -0.0061219377436200414   -0.002495546761248332
-0.11233550257442489   -0.06236001338248423   -0.0020991287109350006
-0.14657806515505603   -0.06240593247046537   -0.0028956388159246567
-0.1465637655978059   -0.0061219377436200414   -0.002495546761248332
-0.14626966646219242   -0.06284485869187478   -0.0029533761544990335
-0.11233550257442489   -0.06236001338248423   -0.0020991287109350006
-0.1465637655978059   -0.0061219377436200414   -0.002495546761248332
-0.11279744003928305   -0.0062123117121058195   -0.0016453995769241208
-0.11255381596988671   -0.006653251188838308   -0.001663657402991865
-0.11233550257442489   -0.06236001338248423   -0.0020991287109350006
-0.1465637655978059   -0.0061219377436200414   -0.002495546761248332
-0.11255381596988671   -0.006653251188838308   -0.001663657402991865
-0.14626966646219242   -0.06284485869187478   -0.0029533761544990335
-0.11233550257442489   -0.06236001338248423   -0.0020991287109350006
-0.11279744003928305   -0.0062123117121058195   -0.0016453995769241208
-0.14657806515505603   -0.06240593247046537   -0.0028956388159246567
-0.1126538352610157   -0.0618695189788399   -0.001965431793763539
-0.11279744003928305   -0.0062123117121058195   -0.0016453995769241208
-0.1465637655978059   -0.0061219377436200414   -0.002495546761248332
-0.14657806515505603   -0.06240593247046537   -0.0028956388159246567
-0.14677970421828854   -0.005645151826665753   -0.0025336150157356445
-0.1126538352610157   -0.0618695189788399   -0.001965431793763539
-0.14685436160233117   -0.061932597711231926   -0.0028284036178025857
-0.14677970421828854   -0.005645151826665753   -0.0025336150157356445
-0.14657806515505603   -0.06240593247046537   -0.0028956388159246567
-0.1126538352610157   -0.0618695189788399   -0.001965431793763539
-0.14677970421828854   -0.005645151826665753   -0.0025336150157356445
-0.1130517672085222   -0.005724973669948597   -0.0016347838548874066
-0.11279744003928305   -0.0062123117121058195   -0.0016453995769241208
-0.1126538352610157   -0.0618695189788399   -0.001965431793763539
-0.14677970421828854   -0.005645151826665753   -0.0025336150157356445
-0.11279744003928305   -0.0062123117121058195   -0.0016453995769241208
-0.14657806515505603   -0.06240593247046537   -0.0028956388159246567
-0.1126538352610157   -0.0618695189788399   -0.001965431793763539
-0.1130517672085222   -0.005724973669948597   -0.0016347838548874066
-0.14685436160233117   -0.061932597711231926   -0.0028284036178025857
-0.11294187599261175   -0.06134798291419758   -0.0018283675389348972
-0.1130517672085222   -0.005724973669948597   -0.0016347838548874066
-0.14677970421828854   -0.005645151826665753   -0.0025336150157356445
-0.14685436160233117   -0.061932597711231926   -0.0028284036178025857
-0.14693763288502606   -0.005127698690977641   -0.0025746402777219856
-0.11294187599261175   -0.06134798291419758   -0.0018283675389348972
-0.14708852316448554   -0.06143114742684649   -0.0027668739174790662
-0.14693763288502606   -0.005127698690977641   -0.0025746402777219856
-0.14685436160233117   -0.061932597711231926   -0.0028284036178025857
-0.11294187599261175   -0.06134798291419758   -0.0018283675389348972
-0.14693763288502606   -0.005127698690977641   -0.0025746402777219856
-0.11324139575667293   -0.005200821519882288   -0.0016330900199685427
-0.1130517672085222   -0.005724973669948597   -0.0016347838548874066
-0.11294187599261175   -0.06134798291419758   -0.0018283675389348972
-0.14693763288502606   -0.005127698690977641   -0.0025746402777219856
-0.1130517672085222   -0.005724973669948597   -0.0016347838548874066
-0.14685436160233117   -0.061932597711231926   -0.0028284036178025857
              </DataArray>   
          </PointData>  
       </Piece>  
   </UnstructuredGrid> 
</VTKFile> 
