<?xml version="1.0"?> 
<VTKFile type="UnstructuredGrid"> 
   <UnstructuredGrid> 
      <Piece NumberOfPoints="6000"  NumberOfCells="1500">  
          <Points>  
             <DataArray type="Float64" NumberOfComponents="3" format="ascii">   
-500.0   0.0   0.0
-450.0   0.0   0.0
-500.0   30.0   0.0
-500.0   0.0   16.666666666666668
-450.0   0.0   0.0
-450.0   30.0   0.0
-500.0   30.0   0.0
-450.0   30.0   16.666666666666668
-500.0   0.0   16.666666666666668
-500.0   30.0   16.666666666666668
-450.0   30.0   16.666666666666668
-500.0   30.0   0.0
-500.0   0.0   16.666666666666668
-450.0   30.0   16.666666666666668
-450.0   0.0   16.666666666666668
-450.0   0.0   0.0
-500.0   0.0   16.666666666666668
-450.0   30.0   16.666666666666668
-450.0   0.0   0.0
-500.0   30.0   0.0
-500.0   0.0   16.666666666666668
-450.0   0.0   16.666666666666668
-500.0   30.0   16.666666666666668
-500.0   0.0   33.333333333333336
-450.0   0.0   16.666666666666668
-450.0   30.0   16.666666666666668
-500.0   30.0   16.666666666666668
-450.0   30.0   33.333333333333336
-500.0   0.0   33.333333333333336
-500.0   30.0   33.333333333333336
-450.0   30.0   33.333333333333336
-500.0   30.0   16.666666666666668
-500.0   0.0   33.333333333333336
-450.0   30.0   33.333333333333336
-450.0   0.0   33.333333333333336
-450.0   0.0   16.666666666666668
-500.0   0.0   33.333333333333336
-450.0   30.0   33.333333333333336
-450.0   0.0   16.666666666666668
-500.0   30.0   16.666666666666668
-500.0   0.0   33.333333333333336
-450.0   0.0   33.333333333333336
-500.0   30.0   33.333333333333336
-500.0   0.0   50.0
-450.0   0.0   33.333333333333336
-450.0   30.0   33.333333333333336
-500.0   30.0   33.333333333333336
-450.0   30.0   50.0
-500.0   0.0   50.0
-500.0   30.0   50.0
-450.0   30.0   50.0
-500.0   30.0   33.333333333333336
-500.0   0.0   50.0
-450.0   30.0   50.0
-450.0   0.0   50.0
-450.0   0.0   33.333333333333336
-500.0   0.0   50.0
-450.0   30.0   50.0
-450.0   0.0   33.333333333333336
-500.0   30.0   33.333333333333336
-500.0   30.0   0.0
-450.0   30.0   0.0
-500.0   60.0   0.0
-500.0   30.0   16.666666666666668
-450.0   30.0   0.0
-450.0   60.0   0.0
-500.0   60.0   0.0
-450.0   60.0   16.666666666666668
-500.0   30.0   16.666666666666668
-500.0   60.0   16.666666666666668
-450.0   60.0   16.666666666666668
-500.0   60.0   0.0
-500.0   30.0   16.666666666666668
-450.0   60.0   16.666666666666668
-450.0   30.0   16.666666666666668
-450.0   30.0   0.0
-500.0   30.0   16.666666666666668
-450.0   60.0   16.666666666666668
-450.0   30.0   0.0
-500.0   60.0   0.0
-500.0   30.0   16.666666666666668
-450.0   30.0   16.666666666666668
-500.0   60.0   16.666666666666668
-500.0   30.0   33.333333333333336
-450.0   30.0   16.666666666666668
-450.0   60.0   16.666666666666668
-500.0   60.0   16.666666666666668
-450.0   60.0   33.333333333333336
-500.0   30.0   33.333333333333336
-500.0   60.0   33.333333333333336
-450.0   60.0   33.333333333333336
-500.0   60.0   16.666666666666668
-500.0   30.0   33.333333333333336
-450.0   60.0   33.333333333333336
-450.0   30.0   33.333333333333336
-450.0   30.0   16.666666666666668
-500.0   30.0   33.333333333333336
-450.0   60.0   33.333333333333336
-450.0   30.0   16.666666666666668
-500.0   60.0   16.666666666666668
-500.0   30.0   33.333333333333336
-450.0   30.0   33.333333333333336
-500.0   60.0   33.333333333333336
-500.0   30.0   50.0
-450.0   30.0   33.333333333333336
-450.0   60.0   33.333333333333336
-500.0   60.0   33.333333333333336
-450.0   60.0   50.0
-500.0   30.0   50.0
-500.0   60.0   50.0
-450.0   60.0   50.0
-500.0   60.0   33.333333333333336
-500.0   30.0   50.0
-450.0   60.0   50.0
-450.0   30.0   50.0
-450.0   30.0   33.333333333333336
-500.0   30.0   50.0
-450.0   60.0   50.0
-450.0   30.0   33.333333333333336
-500.0   60.0   33.333333333333336
-500.0   60.0   0.0
-450.0   60.0   0.0
-500.0   90.0   0.0
-500.0   60.0   16.666666666666668
-450.0   60.0   0.0
-450.0   90.0   0.0
-500.0   90.0   0.0
-450.0   90.0   16.666666666666668
-500.0   60.0   16.666666666666668
-500.0   90.0   16.666666666666668
-450.0   90.0   16.666666666666668
-500.0   90.0   0.0
-500.0   60.0   16.666666666666668
-450.0   90.0   16.666666666666668
-450.0   60.0   16.666666666666668
-450.0   60.0   0.0
-500.0   60.0   16.666666666666668
-450.0   90.0   16.666666666666668
-450.0   60.0   0.0
-500.0   90.0   0.0
-500.0   60.0   16.666666666666668
-450.0   60.0   16.666666666666668
-500.0   90.0   16.666666666666668
-500.0   60.0   33.333333333333336
-450.0   60.0   16.666666666666668
-450.0   90.0   16.666666666666668
-500.0   90.0   16.666666666666668
-450.0   90.0   33.333333333333336
-500.0   60.0   33.333333333333336
-500.0   90.0   33.333333333333336
-450.0   90.0   33.333333333333336
-500.0   90.0   16.666666666666668
-500.0   60.0   33.333333333333336
-450.0   90.0   33.333333333333336
-450.0   60.0   33.333333333333336
-450.0   60.0   16.666666666666668
-500.0   60.0   33.333333333333336
-450.0   90.0   33.333333333333336
-450.0   60.0   16.666666666666668
-500.0   90.0   16.666666666666668
-500.0   60.0   33.333333333333336
-450.0   60.0   33.333333333333336
-500.0   90.0   33.333333333333336
-500.0   60.0   50.0
-450.0   60.0   33.333333333333336
-450.0   90.0   33.333333333333336
-500.0   90.0   33.333333333333336
-450.0   90.0   50.0
-500.0   60.0   50.0
-500.0   90.0   50.0
-450.0   90.0   50.0
-500.0   90.0   33.333333333333336
-500.0   60.0   50.0
-450.0   90.0   50.0
-450.0   60.0   50.0
-450.0   60.0   33.333333333333336
-500.0   60.0   50.0
-450.0   90.0   50.0
-450.0   60.0   33.333333333333336
-500.0   90.0   33.333333333333336
-500.0   90.0   0.0
-450.0   90.0   0.0
-500.0   120.0   0.0
-500.0   90.0   16.666666666666668
-450.0   90.0   0.0
-450.0   120.0   0.0
-500.0   120.0   0.0
-450.0   120.0   16.666666666666668
-500.0   90.0   16.666666666666668
-500.0   120.0   16.666666666666668
-450.0   120.0   16.666666666666668
-500.0   120.0   0.0
-500.0   90.0   16.666666666666668
-450.0   120.0   16.666666666666668
-450.0   90.0   16.666666666666668
-450.0   90.0   0.0
-500.0   90.0   16.666666666666668
-450.0   120.0   16.666666666666668
-450.0   90.0   0.0
-500.0   120.0   0.0
-500.0   90.0   16.666666666666668
-450.0   90.0   16.666666666666668
-500.0   120.0   16.666666666666668
-500.0   90.0   33.333333333333336
-450.0   90.0   16.666666666666668
-450.0   120.0   16.666666666666668
-500.0   120.0   16.666666666666668
-450.0   120.0   33.333333333333336
-500.0   90.0   33.333333333333336
-500.0   120.0   33.333333333333336
-450.0   120.0   33.333333333333336
-500.0   120.0   16.666666666666668
-500.0   90.0   33.333333333333336
-450.0   120.0   33.333333333333336
-450.0   90.0   33.333333333333336
-450.0   90.0   16.666666666666668
-500.0   90.0   33.333333333333336
-450.0   120.0   33.333333333333336
-450.0   90.0   16.666666666666668
-500.0   120.0   16.666666666666668
-500.0   90.0   33.333333333333336
-450.0   90.0   33.333333333333336
-500.0   120.0   33.333333333333336
-500.0   90.0   50.0
-450.0   90.0   33.333333333333336
-450.0   120.0   33.333333333333336
-500.0   120.0   33.333333333333336
-450.0   120.0   50.0
-500.0   90.0   50.0
-500.0   120.0   50.0
-450.0   120.0   50.0
-500.0   120.0   33.333333333333336
-500.0   90.0   50.0
-450.0   120.0   50.0
-450.0   90.0   50.0
-450.0   90.0   33.333333333333336
-500.0   90.0   50.0
-450.0   120.0   50.0
-450.0   90.0   33.333333333333336
-500.0   120.0   33.333333333333336
-500.0   120.0   0.0
-450.0   120.0   0.0
-500.0   150.0   0.0
-500.0   120.0   16.666666666666668
-450.0   120.0   0.0
-450.0   150.0   0.0
-500.0   150.0   0.0
-450.0   150.0   16.666666666666668
-500.0   120.0   16.666666666666668
-500.0   150.0   16.666666666666668
-450.0   150.0   16.666666666666668
-500.0   150.0   0.0
-500.0   120.0   16.666666666666668
-450.0   150.0   16.666666666666668
-450.0   120.0   16.666666666666668
-450.0   120.0   0.0
-500.0   120.0   16.666666666666668
-450.0   150.0   16.666666666666668
-450.0   120.0   0.0
-500.0   150.0   0.0
-500.0   120.0   16.666666666666668
-450.0   120.0   16.666666666666668
-500.0   150.0   16.666666666666668
-500.0   120.0   33.333333333333336
-450.0   120.0   16.666666666666668
-450.0   150.0   16.666666666666668
-500.0   150.0   16.666666666666668
-450.0   150.0   33.333333333333336
-500.0   120.0   33.333333333333336
-500.0   150.0   33.333333333333336
-450.0   150.0   33.333333333333336
-500.0   150.0   16.666666666666668
-500.0   120.0   33.333333333333336
-450.0   150.0   33.333333333333336
-450.0   120.0   33.333333333333336
-450.0   120.0   16.666666666666668
-500.0   120.0   33.333333333333336
-450.0   150.0   33.333333333333336
-450.0   120.0   16.666666666666668
-500.0   150.0   16.666666666666668
-500.0   120.0   33.333333333333336
-450.0   120.0   33.333333333333336
-500.0   150.0   33.333333333333336
-500.0   120.0   50.0
-450.0   120.0   33.333333333333336
-450.0   150.0   33.333333333333336
-500.0   150.0   33.333333333333336
-450.0   150.0   50.0
-500.0   120.0   50.0
-500.0   150.0   50.0
-450.0   150.0   50.0
-500.0   150.0   33.333333333333336
-500.0   120.0   50.0
-450.0   150.0   50.0
-450.0   120.0   50.0
-450.0   120.0   33.333333333333336
-500.0   120.0   50.0
-450.0   150.0   50.0
-450.0   120.0   33.333333333333336
-500.0   150.0   33.333333333333336
-450.0   0.0   0.0
-400.0   0.0   0.0
-450.0   30.0   0.0
-450.0   0.0   16.666666666666668
-400.0   0.0   0.0
-400.0   30.0   0.0
-450.0   30.0   0.0
-400.0   30.0   16.666666666666668
-450.0   0.0   16.666666666666668
-450.0   30.0   16.666666666666668
-400.0   30.0   16.666666666666668
-450.0   30.0   0.0
-450.0   0.0   16.666666666666668
-400.0   30.0   16.666666666666668
-400.0   0.0   16.666666666666668
-400.0   0.0   0.0
-450.0   0.0   16.666666666666668
-400.0   30.0   16.666666666666668
-400.0   0.0   0.0
-450.0   30.0   0.0
-450.0   0.0   16.666666666666668
-400.0   0.0   16.666666666666668
-450.0   30.0   16.666666666666668
-450.0   0.0   33.333333333333336
-400.0   0.0   16.666666666666668
-400.0   30.0   16.666666666666668
-450.0   30.0   16.666666666666668
-400.0   30.0   33.333333333333336
-450.0   0.0   33.333333333333336
-450.0   30.0   33.333333333333336
-400.0   30.0   33.333333333333336
-450.0   30.0   16.666666666666668
-450.0   0.0   33.333333333333336
-400.0   30.0   33.333333333333336
-400.0   0.0   33.333333333333336
-400.0   0.0   16.666666666666668
-450.0   0.0   33.333333333333336
-400.0   30.0   33.333333333333336
-400.0   0.0   16.666666666666668
-450.0   30.0   16.666666666666668
-450.0   0.0   33.333333333333336
-400.0   0.0   33.333333333333336
-450.0   30.0   33.333333333333336
-450.0   0.0   50.0
-400.0   0.0   33.333333333333336
-400.0   30.0   33.333333333333336
-450.0   30.0   33.333333333333336
-400.0   30.0   50.0
-450.0   0.0   50.0
-450.0   30.0   50.0
-400.0   30.0   50.0
-450.0   30.0   33.333333333333336
-450.0   0.0   50.0
-400.0   30.0   50.0
-400.0   0.0   50.0
-400.0   0.0   33.333333333333336
-450.0   0.0   50.0
-400.0   30.0   50.0
-400.0   0.0   33.333333333333336
-450.0   30.0   33.333333333333336
-450.0   30.0   0.0
-400.0   30.0   0.0
-450.0   60.0   0.0
-450.0   30.0   16.666666666666668
-400.0   30.0   0.0
-400.0   60.0   0.0
-450.0   60.0   0.0
-400.0   60.0   16.666666666666668
-450.0   30.0   16.666666666666668
-450.0   60.0   16.666666666666668
-400.0   60.0   16.666666666666668
-450.0   60.0   0.0
-450.0   30.0   16.666666666666668
-400.0   60.0   16.666666666666668
-400.0   30.0   16.666666666666668
-400.0   30.0   0.0
-450.0   30.0   16.666666666666668
-400.0   60.0   16.666666666666668
-400.0   30.0   0.0
-450.0   60.0   0.0
-450.0   30.0   16.666666666666668
-400.0   30.0   16.666666666666668
-450.0   60.0   16.666666666666668
-450.0   30.0   33.333333333333336
-400.0   30.0   16.666666666666668
-400.0   60.0   16.666666666666668
-450.0   60.0   16.666666666666668
-400.0   60.0   33.333333333333336
-450.0   30.0   33.333333333333336
-450.0   60.0   33.333333333333336
-400.0   60.0   33.333333333333336
-450.0   60.0   16.666666666666668
-450.0   30.0   33.333333333333336
-400.0   60.0   33.333333333333336
-400.0   30.0   33.333333333333336
-400.0   30.0   16.666666666666668
-450.0   30.0   33.333333333333336
-400.0   60.0   33.333333333333336
-400.0   30.0   16.666666666666668
-450.0   60.0   16.666666666666668
-450.0   30.0   33.333333333333336
-400.0   30.0   33.333333333333336
-450.0   60.0   33.333333333333336
-450.0   30.0   50.0
-400.0   30.0   33.333333333333336
-400.0   60.0   33.333333333333336
-450.0   60.0   33.333333333333336
-400.0   60.0   50.0
-450.0   30.0   50.0
-450.0   60.0   50.0
-400.0   60.0   50.0
-450.0   60.0   33.333333333333336
-450.0   30.0   50.0
-400.0   60.0   50.0
-400.0   30.0   50.0
-400.0   30.0   33.333333333333336
-450.0   30.0   50.0
-400.0   60.0   50.0
-400.0   30.0   33.333333333333336
-450.0   60.0   33.333333333333336
-450.0   60.0   0.0
-400.0   60.0   0.0
-450.0   90.0   0.0
-450.0   60.0   16.666666666666668
-400.0   60.0   0.0
-400.0   90.0   0.0
-450.0   90.0   0.0
-400.0   90.0   16.666666666666668
-450.0   60.0   16.666666666666668
-450.0   90.0   16.666666666666668
-400.0   90.0   16.666666666666668
-450.0   90.0   0.0
-450.0   60.0   16.666666666666668
-400.0   90.0   16.666666666666668
-400.0   60.0   16.666666666666668
-400.0   60.0   0.0
-450.0   60.0   16.666666666666668
-400.0   90.0   16.666666666666668
-400.0   60.0   0.0
-450.0   90.0   0.0
-450.0   60.0   16.666666666666668
-400.0   60.0   16.666666666666668
-450.0   90.0   16.666666666666668
-450.0   60.0   33.333333333333336
-400.0   60.0   16.666666666666668
-400.0   90.0   16.666666666666668
-450.0   90.0   16.666666666666668
-400.0   90.0   33.333333333333336
-450.0   60.0   33.333333333333336
-450.0   90.0   33.333333333333336
-400.0   90.0   33.333333333333336
-450.0   90.0   16.666666666666668
-450.0   60.0   33.333333333333336
-400.0   90.0   33.333333333333336
-400.0   60.0   33.333333333333336
-400.0   60.0   16.666666666666668
-450.0   60.0   33.333333333333336
-400.0   90.0   33.333333333333336
-400.0   60.0   16.666666666666668
-450.0   90.0   16.666666666666668
-450.0   60.0   33.333333333333336
-400.0   60.0   33.333333333333336
-450.0   90.0   33.333333333333336
-450.0   60.0   50.0
-400.0   60.0   33.333333333333336
-400.0   90.0   33.333333333333336
-450.0   90.0   33.333333333333336
-400.0   90.0   50.0
-450.0   60.0   50.0
-450.0   90.0   50.0
-400.0   90.0   50.0
-450.0   90.0   33.333333333333336
-450.0   60.0   50.0
-400.0   90.0   50.0
-400.0   60.0   50.0
-400.0   60.0   33.333333333333336
-450.0   60.0   50.0
-400.0   90.0   50.0
-400.0   60.0   33.333333333333336
-450.0   90.0   33.333333333333336
-450.0   90.0   0.0
-400.0   90.0   0.0
-450.0   120.0   0.0
-450.0   90.0   16.666666666666668
-400.0   90.0   0.0
-400.0   120.0   0.0
-450.0   120.0   0.0
-400.0   120.0   16.666666666666668
-450.0   90.0   16.666666666666668
-450.0   120.0   16.666666666666668
-400.0   120.0   16.666666666666668
-450.0   120.0   0.0
-450.0   90.0   16.666666666666668
-400.0   120.0   16.666666666666668
-400.0   90.0   16.666666666666668
-400.0   90.0   0.0
-450.0   90.0   16.666666666666668
-400.0   120.0   16.666666666666668
-400.0   90.0   0.0
-450.0   120.0   0.0
-450.0   90.0   16.666666666666668
-400.0   90.0   16.666666666666668
-450.0   120.0   16.666666666666668
-450.0   90.0   33.333333333333336
-400.0   90.0   16.666666666666668
-400.0   120.0   16.666666666666668
-450.0   120.0   16.666666666666668
-400.0   120.0   33.333333333333336
-450.0   90.0   33.333333333333336
-450.0   120.0   33.333333333333336
-400.0   120.0   33.333333333333336
-450.0   120.0   16.666666666666668
-450.0   90.0   33.333333333333336
-400.0   120.0   33.333333333333336
-400.0   90.0   33.333333333333336
-400.0   90.0   16.666666666666668
-450.0   90.0   33.333333333333336
-400.0   120.0   33.333333333333336
-400.0   90.0   16.666666666666668
-450.0   120.0   16.666666666666668
-450.0   90.0   33.333333333333336
-400.0   90.0   33.333333333333336
-450.0   120.0   33.333333333333336
-450.0   90.0   50.0
-400.0   90.0   33.333333333333336
-400.0   120.0   33.333333333333336
-450.0   120.0   33.333333333333336
-400.0   120.0   50.0
-450.0   90.0   50.0
-450.0   120.0   50.0
-400.0   120.0   50.0
-450.0   120.0   33.333333333333336
-450.0   90.0   50.0
-400.0   120.0   50.0
-400.0   90.0   50.0
-400.0   90.0   33.333333333333336
-450.0   90.0   50.0
-400.0   120.0   50.0
-400.0   90.0   33.333333333333336
-450.0   120.0   33.333333333333336
-450.0   120.0   0.0
-400.0   120.0   0.0
-450.0   150.0   0.0
-450.0   120.0   16.666666666666668
-400.0   120.0   0.0
-400.0   150.0   0.0
-450.0   150.0   0.0
-400.0   150.0   16.666666666666668
-450.0   120.0   16.666666666666668
-450.0   150.0   16.666666666666668
-400.0   150.0   16.666666666666668
-450.0   150.0   0.0
-450.0   120.0   16.666666666666668
-400.0   150.0   16.666666666666668
-400.0   120.0   16.666666666666668
-400.0   120.0   0.0
-450.0   120.0   16.666666666666668
-400.0   150.0   16.666666666666668
-400.0   120.0   0.0
-450.0   150.0   0.0
-450.0   120.0   16.666666666666668
-400.0   120.0   16.666666666666668
-450.0   150.0   16.666666666666668
-450.0   120.0   33.333333333333336
-400.0   120.0   16.666666666666668
-400.0   150.0   16.666666666666668
-450.0   150.0   16.666666666666668
-400.0   150.0   33.333333333333336
-450.0   120.0   33.333333333333336
-450.0   150.0   33.333333333333336
-400.0   150.0   33.333333333333336
-450.0   150.0   16.666666666666668
-450.0   120.0   33.333333333333336
-400.0   150.0   33.333333333333336
-400.0   120.0   33.333333333333336
-400.0   120.0   16.666666666666668
-450.0   120.0   33.333333333333336
-400.0   150.0   33.333333333333336
-400.0   120.0   16.666666666666668
-450.0   150.0   16.666666666666668
-450.0   120.0   33.333333333333336
-400.0   120.0   33.333333333333336
-450.0   150.0   33.333333333333336
-450.0   120.0   50.0
-400.0   120.0   33.333333333333336
-400.0   150.0   33.333333333333336
-450.0   150.0   33.333333333333336
-400.0   150.0   50.0
-450.0   120.0   50.0
-450.0   150.0   50.0
-400.0   150.0   50.0
-450.0   150.0   33.333333333333336
-450.0   120.0   50.0
-400.0   150.0   50.0
-400.0   120.0   50.0
-400.0   120.0   33.333333333333336
-450.0   120.0   50.0
-400.0   150.0   50.0
-400.0   120.0   33.333333333333336
-450.0   150.0   33.333333333333336
-400.0   0.0   0.0
-350.0   0.0   0.0
-400.0   30.0   0.0
-400.0   0.0   16.666666666666668
-350.0   0.0   0.0
-350.0   30.0   0.0
-400.0   30.0   0.0
-350.0   30.0   16.666666666666668
-400.0   0.0   16.666666666666668
-400.0   30.0   16.666666666666668
-350.0   30.0   16.666666666666668
-400.0   30.0   0.0
-400.0   0.0   16.666666666666668
-350.0   30.0   16.666666666666668
-350.0   0.0   16.666666666666668
-350.0   0.0   0.0
-400.0   0.0   16.666666666666668
-350.0   30.0   16.666666666666668
-350.0   0.0   0.0
-400.0   30.0   0.0
-400.0   0.0   16.666666666666668
-350.0   0.0   16.666666666666668
-400.0   30.0   16.666666666666668
-400.0   0.0   33.333333333333336
-350.0   0.0   16.666666666666668
-350.0   30.0   16.666666666666668
-400.0   30.0   16.666666666666668
-350.0   30.0   33.333333333333336
-400.0   0.0   33.333333333333336
-400.0   30.0   33.333333333333336
-350.0   30.0   33.333333333333336
-400.0   30.0   16.666666666666668
-400.0   0.0   33.333333333333336
-350.0   30.0   33.333333333333336
-350.0   0.0   33.333333333333336
-350.0   0.0   16.666666666666668
-400.0   0.0   33.333333333333336
-350.0   30.0   33.333333333333336
-350.0   0.0   16.666666666666668
-400.0   30.0   16.666666666666668
-400.0   0.0   33.333333333333336
-350.0   0.0   33.333333333333336
-400.0   30.0   33.333333333333336
-400.0   0.0   50.0
-350.0   0.0   33.333333333333336
-350.0   30.0   33.333333333333336
-400.0   30.0   33.333333333333336
-350.0   30.0   50.0
-400.0   0.0   50.0
-400.0   30.0   50.0
-350.0   30.0   50.0
-400.0   30.0   33.333333333333336
-400.0   0.0   50.0
-350.0   30.0   50.0
-350.0   0.0   50.0
-350.0   0.0   33.333333333333336
-400.0   0.0   50.0
-350.0   30.0   50.0
-350.0   0.0   33.333333333333336
-400.0   30.0   33.333333333333336
-400.0   30.0   0.0
-350.0   30.0   0.0
-400.0   60.0   0.0
-400.0   30.0   16.666666666666668
-350.0   30.0   0.0
-350.0   60.0   0.0
-400.0   60.0   0.0
-350.0   60.0   16.666666666666668
-400.0   30.0   16.666666666666668
-400.0   60.0   16.666666666666668
-350.0   60.0   16.666666666666668
-400.0   60.0   0.0
-400.0   30.0   16.666666666666668
-350.0   60.0   16.666666666666668
-350.0   30.0   16.666666666666668
-350.0   30.0   0.0
-400.0   30.0   16.666666666666668
-350.0   60.0   16.666666666666668
-350.0   30.0   0.0
-400.0   60.0   0.0
-400.0   30.0   16.666666666666668
-350.0   30.0   16.666666666666668
-400.0   60.0   16.666666666666668
-400.0   30.0   33.333333333333336
-350.0   30.0   16.666666666666668
-350.0   60.0   16.666666666666668
-400.0   60.0   16.666666666666668
-350.0   60.0   33.333333333333336
-400.0   30.0   33.333333333333336
-400.0   60.0   33.333333333333336
-350.0   60.0   33.333333333333336
-400.0   60.0   16.666666666666668
-400.0   30.0   33.333333333333336
-350.0   60.0   33.333333333333336
-350.0   30.0   33.333333333333336
-350.0   30.0   16.666666666666668
-400.0   30.0   33.333333333333336
-350.0   60.0   33.333333333333336
-350.0   30.0   16.666666666666668
-400.0   60.0   16.666666666666668
-400.0   30.0   33.333333333333336
-350.0   30.0   33.333333333333336
-400.0   60.0   33.333333333333336
-400.0   30.0   50.0
-350.0   30.0   33.333333333333336
-350.0   60.0   33.333333333333336
-400.0   60.0   33.333333333333336
-350.0   60.0   50.0
-400.0   30.0   50.0
-400.0   60.0   50.0
-350.0   60.0   50.0
-400.0   60.0   33.333333333333336
-400.0   30.0   50.0
-350.0   60.0   50.0
-350.0   30.0   50.0
-350.0   30.0   33.333333333333336
-400.0   30.0   50.0
-350.0   60.0   50.0
-350.0   30.0   33.333333333333336
-400.0   60.0   33.333333333333336
-400.0   60.0   0.0
-350.0   60.0   0.0
-400.0   90.0   0.0
-400.0   60.0   16.666666666666668
-350.0   60.0   0.0
-350.0   90.0   0.0
-400.0   90.0   0.0
-350.0   90.0   16.666666666666668
-400.0   60.0   16.666666666666668
-400.0   90.0   16.666666666666668
-350.0   90.0   16.666666666666668
-400.0   90.0   0.0
-400.0   60.0   16.666666666666668
-350.0   90.0   16.666666666666668
-350.0   60.0   16.666666666666668
-350.0   60.0   0.0
-400.0   60.0   16.666666666666668
-350.0   90.0   16.666666666666668
-350.0   60.0   0.0
-400.0   90.0   0.0
-400.0   60.0   16.666666666666668
-350.0   60.0   16.666666666666668
-400.0   90.0   16.666666666666668
-400.0   60.0   33.333333333333336
-350.0   60.0   16.666666666666668
-350.0   90.0   16.666666666666668
-400.0   90.0   16.666666666666668
-350.0   90.0   33.333333333333336
-400.0   60.0   33.333333333333336
-400.0   90.0   33.333333333333336
-350.0   90.0   33.333333333333336
-400.0   90.0   16.666666666666668
-400.0   60.0   33.333333333333336
-350.0   90.0   33.333333333333336
-350.0   60.0   33.333333333333336
-350.0   60.0   16.666666666666668
-400.0   60.0   33.333333333333336
-350.0   90.0   33.333333333333336
-350.0   60.0   16.666666666666668
-400.0   90.0   16.666666666666668
-400.0   60.0   33.333333333333336
-350.0   60.0   33.333333333333336
-400.0   90.0   33.333333333333336
-400.0   60.0   50.0
-350.0   60.0   33.333333333333336
-350.0   90.0   33.333333333333336
-400.0   90.0   33.333333333333336
-350.0   90.0   50.0
-400.0   60.0   50.0
-400.0   90.0   50.0
-350.0   90.0   50.0
-400.0   90.0   33.333333333333336
-400.0   60.0   50.0
-350.0   90.0   50.0
-350.0   60.0   50.0
-350.0   60.0   33.333333333333336
-400.0   60.0   50.0
-350.0   90.0   50.0
-350.0   60.0   33.333333333333336
-400.0   90.0   33.333333333333336
-400.0   90.0   0.0
-350.0   90.0   0.0
-400.0   120.0   0.0
-400.0   90.0   16.666666666666668
-350.0   90.0   0.0
-350.0   120.0   0.0
-400.0   120.0   0.0
-350.0   120.0   16.666666666666668
-400.0   90.0   16.666666666666668
-400.0   120.0   16.666666666666668
-350.0   120.0   16.666666666666668
-400.0   120.0   0.0
-400.0   90.0   16.666666666666668
-350.0   120.0   16.666666666666668
-350.0   90.0   16.666666666666668
-350.0   90.0   0.0
-400.0   90.0   16.666666666666668
-350.0   120.0   16.666666666666668
-350.0   90.0   0.0
-400.0   120.0   0.0
-400.0   90.0   16.666666666666668
-350.0   90.0   16.666666666666668
-400.0   120.0   16.666666666666668
-400.0   90.0   33.333333333333336
-350.0   90.0   16.666666666666668
-350.0   120.0   16.666666666666668
-400.0   120.0   16.666666666666668
-350.0   120.0   33.333333333333336
-400.0   90.0   33.333333333333336
-400.0   120.0   33.333333333333336
-350.0   120.0   33.333333333333336
-400.0   120.0   16.666666666666668
-400.0   90.0   33.333333333333336
-350.0   120.0   33.333333333333336
-350.0   90.0   33.333333333333336
-350.0   90.0   16.666666666666668
-400.0   90.0   33.333333333333336
-350.0   120.0   33.333333333333336
-350.0   90.0   16.666666666666668
-400.0   120.0   16.666666666666668
-400.0   90.0   33.333333333333336
-350.0   90.0   33.333333333333336
-400.0   120.0   33.333333333333336
-400.0   90.0   50.0
-350.0   90.0   33.333333333333336
-350.0   120.0   33.333333333333336
-400.0   120.0   33.333333333333336
-350.0   120.0   50.0
-400.0   90.0   50.0
-400.0   120.0   50.0
-350.0   120.0   50.0
-400.0   120.0   33.333333333333336
-400.0   90.0   50.0
-350.0   120.0   50.0
-350.0   90.0   50.0
-350.0   90.0   33.333333333333336
-400.0   90.0   50.0
-350.0   120.0   50.0
-350.0   90.0   33.333333333333336
-400.0   120.0   33.333333333333336
-400.0   120.0   0.0
-350.0   120.0   0.0
-400.0   150.0   0.0
-400.0   120.0   16.666666666666668
-350.0   120.0   0.0
-350.0   150.0   0.0
-400.0   150.0   0.0
-350.0   150.0   16.666666666666668
-400.0   120.0   16.666666666666668
-400.0   150.0   16.666666666666668
-350.0   150.0   16.666666666666668
-400.0   150.0   0.0
-400.0   120.0   16.666666666666668
-350.0   150.0   16.666666666666668
-350.0   120.0   16.666666666666668
-350.0   120.0   0.0
-400.0   120.0   16.666666666666668
-350.0   150.0   16.666666666666668
-350.0   120.0   0.0
-400.0   150.0   0.0
-400.0   120.0   16.666666666666668
-350.0   120.0   16.666666666666668
-400.0   150.0   16.666666666666668
-400.0   120.0   33.333333333333336
-350.0   120.0   16.666666666666668
-350.0   150.0   16.666666666666668
-400.0   150.0   16.666666666666668
-350.0   150.0   33.333333333333336
-400.0   120.0   33.333333333333336
-400.0   150.0   33.333333333333336
-350.0   150.0   33.333333333333336
-400.0   150.0   16.666666666666668
-400.0   120.0   33.333333333333336
-350.0   150.0   33.333333333333336
-350.0   120.0   33.333333333333336
-350.0   120.0   16.666666666666668
-400.0   120.0   33.333333333333336
-350.0   150.0   33.333333333333336
-350.0   120.0   16.666666666666668
-400.0   150.0   16.666666666666668
-400.0   120.0   33.333333333333336
-350.0   120.0   33.333333333333336
-400.0   150.0   33.333333333333336
-400.0   120.0   50.0
-350.0   120.0   33.333333333333336
-350.0   150.0   33.333333333333336
-400.0   150.0   33.333333333333336
-350.0   150.0   50.0
-400.0   120.0   50.0
-400.0   150.0   50.0
-350.0   150.0   50.0
-400.0   150.0   33.333333333333336
-400.0   120.0   50.0
-350.0   150.0   50.0
-350.0   120.0   50.0
-350.0   120.0   33.333333333333336
-400.0   120.0   50.0
-350.0   150.0   50.0
-350.0   120.0   33.333333333333336
-400.0   150.0   33.333333333333336
-350.0   0.0   0.0
-300.0   0.0   0.0
-350.0   30.0   0.0
-350.0   0.0   16.666666666666668
-300.0   0.0   0.0
-300.0   30.0   0.0
-350.0   30.0   0.0
-300.0   30.0   16.666666666666668
-350.0   0.0   16.666666666666668
-350.0   30.0   16.666666666666668
-300.0   30.0   16.666666666666668
-350.0   30.0   0.0
-350.0   0.0   16.666666666666668
-300.0   30.0   16.666666666666668
-300.0   0.0   16.666666666666668
-300.0   0.0   0.0
-350.0   0.0   16.666666666666668
-300.0   30.0   16.666666666666668
-300.0   0.0   0.0
-350.0   30.0   0.0
-350.0   0.0   16.666666666666668
-300.0   0.0   16.666666666666668
-350.0   30.0   16.666666666666668
-350.0   0.0   33.333333333333336
-300.0   0.0   16.666666666666668
-300.0   30.0   16.666666666666668
-350.0   30.0   16.666666666666668
-300.0   30.0   33.333333333333336
-350.0   0.0   33.333333333333336
-350.0   30.0   33.333333333333336
-300.0   30.0   33.333333333333336
-350.0   30.0   16.666666666666668
-350.0   0.0   33.333333333333336
-300.0   30.0   33.333333333333336
-300.0   0.0   33.333333333333336
-300.0   0.0   16.666666666666668
-350.0   0.0   33.333333333333336
-300.0   30.0   33.333333333333336
-300.0   0.0   16.666666666666668
-350.0   30.0   16.666666666666668
-350.0   0.0   33.333333333333336
-300.0   0.0   33.333333333333336
-350.0   30.0   33.333333333333336
-350.0   0.0   50.0
-300.0   0.0   33.333333333333336
-300.0   30.0   33.333333333333336
-350.0   30.0   33.333333333333336
-300.0   30.0   50.0
-350.0   0.0   50.0
-350.0   30.0   50.0
-300.0   30.0   50.0
-350.0   30.0   33.333333333333336
-350.0   0.0   50.0
-300.0   30.0   50.0
-300.0   0.0   50.0
-300.0   0.0   33.333333333333336
-350.0   0.0   50.0
-300.0   30.0   50.0
-300.0   0.0   33.333333333333336
-350.0   30.0   33.333333333333336
-350.0   30.0   0.0
-300.0   30.0   0.0
-350.0   60.0   0.0
-350.0   30.0   16.666666666666668
-300.0   30.0   0.0
-300.0   60.0   0.0
-350.0   60.0   0.0
-300.0   60.0   16.666666666666668
-350.0   30.0   16.666666666666668
-350.0   60.0   16.666666666666668
-300.0   60.0   16.666666666666668
-350.0   60.0   0.0
-350.0   30.0   16.666666666666668
-300.0   60.0   16.666666666666668
-300.0   30.0   16.666666666666668
-300.0   30.0   0.0
-350.0   30.0   16.666666666666668
-300.0   60.0   16.666666666666668
-300.0   30.0   0.0
-350.0   60.0   0.0
-350.0   30.0   16.666666666666668
-300.0   30.0   16.666666666666668
-350.0   60.0   16.666666666666668
-350.0   30.0   33.333333333333336
-300.0   30.0   16.666666666666668
-300.0   60.0   16.666666666666668
-350.0   60.0   16.666666666666668
-300.0   60.0   33.333333333333336
-350.0   30.0   33.333333333333336
-350.0   60.0   33.333333333333336
-300.0   60.0   33.333333333333336
-350.0   60.0   16.666666666666668
-350.0   30.0   33.333333333333336
-300.0   60.0   33.333333333333336
-300.0   30.0   33.333333333333336
-300.0   30.0   16.666666666666668
-350.0   30.0   33.333333333333336
-300.0   60.0   33.333333333333336
-300.0   30.0   16.666666666666668
-350.0   60.0   16.666666666666668
-350.0   30.0   33.333333333333336
-300.0   30.0   33.333333333333336
-350.0   60.0   33.333333333333336
-350.0   30.0   50.0
-300.0   30.0   33.333333333333336
-300.0   60.0   33.333333333333336
-350.0   60.0   33.333333333333336
-300.0   60.0   50.0
-350.0   30.0   50.0
-350.0   60.0   50.0
-300.0   60.0   50.0
-350.0   60.0   33.333333333333336
-350.0   30.0   50.0
-300.0   60.0   50.0
-300.0   30.0   50.0
-300.0   30.0   33.333333333333336
-350.0   30.0   50.0
-300.0   60.0   50.0
-300.0   30.0   33.333333333333336
-350.0   60.0   33.333333333333336
-350.0   60.0   0.0
-300.0   60.0   0.0
-350.0   90.0   0.0
-350.0   60.0   16.666666666666668
-300.0   60.0   0.0
-300.0   90.0   0.0
-350.0   90.0   0.0
-300.0   90.0   16.666666666666668
-350.0   60.0   16.666666666666668
-350.0   90.0   16.666666666666668
-300.0   90.0   16.666666666666668
-350.0   90.0   0.0
-350.0   60.0   16.666666666666668
-300.0   90.0   16.666666666666668
-300.0   60.0   16.666666666666668
-300.0   60.0   0.0
-350.0   60.0   16.666666666666668
-300.0   90.0   16.666666666666668
-300.0   60.0   0.0
-350.0   90.0   0.0
-350.0   60.0   16.666666666666668
-300.0   60.0   16.666666666666668
-350.0   90.0   16.666666666666668
-350.0   60.0   33.333333333333336
-300.0   60.0   16.666666666666668
-300.0   90.0   16.666666666666668
-350.0   90.0   16.666666666666668
-300.0   90.0   33.333333333333336
-350.0   60.0   33.333333333333336
-350.0   90.0   33.333333333333336
-300.0   90.0   33.333333333333336
-350.0   90.0   16.666666666666668
-350.0   60.0   33.333333333333336
-300.0   90.0   33.333333333333336
-300.0   60.0   33.333333333333336
-300.0   60.0   16.666666666666668
-350.0   60.0   33.333333333333336
-300.0   90.0   33.333333333333336
-300.0   60.0   16.666666666666668
-350.0   90.0   16.666666666666668
-350.0   60.0   33.333333333333336
-300.0   60.0   33.333333333333336
-350.0   90.0   33.333333333333336
-350.0   60.0   50.0
-300.0   60.0   33.333333333333336
-300.0   90.0   33.333333333333336
-350.0   90.0   33.333333333333336
-300.0   90.0   50.0
-350.0   60.0   50.0
-350.0   90.0   50.0
-300.0   90.0   50.0
-350.0   90.0   33.333333333333336
-350.0   60.0   50.0
-300.0   90.0   50.0
-300.0   60.0   50.0
-300.0   60.0   33.333333333333336
-350.0   60.0   50.0
-300.0   90.0   50.0
-300.0   60.0   33.333333333333336
-350.0   90.0   33.333333333333336
-350.0   90.0   0.0
-300.0   90.0   0.0
-350.0   120.0   0.0
-350.0   90.0   16.666666666666668
-300.0   90.0   0.0
-300.0   120.0   0.0
-350.0   120.0   0.0
-300.0   120.0   16.666666666666668
-350.0   90.0   16.666666666666668
-350.0   120.0   16.666666666666668
-300.0   120.0   16.666666666666668
-350.0   120.0   0.0
-350.0   90.0   16.666666666666668
-300.0   120.0   16.666666666666668
-300.0   90.0   16.666666666666668
-300.0   90.0   0.0
-350.0   90.0   16.666666666666668
-300.0   120.0   16.666666666666668
-300.0   90.0   0.0
-350.0   120.0   0.0
-350.0   90.0   16.666666666666668
-300.0   90.0   16.666666666666668
-350.0   120.0   16.666666666666668
-350.0   90.0   33.333333333333336
-300.0   90.0   16.666666666666668
-300.0   120.0   16.666666666666668
-350.0   120.0   16.666666666666668
-300.0   120.0   33.333333333333336
-350.0   90.0   33.333333333333336
-350.0   120.0   33.333333333333336
-300.0   120.0   33.333333333333336
-350.0   120.0   16.666666666666668
-350.0   90.0   33.333333333333336
-300.0   120.0   33.333333333333336
-300.0   90.0   33.333333333333336
-300.0   90.0   16.666666666666668
-350.0   90.0   33.333333333333336
-300.0   120.0   33.333333333333336
-300.0   90.0   16.666666666666668
-350.0   120.0   16.666666666666668
-350.0   90.0   33.333333333333336
-300.0   90.0   33.333333333333336
-350.0   120.0   33.333333333333336
-350.0   90.0   50.0
-300.0   90.0   33.333333333333336
-300.0   120.0   33.333333333333336
-350.0   120.0   33.333333333333336
-300.0   120.0   50.0
-350.0   90.0   50.0
-350.0   120.0   50.0
-300.0   120.0   50.0
-350.0   120.0   33.333333333333336
-350.0   90.0   50.0
-300.0   120.0   50.0
-300.0   90.0   50.0
-300.0   90.0   33.333333333333336
-350.0   90.0   50.0
-300.0   120.0   50.0
-300.0   90.0   33.333333333333336
-350.0   120.0   33.333333333333336
-350.0   120.0   0.0
-300.0   120.0   0.0
-350.0   150.0   0.0
-350.0   120.0   16.666666666666668
-300.0   120.0   0.0
-300.0   150.0   0.0
-350.0   150.0   0.0
-300.0   150.0   16.666666666666668
-350.0   120.0   16.666666666666668
-350.0   150.0   16.666666666666668
-300.0   150.0   16.666666666666668
-350.0   150.0   0.0
-350.0   120.0   16.666666666666668
-300.0   150.0   16.666666666666668
-300.0   120.0   16.666666666666668
-300.0   120.0   0.0
-350.0   120.0   16.666666666666668
-300.0   150.0   16.666666666666668
-300.0   120.0   0.0
-350.0   150.0   0.0
-350.0   120.0   16.666666666666668
-300.0   120.0   16.666666666666668
-350.0   150.0   16.666666666666668
-350.0   120.0   33.333333333333336
-300.0   120.0   16.666666666666668
-300.0   150.0   16.666666666666668
-350.0   150.0   16.666666666666668
-300.0   150.0   33.333333333333336
-350.0   120.0   33.333333333333336
-350.0   150.0   33.333333333333336
-300.0   150.0   33.333333333333336
-350.0   150.0   16.666666666666668
-350.0   120.0   33.333333333333336
-300.0   150.0   33.333333333333336
-300.0   120.0   33.333333333333336
-300.0   120.0   16.666666666666668
-350.0   120.0   33.333333333333336
-300.0   150.0   33.333333333333336
-300.0   120.0   16.666666666666668
-350.0   150.0   16.666666666666668
-350.0   120.0   33.333333333333336
-300.0   120.0   33.333333333333336
-350.0   150.0   33.333333333333336
-350.0   120.0   50.0
-300.0   120.0   33.333333333333336
-300.0   150.0   33.333333333333336
-350.0   150.0   33.333333333333336
-300.0   150.0   50.0
-350.0   120.0   50.0
-350.0   150.0   50.0
-300.0   150.0   50.0
-350.0   150.0   33.333333333333336
-350.0   120.0   50.0
-300.0   150.0   50.0
-300.0   120.0   50.0
-300.0   120.0   33.333333333333336
-350.0   120.0   50.0
-300.0   150.0   50.0
-300.0   120.0   33.333333333333336
-350.0   150.0   33.333333333333336
-300.0   0.0   0.0
-250.0   0.0   0.0
-300.0   30.0   0.0
-300.0   0.0   16.666666666666668
-250.0   0.0   0.0
-250.0   30.0   0.0
-300.0   30.0   0.0
-250.0   30.0   16.666666666666668
-300.0   0.0   16.666666666666668
-300.0   30.0   16.666666666666668
-250.0   30.0   16.666666666666668
-300.0   30.0   0.0
-300.0   0.0   16.666666666666668
-250.0   30.0   16.666666666666668
-250.0   0.0   16.666666666666668
-250.0   0.0   0.0
-300.0   0.0   16.666666666666668
-250.0   30.0   16.666666666666668
-250.0   0.0   0.0
-300.0   30.0   0.0
-300.0   0.0   16.666666666666668
-250.0   0.0   16.666666666666668
-300.0   30.0   16.666666666666668
-300.0   0.0   33.333333333333336
-250.0   0.0   16.666666666666668
-250.0   30.0   16.666666666666668
-300.0   30.0   16.666666666666668
-250.0   30.0   33.333333333333336
-300.0   0.0   33.333333333333336
-300.0   30.0   33.333333333333336
-250.0   30.0   33.333333333333336
-300.0   30.0   16.666666666666668
-300.0   0.0   33.333333333333336
-250.0   30.0   33.333333333333336
-250.0   0.0   33.333333333333336
-250.0   0.0   16.666666666666668
-300.0   0.0   33.333333333333336
-250.0   30.0   33.333333333333336
-250.0   0.0   16.666666666666668
-300.0   30.0   16.666666666666668
-300.0   0.0   33.333333333333336
-250.0   0.0   33.333333333333336
-300.0   30.0   33.333333333333336
-300.0   0.0   50.0
-250.0   0.0   33.333333333333336
-250.0   30.0   33.333333333333336
-300.0   30.0   33.333333333333336
-250.0   30.0   50.0
-300.0   0.0   50.0
-300.0   30.0   50.0
-250.0   30.0   50.0
-300.0   30.0   33.333333333333336
-300.0   0.0   50.0
-250.0   30.0   50.0
-250.0   0.0   50.0
-250.0   0.0   33.333333333333336
-300.0   0.0   50.0
-250.0   30.0   50.0
-250.0   0.0   33.333333333333336
-300.0   30.0   33.333333333333336
-300.0   30.0   0.0
-250.0   30.0   0.0
-300.0   60.0   0.0
-300.0   30.0   16.666666666666668
-250.0   30.0   0.0
-250.0   60.0   0.0
-300.0   60.0   0.0
-250.0   60.0   16.666666666666668
-300.0   30.0   16.666666666666668
-300.0   60.0   16.666666666666668
-250.0   60.0   16.666666666666668
-300.0   60.0   0.0
-300.0   30.0   16.666666666666668
-250.0   60.0   16.666666666666668
-250.0   30.0   16.666666666666668
-250.0   30.0   0.0
-300.0   30.0   16.666666666666668
-250.0   60.0   16.666666666666668
-250.0   30.0   0.0
-300.0   60.0   0.0
-300.0   30.0   16.666666666666668
-250.0   30.0   16.666666666666668
-300.0   60.0   16.666666666666668
-300.0   30.0   33.333333333333336
-250.0   30.0   16.666666666666668
-250.0   60.0   16.666666666666668
-300.0   60.0   16.666666666666668
-250.0   60.0   33.333333333333336
-300.0   30.0   33.333333333333336
-300.0   60.0   33.333333333333336
-250.0   60.0   33.333333333333336
-300.0   60.0   16.666666666666668
-300.0   30.0   33.333333333333336
-250.0   60.0   33.333333333333336
-250.0   30.0   33.333333333333336
-250.0   30.0   16.666666666666668
-300.0   30.0   33.333333333333336
-250.0   60.0   33.333333333333336
-250.0   30.0   16.666666666666668
-300.0   60.0   16.666666666666668
-300.0   30.0   33.333333333333336
-250.0   30.0   33.333333333333336
-300.0   60.0   33.333333333333336
-300.0   30.0   50.0
-250.0   30.0   33.333333333333336
-250.0   60.0   33.333333333333336
-300.0   60.0   33.333333333333336
-250.0   60.0   50.0
-300.0   30.0   50.0
-300.0   60.0   50.0
-250.0   60.0   50.0
-300.0   60.0   33.333333333333336
-300.0   30.0   50.0
-250.0   60.0   50.0
-250.0   30.0   50.0
-250.0   30.0   33.333333333333336
-300.0   30.0   50.0
-250.0   60.0   50.0
-250.0   30.0   33.333333333333336
-300.0   60.0   33.333333333333336
-300.0   60.0   0.0
-250.0   60.0   0.0
-300.0   90.0   0.0
-300.0   60.0   16.666666666666668
-250.0   60.0   0.0
-250.0   90.0   0.0
-300.0   90.0   0.0
-250.0   90.0   16.666666666666668
-300.0   60.0   16.666666666666668
-300.0   90.0   16.666666666666668
-250.0   90.0   16.666666666666668
-300.0   90.0   0.0
-300.0   60.0   16.666666666666668
-250.0   90.0   16.666666666666668
-250.0   60.0   16.666666666666668
-250.0   60.0   0.0
-300.0   60.0   16.666666666666668
-250.0   90.0   16.666666666666668
-250.0   60.0   0.0
-300.0   90.0   0.0
-300.0   60.0   16.666666666666668
-250.0   60.0   16.666666666666668
-300.0   90.0   16.666666666666668
-300.0   60.0   33.333333333333336
-250.0   60.0   16.666666666666668
-250.0   90.0   16.666666666666668
-300.0   90.0   16.666666666666668
-250.0   90.0   33.333333333333336
-300.0   60.0   33.333333333333336
-300.0   90.0   33.333333333333336
-250.0   90.0   33.333333333333336
-300.0   90.0   16.666666666666668
-300.0   60.0   33.333333333333336
-250.0   90.0   33.333333333333336
-250.0   60.0   33.333333333333336
-250.0   60.0   16.666666666666668
-300.0   60.0   33.333333333333336
-250.0   90.0   33.333333333333336
-250.0   60.0   16.666666666666668
-300.0   90.0   16.666666666666668
-300.0   60.0   33.333333333333336
-250.0   60.0   33.333333333333336
-300.0   90.0   33.333333333333336
-300.0   60.0   50.0
-250.0   60.0   33.333333333333336
-250.0   90.0   33.333333333333336
-300.0   90.0   33.333333333333336
-250.0   90.0   50.0
-300.0   60.0   50.0
-300.0   90.0   50.0
-250.0   90.0   50.0
-300.0   90.0   33.333333333333336
-300.0   60.0   50.0
-250.0   90.0   50.0
-250.0   60.0   50.0
-250.0   60.0   33.333333333333336
-300.0   60.0   50.0
-250.0   90.0   50.0
-250.0   60.0   33.333333333333336
-300.0   90.0   33.333333333333336
-300.0   90.0   0.0
-250.0   90.0   0.0
-300.0   120.0   0.0
-300.0   90.0   16.666666666666668
-250.0   90.0   0.0
-250.0   120.0   0.0
-300.0   120.0   0.0
-250.0   120.0   16.666666666666668
-300.0   90.0   16.666666666666668
-300.0   120.0   16.666666666666668
-250.0   120.0   16.666666666666668
-300.0   120.0   0.0
-300.0   90.0   16.666666666666668
-250.0   120.0   16.666666666666668
-250.0   90.0   16.666666666666668
-250.0   90.0   0.0
-300.0   90.0   16.666666666666668
-250.0   120.0   16.666666666666668
-250.0   90.0   0.0
-300.0   120.0   0.0
-300.0   90.0   16.666666666666668
-250.0   90.0   16.666666666666668
-300.0   120.0   16.666666666666668
-300.0   90.0   33.333333333333336
-250.0   90.0   16.666666666666668
-250.0   120.0   16.666666666666668
-300.0   120.0   16.666666666666668
-250.0   120.0   33.333333333333336
-300.0   90.0   33.333333333333336
-300.0   120.0   33.333333333333336
-250.0   120.0   33.333333333333336
-300.0   120.0   16.666666666666668
-300.0   90.0   33.333333333333336
-250.0   120.0   33.333333333333336
-250.0   90.0   33.333333333333336
-250.0   90.0   16.666666666666668
-300.0   90.0   33.333333333333336
-250.0   120.0   33.333333333333336
-250.0   90.0   16.666666666666668
-300.0   120.0   16.666666666666668
-300.0   90.0   33.333333333333336
-250.0   90.0   33.333333333333336
-300.0   120.0   33.333333333333336
-300.0   90.0   50.0
-250.0   90.0   33.333333333333336
-250.0   120.0   33.333333333333336
-300.0   120.0   33.333333333333336
-250.0   120.0   50.0
-300.0   90.0   50.0
-300.0   120.0   50.0
-250.0   120.0   50.0
-300.0   120.0   33.333333333333336
-300.0   90.0   50.0
-250.0   120.0   50.0
-250.0   90.0   50.0
-250.0   90.0   33.333333333333336
-300.0   90.0   50.0
-250.0   120.0   50.0
-250.0   90.0   33.333333333333336
-300.0   120.0   33.333333333333336
-300.0   120.0   0.0
-250.0   120.0   0.0
-300.0   150.0   0.0
-300.0   120.0   16.666666666666668
-250.0   120.0   0.0
-250.0   150.0   0.0
-300.0   150.0   0.0
-250.0   150.0   16.666666666666668
-300.0   120.0   16.666666666666668
-300.0   150.0   16.666666666666668
-250.0   150.0   16.666666666666668
-300.0   150.0   0.0
-300.0   120.0   16.666666666666668
-250.0   150.0   16.666666666666668
-250.0   120.0   16.666666666666668
-250.0   120.0   0.0
-300.0   120.0   16.666666666666668
-250.0   150.0   16.666666666666668
-250.0   120.0   0.0
-300.0   150.0   0.0
-300.0   120.0   16.666666666666668
-250.0   120.0   16.666666666666668
-300.0   150.0   16.666666666666668
-300.0   120.0   33.333333333333336
-250.0   120.0   16.666666666666668
-250.0   150.0   16.666666666666668
-300.0   150.0   16.666666666666668
-250.0   150.0   33.333333333333336
-300.0   120.0   33.333333333333336
-300.0   150.0   33.333333333333336
-250.0   150.0   33.333333333333336
-300.0   150.0   16.666666666666668
-300.0   120.0   33.333333333333336
-250.0   150.0   33.333333333333336
-250.0   120.0   33.333333333333336
-250.0   120.0   16.666666666666668
-300.0   120.0   33.333333333333336
-250.0   150.0   33.333333333333336
-250.0   120.0   16.666666666666668
-300.0   150.0   16.666666666666668
-300.0   120.0   33.333333333333336
-250.0   120.0   33.333333333333336
-300.0   150.0   33.333333333333336
-300.0   120.0   50.0
-250.0   120.0   33.333333333333336
-250.0   150.0   33.333333333333336
-300.0   150.0   33.333333333333336
-250.0   150.0   50.0
-300.0   120.0   50.0
-300.0   150.0   50.0
-250.0   150.0   50.0
-300.0   150.0   33.333333333333336
-300.0   120.0   50.0
-250.0   150.0   50.0
-250.0   120.0   50.0
-250.0   120.0   33.333333333333336
-300.0   120.0   50.0
-250.0   150.0   50.0
-250.0   120.0   33.333333333333336
-300.0   150.0   33.333333333333336
-250.0   0.0   0.0
-200.0   0.0   0.0
-250.0   30.0   0.0
-250.0   0.0   16.666666666666668
-200.0   0.0   0.0
-200.0   30.0   0.0
-250.0   30.0   0.0
-200.0   30.0   16.666666666666668
-250.0   0.0   16.666666666666668
-250.0   30.0   16.666666666666668
-200.0   30.0   16.666666666666668
-250.0   30.0   0.0
-250.0   0.0   16.666666666666668
-200.0   30.0   16.666666666666668
-200.0   0.0   16.666666666666668
-200.0   0.0   0.0
-250.0   0.0   16.666666666666668
-200.0   30.0   16.666666666666668
-200.0   0.0   0.0
-250.0   30.0   0.0
-250.0   0.0   16.666666666666668
-200.0   0.0   16.666666666666668
-250.0   30.0   16.666666666666668
-250.0   0.0   33.333333333333336
-200.0   0.0   16.666666666666668
-200.0   30.0   16.666666666666668
-250.0   30.0   16.666666666666668
-200.0   30.0   33.333333333333336
-250.0   0.0   33.333333333333336
-250.0   30.0   33.333333333333336
-200.0   30.0   33.333333333333336
-250.0   30.0   16.666666666666668
-250.0   0.0   33.333333333333336
-200.0   30.0   33.333333333333336
-200.0   0.0   33.333333333333336
-200.0   0.0   16.666666666666668
-250.0   0.0   33.333333333333336
-200.0   30.0   33.333333333333336
-200.0   0.0   16.666666666666668
-250.0   30.0   16.666666666666668
-250.0   0.0   33.333333333333336
-200.0   0.0   33.333333333333336
-250.0   30.0   33.333333333333336
-250.0   0.0   50.0
-200.0   0.0   33.333333333333336
-200.0   30.0   33.333333333333336
-250.0   30.0   33.333333333333336
-200.0   30.0   50.0
-250.0   0.0   50.0
-250.0   30.0   50.0
-200.0   30.0   50.0
-250.0   30.0   33.333333333333336
-250.0   0.0   50.0
-200.0   30.0   50.0
-200.0   0.0   50.0
-200.0   0.0   33.333333333333336
-250.0   0.0   50.0
-200.0   30.0   50.0
-200.0   0.0   33.333333333333336
-250.0   30.0   33.333333333333336
-250.0   30.0   0.0
-200.0   30.0   0.0
-250.0   60.0   0.0
-250.0   30.0   16.666666666666668
-200.0   30.0   0.0
-200.0   60.0   0.0
-250.0   60.0   0.0
-200.0   60.0   16.666666666666668
-250.0   30.0   16.666666666666668
-250.0   60.0   16.666666666666668
-200.0   60.0   16.666666666666668
-250.0   60.0   0.0
-250.0   30.0   16.666666666666668
-200.0   60.0   16.666666666666668
-200.0   30.0   16.666666666666668
-200.0   30.0   0.0
-250.0   30.0   16.666666666666668
-200.0   60.0   16.666666666666668
-200.0   30.0   0.0
-250.0   60.0   0.0
-250.0   30.0   16.666666666666668
-200.0   30.0   16.666666666666668
-250.0   60.0   16.666666666666668
-250.0   30.0   33.333333333333336
-200.0   30.0   16.666666666666668
-200.0   60.0   16.666666666666668
-250.0   60.0   16.666666666666668
-200.0   60.0   33.333333333333336
-250.0   30.0   33.333333333333336
-250.0   60.0   33.333333333333336
-200.0   60.0   33.333333333333336
-250.0   60.0   16.666666666666668
-250.0   30.0   33.333333333333336
-200.0   60.0   33.333333333333336
-200.0   30.0   33.333333333333336
-200.0   30.0   16.666666666666668
-250.0   30.0   33.333333333333336
-200.0   60.0   33.333333333333336
-200.0   30.0   16.666666666666668
-250.0   60.0   16.666666666666668
-250.0   30.0   33.333333333333336
-200.0   30.0   33.333333333333336
-250.0   60.0   33.333333333333336
-250.0   30.0   50.0
-200.0   30.0   33.333333333333336
-200.0   60.0   33.333333333333336
-250.0   60.0   33.333333333333336
-200.0   60.0   50.0
-250.0   30.0   50.0
-250.0   60.0   50.0
-200.0   60.0   50.0
-250.0   60.0   33.333333333333336
-250.0   30.0   50.0
-200.0   60.0   50.0
-200.0   30.0   50.0
-200.0   30.0   33.333333333333336
-250.0   30.0   50.0
-200.0   60.0   50.0
-200.0   30.0   33.333333333333336
-250.0   60.0   33.333333333333336
-250.0   60.0   0.0
-200.0   60.0   0.0
-250.0   90.0   0.0
-250.0   60.0   16.666666666666668
-200.0   60.0   0.0
-200.0   90.0   0.0
-250.0   90.0   0.0
-200.0   90.0   16.666666666666668
-250.0   60.0   16.666666666666668
-250.0   90.0   16.666666666666668
-200.0   90.0   16.666666666666668
-250.0   90.0   0.0
-250.0   60.0   16.666666666666668
-200.0   90.0   16.666666666666668
-200.0   60.0   16.666666666666668
-200.0   60.0   0.0
-250.0   60.0   16.666666666666668
-200.0   90.0   16.666666666666668
-200.0   60.0   0.0
-250.0   90.0   0.0
-250.0   60.0   16.666666666666668
-200.0   60.0   16.666666666666668
-250.0   90.0   16.666666666666668
-250.0   60.0   33.333333333333336
-200.0   60.0   16.666666666666668
-200.0   90.0   16.666666666666668
-250.0   90.0   16.666666666666668
-200.0   90.0   33.333333333333336
-250.0   60.0   33.333333333333336
-250.0   90.0   33.333333333333336
-200.0   90.0   33.333333333333336
-250.0   90.0   16.666666666666668
-250.0   60.0   33.333333333333336
-200.0   90.0   33.333333333333336
-200.0   60.0   33.333333333333336
-200.0   60.0   16.666666666666668
-250.0   60.0   33.333333333333336
-200.0   90.0   33.333333333333336
-200.0   60.0   16.666666666666668
-250.0   90.0   16.666666666666668
-250.0   60.0   33.333333333333336
-200.0   60.0   33.333333333333336
-250.0   90.0   33.333333333333336
-250.0   60.0   50.0
-200.0   60.0   33.333333333333336
-200.0   90.0   33.333333333333336
-250.0   90.0   33.333333333333336
-200.0   90.0   50.0
-250.0   60.0   50.0
-250.0   90.0   50.0
-200.0   90.0   50.0
-250.0   90.0   33.333333333333336
-250.0   60.0   50.0
-200.0   90.0   50.0
-200.0   60.0   50.0
-200.0   60.0   33.333333333333336
-250.0   60.0   50.0
-200.0   90.0   50.0
-200.0   60.0   33.333333333333336
-250.0   90.0   33.333333333333336
-250.0   90.0   0.0
-200.0   90.0   0.0
-250.0   120.0   0.0
-250.0   90.0   16.666666666666668
-200.0   90.0   0.0
-200.0   120.0   0.0
-250.0   120.0   0.0
-200.0   120.0   16.666666666666668
-250.0   90.0   16.666666666666668
-250.0   120.0   16.666666666666668
-200.0   120.0   16.666666666666668
-250.0   120.0   0.0
-250.0   90.0   16.666666666666668
-200.0   120.0   16.666666666666668
-200.0   90.0   16.666666666666668
-200.0   90.0   0.0
-250.0   90.0   16.666666666666668
-200.0   120.0   16.666666666666668
-200.0   90.0   0.0
-250.0   120.0   0.0
-250.0   90.0   16.666666666666668
-200.0   90.0   16.666666666666668
-250.0   120.0   16.666666666666668
-250.0   90.0   33.333333333333336
-200.0   90.0   16.666666666666668
-200.0   120.0   16.666666666666668
-250.0   120.0   16.666666666666668
-200.0   120.0   33.333333333333336
-250.0   90.0   33.333333333333336
-250.0   120.0   33.333333333333336
-200.0   120.0   33.333333333333336
-250.0   120.0   16.666666666666668
-250.0   90.0   33.333333333333336
-200.0   120.0   33.333333333333336
-200.0   90.0   33.333333333333336
-200.0   90.0   16.666666666666668
-250.0   90.0   33.333333333333336
-200.0   120.0   33.333333333333336
-200.0   90.0   16.666666666666668
-250.0   120.0   16.666666666666668
-250.0   90.0   33.333333333333336
-200.0   90.0   33.333333333333336
-250.0   120.0   33.333333333333336
-250.0   90.0   50.0
-200.0   90.0   33.333333333333336
-200.0   120.0   33.333333333333336
-250.0   120.0   33.333333333333336
-200.0   120.0   50.0
-250.0   90.0   50.0
-250.0   120.0   50.0
-200.0   120.0   50.0
-250.0   120.0   33.333333333333336
-250.0   90.0   50.0
-200.0   120.0   50.0
-200.0   90.0   50.0
-200.0   90.0   33.333333333333336
-250.0   90.0   50.0
-200.0   120.0   50.0
-200.0   90.0   33.333333333333336
-250.0   120.0   33.333333333333336
-250.0   120.0   0.0
-200.0   120.0   0.0
-250.0   150.0   0.0
-250.0   120.0   16.666666666666668
-200.0   120.0   0.0
-200.0   150.0   0.0
-250.0   150.0   0.0
-200.0   150.0   16.666666666666668
-250.0   120.0   16.666666666666668
-250.0   150.0   16.666666666666668
-200.0   150.0   16.666666666666668
-250.0   150.0   0.0
-250.0   120.0   16.666666666666668
-200.0   150.0   16.666666666666668
-200.0   120.0   16.666666666666668
-200.0   120.0   0.0
-250.0   120.0   16.666666666666668
-200.0   150.0   16.666666666666668
-200.0   120.0   0.0
-250.0   150.0   0.0
-250.0   120.0   16.666666666666668
-200.0   120.0   16.666666666666668
-250.0   150.0   16.666666666666668
-250.0   120.0   33.333333333333336
-200.0   120.0   16.666666666666668
-200.0   150.0   16.666666666666668
-250.0   150.0   16.666666666666668
-200.0   150.0   33.333333333333336
-250.0   120.0   33.333333333333336
-250.0   150.0   33.333333333333336
-200.0   150.0   33.333333333333336
-250.0   150.0   16.666666666666668
-250.0   120.0   33.333333333333336
-200.0   150.0   33.333333333333336
-200.0   120.0   33.333333333333336
-200.0   120.0   16.666666666666668
-250.0   120.0   33.333333333333336
-200.0   150.0   33.333333333333336
-200.0   120.0   16.666666666666668
-250.0   150.0   16.666666666666668
-250.0   120.0   33.333333333333336
-200.0   120.0   33.333333333333336
-250.0   150.0   33.333333333333336
-250.0   120.0   50.0
-200.0   120.0   33.333333333333336
-200.0   150.0   33.333333333333336
-250.0   150.0   33.333333333333336
-200.0   150.0   50.0
-250.0   120.0   50.0
-250.0   150.0   50.0
-200.0   150.0   50.0
-250.0   150.0   33.333333333333336
-250.0   120.0   50.0
-200.0   150.0   50.0
-200.0   120.0   50.0
-200.0   120.0   33.333333333333336
-250.0   120.0   50.0
-200.0   150.0   50.0
-200.0   120.0   33.333333333333336
-250.0   150.0   33.333333333333336
-200.0   0.0   0.0
-150.0   0.0   0.0
-200.0   30.0   0.0
-200.0   0.0   16.666666666666668
-150.0   0.0   0.0
-150.0   30.0   0.0
-200.0   30.0   0.0
-150.0   30.0   16.666666666666668
-200.0   0.0   16.666666666666668
-200.0   30.0   16.666666666666668
-150.0   30.0   16.666666666666668
-200.0   30.0   0.0
-200.0   0.0   16.666666666666668
-150.0   30.0   16.666666666666668
-150.0   0.0   16.666666666666668
-150.0   0.0   0.0
-200.0   0.0   16.666666666666668
-150.0   30.0   16.666666666666668
-150.0   0.0   0.0
-200.0   30.0   0.0
-200.0   0.0   16.666666666666668
-150.0   0.0   16.666666666666668
-200.0   30.0   16.666666666666668
-200.0   0.0   33.333333333333336
-150.0   0.0   16.666666666666668
-150.0   30.0   16.666666666666668
-200.0   30.0   16.666666666666668
-150.0   30.0   33.333333333333336
-200.0   0.0   33.333333333333336
-200.0   30.0   33.333333333333336
-150.0   30.0   33.333333333333336
-200.0   30.0   16.666666666666668
-200.0   0.0   33.333333333333336
-150.0   30.0   33.333333333333336
-150.0   0.0   33.333333333333336
-150.0   0.0   16.666666666666668
-200.0   0.0   33.333333333333336
-150.0   30.0   33.333333333333336
-150.0   0.0   16.666666666666668
-200.0   30.0   16.666666666666668
-200.0   0.0   33.333333333333336
-150.0   0.0   33.333333333333336
-200.0   30.0   33.333333333333336
-200.0   0.0   50.0
-150.0   0.0   33.333333333333336
-150.0   30.0   33.333333333333336
-200.0   30.0   33.333333333333336
-150.0   30.0   50.0
-200.0   0.0   50.0
-200.0   30.0   50.0
-150.0   30.0   50.0
-200.0   30.0   33.333333333333336
-200.0   0.0   50.0
-150.0   30.0   50.0
-150.0   0.0   50.0
-150.0   0.0   33.333333333333336
-200.0   0.0   50.0
-150.0   30.0   50.0
-150.0   0.0   33.333333333333336
-200.0   30.0   33.333333333333336
-200.0   30.0   0.0
-150.0   30.0   0.0
-200.0   60.0   0.0
-200.0   30.0   16.666666666666668
-150.0   30.0   0.0
-150.0   60.0   0.0
-200.0   60.0   0.0
-150.0   60.0   16.666666666666668
-200.0   30.0   16.666666666666668
-200.0   60.0   16.666666666666668
-150.0   60.0   16.666666666666668
-200.0   60.0   0.0
-200.0   30.0   16.666666666666668
-150.0   60.0   16.666666666666668
-150.0   30.0   16.666666666666668
-150.0   30.0   0.0
-200.0   30.0   16.666666666666668
-150.0   60.0   16.666666666666668
-150.0   30.0   0.0
-200.0   60.0   0.0
-200.0   30.0   16.666666666666668
-150.0   30.0   16.666666666666668
-200.0   60.0   16.666666666666668
-200.0   30.0   33.333333333333336
-150.0   30.0   16.666666666666668
-150.0   60.0   16.666666666666668
-200.0   60.0   16.666666666666668
-150.0   60.0   33.333333333333336
-200.0   30.0   33.333333333333336
-200.0   60.0   33.333333333333336
-150.0   60.0   33.333333333333336
-200.0   60.0   16.666666666666668
-200.0   30.0   33.333333333333336
-150.0   60.0   33.333333333333336
-150.0   30.0   33.333333333333336
-150.0   30.0   16.666666666666668
-200.0   30.0   33.333333333333336
-150.0   60.0   33.333333333333336
-150.0   30.0   16.666666666666668
-200.0   60.0   16.666666666666668
-200.0   30.0   33.333333333333336
-150.0   30.0   33.333333333333336
-200.0   60.0   33.333333333333336
-200.0   30.0   50.0
-150.0   30.0   33.333333333333336
-150.0   60.0   33.333333333333336
-200.0   60.0   33.333333333333336
-150.0   60.0   50.0
-200.0   30.0   50.0
-200.0   60.0   50.0
-150.0   60.0   50.0
-200.0   60.0   33.333333333333336
-200.0   30.0   50.0
-150.0   60.0   50.0
-150.0   30.0   50.0
-150.0   30.0   33.333333333333336
-200.0   30.0   50.0
-150.0   60.0   50.0
-150.0   30.0   33.333333333333336
-200.0   60.0   33.333333333333336
-200.0   60.0   0.0
-150.0   60.0   0.0
-200.0   90.0   0.0
-200.0   60.0   16.666666666666668
-150.0   60.0   0.0
-150.0   90.0   0.0
-200.0   90.0   0.0
-150.0   90.0   16.666666666666668
-200.0   60.0   16.666666666666668
-200.0   90.0   16.666666666666668
-150.0   90.0   16.666666666666668
-200.0   90.0   0.0
-200.0   60.0   16.666666666666668
-150.0   90.0   16.666666666666668
-150.0   60.0   16.666666666666668
-150.0   60.0   0.0
-200.0   60.0   16.666666666666668
-150.0   90.0   16.666666666666668
-150.0   60.0   0.0
-200.0   90.0   0.0
-200.0   60.0   16.666666666666668
-150.0   60.0   16.666666666666668
-200.0   90.0   16.666666666666668
-200.0   60.0   33.333333333333336
-150.0   60.0   16.666666666666668
-150.0   90.0   16.666666666666668
-200.0   90.0   16.666666666666668
-150.0   90.0   33.333333333333336
-200.0   60.0   33.333333333333336
-200.0   90.0   33.333333333333336
-150.0   90.0   33.333333333333336
-200.0   90.0   16.666666666666668
-200.0   60.0   33.333333333333336
-150.0   90.0   33.333333333333336
-150.0   60.0   33.333333333333336
-150.0   60.0   16.666666666666668
-200.0   60.0   33.333333333333336
-150.0   90.0   33.333333333333336
-150.0   60.0   16.666666666666668
-200.0   90.0   16.666666666666668
-200.0   60.0   33.333333333333336
-150.0   60.0   33.333333333333336
-200.0   90.0   33.333333333333336
-200.0   60.0   50.0
-150.0   60.0   33.333333333333336
-150.0   90.0   33.333333333333336
-200.0   90.0   33.333333333333336
-150.0   90.0   50.0
-200.0   60.0   50.0
-200.0   90.0   50.0
-150.0   90.0   50.0
-200.0   90.0   33.333333333333336
-200.0   60.0   50.0
-150.0   90.0   50.0
-150.0   60.0   50.0
-150.0   60.0   33.333333333333336
-200.0   60.0   50.0
-150.0   90.0   50.0
-150.0   60.0   33.333333333333336
-200.0   90.0   33.333333333333336
-200.0   90.0   0.0
-150.0   90.0   0.0
-200.0   120.0   0.0
-200.0   90.0   16.666666666666668
-150.0   90.0   0.0
-150.0   120.0   0.0
-200.0   120.0   0.0
-150.0   120.0   16.666666666666668
-200.0   90.0   16.666666666666668
-200.0   120.0   16.666666666666668
-150.0   120.0   16.666666666666668
-200.0   120.0   0.0
-200.0   90.0   16.666666666666668
-150.0   120.0   16.666666666666668
-150.0   90.0   16.666666666666668
-150.0   90.0   0.0
-200.0   90.0   16.666666666666668
-150.0   120.0   16.666666666666668
-150.0   90.0   0.0
-200.0   120.0   0.0
-200.0   90.0   16.666666666666668
-150.0   90.0   16.666666666666668
-200.0   120.0   16.666666666666668
-200.0   90.0   33.333333333333336
-150.0   90.0   16.666666666666668
-150.0   120.0   16.666666666666668
-200.0   120.0   16.666666666666668
-150.0   120.0   33.333333333333336
-200.0   90.0   33.333333333333336
-200.0   120.0   33.333333333333336
-150.0   120.0   33.333333333333336
-200.0   120.0   16.666666666666668
-200.0   90.0   33.333333333333336
-150.0   120.0   33.333333333333336
-150.0   90.0   33.333333333333336
-150.0   90.0   16.666666666666668
-200.0   90.0   33.333333333333336
-150.0   120.0   33.333333333333336
-150.0   90.0   16.666666666666668
-200.0   120.0   16.666666666666668
-200.0   90.0   33.333333333333336
-150.0   90.0   33.333333333333336
-200.0   120.0   33.333333333333336
-200.0   90.0   50.0
-150.0   90.0   33.333333333333336
-150.0   120.0   33.333333333333336
-200.0   120.0   33.333333333333336
-150.0   120.0   50.0
-200.0   90.0   50.0
-200.0   120.0   50.0
-150.0   120.0   50.0
-200.0   120.0   33.333333333333336
-200.0   90.0   50.0
-150.0   120.0   50.0
-150.0   90.0   50.0
-150.0   90.0   33.333333333333336
-200.0   90.0   50.0
-150.0   120.0   50.0
-150.0   90.0   33.333333333333336
-200.0   120.0   33.333333333333336
-200.0   120.0   0.0
-150.0   120.0   0.0
-200.0   150.0   0.0
-200.0   120.0   16.666666666666668
-150.0   120.0   0.0
-150.0   150.0   0.0
-200.0   150.0   0.0
-150.0   150.0   16.666666666666668
-200.0   120.0   16.666666666666668
-200.0   150.0   16.666666666666668
-150.0   150.0   16.666666666666668
-200.0   150.0   0.0
-200.0   120.0   16.666666666666668
-150.0   150.0   16.666666666666668
-150.0   120.0   16.666666666666668
-150.0   120.0   0.0
-200.0   120.0   16.666666666666668
-150.0   150.0   16.666666666666668
-150.0   120.0   0.0
-200.0   150.0   0.0
-200.0   120.0   16.666666666666668
-150.0   120.0   16.666666666666668
-200.0   150.0   16.666666666666668
-200.0   120.0   33.333333333333336
-150.0   120.0   16.666666666666668
-150.0   150.0   16.666666666666668
-200.0   150.0   16.666666666666668
-150.0   150.0   33.333333333333336
-200.0   120.0   33.333333333333336
-200.0   150.0   33.333333333333336
-150.0   150.0   33.333333333333336
-200.0   150.0   16.666666666666668
-200.0   120.0   33.333333333333336
-150.0   150.0   33.333333333333336
-150.0   120.0   33.333333333333336
-150.0   120.0   16.666666666666668
-200.0   120.0   33.333333333333336
-150.0   150.0   33.333333333333336
-150.0   120.0   16.666666666666668
-200.0   150.0   16.666666666666668
-200.0   120.0   33.333333333333336
-150.0   120.0   33.333333333333336
-200.0   150.0   33.333333333333336
-200.0   120.0   50.0
-150.0   120.0   33.333333333333336
-150.0   150.0   33.333333333333336
-200.0   150.0   33.333333333333336
-150.0   150.0   50.0
-200.0   120.0   50.0
-200.0   150.0   50.0
-150.0   150.0   50.0
-200.0   150.0   33.333333333333336
-200.0   120.0   50.0
-150.0   150.0   50.0
-150.0   120.0   50.0
-150.0   120.0   33.333333333333336
-200.0   120.0   50.0
-150.0   150.0   50.0
-150.0   120.0   33.333333333333336
-200.0   150.0   33.333333333333336
-150.0   0.0   0.0
-100.0   0.0   0.0
-150.0   30.0   0.0
-150.0   0.0   16.666666666666668
-100.0   0.0   0.0
-100.0   30.0   0.0
-150.0   30.0   0.0
-100.0   30.0   16.666666666666668
-150.0   0.0   16.666666666666668
-150.0   30.0   16.666666666666668
-100.0   30.0   16.666666666666668
-150.0   30.0   0.0
-150.0   0.0   16.666666666666668
-100.0   30.0   16.666666666666668
-100.0   0.0   16.666666666666668
-100.0   0.0   0.0
-150.0   0.0   16.666666666666668
-100.0   30.0   16.666666666666668
-100.0   0.0   0.0
-150.0   30.0   0.0
-150.0   0.0   16.666666666666668
-100.0   0.0   16.666666666666668
-150.0   30.0   16.666666666666668
-150.0   0.0   33.333333333333336
-100.0   0.0   16.666666666666668
-100.0   30.0   16.666666666666668
-150.0   30.0   16.666666666666668
-100.0   30.0   33.333333333333336
-150.0   0.0   33.333333333333336
-150.0   30.0   33.333333333333336
-100.0   30.0   33.333333333333336
-150.0   30.0   16.666666666666668
-150.0   0.0   33.333333333333336
-100.0   30.0   33.333333333333336
-100.0   0.0   33.333333333333336
-100.0   0.0   16.666666666666668
-150.0   0.0   33.333333333333336
-100.0   30.0   33.333333333333336
-100.0   0.0   16.666666666666668
-150.0   30.0   16.666666666666668
-150.0   0.0   33.333333333333336
-100.0   0.0   33.333333333333336
-150.0   30.0   33.333333333333336
-150.0   0.0   50.0
-100.0   0.0   33.333333333333336
-100.0   30.0   33.333333333333336
-150.0   30.0   33.333333333333336
-100.0   30.0   50.0
-150.0   0.0   50.0
-150.0   30.0   50.0
-100.0   30.0   50.0
-150.0   30.0   33.333333333333336
-150.0   0.0   50.0
-100.0   30.0   50.0
-100.0   0.0   50.0
-100.0   0.0   33.333333333333336
-150.0   0.0   50.0
-100.0   30.0   50.0
-100.0   0.0   33.333333333333336
-150.0   30.0   33.333333333333336
-150.0   30.0   0.0
-100.0   30.0   0.0
-150.0   60.0   0.0
-150.0   30.0   16.666666666666668
-100.0   30.0   0.0
-100.0   60.0   0.0
-150.0   60.0   0.0
-100.0   60.0   16.666666666666668
-150.0   30.0   16.666666666666668
-150.0   60.0   16.666666666666668
-100.0   60.0   16.666666666666668
-150.0   60.0   0.0
-150.0   30.0   16.666666666666668
-100.0   60.0   16.666666666666668
-100.0   30.0   16.666666666666668
-100.0   30.0   0.0
-150.0   30.0   16.666666666666668
-100.0   60.0   16.666666666666668
-100.0   30.0   0.0
-150.0   60.0   0.0
-150.0   30.0   16.666666666666668
-100.0   30.0   16.666666666666668
-150.0   60.0   16.666666666666668
-150.0   30.0   33.333333333333336
-100.0   30.0   16.666666666666668
-100.0   60.0   16.666666666666668
-150.0   60.0   16.666666666666668
-100.0   60.0   33.333333333333336
-150.0   30.0   33.333333333333336
-150.0   60.0   33.333333333333336
-100.0   60.0   33.333333333333336
-150.0   60.0   16.666666666666668
-150.0   30.0   33.333333333333336
-100.0   60.0   33.333333333333336
-100.0   30.0   33.333333333333336
-100.0   30.0   16.666666666666668
-150.0   30.0   33.333333333333336
-100.0   60.0   33.333333333333336
-100.0   30.0   16.666666666666668
-150.0   60.0   16.666666666666668
-150.0   30.0   33.333333333333336
-100.0   30.0   33.333333333333336
-150.0   60.0   33.333333333333336
-150.0   30.0   50.0
-100.0   30.0   33.333333333333336
-100.0   60.0   33.333333333333336
-150.0   60.0   33.333333333333336
-100.0   60.0   50.0
-150.0   30.0   50.0
-150.0   60.0   50.0
-100.0   60.0   50.0
-150.0   60.0   33.333333333333336
-150.0   30.0   50.0
-100.0   60.0   50.0
-100.0   30.0   50.0
-100.0   30.0   33.333333333333336
-150.0   30.0   50.0
-100.0   60.0   50.0
-100.0   30.0   33.333333333333336
-150.0   60.0   33.333333333333336
-150.0   60.0   0.0
-100.0   60.0   0.0
-150.0   90.0   0.0
-150.0   60.0   16.666666666666668
-100.0   60.0   0.0
-100.0   90.0   0.0
-150.0   90.0   0.0
-100.0   90.0   16.666666666666668
-150.0   60.0   16.666666666666668
-150.0   90.0   16.666666666666668
-100.0   90.0   16.666666666666668
-150.0   90.0   0.0
-150.0   60.0   16.666666666666668
-100.0   90.0   16.666666666666668
-100.0   60.0   16.666666666666668
-100.0   60.0   0.0
-150.0   60.0   16.666666666666668
-100.0   90.0   16.666666666666668
-100.0   60.0   0.0
-150.0   90.0   0.0
-150.0   60.0   16.666666666666668
-100.0   60.0   16.666666666666668
-150.0   90.0   16.666666666666668
-150.0   60.0   33.333333333333336
-100.0   60.0   16.666666666666668
-100.0   90.0   16.666666666666668
-150.0   90.0   16.666666666666668
-100.0   90.0   33.333333333333336
-150.0   60.0   33.333333333333336
-150.0   90.0   33.333333333333336
-100.0   90.0   33.333333333333336
-150.0   90.0   16.666666666666668
-150.0   60.0   33.333333333333336
-100.0   90.0   33.333333333333336
-100.0   60.0   33.333333333333336
-100.0   60.0   16.666666666666668
-150.0   60.0   33.333333333333336
-100.0   90.0   33.333333333333336
-100.0   60.0   16.666666666666668
-150.0   90.0   16.666666666666668
-150.0   60.0   33.333333333333336
-100.0   60.0   33.333333333333336
-150.0   90.0   33.333333333333336
-150.0   60.0   50.0
-100.0   60.0   33.333333333333336
-100.0   90.0   33.333333333333336
-150.0   90.0   33.333333333333336
-100.0   90.0   50.0
-150.0   60.0   50.0
-150.0   90.0   50.0
-100.0   90.0   50.0
-150.0   90.0   33.333333333333336
-150.0   60.0   50.0
-100.0   90.0   50.0
-100.0   60.0   50.0
-100.0   60.0   33.333333333333336
-150.0   60.0   50.0
-100.0   90.0   50.0
-100.0   60.0   33.333333333333336
-150.0   90.0   33.333333333333336
-150.0   90.0   0.0
-100.0   90.0   0.0
-150.0   120.0   0.0
-150.0   90.0   16.666666666666668
-100.0   90.0   0.0
-100.0   120.0   0.0
-150.0   120.0   0.0
-100.0   120.0   16.666666666666668
-150.0   90.0   16.666666666666668
-150.0   120.0   16.666666666666668
-100.0   120.0   16.666666666666668
-150.0   120.0   0.0
-150.0   90.0   16.666666666666668
-100.0   120.0   16.666666666666668
-100.0   90.0   16.666666666666668
-100.0   90.0   0.0
-150.0   90.0   16.666666666666668
-100.0   120.0   16.666666666666668
-100.0   90.0   0.0
-150.0   120.0   0.0
-150.0   90.0   16.666666666666668
-100.0   90.0   16.666666666666668
-150.0   120.0   16.666666666666668
-150.0   90.0   33.333333333333336
-100.0   90.0   16.666666666666668
-100.0   120.0   16.666666666666668
-150.0   120.0   16.666666666666668
-100.0   120.0   33.333333333333336
-150.0   90.0   33.333333333333336
-150.0   120.0   33.333333333333336
-100.0   120.0   33.333333333333336
-150.0   120.0   16.666666666666668
-150.0   90.0   33.333333333333336
-100.0   120.0   33.333333333333336
-100.0   90.0   33.333333333333336
-100.0   90.0   16.666666666666668
-150.0   90.0   33.333333333333336
-100.0   120.0   33.333333333333336
-100.0   90.0   16.666666666666668
-150.0   120.0   16.666666666666668
-150.0   90.0   33.333333333333336
-100.0   90.0   33.333333333333336
-150.0   120.0   33.333333333333336
-150.0   90.0   50.0
-100.0   90.0   33.333333333333336
-100.0   120.0   33.333333333333336
-150.0   120.0   33.333333333333336
-100.0   120.0   50.0
-150.0   90.0   50.0
-150.0   120.0   50.0
-100.0   120.0   50.0
-150.0   120.0   33.333333333333336
-150.0   90.0   50.0
-100.0   120.0   50.0
-100.0   90.0   50.0
-100.0   90.0   33.333333333333336
-150.0   90.0   50.0
-100.0   120.0   50.0
-100.0   90.0   33.333333333333336
-150.0   120.0   33.333333333333336
-150.0   120.0   0.0
-100.0   120.0   0.0
-150.0   150.0   0.0
-150.0   120.0   16.666666666666668
-100.0   120.0   0.0
-100.0   150.0   0.0
-150.0   150.0   0.0
-100.0   150.0   16.666666666666668
-150.0   120.0   16.666666666666668
-150.0   150.0   16.666666666666668
-100.0   150.0   16.666666666666668
-150.0   150.0   0.0
-150.0   120.0   16.666666666666668
-100.0   150.0   16.666666666666668
-100.0   120.0   16.666666666666668
-100.0   120.0   0.0
-150.0   120.0   16.666666666666668
-100.0   150.0   16.666666666666668
-100.0   120.0   0.0
-150.0   150.0   0.0
-150.0   120.0   16.666666666666668
-100.0   120.0   16.666666666666668
-150.0   150.0   16.666666666666668
-150.0   120.0   33.333333333333336
-100.0   120.0   16.666666666666668
-100.0   150.0   16.666666666666668
-150.0   150.0   16.666666666666668
-100.0   150.0   33.333333333333336
-150.0   120.0   33.333333333333336
-150.0   150.0   33.333333333333336
-100.0   150.0   33.333333333333336
-150.0   150.0   16.666666666666668
-150.0   120.0   33.333333333333336
-100.0   150.0   33.333333333333336
-100.0   120.0   33.333333333333336
-100.0   120.0   16.666666666666668
-150.0   120.0   33.333333333333336
-100.0   150.0   33.333333333333336
-100.0   120.0   16.666666666666668
-150.0   150.0   16.666666666666668
-150.0   120.0   33.333333333333336
-100.0   120.0   33.333333333333336
-150.0   150.0   33.333333333333336
-150.0   120.0   50.0
-100.0   120.0   33.333333333333336
-100.0   150.0   33.333333333333336
-150.0   150.0   33.333333333333336
-100.0   150.0   50.0
-150.0   120.0   50.0
-150.0   150.0   50.0
-100.0   150.0   50.0
-150.0   150.0   33.333333333333336
-150.0   120.0   50.0
-100.0   150.0   50.0
-100.0   120.0   50.0
-100.0   120.0   33.333333333333336
-150.0   120.0   50.0
-100.0   150.0   50.0
-100.0   120.0   33.333333333333336
-150.0   150.0   33.333333333333336
-100.0   0.0   0.0
-50.0   0.0   0.0
-100.0   30.0   0.0
-100.0   0.0   16.666666666666668
-50.0   0.0   0.0
-50.0   30.0   0.0
-100.0   30.0   0.0
-50.0   30.0   16.666666666666668
-100.0   0.0   16.666666666666668
-100.0   30.0   16.666666666666668
-50.0   30.0   16.666666666666668
-100.0   30.0   0.0
-100.0   0.0   16.666666666666668
-50.0   30.0   16.666666666666668
-50.0   0.0   16.666666666666668
-50.0   0.0   0.0
-100.0   0.0   16.666666666666668
-50.0   30.0   16.666666666666668
-50.0   0.0   0.0
-100.0   30.0   0.0
-100.0   0.0   16.666666666666668
-50.0   0.0   16.666666666666668
-100.0   30.0   16.666666666666668
-100.0   0.0   33.333333333333336
-50.0   0.0   16.666666666666668
-50.0   30.0   16.666666666666668
-100.0   30.0   16.666666666666668
-50.0   30.0   33.333333333333336
-100.0   0.0   33.333333333333336
-100.0   30.0   33.333333333333336
-50.0   30.0   33.333333333333336
-100.0   30.0   16.666666666666668
-100.0   0.0   33.333333333333336
-50.0   30.0   33.333333333333336
-50.0   0.0   33.333333333333336
-50.0   0.0   16.666666666666668
-100.0   0.0   33.333333333333336
-50.0   30.0   33.333333333333336
-50.0   0.0   16.666666666666668
-100.0   30.0   16.666666666666668
-100.0   0.0   33.333333333333336
-50.0   0.0   33.333333333333336
-100.0   30.0   33.333333333333336
-100.0   0.0   50.0
-50.0   0.0   33.333333333333336
-50.0   30.0   33.333333333333336
-100.0   30.0   33.333333333333336
-50.0   30.0   50.0
-100.0   0.0   50.0
-100.0   30.0   50.0
-50.0   30.0   50.0
-100.0   30.0   33.333333333333336
-100.0   0.0   50.0
-50.0   30.0   50.0
-50.0   0.0   50.0
-50.0   0.0   33.333333333333336
-100.0   0.0   50.0
-50.0   30.0   50.0
-50.0   0.0   33.333333333333336
-100.0   30.0   33.333333333333336
-100.0   30.0   0.0
-50.0   30.0   0.0
-100.0   60.0   0.0
-100.0   30.0   16.666666666666668
-50.0   30.0   0.0
-50.0   60.0   0.0
-100.0   60.0   0.0
-50.0   60.0   16.666666666666668
-100.0   30.0   16.666666666666668
-100.0   60.0   16.666666666666668
-50.0   60.0   16.666666666666668
-100.0   60.0   0.0
-100.0   30.0   16.666666666666668
-50.0   60.0   16.666666666666668
-50.0   30.0   16.666666666666668
-50.0   30.0   0.0
-100.0   30.0   16.666666666666668
-50.0   60.0   16.666666666666668
-50.0   30.0   0.0
-100.0   60.0   0.0
-100.0   30.0   16.666666666666668
-50.0   30.0   16.666666666666668
-100.0   60.0   16.666666666666668
-100.0   30.0   33.333333333333336
-50.0   30.0   16.666666666666668
-50.0   60.0   16.666666666666668
-100.0   60.0   16.666666666666668
-50.0   60.0   33.333333333333336
-100.0   30.0   33.333333333333336
-100.0   60.0   33.333333333333336
-50.0   60.0   33.333333333333336
-100.0   60.0   16.666666666666668
-100.0   30.0   33.333333333333336
-50.0   60.0   33.333333333333336
-50.0   30.0   33.333333333333336
-50.0   30.0   16.666666666666668
-100.0   30.0   33.333333333333336
-50.0   60.0   33.333333333333336
-50.0   30.0   16.666666666666668
-100.0   60.0   16.666666666666668
-100.0   30.0   33.333333333333336
-50.0   30.0   33.333333333333336
-100.0   60.0   33.333333333333336
-100.0   30.0   50.0
-50.0   30.0   33.333333333333336
-50.0   60.0   33.333333333333336
-100.0   60.0   33.333333333333336
-50.0   60.0   50.0
-100.0   30.0   50.0
-100.0   60.0   50.0
-50.0   60.0   50.0
-100.0   60.0   33.333333333333336
-100.0   30.0   50.0
-50.0   60.0   50.0
-50.0   30.0   50.0
-50.0   30.0   33.333333333333336
-100.0   30.0   50.0
-50.0   60.0   50.0
-50.0   30.0   33.333333333333336
-100.0   60.0   33.333333333333336
-100.0   60.0   0.0
-50.0   60.0   0.0
-100.0   90.0   0.0
-100.0   60.0   16.666666666666668
-50.0   60.0   0.0
-50.0   90.0   0.0
-100.0   90.0   0.0
-50.0   90.0   16.666666666666668
-100.0   60.0   16.666666666666668
-100.0   90.0   16.666666666666668
-50.0   90.0   16.666666666666668
-100.0   90.0   0.0
-100.0   60.0   16.666666666666668
-50.0   90.0   16.666666666666668
-50.0   60.0   16.666666666666668
-50.0   60.0   0.0
-100.0   60.0   16.666666666666668
-50.0   90.0   16.666666666666668
-50.0   60.0   0.0
-100.0   90.0   0.0
-100.0   60.0   16.666666666666668
-50.0   60.0   16.666666666666668
-100.0   90.0   16.666666666666668
-100.0   60.0   33.333333333333336
-50.0   60.0   16.666666666666668
-50.0   90.0   16.666666666666668
-100.0   90.0   16.666666666666668
-50.0   90.0   33.333333333333336
-100.0   60.0   33.333333333333336
-100.0   90.0   33.333333333333336
-50.0   90.0   33.333333333333336
-100.0   90.0   16.666666666666668
-100.0   60.0   33.333333333333336
-50.0   90.0   33.333333333333336
-50.0   60.0   33.333333333333336
-50.0   60.0   16.666666666666668
-100.0   60.0   33.333333333333336
-50.0   90.0   33.333333333333336
-50.0   60.0   16.666666666666668
-100.0   90.0   16.666666666666668
-100.0   60.0   33.333333333333336
-50.0   60.0   33.333333333333336
-100.0   90.0   33.333333333333336
-100.0   60.0   50.0
-50.0   60.0   33.333333333333336
-50.0   90.0   33.333333333333336
-100.0   90.0   33.333333333333336
-50.0   90.0   50.0
-100.0   60.0   50.0
-100.0   90.0   50.0
-50.0   90.0   50.0
-100.0   90.0   33.333333333333336
-100.0   60.0   50.0
-50.0   90.0   50.0
-50.0   60.0   50.0
-50.0   60.0   33.333333333333336
-100.0   60.0   50.0
-50.0   90.0   50.0
-50.0   60.0   33.333333333333336
-100.0   90.0   33.333333333333336
-100.0   90.0   0.0
-50.0   90.0   0.0
-100.0   120.0   0.0
-100.0   90.0   16.666666666666668
-50.0   90.0   0.0
-50.0   120.0   0.0
-100.0   120.0   0.0
-50.0   120.0   16.666666666666668
-100.0   90.0   16.666666666666668
-100.0   120.0   16.666666666666668
-50.0   120.0   16.666666666666668
-100.0   120.0   0.0
-100.0   90.0   16.666666666666668
-50.0   120.0   16.666666666666668
-50.0   90.0   16.666666666666668
-50.0   90.0   0.0
-100.0   90.0   16.666666666666668
-50.0   120.0   16.666666666666668
-50.0   90.0   0.0
-100.0   120.0   0.0
-100.0   90.0   16.666666666666668
-50.0   90.0   16.666666666666668
-100.0   120.0   16.666666666666668
-100.0   90.0   33.333333333333336
-50.0   90.0   16.666666666666668
-50.0   120.0   16.666666666666668
-100.0   120.0   16.666666666666668
-50.0   120.0   33.333333333333336
-100.0   90.0   33.333333333333336
-100.0   120.0   33.333333333333336
-50.0   120.0   33.333333333333336
-100.0   120.0   16.666666666666668
-100.0   90.0   33.333333333333336
-50.0   120.0   33.333333333333336
-50.0   90.0   33.333333333333336
-50.0   90.0   16.666666666666668
-100.0   90.0   33.333333333333336
-50.0   120.0   33.333333333333336
-50.0   90.0   16.666666666666668
-100.0   120.0   16.666666666666668
-100.0   90.0   33.333333333333336
-50.0   90.0   33.333333333333336
-100.0   120.0   33.333333333333336
-100.0   90.0   50.0
-50.0   90.0   33.333333333333336
-50.0   120.0   33.333333333333336
-100.0   120.0   33.333333333333336
-50.0   120.0   50.0
-100.0   90.0   50.0
-100.0   120.0   50.0
-50.0   120.0   50.0
-100.0   120.0   33.333333333333336
-100.0   90.0   50.0
-50.0   120.0   50.0
-50.0   90.0   50.0
-50.0   90.0   33.333333333333336
-100.0   90.0   50.0
-50.0   120.0   50.0
-50.0   90.0   33.333333333333336
-100.0   120.0   33.333333333333336
-100.0   120.0   0.0
-50.0   120.0   0.0
-100.0   150.0   0.0
-100.0   120.0   16.666666666666668
-50.0   120.0   0.0
-50.0   150.0   0.0
-100.0   150.0   0.0
-50.0   150.0   16.666666666666668
-100.0   120.0   16.666666666666668
-100.0   150.0   16.666666666666668
-50.0   150.0   16.666666666666668
-100.0   150.0   0.0
-100.0   120.0   16.666666666666668
-50.0   150.0   16.666666666666668
-50.0   120.0   16.666666666666668
-50.0   120.0   0.0
-100.0   120.0   16.666666666666668
-50.0   150.0   16.666666666666668
-50.0   120.0   0.0
-100.0   150.0   0.0
-100.0   120.0   16.666666666666668
-50.0   120.0   16.666666666666668
-100.0   150.0   16.666666666666668
-100.0   120.0   33.333333333333336
-50.0   120.0   16.666666666666668
-50.0   150.0   16.666666666666668
-100.0   150.0   16.666666666666668
-50.0   150.0   33.333333333333336
-100.0   120.0   33.333333333333336
-100.0   150.0   33.333333333333336
-50.0   150.0   33.333333333333336
-100.0   150.0   16.666666666666668
-100.0   120.0   33.333333333333336
-50.0   150.0   33.333333333333336
-50.0   120.0   33.333333333333336
-50.0   120.0   16.666666666666668
-100.0   120.0   33.333333333333336
-50.0   150.0   33.333333333333336
-50.0   120.0   16.666666666666668
-100.0   150.0   16.666666666666668
-100.0   120.0   33.333333333333336
-50.0   120.0   33.333333333333336
-100.0   150.0   33.333333333333336
-100.0   120.0   50.0
-50.0   120.0   33.333333333333336
-50.0   150.0   33.333333333333336
-100.0   150.0   33.333333333333336
-50.0   150.0   50.0
-100.0   120.0   50.0
-100.0   150.0   50.0
-50.0   150.0   50.0
-100.0   150.0   33.333333333333336
-100.0   120.0   50.0
-50.0   150.0   50.0
-50.0   120.0   50.0
-50.0   120.0   33.333333333333336
-100.0   120.0   50.0
-50.0   150.0   50.0
-50.0   120.0   33.333333333333336
-100.0   150.0   33.333333333333336
-50.0   0.0   0.0
0.0   0.0   0.0
-50.0   30.0   0.0
-50.0   0.0   16.666666666666668
0.0   0.0   0.0
0.0   30.0   0.0
-50.0   30.0   0.0
0.0   30.0   16.666666666666668
-50.0   0.0   16.666666666666668
-50.0   30.0   16.666666666666668
0.0   30.0   16.666666666666668
-50.0   30.0   0.0
-50.0   0.0   16.666666666666668
0.0   30.0   16.666666666666668
0.0   0.0   16.666666666666668
0.0   0.0   0.0
-50.0   0.0   16.666666666666668
0.0   30.0   16.666666666666668
0.0   0.0   0.0
-50.0   30.0   0.0
-50.0   0.0   16.666666666666668
0.0   0.0   16.666666666666668
-50.0   30.0   16.666666666666668
-50.0   0.0   33.333333333333336
0.0   0.0   16.666666666666668
0.0   30.0   16.666666666666668
-50.0   30.0   16.666666666666668
0.0   30.0   33.333333333333336
-50.0   0.0   33.333333333333336
-50.0   30.0   33.333333333333336
0.0   30.0   33.333333333333336
-50.0   30.0   16.666666666666668
-50.0   0.0   33.333333333333336
0.0   30.0   33.333333333333336
0.0   0.0   33.333333333333336
0.0   0.0   16.666666666666668
-50.0   0.0   33.333333333333336
0.0   30.0   33.333333333333336
0.0   0.0   16.666666666666668
-50.0   30.0   16.666666666666668
-50.0   0.0   33.333333333333336
0.0   0.0   33.333333333333336
-50.0   30.0   33.333333333333336
-50.0   0.0   50.0
0.0   0.0   33.333333333333336
0.0   30.0   33.333333333333336
-50.0   30.0   33.333333333333336
0.0   30.0   50.0
-50.0   0.0   50.0
-50.0   30.0   50.0
0.0   30.0   50.0
-50.0   30.0   33.333333333333336
-50.0   0.0   50.0
0.0   30.0   50.0
0.0   0.0   50.0
0.0   0.0   33.333333333333336
-50.0   0.0   50.0
0.0   30.0   50.0
0.0   0.0   33.333333333333336
-50.0   30.0   33.333333333333336
-50.0   30.0   0.0
0.0   30.0   0.0
-50.0   60.0   0.0
-50.0   30.0   16.666666666666668
0.0   30.0   0.0
0.0   60.0   0.0
-50.0   60.0   0.0
0.0   60.0   16.666666666666668
-50.0   30.0   16.666666666666668
-50.0   60.0   16.666666666666668
0.0   60.0   16.666666666666668
-50.0   60.0   0.0
-50.0   30.0   16.666666666666668
0.0   60.0   16.666666666666668
0.0   30.0   16.666666666666668
0.0   30.0   0.0
-50.0   30.0   16.666666666666668
0.0   60.0   16.666666666666668
0.0   30.0   0.0
-50.0   60.0   0.0
-50.0   30.0   16.666666666666668
0.0   30.0   16.666666666666668
-50.0   60.0   16.666666666666668
-50.0   30.0   33.333333333333336
0.0   30.0   16.666666666666668
0.0   60.0   16.666666666666668
-50.0   60.0   16.666666666666668
0.0   60.0   33.333333333333336
-50.0   30.0   33.333333333333336
-50.0   60.0   33.333333333333336
0.0   60.0   33.333333333333336
-50.0   60.0   16.666666666666668
-50.0   30.0   33.333333333333336
0.0   60.0   33.333333333333336
0.0   30.0   33.333333333333336
0.0   30.0   16.666666666666668
-50.0   30.0   33.333333333333336
0.0   60.0   33.333333333333336
0.0   30.0   16.666666666666668
-50.0   60.0   16.666666666666668
-50.0   30.0   33.333333333333336
0.0   30.0   33.333333333333336
-50.0   60.0   33.333333333333336
-50.0   30.0   50.0
0.0   30.0   33.333333333333336
0.0   60.0   33.333333333333336
-50.0   60.0   33.333333333333336
0.0   60.0   50.0
-50.0   30.0   50.0
-50.0   60.0   50.0
0.0   60.0   50.0
-50.0   60.0   33.333333333333336
-50.0   30.0   50.0
0.0   60.0   50.0
0.0   30.0   50.0
0.0   30.0   33.333333333333336
-50.0   30.0   50.0
0.0   60.0   50.0
0.0   30.0   33.333333333333336
-50.0   60.0   33.333333333333336
-50.0   60.0   0.0
0.0   60.0   0.0
-50.0   90.0   0.0
-50.0   60.0   16.666666666666668
0.0   60.0   0.0
0.0   90.0   0.0
-50.0   90.0   0.0
0.0   90.0   16.666666666666668
-50.0   60.0   16.666666666666668
-50.0   90.0   16.666666666666668
0.0   90.0   16.666666666666668
-50.0   90.0   0.0
-50.0   60.0   16.666666666666668
0.0   90.0   16.666666666666668
0.0   60.0   16.666666666666668
0.0   60.0   0.0
-50.0   60.0   16.666666666666668
0.0   90.0   16.666666666666668
0.0   60.0   0.0
-50.0   90.0   0.0
-50.0   60.0   16.666666666666668
0.0   60.0   16.666666666666668
-50.0   90.0   16.666666666666668
-50.0   60.0   33.333333333333336
0.0   60.0   16.666666666666668
0.0   90.0   16.666666666666668
-50.0   90.0   16.666666666666668
0.0   90.0   33.333333333333336
-50.0   60.0   33.333333333333336
-50.0   90.0   33.333333333333336
0.0   90.0   33.333333333333336
-50.0   90.0   16.666666666666668
-50.0   60.0   33.333333333333336
0.0   90.0   33.333333333333336
0.0   60.0   33.333333333333336
0.0   60.0   16.666666666666668
-50.0   60.0   33.333333333333336
0.0   90.0   33.333333333333336
0.0   60.0   16.666666666666668
-50.0   90.0   16.666666666666668
-50.0   60.0   33.333333333333336
0.0   60.0   33.333333333333336
-50.0   90.0   33.333333333333336
-50.0   60.0   50.0
0.0   60.0   33.333333333333336
0.0   90.0   33.333333333333336
-50.0   90.0   33.333333333333336
0.0   90.0   50.0
-50.0   60.0   50.0
-50.0   90.0   50.0
0.0   90.0   50.0
-50.0   90.0   33.333333333333336
-50.0   60.0   50.0
0.0   90.0   50.0
0.0   60.0   50.0
0.0   60.0   33.333333333333336
-50.0   60.0   50.0
0.0   90.0   50.0
0.0   60.0   33.333333333333336
-50.0   90.0   33.333333333333336
-50.0   90.0   0.0
0.0   90.0   0.0
-50.0   120.0   0.0
-50.0   90.0   16.666666666666668
0.0   90.0   0.0
0.0   120.0   0.0
-50.0   120.0   0.0
0.0   120.0   16.666666666666668
-50.0   90.0   16.666666666666668
-50.0   120.0   16.666666666666668
0.0   120.0   16.666666666666668
-50.0   120.0   0.0
-50.0   90.0   16.666666666666668
0.0   120.0   16.666666666666668
0.0   90.0   16.666666666666668
0.0   90.0   0.0
-50.0   90.0   16.666666666666668
0.0   120.0   16.666666666666668
0.0   90.0   0.0
-50.0   120.0   0.0
-50.0   90.0   16.666666666666668
0.0   90.0   16.666666666666668
-50.0   120.0   16.666666666666668
-50.0   90.0   33.333333333333336
0.0   90.0   16.666666666666668
0.0   120.0   16.666666666666668
-50.0   120.0   16.666666666666668
0.0   120.0   33.333333333333336
-50.0   90.0   33.333333333333336
-50.0   120.0   33.333333333333336
0.0   120.0   33.333333333333336
-50.0   120.0   16.666666666666668
-50.0   90.0   33.333333333333336
0.0   120.0   33.333333333333336
0.0   90.0   33.333333333333336
0.0   90.0   16.666666666666668
-50.0   90.0   33.333333333333336
0.0   120.0   33.333333333333336
0.0   90.0   16.666666666666668
-50.0   120.0   16.666666666666668
-50.0   90.0   33.333333333333336
0.0   90.0   33.333333333333336
-50.0   120.0   33.333333333333336
-50.0   90.0   50.0
0.0   90.0   33.333333333333336
0.0   120.0   33.333333333333336
-50.0   120.0   33.333333333333336
0.0   120.0   50.0
-50.0   90.0   50.0
-50.0   120.0   50.0
0.0   120.0   50.0
-50.0   120.0   33.333333333333336
-50.0   90.0   50.0
0.0   120.0   50.0
0.0   90.0   50.0
0.0   90.0   33.333333333333336
-50.0   90.0   50.0
0.0   120.0   50.0
0.0   90.0   33.333333333333336
-50.0   120.0   33.333333333333336
-50.0   120.0   0.0
0.0   120.0   0.0
-50.0   150.0   0.0
-50.0   120.0   16.666666666666668
0.0   120.0   0.0
0.0   150.0   0.0
-50.0   150.0   0.0
0.0   150.0   16.666666666666668
-50.0   120.0   16.666666666666668
-50.0   150.0   16.666666666666668
0.0   150.0   16.666666666666668
-50.0   150.0   0.0
-50.0   120.0   16.666666666666668
0.0   150.0   16.666666666666668
0.0   120.0   16.666666666666668
0.0   120.0   0.0
-50.0   120.0   16.666666666666668
0.0   150.0   16.666666666666668
0.0   120.0   0.0
-50.0   150.0   0.0
-50.0   120.0   16.666666666666668
0.0   120.0   16.666666666666668
-50.0   150.0   16.666666666666668
-50.0   120.0   33.333333333333336
0.0   120.0   16.666666666666668
0.0   150.0   16.666666666666668
-50.0   150.0   16.666666666666668
0.0   150.0   33.333333333333336
-50.0   120.0   33.333333333333336
-50.0   150.0   33.333333333333336
0.0   150.0   33.333333333333336
-50.0   150.0   16.666666666666668
-50.0   120.0   33.333333333333336
0.0   150.0   33.333333333333336
0.0   120.0   33.333333333333336
0.0   120.0   16.666666666666668
-50.0   120.0   33.333333333333336
0.0   150.0   33.333333333333336
0.0   120.0   16.666666666666668
-50.0   150.0   16.666666666666668
-50.0   120.0   33.333333333333336
0.0   120.0   33.333333333333336
-50.0   150.0   33.333333333333336
-50.0   120.0   50.0
0.0   120.0   33.333333333333336
0.0   150.0   33.333333333333336
-50.0   150.0   33.333333333333336
0.0   150.0   50.0
-50.0   120.0   50.0
-50.0   150.0   50.0
0.0   150.0   50.0
-50.0   150.0   33.333333333333336
-50.0   120.0   50.0
0.0   150.0   50.0
0.0   120.0   50.0
0.0   120.0   33.333333333333336
-50.0   120.0   50.0
0.0   150.0   50.0
0.0   120.0   33.333333333333336
-50.0   150.0   33.333333333333336
0.0   0.0   0.0
50.0   0.0   0.0
0.0   30.0   0.0
0.0   0.0   16.666666666666668
50.0   0.0   0.0
50.0   30.0   0.0
0.0   30.0   0.0
50.0   30.0   16.666666666666668
0.0   0.0   16.666666666666668
0.0   30.0   16.666666666666668
50.0   30.0   16.666666666666668
0.0   30.0   0.0
0.0   0.0   16.666666666666668
50.0   30.0   16.666666666666668
50.0   0.0   16.666666666666668
50.0   0.0   0.0
0.0   0.0   16.666666666666668
50.0   30.0   16.666666666666668
50.0   0.0   0.0
0.0   30.0   0.0
0.0   0.0   16.666666666666668
50.0   0.0   16.666666666666668
0.0   30.0   16.666666666666668
0.0   0.0   33.333333333333336
50.0   0.0   16.666666666666668
50.0   30.0   16.666666666666668
0.0   30.0   16.666666666666668
50.0   30.0   33.333333333333336
0.0   0.0   33.333333333333336
0.0   30.0   33.333333333333336
50.0   30.0   33.333333333333336
0.0   30.0   16.666666666666668
0.0   0.0   33.333333333333336
50.0   30.0   33.333333333333336
50.0   0.0   33.333333333333336
50.0   0.0   16.666666666666668
0.0   0.0   33.333333333333336
50.0   30.0   33.333333333333336
50.0   0.0   16.666666666666668
0.0   30.0   16.666666666666668
0.0   0.0   33.333333333333336
50.0   0.0   33.333333333333336
0.0   30.0   33.333333333333336
0.0   0.0   50.0
50.0   0.0   33.333333333333336
50.0   30.0   33.333333333333336
0.0   30.0   33.333333333333336
50.0   30.0   50.0
0.0   0.0   50.0
0.0   30.0   50.0
50.0   30.0   50.0
0.0   30.0   33.333333333333336
0.0   0.0   50.0
50.0   30.0   50.0
50.0   0.0   50.0
50.0   0.0   33.333333333333336
0.0   0.0   50.0
50.0   30.0   50.0
50.0   0.0   33.333333333333336
0.0   30.0   33.333333333333336
0.0   30.0   0.0
50.0   30.0   0.0
0.0   60.0   0.0
0.0   30.0   16.666666666666668
50.0   30.0   0.0
50.0   60.0   0.0
0.0   60.0   0.0
50.0   60.0   16.666666666666668
0.0   30.0   16.666666666666668
0.0   60.0   16.666666666666668
50.0   60.0   16.666666666666668
0.0   60.0   0.0
0.0   30.0   16.666666666666668
50.0   60.0   16.666666666666668
50.0   30.0   16.666666666666668
50.0   30.0   0.0
0.0   30.0   16.666666666666668
50.0   60.0   16.666666666666668
50.0   30.0   0.0
0.0   60.0   0.0
0.0   30.0   16.666666666666668
50.0   30.0   16.666666666666668
0.0   60.0   16.666666666666668
0.0   30.0   33.333333333333336
50.0   30.0   16.666666666666668
50.0   60.0   16.666666666666668
0.0   60.0   16.666666666666668
50.0   60.0   33.333333333333336
0.0   30.0   33.333333333333336
0.0   60.0   33.333333333333336
50.0   60.0   33.333333333333336
0.0   60.0   16.666666666666668
0.0   30.0   33.333333333333336
50.0   60.0   33.333333333333336
50.0   30.0   33.333333333333336
50.0   30.0   16.666666666666668
0.0   30.0   33.333333333333336
50.0   60.0   33.333333333333336
50.0   30.0   16.666666666666668
0.0   60.0   16.666666666666668
0.0   30.0   33.333333333333336
50.0   30.0   33.333333333333336
0.0   60.0   33.333333333333336
0.0   30.0   50.0
50.0   30.0   33.333333333333336
50.0   60.0   33.333333333333336
0.0   60.0   33.333333333333336
50.0   60.0   50.0
0.0   30.0   50.0
0.0   60.0   50.0
50.0   60.0   50.0
0.0   60.0   33.333333333333336
0.0   30.0   50.0
50.0   60.0   50.0
50.0   30.0   50.0
50.0   30.0   33.333333333333336
0.0   30.0   50.0
50.0   60.0   50.0
50.0   30.0   33.333333333333336
0.0   60.0   33.333333333333336
0.0   60.0   0.0
50.0   60.0   0.0
0.0   90.0   0.0
0.0   60.0   16.666666666666668
50.0   60.0   0.0
50.0   90.0   0.0
0.0   90.0   0.0
50.0   90.0   16.666666666666668
0.0   60.0   16.666666666666668
0.0   90.0   16.666666666666668
50.0   90.0   16.666666666666668
0.0   90.0   0.0
0.0   60.0   16.666666666666668
50.0   90.0   16.666666666666668
50.0   60.0   16.666666666666668
50.0   60.0   0.0
0.0   60.0   16.666666666666668
50.0   90.0   16.666666666666668
50.0   60.0   0.0
0.0   90.0   0.0
0.0   60.0   16.666666666666668
50.0   60.0   16.666666666666668
0.0   90.0   16.666666666666668
0.0   60.0   33.333333333333336
50.0   60.0   16.666666666666668
50.0   90.0   16.666666666666668
0.0   90.0   16.666666666666668
50.0   90.0   33.333333333333336
0.0   60.0   33.333333333333336
0.0   90.0   33.333333333333336
50.0   90.0   33.333333333333336
0.0   90.0   16.666666666666668
0.0   60.0   33.333333333333336
50.0   90.0   33.333333333333336
50.0   60.0   33.333333333333336
50.0   60.0   16.666666666666668
0.0   60.0   33.333333333333336
50.0   90.0   33.333333333333336
50.0   60.0   16.666666666666668
0.0   90.0   16.666666666666668
0.0   60.0   33.333333333333336
50.0   60.0   33.333333333333336
0.0   90.0   33.333333333333336
0.0   60.0   50.0
50.0   60.0   33.333333333333336
50.0   90.0   33.333333333333336
0.0   90.0   33.333333333333336
50.0   90.0   50.0
0.0   60.0   50.0
0.0   90.0   50.0
50.0   90.0   50.0
0.0   90.0   33.333333333333336
0.0   60.0   50.0
50.0   90.0   50.0
50.0   60.0   50.0
50.0   60.0   33.333333333333336
0.0   60.0   50.0
50.0   90.0   50.0
50.0   60.0   33.333333333333336
0.0   90.0   33.333333333333336
0.0   90.0   0.0
50.0   90.0   0.0
0.0   120.0   0.0
0.0   90.0   16.666666666666668
50.0   90.0   0.0
50.0   120.0   0.0
0.0   120.0   0.0
50.0   120.0   16.666666666666668
0.0   90.0   16.666666666666668
0.0   120.0   16.666666666666668
50.0   120.0   16.666666666666668
0.0   120.0   0.0
0.0   90.0   16.666666666666668
50.0   120.0   16.666666666666668
50.0   90.0   16.666666666666668
50.0   90.0   0.0
0.0   90.0   16.666666666666668
50.0   120.0   16.666666666666668
50.0   90.0   0.0
0.0   120.0   0.0
0.0   90.0   16.666666666666668
50.0   90.0   16.666666666666668
0.0   120.0   16.666666666666668
0.0   90.0   33.333333333333336
50.0   90.0   16.666666666666668
50.0   120.0   16.666666666666668
0.0   120.0   16.666666666666668
50.0   120.0   33.333333333333336
0.0   90.0   33.333333333333336
0.0   120.0   33.333333333333336
50.0   120.0   33.333333333333336
0.0   120.0   16.666666666666668
0.0   90.0   33.333333333333336
50.0   120.0   33.333333333333336
50.0   90.0   33.333333333333336
50.0   90.0   16.666666666666668
0.0   90.0   33.333333333333336
50.0   120.0   33.333333333333336
50.0   90.0   16.666666666666668
0.0   120.0   16.666666666666668
0.0   90.0   33.333333333333336
50.0   90.0   33.333333333333336
0.0   120.0   33.333333333333336
0.0   90.0   50.0
50.0   90.0   33.333333333333336
50.0   120.0   33.333333333333336
0.0   120.0   33.333333333333336
50.0   120.0   50.0
0.0   90.0   50.0
0.0   120.0   50.0
50.0   120.0   50.0
0.0   120.0   33.333333333333336
0.0   90.0   50.0
50.0   120.0   50.0
50.0   90.0   50.0
50.0   90.0   33.333333333333336
0.0   90.0   50.0
50.0   120.0   50.0
50.0   90.0   33.333333333333336
0.0   120.0   33.333333333333336
0.0   120.0   0.0
50.0   120.0   0.0
0.0   150.0   0.0
0.0   120.0   16.666666666666668
50.0   120.0   0.0
50.0   150.0   0.0
0.0   150.0   0.0
50.0   150.0   16.666666666666668
0.0   120.0   16.666666666666668
0.0   150.0   16.666666666666668
50.0   150.0   16.666666666666668
0.0   150.0   0.0
0.0   120.0   16.666666666666668
50.0   150.0   16.666666666666668
50.0   120.0   16.666666666666668
50.0   120.0   0.0
0.0   120.0   16.666666666666668
50.0   150.0   16.666666666666668
50.0   120.0   0.0
0.0   150.0   0.0
0.0   120.0   16.666666666666668
50.0   120.0   16.666666666666668
0.0   150.0   16.666666666666668
0.0   120.0   33.333333333333336
50.0   120.0   16.666666666666668
50.0   150.0   16.666666666666668
0.0   150.0   16.666666666666668
50.0   150.0   33.333333333333336
0.0   120.0   33.333333333333336
0.0   150.0   33.333333333333336
50.0   150.0   33.333333333333336
0.0   150.0   16.666666666666668
0.0   120.0   33.333333333333336
50.0   150.0   33.333333333333336
50.0   120.0   33.333333333333336
50.0   120.0   16.666666666666668
0.0   120.0   33.333333333333336
50.0   150.0   33.333333333333336
50.0   120.0   16.666666666666668
0.0   150.0   16.666666666666668
0.0   120.0   33.333333333333336
50.0   120.0   33.333333333333336
0.0   150.0   33.333333333333336
0.0   120.0   50.0
50.0   120.0   33.333333333333336
50.0   150.0   33.333333333333336
0.0   150.0   33.333333333333336
50.0   150.0   50.0
0.0   120.0   50.0
0.0   150.0   50.0
50.0   150.0   50.0
0.0   150.0   33.333333333333336
0.0   120.0   50.0
50.0   150.0   50.0
50.0   120.0   50.0
50.0   120.0   33.333333333333336
0.0   120.0   50.0
50.0   150.0   50.0
50.0   120.0   33.333333333333336
0.0   150.0   33.333333333333336
50.0   0.0   0.0
100.0   0.0   0.0
50.0   30.0   0.0
50.0   0.0   16.666666666666668
100.0   0.0   0.0
100.0   30.0   0.0
50.0   30.0   0.0
100.0   30.0   16.666666666666668
50.0   0.0   16.666666666666668
50.0   30.0   16.666666666666668
100.0   30.0   16.666666666666668
50.0   30.0   0.0
50.0   0.0   16.666666666666668
100.0   30.0   16.666666666666668
100.0   0.0   16.666666666666668
100.0   0.0   0.0
50.0   0.0   16.666666666666668
100.0   30.0   16.666666666666668
100.0   0.0   0.0
50.0   30.0   0.0
50.0   0.0   16.666666666666668
100.0   0.0   16.666666666666668
50.0   30.0   16.666666666666668
50.0   0.0   33.333333333333336
100.0   0.0   16.666666666666668
100.0   30.0   16.666666666666668
50.0   30.0   16.666666666666668
100.0   30.0   33.333333333333336
50.0   0.0   33.333333333333336
50.0   30.0   33.333333333333336
100.0   30.0   33.333333333333336
50.0   30.0   16.666666666666668
50.0   0.0   33.333333333333336
100.0   30.0   33.333333333333336
100.0   0.0   33.333333333333336
100.0   0.0   16.666666666666668
50.0   0.0   33.333333333333336
100.0   30.0   33.333333333333336
100.0   0.0   16.666666666666668
50.0   30.0   16.666666666666668
50.0   0.0   33.333333333333336
100.0   0.0   33.333333333333336
50.0   30.0   33.333333333333336
50.0   0.0   50.0
100.0   0.0   33.333333333333336
100.0   30.0   33.333333333333336
50.0   30.0   33.333333333333336
100.0   30.0   50.0
50.0   0.0   50.0
50.0   30.0   50.0
100.0   30.0   50.0
50.0   30.0   33.333333333333336
50.0   0.0   50.0
100.0   30.0   50.0
100.0   0.0   50.0
100.0   0.0   33.333333333333336
50.0   0.0   50.0
100.0   30.0   50.0
100.0   0.0   33.333333333333336
50.0   30.0   33.333333333333336
50.0   30.0   0.0
100.0   30.0   0.0
50.0   60.0   0.0
50.0   30.0   16.666666666666668
100.0   30.0   0.0
100.0   60.0   0.0
50.0   60.0   0.0
100.0   60.0   16.666666666666668
50.0   30.0   16.666666666666668
50.0   60.0   16.666666666666668
100.0   60.0   16.666666666666668
50.0   60.0   0.0
50.0   30.0   16.666666666666668
100.0   60.0   16.666666666666668
100.0   30.0   16.666666666666668
100.0   30.0   0.0
50.0   30.0   16.666666666666668
100.0   60.0   16.666666666666668
100.0   30.0   0.0
50.0   60.0   0.0
50.0   30.0   16.666666666666668
100.0   30.0   16.666666666666668
50.0   60.0   16.666666666666668
50.0   30.0   33.333333333333336
100.0   30.0   16.666666666666668
100.0   60.0   16.666666666666668
50.0   60.0   16.666666666666668
100.0   60.0   33.333333333333336
50.0   30.0   33.333333333333336
50.0   60.0   33.333333333333336
100.0   60.0   33.333333333333336
50.0   60.0   16.666666666666668
50.0   30.0   33.333333333333336
100.0   60.0   33.333333333333336
100.0   30.0   33.333333333333336
100.0   30.0   16.666666666666668
50.0   30.0   33.333333333333336
100.0   60.0   33.333333333333336
100.0   30.0   16.666666666666668
50.0   60.0   16.666666666666668
50.0   30.0   33.333333333333336
100.0   30.0   33.333333333333336
50.0   60.0   33.333333333333336
50.0   30.0   50.0
100.0   30.0   33.333333333333336
100.0   60.0   33.333333333333336
50.0   60.0   33.333333333333336
100.0   60.0   50.0
50.0   30.0   50.0
50.0   60.0   50.0
100.0   60.0   50.0
50.0   60.0   33.333333333333336
50.0   30.0   50.0
100.0   60.0   50.0
100.0   30.0   50.0
100.0   30.0   33.333333333333336
50.0   30.0   50.0
100.0   60.0   50.0
100.0   30.0   33.333333333333336
50.0   60.0   33.333333333333336
50.0   60.0   0.0
100.0   60.0   0.0
50.0   90.0   0.0
50.0   60.0   16.666666666666668
100.0   60.0   0.0
100.0   90.0   0.0
50.0   90.0   0.0
100.0   90.0   16.666666666666668
50.0   60.0   16.666666666666668
50.0   90.0   16.666666666666668
100.0   90.0   16.666666666666668
50.0   90.0   0.0
50.0   60.0   16.666666666666668
100.0   90.0   16.666666666666668
100.0   60.0   16.666666666666668
100.0   60.0   0.0
50.0   60.0   16.666666666666668
100.0   90.0   16.666666666666668
100.0   60.0   0.0
50.0   90.0   0.0
50.0   60.0   16.666666666666668
100.0   60.0   16.666666666666668
50.0   90.0   16.666666666666668
50.0   60.0   33.333333333333336
100.0   60.0   16.666666666666668
100.0   90.0   16.666666666666668
50.0   90.0   16.666666666666668
100.0   90.0   33.333333333333336
50.0   60.0   33.333333333333336
50.0   90.0   33.333333333333336
100.0   90.0   33.333333333333336
50.0   90.0   16.666666666666668
50.0   60.0   33.333333333333336
100.0   90.0   33.333333333333336
100.0   60.0   33.333333333333336
100.0   60.0   16.666666666666668
50.0   60.0   33.333333333333336
100.0   90.0   33.333333333333336
100.0   60.0   16.666666666666668
50.0   90.0   16.666666666666668
50.0   60.0   33.333333333333336
100.0   60.0   33.333333333333336
50.0   90.0   33.333333333333336
50.0   60.0   50.0
100.0   60.0   33.333333333333336
100.0   90.0   33.333333333333336
50.0   90.0   33.333333333333336
100.0   90.0   50.0
50.0   60.0   50.0
50.0   90.0   50.0
100.0   90.0   50.0
50.0   90.0   33.333333333333336
50.0   60.0   50.0
100.0   90.0   50.0
100.0   60.0   50.0
100.0   60.0   33.333333333333336
50.0   60.0   50.0
100.0   90.0   50.0
100.0   60.0   33.333333333333336
50.0   90.0   33.333333333333336
50.0   90.0   0.0
100.0   90.0   0.0
50.0   120.0   0.0
50.0   90.0   16.666666666666668
100.0   90.0   0.0
100.0   120.0   0.0
50.0   120.0   0.0
100.0   120.0   16.666666666666668
50.0   90.0   16.666666666666668
50.0   120.0   16.666666666666668
100.0   120.0   16.666666666666668
50.0   120.0   0.0
50.0   90.0   16.666666666666668
100.0   120.0   16.666666666666668
100.0   90.0   16.666666666666668
100.0   90.0   0.0
50.0   90.0   16.666666666666668
100.0   120.0   16.666666666666668
100.0   90.0   0.0
50.0   120.0   0.0
50.0   90.0   16.666666666666668
100.0   90.0   16.666666666666668
50.0   120.0   16.666666666666668
50.0   90.0   33.333333333333336
100.0   90.0   16.666666666666668
100.0   120.0   16.666666666666668
50.0   120.0   16.666666666666668
100.0   120.0   33.333333333333336
50.0   90.0   33.333333333333336
50.0   120.0   33.333333333333336
100.0   120.0   33.333333333333336
50.0   120.0   16.666666666666668
50.0   90.0   33.333333333333336
100.0   120.0   33.333333333333336
100.0   90.0   33.333333333333336
100.0   90.0   16.666666666666668
50.0   90.0   33.333333333333336
100.0   120.0   33.333333333333336
100.0   90.0   16.666666666666668
50.0   120.0   16.666666666666668
50.0   90.0   33.333333333333336
100.0   90.0   33.333333333333336
50.0   120.0   33.333333333333336
50.0   90.0   50.0
100.0   90.0   33.333333333333336
100.0   120.0   33.333333333333336
50.0   120.0   33.333333333333336
100.0   120.0   50.0
50.0   90.0   50.0
50.0   120.0   50.0
100.0   120.0   50.0
50.0   120.0   33.333333333333336
50.0   90.0   50.0
100.0   120.0   50.0
100.0   90.0   50.0
100.0   90.0   33.333333333333336
50.0   90.0   50.0
100.0   120.0   50.0
100.0   90.0   33.333333333333336
50.0   120.0   33.333333333333336
50.0   120.0   0.0
100.0   120.0   0.0
50.0   150.0   0.0
50.0   120.0   16.666666666666668
100.0   120.0   0.0
100.0   150.0   0.0
50.0   150.0   0.0
100.0   150.0   16.666666666666668
50.0   120.0   16.666666666666668
50.0   150.0   16.666666666666668
100.0   150.0   16.666666666666668
50.0   150.0   0.0
50.0   120.0   16.666666666666668
100.0   150.0   16.666666666666668
100.0   120.0   16.666666666666668
100.0   120.0   0.0
50.0   120.0   16.666666666666668
100.0   150.0   16.666666666666668
100.0   120.0   0.0
50.0   150.0   0.0
50.0   120.0   16.666666666666668
100.0   120.0   16.666666666666668
50.0   150.0   16.666666666666668
50.0   120.0   33.333333333333336
100.0   120.0   16.666666666666668
100.0   150.0   16.666666666666668
50.0   150.0   16.666666666666668
100.0   150.0   33.333333333333336
50.0   120.0   33.333333333333336
50.0   150.0   33.333333333333336
100.0   150.0   33.333333333333336
50.0   150.0   16.666666666666668
50.0   120.0   33.333333333333336
100.0   150.0   33.333333333333336
100.0   120.0   33.333333333333336
100.0   120.0   16.666666666666668
50.0   120.0   33.333333333333336
100.0   150.0   33.333333333333336
100.0   120.0   16.666666666666668
50.0   150.0   16.666666666666668
50.0   120.0   33.333333333333336
100.0   120.0   33.333333333333336
50.0   150.0   33.333333333333336
50.0   120.0   50.0
100.0   120.0   33.333333333333336
100.0   150.0   33.333333333333336
50.0   150.0   33.333333333333336
100.0   150.0   50.0
50.0   120.0   50.0
50.0   150.0   50.0
100.0   150.0   50.0
50.0   150.0   33.333333333333336
50.0   120.0   50.0
100.0   150.0   50.0
100.0   120.0   50.0
100.0   120.0   33.333333333333336
50.0   120.0   50.0
100.0   150.0   50.0
100.0   120.0   33.333333333333336
50.0   150.0   33.333333333333336
100.0   0.0   0.0
150.0   0.0   0.0
100.0   30.0   0.0
100.0   0.0   16.666666666666668
150.0   0.0   0.0
150.0   30.0   0.0
100.0   30.0   0.0
150.0   30.0   16.666666666666668
100.0   0.0   16.666666666666668
100.0   30.0   16.666666666666668
150.0   30.0   16.666666666666668
100.0   30.0   0.0
100.0   0.0   16.666666666666668
150.0   30.0   16.666666666666668
150.0   0.0   16.666666666666668
150.0   0.0   0.0
100.0   0.0   16.666666666666668
150.0   30.0   16.666666666666668
150.0   0.0   0.0
100.0   30.0   0.0
100.0   0.0   16.666666666666668
150.0   0.0   16.666666666666668
100.0   30.0   16.666666666666668
100.0   0.0   33.333333333333336
150.0   0.0   16.666666666666668
150.0   30.0   16.666666666666668
100.0   30.0   16.666666666666668
150.0   30.0   33.333333333333336
100.0   0.0   33.333333333333336
100.0   30.0   33.333333333333336
150.0   30.0   33.333333333333336
100.0   30.0   16.666666666666668
100.0   0.0   33.333333333333336
150.0   30.0   33.333333333333336
150.0   0.0   33.333333333333336
150.0   0.0   16.666666666666668
100.0   0.0   33.333333333333336
150.0   30.0   33.333333333333336
150.0   0.0   16.666666666666668
100.0   30.0   16.666666666666668
100.0   0.0   33.333333333333336
150.0   0.0   33.333333333333336
100.0   30.0   33.333333333333336
100.0   0.0   50.0
150.0   0.0   33.333333333333336
150.0   30.0   33.333333333333336
100.0   30.0   33.333333333333336
150.0   30.0   50.0
100.0   0.0   50.0
100.0   30.0   50.0
150.0   30.0   50.0
100.0   30.0   33.333333333333336
100.0   0.0   50.0
150.0   30.0   50.0
150.0   0.0   50.0
150.0   0.0   33.333333333333336
100.0   0.0   50.0
150.0   30.0   50.0
150.0   0.0   33.333333333333336
100.0   30.0   33.333333333333336
100.0   30.0   0.0
150.0   30.0   0.0
100.0   60.0   0.0
100.0   30.0   16.666666666666668
150.0   30.0   0.0
150.0   60.0   0.0
100.0   60.0   0.0
150.0   60.0   16.666666666666668
100.0   30.0   16.666666666666668
100.0   60.0   16.666666666666668
150.0   60.0   16.666666666666668
100.0   60.0   0.0
100.0   30.0   16.666666666666668
150.0   60.0   16.666666666666668
150.0   30.0   16.666666666666668
150.0   30.0   0.0
100.0   30.0   16.666666666666668
150.0   60.0   16.666666666666668
150.0   30.0   0.0
100.0   60.0   0.0
100.0   30.0   16.666666666666668
150.0   30.0   16.666666666666668
100.0   60.0   16.666666666666668
100.0   30.0   33.333333333333336
150.0   30.0   16.666666666666668
150.0   60.0   16.666666666666668
100.0   60.0   16.666666666666668
150.0   60.0   33.333333333333336
100.0   30.0   33.333333333333336
100.0   60.0   33.333333333333336
150.0   60.0   33.333333333333336
100.0   60.0   16.666666666666668
100.0   30.0   33.333333333333336
150.0   60.0   33.333333333333336
150.0   30.0   33.333333333333336
150.0   30.0   16.666666666666668
100.0   30.0   33.333333333333336
150.0   60.0   33.333333333333336
150.0   30.0   16.666666666666668
100.0   60.0   16.666666666666668
100.0   30.0   33.333333333333336
150.0   30.0   33.333333333333336
100.0   60.0   33.333333333333336
100.0   30.0   50.0
150.0   30.0   33.333333333333336
150.0   60.0   33.333333333333336
100.0   60.0   33.333333333333336
150.0   60.0   50.0
100.0   30.0   50.0
100.0   60.0   50.0
150.0   60.0   50.0
100.0   60.0   33.333333333333336
100.0   30.0   50.0
150.0   60.0   50.0
150.0   30.0   50.0
150.0   30.0   33.333333333333336
100.0   30.0   50.0
150.0   60.0   50.0
150.0   30.0   33.333333333333336
100.0   60.0   33.333333333333336
100.0   60.0   0.0
150.0   60.0   0.0
100.0   90.0   0.0
100.0   60.0   16.666666666666668
150.0   60.0   0.0
150.0   90.0   0.0
100.0   90.0   0.0
150.0   90.0   16.666666666666668
100.0   60.0   16.666666666666668
100.0   90.0   16.666666666666668
150.0   90.0   16.666666666666668
100.0   90.0   0.0
100.0   60.0   16.666666666666668
150.0   90.0   16.666666666666668
150.0   60.0   16.666666666666668
150.0   60.0   0.0
100.0   60.0   16.666666666666668
150.0   90.0   16.666666666666668
150.0   60.0   0.0
100.0   90.0   0.0
100.0   60.0   16.666666666666668
150.0   60.0   16.666666666666668
100.0   90.0   16.666666666666668
100.0   60.0   33.333333333333336
150.0   60.0   16.666666666666668
150.0   90.0   16.666666666666668
100.0   90.0   16.666666666666668
150.0   90.0   33.333333333333336
100.0   60.0   33.333333333333336
100.0   90.0   33.333333333333336
150.0   90.0   33.333333333333336
100.0   90.0   16.666666666666668
100.0   60.0   33.333333333333336
150.0   90.0   33.333333333333336
150.0   60.0   33.333333333333336
150.0   60.0   16.666666666666668
100.0   60.0   33.333333333333336
150.0   90.0   33.333333333333336
150.0   60.0   16.666666666666668
100.0   90.0   16.666666666666668
100.0   60.0   33.333333333333336
150.0   60.0   33.333333333333336
100.0   90.0   33.333333333333336
100.0   60.0   50.0
150.0   60.0   33.333333333333336
150.0   90.0   33.333333333333336
100.0   90.0   33.333333333333336
150.0   90.0   50.0
100.0   60.0   50.0
100.0   90.0   50.0
150.0   90.0   50.0
100.0   90.0   33.333333333333336
100.0   60.0   50.0
150.0   90.0   50.0
150.0   60.0   50.0
150.0   60.0   33.333333333333336
100.0   60.0   50.0
150.0   90.0   50.0
150.0   60.0   33.333333333333336
100.0   90.0   33.333333333333336
100.0   90.0   0.0
150.0   90.0   0.0
100.0   120.0   0.0
100.0   90.0   16.666666666666668
150.0   90.0   0.0
150.0   120.0   0.0
100.0   120.0   0.0
150.0   120.0   16.666666666666668
100.0   90.0   16.666666666666668
100.0   120.0   16.666666666666668
150.0   120.0   16.666666666666668
100.0   120.0   0.0
100.0   90.0   16.666666666666668
150.0   120.0   16.666666666666668
150.0   90.0   16.666666666666668
150.0   90.0   0.0
100.0   90.0   16.666666666666668
150.0   120.0   16.666666666666668
150.0   90.0   0.0
100.0   120.0   0.0
100.0   90.0   16.666666666666668
150.0   90.0   16.666666666666668
100.0   120.0   16.666666666666668
100.0   90.0   33.333333333333336
150.0   90.0   16.666666666666668
150.0   120.0   16.666666666666668
100.0   120.0   16.666666666666668
150.0   120.0   33.333333333333336
100.0   90.0   33.333333333333336
100.0   120.0   33.333333333333336
150.0   120.0   33.333333333333336
100.0   120.0   16.666666666666668
100.0   90.0   33.333333333333336
150.0   120.0   33.333333333333336
150.0   90.0   33.333333333333336
150.0   90.0   16.666666666666668
100.0   90.0   33.333333333333336
150.0   120.0   33.333333333333336
150.0   90.0   16.666666666666668
100.0   120.0   16.666666666666668
100.0   90.0   33.333333333333336
150.0   90.0   33.333333333333336
100.0   120.0   33.333333333333336
100.0   90.0   50.0
150.0   90.0   33.333333333333336
150.0   120.0   33.333333333333336
100.0   120.0   33.333333333333336
150.0   120.0   50.0
100.0   90.0   50.0
100.0   120.0   50.0
150.0   120.0   50.0
100.0   120.0   33.333333333333336
100.0   90.0   50.0
150.0   120.0   50.0
150.0   90.0   50.0
150.0   90.0   33.333333333333336
100.0   90.0   50.0
150.0   120.0   50.0
150.0   90.0   33.333333333333336
100.0   120.0   33.333333333333336
100.0   120.0   0.0
150.0   120.0   0.0
100.0   150.0   0.0
100.0   120.0   16.666666666666668
150.0   120.0   0.0
150.0   150.0   0.0
100.0   150.0   0.0
150.0   150.0   16.666666666666668
100.0   120.0   16.666666666666668
100.0   150.0   16.666666666666668
150.0   150.0   16.666666666666668
100.0   150.0   0.0
100.0   120.0   16.666666666666668
150.0   150.0   16.666666666666668
150.0   120.0   16.666666666666668
150.0   120.0   0.0
100.0   120.0   16.666666666666668
150.0   150.0   16.666666666666668
150.0   120.0   0.0
100.0   150.0   0.0
100.0   120.0   16.666666666666668
150.0   120.0   16.666666666666668
100.0   150.0   16.666666666666668
100.0   120.0   33.333333333333336
150.0   120.0   16.666666666666668
150.0   150.0   16.666666666666668
100.0   150.0   16.666666666666668
150.0   150.0   33.333333333333336
100.0   120.0   33.333333333333336
100.0   150.0   33.333333333333336
150.0   150.0   33.333333333333336
100.0   150.0   16.666666666666668
100.0   120.0   33.333333333333336
150.0   150.0   33.333333333333336
150.0   120.0   33.333333333333336
150.0   120.0   16.666666666666668
100.0   120.0   33.333333333333336
150.0   150.0   33.333333333333336
150.0   120.0   16.666666666666668
100.0   150.0   16.666666666666668
100.0   120.0   33.333333333333336
150.0   120.0   33.333333333333336
100.0   150.0   33.333333333333336
100.0   120.0   50.0
150.0   120.0   33.333333333333336
150.0   150.0   33.333333333333336
100.0   150.0   33.333333333333336
150.0   150.0   50.0
100.0   120.0   50.0
100.0   150.0   50.0
150.0   150.0   50.0
100.0   150.0   33.333333333333336
100.0   120.0   50.0
150.0   150.0   50.0
150.0   120.0   50.0
150.0   120.0   33.333333333333336
100.0   120.0   50.0
150.0   150.0   50.0
150.0   120.0   33.333333333333336
100.0   150.0   33.333333333333336
150.0   0.0   0.0
200.0   0.0   0.0
150.0   30.0   0.0
150.0   0.0   16.666666666666668
200.0   0.0   0.0
200.0   30.0   0.0
150.0   30.0   0.0
200.0   30.0   16.666666666666668
150.0   0.0   16.666666666666668
150.0   30.0   16.666666666666668
200.0   30.0   16.666666666666668
150.0   30.0   0.0
150.0   0.0   16.666666666666668
200.0   30.0   16.666666666666668
200.0   0.0   16.666666666666668
200.0   0.0   0.0
150.0   0.0   16.666666666666668
200.0   30.0   16.666666666666668
200.0   0.0   0.0
150.0   30.0   0.0
150.0   0.0   16.666666666666668
200.0   0.0   16.666666666666668
150.0   30.0   16.666666666666668
150.0   0.0   33.333333333333336
200.0   0.0   16.666666666666668
200.0   30.0   16.666666666666668
150.0   30.0   16.666666666666668
200.0   30.0   33.333333333333336
150.0   0.0   33.333333333333336
150.0   30.0   33.333333333333336
200.0   30.0   33.333333333333336
150.0   30.0   16.666666666666668
150.0   0.0   33.333333333333336
200.0   30.0   33.333333333333336
200.0   0.0   33.333333333333336
200.0   0.0   16.666666666666668
150.0   0.0   33.333333333333336
200.0   30.0   33.333333333333336
200.0   0.0   16.666666666666668
150.0   30.0   16.666666666666668
150.0   0.0   33.333333333333336
200.0   0.0   33.333333333333336
150.0   30.0   33.333333333333336
150.0   0.0   50.0
200.0   0.0   33.333333333333336
200.0   30.0   33.333333333333336
150.0   30.0   33.333333333333336
200.0   30.0   50.0
150.0   0.0   50.0
150.0   30.0   50.0
200.0   30.0   50.0
150.0   30.0   33.333333333333336
150.0   0.0   50.0
200.0   30.0   50.0
200.0   0.0   50.0
200.0   0.0   33.333333333333336
150.0   0.0   50.0
200.0   30.0   50.0
200.0   0.0   33.333333333333336
150.0   30.0   33.333333333333336
150.0   30.0   0.0
200.0   30.0   0.0
150.0   60.0   0.0
150.0   30.0   16.666666666666668
200.0   30.0   0.0
200.0   60.0   0.0
150.0   60.0   0.0
200.0   60.0   16.666666666666668
150.0   30.0   16.666666666666668
150.0   60.0   16.666666666666668
200.0   60.0   16.666666666666668
150.0   60.0   0.0
150.0   30.0   16.666666666666668
200.0   60.0   16.666666666666668
200.0   30.0   16.666666666666668
200.0   30.0   0.0
150.0   30.0   16.666666666666668
200.0   60.0   16.666666666666668
200.0   30.0   0.0
150.0   60.0   0.0
150.0   30.0   16.666666666666668
200.0   30.0   16.666666666666668
150.0   60.0   16.666666666666668
150.0   30.0   33.333333333333336
200.0   30.0   16.666666666666668
200.0   60.0   16.666666666666668
150.0   60.0   16.666666666666668
200.0   60.0   33.333333333333336
150.0   30.0   33.333333333333336
150.0   60.0   33.333333333333336
200.0   60.0   33.333333333333336
150.0   60.0   16.666666666666668
150.0   30.0   33.333333333333336
200.0   60.0   33.333333333333336
200.0   30.0   33.333333333333336
200.0   30.0   16.666666666666668
150.0   30.0   33.333333333333336
200.0   60.0   33.333333333333336
200.0   30.0   16.666666666666668
150.0   60.0   16.666666666666668
150.0   30.0   33.333333333333336
200.0   30.0   33.333333333333336
150.0   60.0   33.333333333333336
150.0   30.0   50.0
200.0   30.0   33.333333333333336
200.0   60.0   33.333333333333336
150.0   60.0   33.333333333333336
200.0   60.0   50.0
150.0   30.0   50.0
150.0   60.0   50.0
200.0   60.0   50.0
150.0   60.0   33.333333333333336
150.0   30.0   50.0
200.0   60.0   50.0
200.0   30.0   50.0
200.0   30.0   33.333333333333336
150.0   30.0   50.0
200.0   60.0   50.0
200.0   30.0   33.333333333333336
150.0   60.0   33.333333333333336
150.0   60.0   0.0
200.0   60.0   0.0
150.0   90.0   0.0
150.0   60.0   16.666666666666668
200.0   60.0   0.0
200.0   90.0   0.0
150.0   90.0   0.0
200.0   90.0   16.666666666666668
150.0   60.0   16.666666666666668
150.0   90.0   16.666666666666668
200.0   90.0   16.666666666666668
150.0   90.0   0.0
150.0   60.0   16.666666666666668
200.0   90.0   16.666666666666668
200.0   60.0   16.666666666666668
200.0   60.0   0.0
150.0   60.0   16.666666666666668
200.0   90.0   16.666666666666668
200.0   60.0   0.0
150.0   90.0   0.0
150.0   60.0   16.666666666666668
200.0   60.0   16.666666666666668
150.0   90.0   16.666666666666668
150.0   60.0   33.333333333333336
200.0   60.0   16.666666666666668
200.0   90.0   16.666666666666668
150.0   90.0   16.666666666666668
200.0   90.0   33.333333333333336
150.0   60.0   33.333333333333336
150.0   90.0   33.333333333333336
200.0   90.0   33.333333333333336
150.0   90.0   16.666666666666668
150.0   60.0   33.333333333333336
200.0   90.0   33.333333333333336
200.0   60.0   33.333333333333336
200.0   60.0   16.666666666666668
150.0   60.0   33.333333333333336
200.0   90.0   33.333333333333336
200.0   60.0   16.666666666666668
150.0   90.0   16.666666666666668
150.0   60.0   33.333333333333336
200.0   60.0   33.333333333333336
150.0   90.0   33.333333333333336
150.0   60.0   50.0
200.0   60.0   33.333333333333336
200.0   90.0   33.333333333333336
150.0   90.0   33.333333333333336
200.0   90.0   50.0
150.0   60.0   50.0
150.0   90.0   50.0
200.0   90.0   50.0
150.0   90.0   33.333333333333336
150.0   60.0   50.0
200.0   90.0   50.0
200.0   60.0   50.0
200.0   60.0   33.333333333333336
150.0   60.0   50.0
200.0   90.0   50.0
200.0   60.0   33.333333333333336
150.0   90.0   33.333333333333336
150.0   90.0   0.0
200.0   90.0   0.0
150.0   120.0   0.0
150.0   90.0   16.666666666666668
200.0   90.0   0.0
200.0   120.0   0.0
150.0   120.0   0.0
200.0   120.0   16.666666666666668
150.0   90.0   16.666666666666668
150.0   120.0   16.666666666666668
200.0   120.0   16.666666666666668
150.0   120.0   0.0
150.0   90.0   16.666666666666668
200.0   120.0   16.666666666666668
200.0   90.0   16.666666666666668
200.0   90.0   0.0
150.0   90.0   16.666666666666668
200.0   120.0   16.666666666666668
200.0   90.0   0.0
150.0   120.0   0.0
150.0   90.0   16.666666666666668
200.0   90.0   16.666666666666668
150.0   120.0   16.666666666666668
150.0   90.0   33.333333333333336
200.0   90.0   16.666666666666668
200.0   120.0   16.666666666666668
150.0   120.0   16.666666666666668
200.0   120.0   33.333333333333336
150.0   90.0   33.333333333333336
150.0   120.0   33.333333333333336
200.0   120.0   33.333333333333336
150.0   120.0   16.666666666666668
150.0   90.0   33.333333333333336
200.0   120.0   33.333333333333336
200.0   90.0   33.333333333333336
200.0   90.0   16.666666666666668
150.0   90.0   33.333333333333336
200.0   120.0   33.333333333333336
200.0   90.0   16.666666666666668
150.0   120.0   16.666666666666668
150.0   90.0   33.333333333333336
200.0   90.0   33.333333333333336
150.0   120.0   33.333333333333336
150.0   90.0   50.0
200.0   90.0   33.333333333333336
200.0   120.0   33.333333333333336
150.0   120.0   33.333333333333336
200.0   120.0   50.0
150.0   90.0   50.0
150.0   120.0   50.0
200.0   120.0   50.0
150.0   120.0   33.333333333333336
150.0   90.0   50.0
200.0   120.0   50.0
200.0   90.0   50.0
200.0   90.0   33.333333333333336
150.0   90.0   50.0
200.0   120.0   50.0
200.0   90.0   33.333333333333336
150.0   120.0   33.333333333333336
150.0   120.0   0.0
200.0   120.0   0.0
150.0   150.0   0.0
150.0   120.0   16.666666666666668
200.0   120.0   0.0
200.0   150.0   0.0
150.0   150.0   0.0
200.0   150.0   16.666666666666668
150.0   120.0   16.666666666666668
150.0   150.0   16.666666666666668
200.0   150.0   16.666666666666668
150.0   150.0   0.0
150.0   120.0   16.666666666666668
200.0   150.0   16.666666666666668
200.0   120.0   16.666666666666668
200.0   120.0   0.0
150.0   120.0   16.666666666666668
200.0   150.0   16.666666666666668
200.0   120.0   0.0
150.0   150.0   0.0
150.0   120.0   16.666666666666668
200.0   120.0   16.666666666666668
150.0   150.0   16.666666666666668
150.0   120.0   33.333333333333336
200.0   120.0   16.666666666666668
200.0   150.0   16.666666666666668
150.0   150.0   16.666666666666668
200.0   150.0   33.333333333333336
150.0   120.0   33.333333333333336
150.0   150.0   33.333333333333336
200.0   150.0   33.333333333333336
150.0   150.0   16.666666666666668
150.0   120.0   33.333333333333336
200.0   150.0   33.333333333333336
200.0   120.0   33.333333333333336
200.0   120.0   16.666666666666668
150.0   120.0   33.333333333333336
200.0   150.0   33.333333333333336
200.0   120.0   16.666666666666668
150.0   150.0   16.666666666666668
150.0   120.0   33.333333333333336
200.0   120.0   33.333333333333336
150.0   150.0   33.333333333333336
150.0   120.0   50.0
200.0   120.0   33.333333333333336
200.0   150.0   33.333333333333336
150.0   150.0   33.333333333333336
200.0   150.0   50.0
150.0   120.0   50.0
150.0   150.0   50.0
200.0   150.0   50.0
150.0   150.0   33.333333333333336
150.0   120.0   50.0
200.0   150.0   50.0
200.0   120.0   50.0
200.0   120.0   33.333333333333336
150.0   120.0   50.0
200.0   150.0   50.0
200.0   120.0   33.333333333333336
150.0   150.0   33.333333333333336
200.0   0.0   0.0
250.0   0.0   0.0
200.0   30.0   0.0
200.0   0.0   16.666666666666668
250.0   0.0   0.0
250.0   30.0   0.0
200.0   30.0   0.0
250.0   30.0   16.666666666666668
200.0   0.0   16.666666666666668
200.0   30.0   16.666666666666668
250.0   30.0   16.666666666666668
200.0   30.0   0.0
200.0   0.0   16.666666666666668
250.0   30.0   16.666666666666668
250.0   0.0   16.666666666666668
250.0   0.0   0.0
200.0   0.0   16.666666666666668
250.0   30.0   16.666666666666668
250.0   0.0   0.0
200.0   30.0   0.0
200.0   0.0   16.666666666666668
250.0   0.0   16.666666666666668
200.0   30.0   16.666666666666668
200.0   0.0   33.333333333333336
250.0   0.0   16.666666666666668
250.0   30.0   16.666666666666668
200.0   30.0   16.666666666666668
250.0   30.0   33.333333333333336
200.0   0.0   33.333333333333336
200.0   30.0   33.333333333333336
250.0   30.0   33.333333333333336
200.0   30.0   16.666666666666668
200.0   0.0   33.333333333333336
250.0   30.0   33.333333333333336
250.0   0.0   33.333333333333336
250.0   0.0   16.666666666666668
200.0   0.0   33.333333333333336
250.0   30.0   33.333333333333336
250.0   0.0   16.666666666666668
200.0   30.0   16.666666666666668
200.0   0.0   33.333333333333336
250.0   0.0   33.333333333333336
200.0   30.0   33.333333333333336
200.0   0.0   50.0
250.0   0.0   33.333333333333336
250.0   30.0   33.333333333333336
200.0   30.0   33.333333333333336
250.0   30.0   50.0
200.0   0.0   50.0
200.0   30.0   50.0
250.0   30.0   50.0
200.0   30.0   33.333333333333336
200.0   0.0   50.0
250.0   30.0   50.0
250.0   0.0   50.0
250.0   0.0   33.333333333333336
200.0   0.0   50.0
250.0   30.0   50.0
250.0   0.0   33.333333333333336
200.0   30.0   33.333333333333336
200.0   30.0   0.0
250.0   30.0   0.0
200.0   60.0   0.0
200.0   30.0   16.666666666666668
250.0   30.0   0.0
250.0   60.0   0.0
200.0   60.0   0.0
250.0   60.0   16.666666666666668
200.0   30.0   16.666666666666668
200.0   60.0   16.666666666666668
250.0   60.0   16.666666666666668
200.0   60.0   0.0
200.0   30.0   16.666666666666668
250.0   60.0   16.666666666666668
250.0   30.0   16.666666666666668
250.0   30.0   0.0
200.0   30.0   16.666666666666668
250.0   60.0   16.666666666666668
250.0   30.0   0.0
200.0   60.0   0.0
200.0   30.0   16.666666666666668
250.0   30.0   16.666666666666668
200.0   60.0   16.666666666666668
200.0   30.0   33.333333333333336
250.0   30.0   16.666666666666668
250.0   60.0   16.666666666666668
200.0   60.0   16.666666666666668
250.0   60.0   33.333333333333336
200.0   30.0   33.333333333333336
200.0   60.0   33.333333333333336
250.0   60.0   33.333333333333336
200.0   60.0   16.666666666666668
200.0   30.0   33.333333333333336
250.0   60.0   33.333333333333336
250.0   30.0   33.333333333333336
250.0   30.0   16.666666666666668
200.0   30.0   33.333333333333336
250.0   60.0   33.333333333333336
250.0   30.0   16.666666666666668
200.0   60.0   16.666666666666668
200.0   30.0   33.333333333333336
250.0   30.0   33.333333333333336
200.0   60.0   33.333333333333336
200.0   30.0   50.0
250.0   30.0   33.333333333333336
250.0   60.0   33.333333333333336
200.0   60.0   33.333333333333336
250.0   60.0   50.0
200.0   30.0   50.0
200.0   60.0   50.0
250.0   60.0   50.0
200.0   60.0   33.333333333333336
200.0   30.0   50.0
250.0   60.0   50.0
250.0   30.0   50.0
250.0   30.0   33.333333333333336
200.0   30.0   50.0
250.0   60.0   50.0
250.0   30.0   33.333333333333336
200.0   60.0   33.333333333333336
200.0   60.0   0.0
250.0   60.0   0.0
200.0   90.0   0.0
200.0   60.0   16.666666666666668
250.0   60.0   0.0
250.0   90.0   0.0
200.0   90.0   0.0
250.0   90.0   16.666666666666668
200.0   60.0   16.666666666666668
200.0   90.0   16.666666666666668
250.0   90.0   16.666666666666668
200.0   90.0   0.0
200.0   60.0   16.666666666666668
250.0   90.0   16.666666666666668
250.0   60.0   16.666666666666668
250.0   60.0   0.0
200.0   60.0   16.666666666666668
250.0   90.0   16.666666666666668
250.0   60.0   0.0
200.0   90.0   0.0
200.0   60.0   16.666666666666668
250.0   60.0   16.666666666666668
200.0   90.0   16.666666666666668
200.0   60.0   33.333333333333336
250.0   60.0   16.666666666666668
250.0   90.0   16.666666666666668
200.0   90.0   16.666666666666668
250.0   90.0   33.333333333333336
200.0   60.0   33.333333333333336
200.0   90.0   33.333333333333336
250.0   90.0   33.333333333333336
200.0   90.0   16.666666666666668
200.0   60.0   33.333333333333336
250.0   90.0   33.333333333333336
250.0   60.0   33.333333333333336
250.0   60.0   16.666666666666668
200.0   60.0   33.333333333333336
250.0   90.0   33.333333333333336
250.0   60.0   16.666666666666668
200.0   90.0   16.666666666666668
200.0   60.0   33.333333333333336
250.0   60.0   33.333333333333336
200.0   90.0   33.333333333333336
200.0   60.0   50.0
250.0   60.0   33.333333333333336
250.0   90.0   33.333333333333336
200.0   90.0   33.333333333333336
250.0   90.0   50.0
200.0   60.0   50.0
200.0   90.0   50.0
250.0   90.0   50.0
200.0   90.0   33.333333333333336
200.0   60.0   50.0
250.0   90.0   50.0
250.0   60.0   50.0
250.0   60.0   33.333333333333336
200.0   60.0   50.0
250.0   90.0   50.0
250.0   60.0   33.333333333333336
200.0   90.0   33.333333333333336
200.0   90.0   0.0
250.0   90.0   0.0
200.0   120.0   0.0
200.0   90.0   16.666666666666668
250.0   90.0   0.0
250.0   120.0   0.0
200.0   120.0   0.0
250.0   120.0   16.666666666666668
200.0   90.0   16.666666666666668
200.0   120.0   16.666666666666668
250.0   120.0   16.666666666666668
200.0   120.0   0.0
200.0   90.0   16.666666666666668
250.0   120.0   16.666666666666668
250.0   90.0   16.666666666666668
250.0   90.0   0.0
200.0   90.0   16.666666666666668
250.0   120.0   16.666666666666668
250.0   90.0   0.0
200.0   120.0   0.0
200.0   90.0   16.666666666666668
250.0   90.0   16.666666666666668
200.0   120.0   16.666666666666668
200.0   90.0   33.333333333333336
250.0   90.0   16.666666666666668
250.0   120.0   16.666666666666668
200.0   120.0   16.666666666666668
250.0   120.0   33.333333333333336
200.0   90.0   33.333333333333336
200.0   120.0   33.333333333333336
250.0   120.0   33.333333333333336
200.0   120.0   16.666666666666668
200.0   90.0   33.333333333333336
250.0   120.0   33.333333333333336
250.0   90.0   33.333333333333336
250.0   90.0   16.666666666666668
200.0   90.0   33.333333333333336
250.0   120.0   33.333333333333336
250.0   90.0   16.666666666666668
200.0   120.0   16.666666666666668
200.0   90.0   33.333333333333336
250.0   90.0   33.333333333333336
200.0   120.0   33.333333333333336
200.0   90.0   50.0
250.0   90.0   33.333333333333336
250.0   120.0   33.333333333333336
200.0   120.0   33.333333333333336
250.0   120.0   50.0
200.0   90.0   50.0
200.0   120.0   50.0
250.0   120.0   50.0
200.0   120.0   33.333333333333336
200.0   90.0   50.0
250.0   120.0   50.0
250.0   90.0   50.0
250.0   90.0   33.333333333333336
200.0   90.0   50.0
250.0   120.0   50.0
250.0   90.0   33.333333333333336
200.0   120.0   33.333333333333336
200.0   120.0   0.0
250.0   120.0   0.0
200.0   150.0   0.0
200.0   120.0   16.666666666666668
250.0   120.0   0.0
250.0   150.0   0.0
200.0   150.0   0.0
250.0   150.0   16.666666666666668
200.0   120.0   16.666666666666668
200.0   150.0   16.666666666666668
250.0   150.0   16.666666666666668
200.0   150.0   0.0
200.0   120.0   16.666666666666668
250.0   150.0   16.666666666666668
250.0   120.0   16.666666666666668
250.0   120.0   0.0
200.0   120.0   16.666666666666668
250.0   150.0   16.666666666666668
250.0   120.0   0.0
200.0   150.0   0.0
200.0   120.0   16.666666666666668
250.0   120.0   16.666666666666668
200.0   150.0   16.666666666666668
200.0   120.0   33.333333333333336
250.0   120.0   16.666666666666668
250.0   150.0   16.666666666666668
200.0   150.0   16.666666666666668
250.0   150.0   33.333333333333336
200.0   120.0   33.333333333333336
200.0   150.0   33.333333333333336
250.0   150.0   33.333333333333336
200.0   150.0   16.666666666666668
200.0   120.0   33.333333333333336
250.0   150.0   33.333333333333336
250.0   120.0   33.333333333333336
250.0   120.0   16.666666666666668
200.0   120.0   33.333333333333336
250.0   150.0   33.333333333333336
250.0   120.0   16.666666666666668
200.0   150.0   16.666666666666668
200.0   120.0   33.333333333333336
250.0   120.0   33.333333333333336
200.0   150.0   33.333333333333336
200.0   120.0   50.0
250.0   120.0   33.333333333333336
250.0   150.0   33.333333333333336
200.0   150.0   33.333333333333336
250.0   150.0   50.0
200.0   120.0   50.0
200.0   150.0   50.0
250.0   150.0   50.0
200.0   150.0   33.333333333333336
200.0   120.0   50.0
250.0   150.0   50.0
250.0   120.0   50.0
250.0   120.0   33.333333333333336
200.0   120.0   50.0
250.0   150.0   50.0
250.0   120.0   33.333333333333336
200.0   150.0   33.333333333333336
250.0   0.0   0.0
300.0   0.0   0.0
250.0   30.0   0.0
250.0   0.0   16.666666666666668
300.0   0.0   0.0
300.0   30.0   0.0
250.0   30.0   0.0
300.0   30.0   16.666666666666668
250.0   0.0   16.666666666666668
250.0   30.0   16.666666666666668
300.0   30.0   16.666666666666668
250.0   30.0   0.0
250.0   0.0   16.666666666666668
300.0   30.0   16.666666666666668
300.0   0.0   16.666666666666668
300.0   0.0   0.0
250.0   0.0   16.666666666666668
300.0   30.0   16.666666666666668
300.0   0.0   0.0
250.0   30.0   0.0
250.0   0.0   16.666666666666668
300.0   0.0   16.666666666666668
250.0   30.0   16.666666666666668
250.0   0.0   33.333333333333336
300.0   0.0   16.666666666666668
300.0   30.0   16.666666666666668
250.0   30.0   16.666666666666668
300.0   30.0   33.333333333333336
250.0   0.0   33.333333333333336
250.0   30.0   33.333333333333336
300.0   30.0   33.333333333333336
250.0   30.0   16.666666666666668
250.0   0.0   33.333333333333336
300.0   30.0   33.333333333333336
300.0   0.0   33.333333333333336
300.0   0.0   16.666666666666668
250.0   0.0   33.333333333333336
300.0   30.0   33.333333333333336
300.0   0.0   16.666666666666668
250.0   30.0   16.666666666666668
250.0   0.0   33.333333333333336
300.0   0.0   33.333333333333336
250.0   30.0   33.333333333333336
250.0   0.0   50.0
300.0   0.0   33.333333333333336
300.0   30.0   33.333333333333336
250.0   30.0   33.333333333333336
300.0   30.0   50.0
250.0   0.0   50.0
250.0   30.0   50.0
300.0   30.0   50.0
250.0   30.0   33.333333333333336
250.0   0.0   50.0
300.0   30.0   50.0
300.0   0.0   50.0
300.0   0.0   33.333333333333336
250.0   0.0   50.0
300.0   30.0   50.0
300.0   0.0   33.333333333333336
250.0   30.0   33.333333333333336
250.0   30.0   0.0
300.0   30.0   0.0
250.0   60.0   0.0
250.0   30.0   16.666666666666668
300.0   30.0   0.0
300.0   60.0   0.0
250.0   60.0   0.0
300.0   60.0   16.666666666666668
250.0   30.0   16.666666666666668
250.0   60.0   16.666666666666668
300.0   60.0   16.666666666666668
250.0   60.0   0.0
250.0   30.0   16.666666666666668
300.0   60.0   16.666666666666668
300.0   30.0   16.666666666666668
300.0   30.0   0.0
250.0   30.0   16.666666666666668
300.0   60.0   16.666666666666668
300.0   30.0   0.0
250.0   60.0   0.0
250.0   30.0   16.666666666666668
300.0   30.0   16.666666666666668
250.0   60.0   16.666666666666668
250.0   30.0   33.333333333333336
300.0   30.0   16.666666666666668
300.0   60.0   16.666666666666668
250.0   60.0   16.666666666666668
300.0   60.0   33.333333333333336
250.0   30.0   33.333333333333336
250.0   60.0   33.333333333333336
300.0   60.0   33.333333333333336
250.0   60.0   16.666666666666668
250.0   30.0   33.333333333333336
300.0   60.0   33.333333333333336
300.0   30.0   33.333333333333336
300.0   30.0   16.666666666666668
250.0   30.0   33.333333333333336
300.0   60.0   33.333333333333336
300.0   30.0   16.666666666666668
250.0   60.0   16.666666666666668
250.0   30.0   33.333333333333336
300.0   30.0   33.333333333333336
250.0   60.0   33.333333333333336
250.0   30.0   50.0
300.0   30.0   33.333333333333336
300.0   60.0   33.333333333333336
250.0   60.0   33.333333333333336
300.0   60.0   50.0
250.0   30.0   50.0
250.0   60.0   50.0
300.0   60.0   50.0
250.0   60.0   33.333333333333336
250.0   30.0   50.0
300.0   60.0   50.0
300.0   30.0   50.0
300.0   30.0   33.333333333333336
250.0   30.0   50.0
300.0   60.0   50.0
300.0   30.0   33.333333333333336
250.0   60.0   33.333333333333336
250.0   60.0   0.0
300.0   60.0   0.0
250.0   90.0   0.0
250.0   60.0   16.666666666666668
300.0   60.0   0.0
300.0   90.0   0.0
250.0   90.0   0.0
300.0   90.0   16.666666666666668
250.0   60.0   16.666666666666668
250.0   90.0   16.666666666666668
300.0   90.0   16.666666666666668
250.0   90.0   0.0
250.0   60.0   16.666666666666668
300.0   90.0   16.666666666666668
300.0   60.0   16.666666666666668
300.0   60.0   0.0
250.0   60.0   16.666666666666668
300.0   90.0   16.666666666666668
300.0   60.0   0.0
250.0   90.0   0.0
250.0   60.0   16.666666666666668
300.0   60.0   16.666666666666668
250.0   90.0   16.666666666666668
250.0   60.0   33.333333333333336
300.0   60.0   16.666666666666668
300.0   90.0   16.666666666666668
250.0   90.0   16.666666666666668
300.0   90.0   33.333333333333336
250.0   60.0   33.333333333333336
250.0   90.0   33.333333333333336
300.0   90.0   33.333333333333336
250.0   90.0   16.666666666666668
250.0   60.0   33.333333333333336
300.0   90.0   33.333333333333336
300.0   60.0   33.333333333333336
300.0   60.0   16.666666666666668
250.0   60.0   33.333333333333336
300.0   90.0   33.333333333333336
300.0   60.0   16.666666666666668
250.0   90.0   16.666666666666668
250.0   60.0   33.333333333333336
300.0   60.0   33.333333333333336
250.0   90.0   33.333333333333336
250.0   60.0   50.0
300.0   60.0   33.333333333333336
300.0   90.0   33.333333333333336
250.0   90.0   33.333333333333336
300.0   90.0   50.0
250.0   60.0   50.0
250.0   90.0   50.0
300.0   90.0   50.0
250.0   90.0   33.333333333333336
250.0   60.0   50.0
300.0   90.0   50.0
300.0   60.0   50.0
300.0   60.0   33.333333333333336
250.0   60.0   50.0
300.0   90.0   50.0
300.0   60.0   33.333333333333336
250.0   90.0   33.333333333333336
250.0   90.0   0.0
300.0   90.0   0.0
250.0   120.0   0.0
250.0   90.0   16.666666666666668
300.0   90.0   0.0
300.0   120.0   0.0
250.0   120.0   0.0
300.0   120.0   16.666666666666668
250.0   90.0   16.666666666666668
250.0   120.0   16.666666666666668
300.0   120.0   16.666666666666668
250.0   120.0   0.0
250.0   90.0   16.666666666666668
300.0   120.0   16.666666666666668
300.0   90.0   16.666666666666668
300.0   90.0   0.0
250.0   90.0   16.666666666666668
300.0   120.0   16.666666666666668
300.0   90.0   0.0
250.0   120.0   0.0
250.0   90.0   16.666666666666668
300.0   90.0   16.666666666666668
250.0   120.0   16.666666666666668
250.0   90.0   33.333333333333336
300.0   90.0   16.666666666666668
300.0   120.0   16.666666666666668
250.0   120.0   16.666666666666668
300.0   120.0   33.333333333333336
250.0   90.0   33.333333333333336
250.0   120.0   33.333333333333336
300.0   120.0   33.333333333333336
250.0   120.0   16.666666666666668
250.0   90.0   33.333333333333336
300.0   120.0   33.333333333333336
300.0   90.0   33.333333333333336
300.0   90.0   16.666666666666668
250.0   90.0   33.333333333333336
300.0   120.0   33.333333333333336
300.0   90.0   16.666666666666668
250.0   120.0   16.666666666666668
250.0   90.0   33.333333333333336
300.0   90.0   33.333333333333336
250.0   120.0   33.333333333333336
250.0   90.0   50.0
300.0   90.0   33.333333333333336
300.0   120.0   33.333333333333336
250.0   120.0   33.333333333333336
300.0   120.0   50.0
250.0   90.0   50.0
250.0   120.0   50.0
300.0   120.0   50.0
250.0   120.0   33.333333333333336
250.0   90.0   50.0
300.0   120.0   50.0
300.0   90.0   50.0
300.0   90.0   33.333333333333336
250.0   90.0   50.0
300.0   120.0   50.0
300.0   90.0   33.333333333333336
250.0   120.0   33.333333333333336
250.0   120.0   0.0
300.0   120.0   0.0
250.0   150.0   0.0
250.0   120.0   16.666666666666668
300.0   120.0   0.0
300.0   150.0   0.0
250.0   150.0   0.0
300.0   150.0   16.666666666666668
250.0   120.0   16.666666666666668
250.0   150.0   16.666666666666668
300.0   150.0   16.666666666666668
250.0   150.0   0.0
250.0   120.0   16.666666666666668
300.0   150.0   16.666666666666668
300.0   120.0   16.666666666666668
300.0   120.0   0.0
250.0   120.0   16.666666666666668
300.0   150.0   16.666666666666668
300.0   120.0   0.0
250.0   150.0   0.0
250.0   120.0   16.666666666666668
300.0   120.0   16.666666666666668
250.0   150.0   16.666666666666668
250.0   120.0   33.333333333333336
300.0   120.0   16.666666666666668
300.0   150.0   16.666666666666668
250.0   150.0   16.666666666666668
300.0   150.0   33.333333333333336
250.0   120.0   33.333333333333336
250.0   150.0   33.333333333333336
300.0   150.0   33.333333333333336
250.0   150.0   16.666666666666668
250.0   120.0   33.333333333333336
300.0   150.0   33.333333333333336
300.0   120.0   33.333333333333336
300.0   120.0   16.666666666666668
250.0   120.0   33.333333333333336
300.0   150.0   33.333333333333336
300.0   120.0   16.666666666666668
250.0   150.0   16.666666666666668
250.0   120.0   33.333333333333336
300.0   120.0   33.333333333333336
250.0   150.0   33.333333333333336
250.0   120.0   50.0
300.0   120.0   33.333333333333336
300.0   150.0   33.333333333333336
250.0   150.0   33.333333333333336
300.0   150.0   50.0
250.0   120.0   50.0
250.0   150.0   50.0
300.0   150.0   50.0
250.0   150.0   33.333333333333336
250.0   120.0   50.0
300.0   150.0   50.0
300.0   120.0   50.0
300.0   120.0   33.333333333333336
250.0   120.0   50.0
300.0   150.0   50.0
300.0   120.0   33.333333333333336
250.0   150.0   33.333333333333336
300.0   0.0   0.0
350.0   0.0   0.0
300.0   30.0   0.0
300.0   0.0   16.666666666666668
350.0   0.0   0.0
350.0   30.0   0.0
300.0   30.0   0.0
350.0   30.0   16.666666666666668
300.0   0.0   16.666666666666668
300.0   30.0   16.666666666666668
350.0   30.0   16.666666666666668
300.0   30.0   0.0
300.0   0.0   16.666666666666668
350.0   30.0   16.666666666666668
350.0   0.0   16.666666666666668
350.0   0.0   0.0
300.0   0.0   16.666666666666668
350.0   30.0   16.666666666666668
350.0   0.0   0.0
300.0   30.0   0.0
300.0   0.0   16.666666666666668
350.0   0.0   16.666666666666668
300.0   30.0   16.666666666666668
300.0   0.0   33.333333333333336
350.0   0.0   16.666666666666668
350.0   30.0   16.666666666666668
300.0   30.0   16.666666666666668
350.0   30.0   33.333333333333336
300.0   0.0   33.333333333333336
300.0   30.0   33.333333333333336
350.0   30.0   33.333333333333336
300.0   30.0   16.666666666666668
300.0   0.0   33.333333333333336
350.0   30.0   33.333333333333336
350.0   0.0   33.333333333333336
350.0   0.0   16.666666666666668
300.0   0.0   33.333333333333336
350.0   30.0   33.333333333333336
350.0   0.0   16.666666666666668
300.0   30.0   16.666666666666668
300.0   0.0   33.333333333333336
350.0   0.0   33.333333333333336
300.0   30.0   33.333333333333336
300.0   0.0   50.0
350.0   0.0   33.333333333333336
350.0   30.0   33.333333333333336
300.0   30.0   33.333333333333336
350.0   30.0   50.0
300.0   0.0   50.0
300.0   30.0   50.0
350.0   30.0   50.0
300.0   30.0   33.333333333333336
300.0   0.0   50.0
350.0   30.0   50.0
350.0   0.0   50.0
350.0   0.0   33.333333333333336
300.0   0.0   50.0
350.0   30.0   50.0
350.0   0.0   33.333333333333336
300.0   30.0   33.333333333333336
300.0   30.0   0.0
350.0   30.0   0.0
300.0   60.0   0.0
300.0   30.0   16.666666666666668
350.0   30.0   0.0
350.0   60.0   0.0
300.0   60.0   0.0
350.0   60.0   16.666666666666668
300.0   30.0   16.666666666666668
300.0   60.0   16.666666666666668
350.0   60.0   16.666666666666668
300.0   60.0   0.0
300.0   30.0   16.666666666666668
350.0   60.0   16.666666666666668
350.0   30.0   16.666666666666668
350.0   30.0   0.0
300.0   30.0   16.666666666666668
350.0   60.0   16.666666666666668
350.0   30.0   0.0
300.0   60.0   0.0
300.0   30.0   16.666666666666668
350.0   30.0   16.666666666666668
300.0   60.0   16.666666666666668
300.0   30.0   33.333333333333336
350.0   30.0   16.666666666666668
350.0   60.0   16.666666666666668
300.0   60.0   16.666666666666668
350.0   60.0   33.333333333333336
300.0   30.0   33.333333333333336
300.0   60.0   33.333333333333336
350.0   60.0   33.333333333333336
300.0   60.0   16.666666666666668
300.0   30.0   33.333333333333336
350.0   60.0   33.333333333333336
350.0   30.0   33.333333333333336
350.0   30.0   16.666666666666668
300.0   30.0   33.333333333333336
350.0   60.0   33.333333333333336
350.0   30.0   16.666666666666668
300.0   60.0   16.666666666666668
300.0   30.0   33.333333333333336
350.0   30.0   33.333333333333336
300.0   60.0   33.333333333333336
300.0   30.0   50.0
350.0   30.0   33.333333333333336
350.0   60.0   33.333333333333336
300.0   60.0   33.333333333333336
350.0   60.0   50.0
300.0   30.0   50.0
300.0   60.0   50.0
350.0   60.0   50.0
300.0   60.0   33.333333333333336
300.0   30.0   50.0
350.0   60.0   50.0
350.0   30.0   50.0
350.0   30.0   33.333333333333336
300.0   30.0   50.0
350.0   60.0   50.0
350.0   30.0   33.333333333333336
300.0   60.0   33.333333333333336
300.0   60.0   0.0
350.0   60.0   0.0
300.0   90.0   0.0
300.0   60.0   16.666666666666668
350.0   60.0   0.0
350.0   90.0   0.0
300.0   90.0   0.0
350.0   90.0   16.666666666666668
300.0   60.0   16.666666666666668
300.0   90.0   16.666666666666668
350.0   90.0   16.666666666666668
300.0   90.0   0.0
300.0   60.0   16.666666666666668
350.0   90.0   16.666666666666668
350.0   60.0   16.666666666666668
350.0   60.0   0.0
300.0   60.0   16.666666666666668
350.0   90.0   16.666666666666668
350.0   60.0   0.0
300.0   90.0   0.0
300.0   60.0   16.666666666666668
350.0   60.0   16.666666666666668
300.0   90.0   16.666666666666668
300.0   60.0   33.333333333333336
350.0   60.0   16.666666666666668
350.0   90.0   16.666666666666668
300.0   90.0   16.666666666666668
350.0   90.0   33.333333333333336
300.0   60.0   33.333333333333336
300.0   90.0   33.333333333333336
350.0   90.0   33.333333333333336
300.0   90.0   16.666666666666668
300.0   60.0   33.333333333333336
350.0   90.0   33.333333333333336
350.0   60.0   33.333333333333336
350.0   60.0   16.666666666666668
300.0   60.0   33.333333333333336
350.0   90.0   33.333333333333336
350.0   60.0   16.666666666666668
300.0   90.0   16.666666666666668
300.0   60.0   33.333333333333336
350.0   60.0   33.333333333333336
300.0   90.0   33.333333333333336
300.0   60.0   50.0
350.0   60.0   33.333333333333336
350.0   90.0   33.333333333333336
300.0   90.0   33.333333333333336
350.0   90.0   50.0
300.0   60.0   50.0
300.0   90.0   50.0
350.0   90.0   50.0
300.0   90.0   33.333333333333336
300.0   60.0   50.0
350.0   90.0   50.0
350.0   60.0   50.0
350.0   60.0   33.333333333333336
300.0   60.0   50.0
350.0   90.0   50.0
350.0   60.0   33.333333333333336
300.0   90.0   33.333333333333336
300.0   90.0   0.0
350.0   90.0   0.0
300.0   120.0   0.0
300.0   90.0   16.666666666666668
350.0   90.0   0.0
350.0   120.0   0.0
300.0   120.0   0.0
350.0   120.0   16.666666666666668
300.0   90.0   16.666666666666668
300.0   120.0   16.666666666666668
350.0   120.0   16.666666666666668
300.0   120.0   0.0
300.0   90.0   16.666666666666668
350.0   120.0   16.666666666666668
350.0   90.0   16.666666666666668
350.0   90.0   0.0
300.0   90.0   16.666666666666668
350.0   120.0   16.666666666666668
350.0   90.0   0.0
300.0   120.0   0.0
300.0   90.0   16.666666666666668
350.0   90.0   16.666666666666668
300.0   120.0   16.666666666666668
300.0   90.0   33.333333333333336
350.0   90.0   16.666666666666668
350.0   120.0   16.666666666666668
300.0   120.0   16.666666666666668
350.0   120.0   33.333333333333336
300.0   90.0   33.333333333333336
300.0   120.0   33.333333333333336
350.0   120.0   33.333333333333336
300.0   120.0   16.666666666666668
300.0   90.0   33.333333333333336
350.0   120.0   33.333333333333336
350.0   90.0   33.333333333333336
350.0   90.0   16.666666666666668
300.0   90.0   33.333333333333336
350.0   120.0   33.333333333333336
350.0   90.0   16.666666666666668
300.0   120.0   16.666666666666668
300.0   90.0   33.333333333333336
350.0   90.0   33.333333333333336
300.0   120.0   33.333333333333336
300.0   90.0   50.0
350.0   90.0   33.333333333333336
350.0   120.0   33.333333333333336
300.0   120.0   33.333333333333336
350.0   120.0   50.0
300.0   90.0   50.0
300.0   120.0   50.0
350.0   120.0   50.0
300.0   120.0   33.333333333333336
300.0   90.0   50.0
350.0   120.0   50.0
350.0   90.0   50.0
350.0   90.0   33.333333333333336
300.0   90.0   50.0
350.0   120.0   50.0
350.0   90.0   33.333333333333336
300.0   120.0   33.333333333333336
300.0   120.0   0.0
350.0   120.0   0.0
300.0   150.0   0.0
300.0   120.0   16.666666666666668
350.0   120.0   0.0
350.0   150.0   0.0
300.0   150.0   0.0
350.0   150.0   16.666666666666668
300.0   120.0   16.666666666666668
300.0   150.0   16.666666666666668
350.0   150.0   16.666666666666668
300.0   150.0   0.0
300.0   120.0   16.666666666666668
350.0   150.0   16.666666666666668
350.0   120.0   16.666666666666668
350.0   120.0   0.0
300.0   120.0   16.666666666666668
350.0   150.0   16.666666666666668
350.0   120.0   0.0
300.0   150.0   0.0
300.0   120.0   16.666666666666668
350.0   120.0   16.666666666666668
300.0   150.0   16.666666666666668
300.0   120.0   33.333333333333336
350.0   120.0   16.666666666666668
350.0   150.0   16.666666666666668
300.0   150.0   16.666666666666668
350.0   150.0   33.333333333333336
300.0   120.0   33.333333333333336
300.0   150.0   33.333333333333336
350.0   150.0   33.333333333333336
300.0   150.0   16.666666666666668
300.0   120.0   33.333333333333336
350.0   150.0   33.333333333333336
350.0   120.0   33.333333333333336
350.0   120.0   16.666666666666668
300.0   120.0   33.333333333333336
350.0   150.0   33.333333333333336
350.0   120.0   16.666666666666668
300.0   150.0   16.666666666666668
300.0   120.0   33.333333333333336
350.0   120.0   33.333333333333336
300.0   150.0   33.333333333333336
300.0   120.0   50.0
350.0   120.0   33.333333333333336
350.0   150.0   33.333333333333336
300.0   150.0   33.333333333333336
350.0   150.0   50.0
300.0   120.0   50.0
300.0   150.0   50.0
350.0   150.0   50.0
300.0   150.0   33.333333333333336
300.0   120.0   50.0
350.0   150.0   50.0
350.0   120.0   50.0
350.0   120.0   33.333333333333336
300.0   120.0   50.0
350.0   150.0   50.0
350.0   120.0   33.333333333333336
300.0   150.0   33.333333333333336
350.0   0.0   0.0
400.0   0.0   0.0
350.0   30.0   0.0
350.0   0.0   16.666666666666668
400.0   0.0   0.0
400.0   30.0   0.0
350.0   30.0   0.0
400.0   30.0   16.666666666666668
350.0   0.0   16.666666666666668
350.0   30.0   16.666666666666668
400.0   30.0   16.666666666666668
350.0   30.0   0.0
350.0   0.0   16.666666666666668
400.0   30.0   16.666666666666668
400.0   0.0   16.666666666666668
400.0   0.0   0.0
350.0   0.0   16.666666666666668
400.0   30.0   16.666666666666668
400.0   0.0   0.0
350.0   30.0   0.0
350.0   0.0   16.666666666666668
400.0   0.0   16.666666666666668
350.0   30.0   16.666666666666668
350.0   0.0   33.333333333333336
400.0   0.0   16.666666666666668
400.0   30.0   16.666666666666668
350.0   30.0   16.666666666666668
400.0   30.0   33.333333333333336
350.0   0.0   33.333333333333336
350.0   30.0   33.333333333333336
400.0   30.0   33.333333333333336
350.0   30.0   16.666666666666668
350.0   0.0   33.333333333333336
400.0   30.0   33.333333333333336
400.0   0.0   33.333333333333336
400.0   0.0   16.666666666666668
350.0   0.0   33.333333333333336
400.0   30.0   33.333333333333336
400.0   0.0   16.666666666666668
350.0   30.0   16.666666666666668
350.0   0.0   33.333333333333336
400.0   0.0   33.333333333333336
350.0   30.0   33.333333333333336
350.0   0.0   50.0
400.0   0.0   33.333333333333336
400.0   30.0   33.333333333333336
350.0   30.0   33.333333333333336
400.0   30.0   50.0
350.0   0.0   50.0
350.0   30.0   50.0
400.0   30.0   50.0
350.0   30.0   33.333333333333336
350.0   0.0   50.0
400.0   30.0   50.0
400.0   0.0   50.0
400.0   0.0   33.333333333333336
350.0   0.0   50.0
400.0   30.0   50.0
400.0   0.0   33.333333333333336
350.0   30.0   33.333333333333336
350.0   30.0   0.0
400.0   30.0   0.0
350.0   60.0   0.0
350.0   30.0   16.666666666666668
400.0   30.0   0.0
400.0   60.0   0.0
350.0   60.0   0.0
400.0   60.0   16.666666666666668
350.0   30.0   16.666666666666668
350.0   60.0   16.666666666666668
400.0   60.0   16.666666666666668
350.0   60.0   0.0
350.0   30.0   16.666666666666668
400.0   60.0   16.666666666666668
400.0   30.0   16.666666666666668
400.0   30.0   0.0
350.0   30.0   16.666666666666668
400.0   60.0   16.666666666666668
400.0   30.0   0.0
350.0   60.0   0.0
350.0   30.0   16.666666666666668
400.0   30.0   16.666666666666668
350.0   60.0   16.666666666666668
350.0   30.0   33.333333333333336
400.0   30.0   16.666666666666668
400.0   60.0   16.666666666666668
350.0   60.0   16.666666666666668
400.0   60.0   33.333333333333336
350.0   30.0   33.333333333333336
350.0   60.0   33.333333333333336
400.0   60.0   33.333333333333336
350.0   60.0   16.666666666666668
350.0   30.0   33.333333333333336
400.0   60.0   33.333333333333336
400.0   30.0   33.333333333333336
400.0   30.0   16.666666666666668
350.0   30.0   33.333333333333336
400.0   60.0   33.333333333333336
400.0   30.0   16.666666666666668
350.0   60.0   16.666666666666668
350.0   30.0   33.333333333333336
400.0   30.0   33.333333333333336
350.0   60.0   33.333333333333336
350.0   30.0   50.0
400.0   30.0   33.333333333333336
400.0   60.0   33.333333333333336
350.0   60.0   33.333333333333336
400.0   60.0   50.0
350.0   30.0   50.0
350.0   60.0   50.0
400.0   60.0   50.0
350.0   60.0   33.333333333333336
350.0   30.0   50.0
400.0   60.0   50.0
400.0   30.0   50.0
400.0   30.0   33.333333333333336
350.0   30.0   50.0
400.0   60.0   50.0
400.0   30.0   33.333333333333336
350.0   60.0   33.333333333333336
350.0   60.0   0.0
400.0   60.0   0.0
350.0   90.0   0.0
350.0   60.0   16.666666666666668
400.0   60.0   0.0
400.0   90.0   0.0
350.0   90.0   0.0
400.0   90.0   16.666666666666668
350.0   60.0   16.666666666666668
350.0   90.0   16.666666666666668
400.0   90.0   16.666666666666668
350.0   90.0   0.0
350.0   60.0   16.666666666666668
400.0   90.0   16.666666666666668
400.0   60.0   16.666666666666668
400.0   60.0   0.0
350.0   60.0   16.666666666666668
400.0   90.0   16.666666666666668
400.0   60.0   0.0
350.0   90.0   0.0
350.0   60.0   16.666666666666668
400.0   60.0   16.666666666666668
350.0   90.0   16.666666666666668
350.0   60.0   33.333333333333336
400.0   60.0   16.666666666666668
400.0   90.0   16.666666666666668
350.0   90.0   16.666666666666668
400.0   90.0   33.333333333333336
350.0   60.0   33.333333333333336
350.0   90.0   33.333333333333336
400.0   90.0   33.333333333333336
350.0   90.0   16.666666666666668
350.0   60.0   33.333333333333336
400.0   90.0   33.333333333333336
400.0   60.0   33.333333333333336
400.0   60.0   16.666666666666668
350.0   60.0   33.333333333333336
400.0   90.0   33.333333333333336
400.0   60.0   16.666666666666668
350.0   90.0   16.666666666666668
350.0   60.0   33.333333333333336
400.0   60.0   33.333333333333336
350.0   90.0   33.333333333333336
350.0   60.0   50.0
400.0   60.0   33.333333333333336
400.0   90.0   33.333333333333336
350.0   90.0   33.333333333333336
400.0   90.0   50.0
350.0   60.0   50.0
350.0   90.0   50.0
400.0   90.0   50.0
350.0   90.0   33.333333333333336
350.0   60.0   50.0
400.0   90.0   50.0
400.0   60.0   50.0
400.0   60.0   33.333333333333336
350.0   60.0   50.0
400.0   90.0   50.0
400.0   60.0   33.333333333333336
350.0   90.0   33.333333333333336
350.0   90.0   0.0
400.0   90.0   0.0
350.0   120.0   0.0
350.0   90.0   16.666666666666668
400.0   90.0   0.0
400.0   120.0   0.0
350.0   120.0   0.0
400.0   120.0   16.666666666666668
350.0   90.0   16.666666666666668
350.0   120.0   16.666666666666668
400.0   120.0   16.666666666666668
350.0   120.0   0.0
350.0   90.0   16.666666666666668
400.0   120.0   16.666666666666668
400.0   90.0   16.666666666666668
400.0   90.0   0.0
350.0   90.0   16.666666666666668
400.0   120.0   16.666666666666668
400.0   90.0   0.0
350.0   120.0   0.0
350.0   90.0   16.666666666666668
400.0   90.0   16.666666666666668
350.0   120.0   16.666666666666668
350.0   90.0   33.333333333333336
400.0   90.0   16.666666666666668
400.0   120.0   16.666666666666668
350.0   120.0   16.666666666666668
400.0   120.0   33.333333333333336
350.0   90.0   33.333333333333336
350.0   120.0   33.333333333333336
400.0   120.0   33.333333333333336
350.0   120.0   16.666666666666668
350.0   90.0   33.333333333333336
400.0   120.0   33.333333333333336
400.0   90.0   33.333333333333336
400.0   90.0   16.666666666666668
350.0   90.0   33.333333333333336
400.0   120.0   33.333333333333336
400.0   90.0   16.666666666666668
350.0   120.0   16.666666666666668
350.0   90.0   33.333333333333336
400.0   90.0   33.333333333333336
350.0   120.0   33.333333333333336
350.0   90.0   50.0
400.0   90.0   33.333333333333336
400.0   120.0   33.333333333333336
350.0   120.0   33.333333333333336
400.0   120.0   50.0
350.0   90.0   50.0
350.0   120.0   50.0
400.0   120.0   50.0
350.0   120.0   33.333333333333336
350.0   90.0   50.0
400.0   120.0   50.0
400.0   90.0   50.0
400.0   90.0   33.333333333333336
350.0   90.0   50.0
400.0   120.0   50.0
400.0   90.0   33.333333333333336
350.0   120.0   33.333333333333336
350.0   120.0   0.0
400.0   120.0   0.0
350.0   150.0   0.0
350.0   120.0   16.666666666666668
400.0   120.0   0.0
400.0   150.0   0.0
350.0   150.0   0.0
400.0   150.0   16.666666666666668
350.0   120.0   16.666666666666668
350.0   150.0   16.666666666666668
400.0   150.0   16.666666666666668
350.0   150.0   0.0
350.0   120.0   16.666666666666668
400.0   150.0   16.666666666666668
400.0   120.0   16.666666666666668
400.0   120.0   0.0
350.0   120.0   16.666666666666668
400.0   150.0   16.666666666666668
400.0   120.0   0.0
350.0   150.0   0.0
350.0   120.0   16.666666666666668
400.0   120.0   16.666666666666668
350.0   150.0   16.666666666666668
350.0   120.0   33.333333333333336
400.0   120.0   16.666666666666668
400.0   150.0   16.666666666666668
350.0   150.0   16.666666666666668
400.0   150.0   33.333333333333336
350.0   120.0   33.333333333333336
350.0   150.0   33.333333333333336
400.0   150.0   33.333333333333336
350.0   150.0   16.666666666666668
350.0   120.0   33.333333333333336
400.0   150.0   33.333333333333336
400.0   120.0   33.333333333333336
400.0   120.0   16.666666666666668
350.0   120.0   33.333333333333336
400.0   150.0   33.333333333333336
400.0   120.0   16.666666666666668
350.0   150.0   16.666666666666668
350.0   120.0   33.333333333333336
400.0   120.0   33.333333333333336
350.0   150.0   33.333333333333336
350.0   120.0   50.0
400.0   120.0   33.333333333333336
400.0   150.0   33.333333333333336
350.0   150.0   33.333333333333336
400.0   150.0   50.0
350.0   120.0   50.0
350.0   150.0   50.0
400.0   150.0   50.0
350.0   150.0   33.333333333333336
350.0   120.0   50.0
400.0   150.0   50.0
400.0   120.0   50.0
400.0   120.0   33.333333333333336
350.0   120.0   50.0
400.0   150.0   50.0
400.0   120.0   33.333333333333336
350.0   150.0   33.333333333333336
400.0   0.0   0.0
450.0   0.0   0.0
400.0   30.0   0.0
400.0   0.0   16.666666666666668
450.0   0.0   0.0
450.0   30.0   0.0
400.0   30.0   0.0
450.0   30.0   16.666666666666668
400.0   0.0   16.666666666666668
400.0   30.0   16.666666666666668
450.0   30.0   16.666666666666668
400.0   30.0   0.0
400.0   0.0   16.666666666666668
450.0   30.0   16.666666666666668
450.0   0.0   16.666666666666668
450.0   0.0   0.0
400.0   0.0   16.666666666666668
450.0   30.0   16.666666666666668
450.0   0.0   0.0
400.0   30.0   0.0
400.0   0.0   16.666666666666668
450.0   0.0   16.666666666666668
400.0   30.0   16.666666666666668
400.0   0.0   33.333333333333336
450.0   0.0   16.666666666666668
450.0   30.0   16.666666666666668
400.0   30.0   16.666666666666668
450.0   30.0   33.333333333333336
400.0   0.0   33.333333333333336
400.0   30.0   33.333333333333336
450.0   30.0   33.333333333333336
400.0   30.0   16.666666666666668
400.0   0.0   33.333333333333336
450.0   30.0   33.333333333333336
450.0   0.0   33.333333333333336
450.0   0.0   16.666666666666668
400.0   0.0   33.333333333333336
450.0   30.0   33.333333333333336
450.0   0.0   16.666666666666668
400.0   30.0   16.666666666666668
400.0   0.0   33.333333333333336
450.0   0.0   33.333333333333336
400.0   30.0   33.333333333333336
400.0   0.0   50.0
450.0   0.0   33.333333333333336
450.0   30.0   33.333333333333336
400.0   30.0   33.333333333333336
450.0   30.0   50.0
400.0   0.0   50.0
400.0   30.0   50.0
450.0   30.0   50.0
400.0   30.0   33.333333333333336
400.0   0.0   50.0
450.0   30.0   50.0
450.0   0.0   50.0
450.0   0.0   33.333333333333336
400.0   0.0   50.0
450.0   30.0   50.0
450.0   0.0   33.333333333333336
400.0   30.0   33.333333333333336
400.0   30.0   0.0
450.0   30.0   0.0
400.0   60.0   0.0
400.0   30.0   16.666666666666668
450.0   30.0   0.0
450.0   60.0   0.0
400.0   60.0   0.0
450.0   60.0   16.666666666666668
400.0   30.0   16.666666666666668
400.0   60.0   16.666666666666668
450.0   60.0   16.666666666666668
400.0   60.0   0.0
400.0   30.0   16.666666666666668
450.0   60.0   16.666666666666668
450.0   30.0   16.666666666666668
450.0   30.0   0.0
400.0   30.0   16.666666666666668
450.0   60.0   16.666666666666668
450.0   30.0   0.0
400.0   60.0   0.0
400.0   30.0   16.666666666666668
450.0   30.0   16.666666666666668
400.0   60.0   16.666666666666668
400.0   30.0   33.333333333333336
450.0   30.0   16.666666666666668
450.0   60.0   16.666666666666668
400.0   60.0   16.666666666666668
450.0   60.0   33.333333333333336
400.0   30.0   33.333333333333336
400.0   60.0   33.333333333333336
450.0   60.0   33.333333333333336
400.0   60.0   16.666666666666668
400.0   30.0   33.333333333333336
450.0   60.0   33.333333333333336
450.0   30.0   33.333333333333336
450.0   30.0   16.666666666666668
400.0   30.0   33.333333333333336
450.0   60.0   33.333333333333336
450.0   30.0   16.666666666666668
400.0   60.0   16.666666666666668
400.0   30.0   33.333333333333336
450.0   30.0   33.333333333333336
400.0   60.0   33.333333333333336
400.0   30.0   50.0
450.0   30.0   33.333333333333336
450.0   60.0   33.333333333333336
400.0   60.0   33.333333333333336
450.0   60.0   50.0
400.0   30.0   50.0
400.0   60.0   50.0
450.0   60.0   50.0
400.0   60.0   33.333333333333336
400.0   30.0   50.0
450.0   60.0   50.0
450.0   30.0   50.0
450.0   30.0   33.333333333333336
400.0   30.0   50.0
450.0   60.0   50.0
450.0   30.0   33.333333333333336
400.0   60.0   33.333333333333336
400.0   60.0   0.0
450.0   60.0   0.0
400.0   90.0   0.0
400.0   60.0   16.666666666666668
450.0   60.0   0.0
450.0   90.0   0.0
400.0   90.0   0.0
450.0   90.0   16.666666666666668
400.0   60.0   16.666666666666668
400.0   90.0   16.666666666666668
450.0   90.0   16.666666666666668
400.0   90.0   0.0
400.0   60.0   16.666666666666668
450.0   90.0   16.666666666666668
450.0   60.0   16.666666666666668
450.0   60.0   0.0
400.0   60.0   16.666666666666668
450.0   90.0   16.666666666666668
450.0   60.0   0.0
400.0   90.0   0.0
400.0   60.0   16.666666666666668
450.0   60.0   16.666666666666668
400.0   90.0   16.666666666666668
400.0   60.0   33.333333333333336
450.0   60.0   16.666666666666668
450.0   90.0   16.666666666666668
400.0   90.0   16.666666666666668
450.0   90.0   33.333333333333336
400.0   60.0   33.333333333333336
400.0   90.0   33.333333333333336
450.0   90.0   33.333333333333336
400.0   90.0   16.666666666666668
400.0   60.0   33.333333333333336
450.0   90.0   33.333333333333336
450.0   60.0   33.333333333333336
450.0   60.0   16.666666666666668
400.0   60.0   33.333333333333336
450.0   90.0   33.333333333333336
450.0   60.0   16.666666666666668
400.0   90.0   16.666666666666668
400.0   60.0   33.333333333333336
450.0   60.0   33.333333333333336
400.0   90.0   33.333333333333336
400.0   60.0   50.0
450.0   60.0   33.333333333333336
450.0   90.0   33.333333333333336
400.0   90.0   33.333333333333336
450.0   90.0   50.0
400.0   60.0   50.0
400.0   90.0   50.0
450.0   90.0   50.0
400.0   90.0   33.333333333333336
400.0   60.0   50.0
450.0   90.0   50.0
450.0   60.0   50.0
450.0   60.0   33.333333333333336
400.0   60.0   50.0
450.0   90.0   50.0
450.0   60.0   33.333333333333336
400.0   90.0   33.333333333333336
400.0   90.0   0.0
450.0   90.0   0.0
400.0   120.0   0.0
400.0   90.0   16.666666666666668
450.0   90.0   0.0
450.0   120.0   0.0
400.0   120.0   0.0
450.0   120.0   16.666666666666668
400.0   90.0   16.666666666666668
400.0   120.0   16.666666666666668
450.0   120.0   16.666666666666668
400.0   120.0   0.0
400.0   90.0   16.666666666666668
450.0   120.0   16.666666666666668
450.0   90.0   16.666666666666668
450.0   90.0   0.0
400.0   90.0   16.666666666666668
450.0   120.0   16.666666666666668
450.0   90.0   0.0
400.0   120.0   0.0
400.0   90.0   16.666666666666668
450.0   90.0   16.666666666666668
400.0   120.0   16.666666666666668
400.0   90.0   33.333333333333336
450.0   90.0   16.666666666666668
450.0   120.0   16.666666666666668
400.0   120.0   16.666666666666668
450.0   120.0   33.333333333333336
400.0   90.0   33.333333333333336
400.0   120.0   33.333333333333336
450.0   120.0   33.333333333333336
400.0   120.0   16.666666666666668
400.0   90.0   33.333333333333336
450.0   120.0   33.333333333333336
450.0   90.0   33.333333333333336
450.0   90.0   16.666666666666668
400.0   90.0   33.333333333333336
450.0   120.0   33.333333333333336
450.0   90.0   16.666666666666668
400.0   120.0   16.666666666666668
400.0   90.0   33.333333333333336
450.0   90.0   33.333333333333336
400.0   120.0   33.333333333333336
400.0   90.0   50.0
450.0   90.0   33.333333333333336
450.0   120.0   33.333333333333336
400.0   120.0   33.333333333333336
450.0   120.0   50.0
400.0   90.0   50.0
400.0   120.0   50.0
450.0   120.0   50.0
400.0   120.0   33.333333333333336
400.0   90.0   50.0
450.0   120.0   50.0
450.0   90.0   50.0
450.0   90.0   33.333333333333336
400.0   90.0   50.0
450.0   120.0   50.0
450.0   90.0   33.333333333333336
400.0   120.0   33.333333333333336
400.0   120.0   0.0
450.0   120.0   0.0
400.0   150.0   0.0
400.0   120.0   16.666666666666668
450.0   120.0   0.0
450.0   150.0   0.0
400.0   150.0   0.0
450.0   150.0   16.666666666666668
400.0   120.0   16.666666666666668
400.0   150.0   16.666666666666668
450.0   150.0   16.666666666666668
400.0   150.0   0.0
400.0   120.0   16.666666666666668
450.0   150.0   16.666666666666668
450.0   120.0   16.666666666666668
450.0   120.0   0.0
400.0   120.0   16.666666666666668
450.0   150.0   16.666666666666668
450.0   120.0   0.0
400.0   150.0   0.0
400.0   120.0   16.666666666666668
450.0   120.0   16.666666666666668
400.0   150.0   16.666666666666668
400.0   120.0   33.333333333333336
450.0   120.0   16.666666666666668
450.0   150.0   16.666666666666668
400.0   150.0   16.666666666666668
450.0   150.0   33.333333333333336
400.0   120.0   33.333333333333336
400.0   150.0   33.333333333333336
450.0   150.0   33.333333333333336
400.0   150.0   16.666666666666668
400.0   120.0   33.333333333333336
450.0   150.0   33.333333333333336
450.0   120.0   33.333333333333336
450.0   120.0   16.666666666666668
400.0   120.0   33.333333333333336
450.0   150.0   33.333333333333336
450.0   120.0   16.666666666666668
400.0   150.0   16.666666666666668
400.0   120.0   33.333333333333336
450.0   120.0   33.333333333333336
400.0   150.0   33.333333333333336
400.0   120.0   50.0
450.0   120.0   33.333333333333336
450.0   150.0   33.333333333333336
400.0   150.0   33.333333333333336
450.0   150.0   50.0
400.0   120.0   50.0
400.0   150.0   50.0
450.0   150.0   50.0
400.0   150.0   33.333333333333336
400.0   120.0   50.0
450.0   150.0   50.0
450.0   120.0   50.0
450.0   120.0   33.333333333333336
400.0   120.0   50.0
450.0   150.0   50.0
450.0   120.0   33.333333333333336
400.0   150.0   33.333333333333336
450.0   0.0   0.0
500.0   0.0   0.0
450.0   30.0   0.0
450.0   0.0   16.666666666666668
500.0   0.0   0.0
500.0   30.0   0.0
450.0   30.0   0.0
500.0   30.0   16.666666666666668
450.0   0.0   16.666666666666668
450.0   30.0   16.666666666666668
500.0   30.0   16.666666666666668
450.0   30.0   0.0
450.0   0.0   16.666666666666668
500.0   30.0   16.666666666666668
500.0   0.0   16.666666666666668
500.0   0.0   0.0
450.0   0.0   16.666666666666668
500.0   30.0   16.666666666666668
500.0   0.0   0.0
450.0   30.0   0.0
450.0   0.0   16.666666666666668
500.0   0.0   16.666666666666668
450.0   30.0   16.666666666666668
450.0   0.0   33.333333333333336
500.0   0.0   16.666666666666668
500.0   30.0   16.666666666666668
450.0   30.0   16.666666666666668
500.0   30.0   33.333333333333336
450.0   0.0   33.333333333333336
450.0   30.0   33.333333333333336
500.0   30.0   33.333333333333336
450.0   30.0   16.666666666666668
450.0   0.0   33.333333333333336
500.0   30.0   33.333333333333336
500.0   0.0   33.333333333333336
500.0   0.0   16.666666666666668
450.0   0.0   33.333333333333336
500.0   30.0   33.333333333333336
500.0   0.0   16.666666666666668
450.0   30.0   16.666666666666668
450.0   0.0   33.333333333333336
500.0   0.0   33.333333333333336
450.0   30.0   33.333333333333336
450.0   0.0   50.0
500.0   0.0   33.333333333333336
500.0   30.0   33.333333333333336
450.0   30.0   33.333333333333336
500.0   30.0   50.0
450.0   0.0   50.0
450.0   30.0   50.0
500.0   30.0   50.0
450.0   30.0   33.333333333333336
450.0   0.0   50.0
500.0   30.0   50.0
500.0   0.0   50.0
500.0   0.0   33.333333333333336
450.0   0.0   50.0
500.0   30.0   50.0
500.0   0.0   33.333333333333336
450.0   30.0   33.333333333333336
450.0   30.0   0.0
500.0   30.0   0.0
450.0   60.0   0.0
450.0   30.0   16.666666666666668
500.0   30.0   0.0
500.0   60.0   0.0
450.0   60.0   0.0
500.0   60.0   16.666666666666668
450.0   30.0   16.666666666666668
450.0   60.0   16.666666666666668
500.0   60.0   16.666666666666668
450.0   60.0   0.0
450.0   30.0   16.666666666666668
500.0   60.0   16.666666666666668
500.0   30.0   16.666666666666668
500.0   30.0   0.0
450.0   30.0   16.666666666666668
500.0   60.0   16.666666666666668
500.0   30.0   0.0
450.0   60.0   0.0
450.0   30.0   16.666666666666668
500.0   30.0   16.666666666666668
450.0   60.0   16.666666666666668
450.0   30.0   33.333333333333336
500.0   30.0   16.666666666666668
500.0   60.0   16.666666666666668
450.0   60.0   16.666666666666668
500.0   60.0   33.333333333333336
450.0   30.0   33.333333333333336
450.0   60.0   33.333333333333336
500.0   60.0   33.333333333333336
450.0   60.0   16.666666666666668
450.0   30.0   33.333333333333336
500.0   60.0   33.333333333333336
500.0   30.0   33.333333333333336
500.0   30.0   16.666666666666668
450.0   30.0   33.333333333333336
500.0   60.0   33.333333333333336
500.0   30.0   16.666666666666668
450.0   60.0   16.666666666666668
450.0   30.0   33.333333333333336
500.0   30.0   33.333333333333336
450.0   60.0   33.333333333333336
450.0   30.0   50.0
500.0   30.0   33.333333333333336
500.0   60.0   33.333333333333336
450.0   60.0   33.333333333333336
500.0   60.0   50.0
450.0   30.0   50.0
450.0   60.0   50.0
500.0   60.0   50.0
450.0   60.0   33.333333333333336
450.0   30.0   50.0
500.0   60.0   50.0
500.0   30.0   50.0
500.0   30.0   33.333333333333336
450.0   30.0   50.0
500.0   60.0   50.0
500.0   30.0   33.333333333333336
450.0   60.0   33.333333333333336
450.0   60.0   0.0
500.0   60.0   0.0
450.0   90.0   0.0
450.0   60.0   16.666666666666668
500.0   60.0   0.0
500.0   90.0   0.0
450.0   90.0   0.0
500.0   90.0   16.666666666666668
450.0   60.0   16.666666666666668
450.0   90.0   16.666666666666668
500.0   90.0   16.666666666666668
450.0   90.0   0.0
450.0   60.0   16.666666666666668
500.0   90.0   16.666666666666668
500.0   60.0   16.666666666666668
500.0   60.0   0.0
450.0   60.0   16.666666666666668
500.0   90.0   16.666666666666668
500.0   60.0   0.0
450.0   90.0   0.0
450.0   60.0   16.666666666666668
500.0   60.0   16.666666666666668
450.0   90.0   16.666666666666668
450.0   60.0   33.333333333333336
500.0   60.0   16.666666666666668
500.0   90.0   16.666666666666668
450.0   90.0   16.666666666666668
500.0   90.0   33.333333333333336
450.0   60.0   33.333333333333336
450.0   90.0   33.333333333333336
500.0   90.0   33.333333333333336
450.0   90.0   16.666666666666668
450.0   60.0   33.333333333333336
500.0   90.0   33.333333333333336
500.0   60.0   33.333333333333336
500.0   60.0   16.666666666666668
450.0   60.0   33.333333333333336
500.0   90.0   33.333333333333336
500.0   60.0   16.666666666666668
450.0   90.0   16.666666666666668
450.0   60.0   33.333333333333336
500.0   60.0   33.333333333333336
450.0   90.0   33.333333333333336
450.0   60.0   50.0
500.0   60.0   33.333333333333336
500.0   90.0   33.333333333333336
450.0   90.0   33.333333333333336
500.0   90.0   50.0
450.0   60.0   50.0
450.0   90.0   50.0
500.0   90.0   50.0
450.0   90.0   33.333333333333336
450.0   60.0   50.0
500.0   90.0   50.0
500.0   60.0   50.0
500.0   60.0   33.333333333333336
450.0   60.0   50.0
500.0   90.0   50.0
500.0   60.0   33.333333333333336
450.0   90.0   33.333333333333336
450.0   90.0   0.0
500.0   90.0   0.0
450.0   120.0   0.0
450.0   90.0   16.666666666666668
500.0   90.0   0.0
500.0   120.0   0.0
450.0   120.0   0.0
500.0   120.0   16.666666666666668
450.0   90.0   16.666666666666668
450.0   120.0   16.666666666666668
500.0   120.0   16.666666666666668
450.0   120.0   0.0
450.0   90.0   16.666666666666668
500.0   120.0   16.666666666666668
500.0   90.0   16.666666666666668
500.0   90.0   0.0
450.0   90.0   16.666666666666668
500.0   120.0   16.666666666666668
500.0   90.0   0.0
450.0   120.0   0.0
450.0   90.0   16.666666666666668
500.0   90.0   16.666666666666668
450.0   120.0   16.666666666666668
450.0   90.0   33.333333333333336
500.0   90.0   16.666666666666668
500.0   120.0   16.666666666666668
450.0   120.0   16.666666666666668
500.0   120.0   33.333333333333336
450.0   90.0   33.333333333333336
450.0   120.0   33.333333333333336
500.0   120.0   33.333333333333336
450.0   120.0   16.666666666666668
450.0   90.0   33.333333333333336
500.0   120.0   33.333333333333336
500.0   90.0   33.333333333333336
500.0   90.0   16.666666666666668
450.0   90.0   33.333333333333336
500.0   120.0   33.333333333333336
500.0   90.0   16.666666666666668
450.0   120.0   16.666666666666668
450.0   90.0   33.333333333333336
500.0   90.0   33.333333333333336
450.0   120.0   33.333333333333336
450.0   90.0   50.0
500.0   90.0   33.333333333333336
500.0   120.0   33.333333333333336
450.0   120.0   33.333333333333336
500.0   120.0   50.0
450.0   90.0   50.0
450.0   120.0   50.0
500.0   120.0   50.0
450.0   120.0   33.333333333333336
450.0   90.0   50.0
500.0   120.0   50.0
500.0   90.0   50.0
500.0   90.0   33.333333333333336
450.0   90.0   50.0
500.0   120.0   50.0
500.0   90.0   33.333333333333336
450.0   120.0   33.333333333333336
450.0   120.0   0.0
500.0   120.0   0.0
450.0   150.0   0.0
450.0   120.0   16.666666666666668
500.0   120.0   0.0
500.0   150.0   0.0
450.0   150.0   0.0
500.0   150.0   16.666666666666668
450.0   120.0   16.666666666666668
450.0   150.0   16.666666666666668
500.0   150.0   16.666666666666668
450.0   150.0   0.0
450.0   120.0   16.666666666666668
500.0   150.0   16.666666666666668
500.0   120.0   16.666666666666668
500.0   120.0   0.0
450.0   120.0   16.666666666666668
500.0   150.0   16.666666666666668
500.0   120.0   0.0
450.0   150.0   0.0
450.0   120.0   16.666666666666668
500.0   120.0   16.666666666666668
450.0   150.0   16.666666666666668
450.0   120.0   33.333333333333336
500.0   120.0   16.666666666666668
500.0   150.0   16.666666666666668
450.0   150.0   16.666666666666668
500.0   150.0   33.333333333333336
450.0   120.0   33.333333333333336
450.0   150.0   33.333333333333336
500.0   150.0   33.333333333333336
450.0   150.0   16.666666666666668
450.0   120.0   33.333333333333336
500.0   150.0   33.333333333333336
500.0   120.0   33.333333333333336
500.0   120.0   16.666666666666668
450.0   120.0   33.333333333333336
500.0   150.0   33.333333333333336
500.0   120.0   16.666666666666668
450.0   150.0   16.666666666666668
450.0   120.0   33.333333333333336
500.0   120.0   33.333333333333336
450.0   150.0   33.333333333333336
450.0   120.0   50.0
500.0   120.0   33.333333333333336
500.0   150.0   33.333333333333336
450.0   150.0   33.333333333333336
500.0   150.0   50.0
450.0   120.0   50.0
450.0   150.0   50.0
500.0   150.0   50.0
450.0   150.0   33.333333333333336
450.0   120.0   50.0
500.0   150.0   50.0
500.0   120.0   50.0
500.0   120.0   33.333333333333336
450.0   120.0   50.0
500.0   150.0   50.0
500.0   120.0   33.333333333333336
450.0   150.0   33.333333333333336
             </DataArray>   
          </Points>  
          <Cells>  
             <DataArray type="Int32" Name="connectivity" format="ascii">   
0   1   2   3
4   5   6   7
8   9   10   11
12   13   14   15
16   17   18   19
20   21   22   23
24   25   26   27
28   29   30   31
32   33   34   35
36   37   38   39
40   41   42   43
44   45   46   47
48   49   50   51
52   53   54   55
56   57   58   59
60   61   62   63
64   65   66   67
68   69   70   71
72   73   74   75
76   77   78   79
80   81   82   83
84   85   86   87
88   89   90   91
92   93   94   95
96   97   98   99
100   101   102   103
104   105   106   107
108   109   110   111
112   113   114   115
116   117   118   119
120   121   122   123
124   125   126   127
128   129   130   131
132   133   134   135
136   137   138   139
140   141   142   143
144   145   146   147
148   149   150   151
152   153   154   155
156   157   158   159
160   161   162   163
164   165   166   167
168   169   170   171
172   173   174   175
176   177   178   179
180   181   182   183
184   185   186   187
188   189   190   191
192   193   194   195
196   197   198   199
200   201   202   203
204   205   206   207
208   209   210   211
212   213   214   215
216   217   218   219
220   221   222   223
224   225   226   227
228   229   230   231
232   233   234   235
236   237   238   239
240   241   242   243
244   245   246   247
248   249   250   251
252   253   254   255
256   257   258   259
260   261   262   263
264   265   266   267
268   269   270   271
272   273   274   275
276   277   278   279
280   281   282   283
284   285   286   287
288   289   290   291
292   293   294   295
296   297   298   299
300   301   302   303
304   305   306   307
308   309   310   311
312   313   314   315
316   317   318   319
320   321   322   323
324   325   326   327
328   329   330   331
332   333   334   335
336   337   338   339
340   341   342   343
344   345   346   347
348   349   350   351
352   353   354   355
356   357   358   359
360   361   362   363
364   365   366   367
368   369   370   371
372   373   374   375
376   377   378   379
380   381   382   383
384   385   386   387
388   389   390   391
392   393   394   395
396   397   398   399
400   401   402   403
404   405   406   407
408   409   410   411
412   413   414   415
416   417   418   419
420   421   422   423
424   425   426   427
428   429   430   431
432   433   434   435
436   437   438   439
440   441   442   443
444   445   446   447
448   449   450   451
452   453   454   455
456   457   458   459
460   461   462   463
464   465   466   467
468   469   470   471
472   473   474   475
476   477   478   479
480   481   482   483
484   485   486   487
488   489   490   491
492   493   494   495
496   497   498   499
500   501   502   503
504   505   506   507
508   509   510   511
512   513   514   515
516   517   518   519
520   521   522   523
524   525   526   527
528   529   530   531
532   533   534   535
536   537   538   539
540   541   542   543
544   545   546   547
548   549   550   551
552   553   554   555
556   557   558   559
560   561   562   563
564   565   566   567
568   569   570   571
572   573   574   575
576   577   578   579
580   581   582   583
584   585   586   587
588   589   590   591
592   593   594   595
596   597   598   599
600   601   602   603
604   605   606   607
608   609   610   611
612   613   614   615
616   617   618   619
620   621   622   623
624   625   626   627
628   629   630   631
632   633   634   635
636   637   638   639
640   641   642   643
644   645   646   647
648   649   650   651
652   653   654   655
656   657   658   659
660   661   662   663
664   665   666   667
668   669   670   671
672   673   674   675
676   677   678   679
680   681   682   683
684   685   686   687
688   689   690   691
692   693   694   695
696   697   698   699
700   701   702   703
704   705   706   707
708   709   710   711
712   713   714   715
716   717   718   719
720   721   722   723
724   725   726   727
728   729   730   731
732   733   734   735
736   737   738   739
740   741   742   743
744   745   746   747
748   749   750   751
752   753   754   755
756   757   758   759
760   761   762   763
764   765   766   767
768   769   770   771
772   773   774   775
776   777   778   779
780   781   782   783
784   785   786   787
788   789   790   791
792   793   794   795
796   797   798   799
800   801   802   803
804   805   806   807
808   809   810   811
812   813   814   815
816   817   818   819
820   821   822   823
824   825   826   827
828   829   830   831
832   833   834   835
836   837   838   839
840   841   842   843
844   845   846   847
848   849   850   851
852   853   854   855
856   857   858   859
860   861   862   863
864   865   866   867
868   869   870   871
872   873   874   875
876   877   878   879
880   881   882   883
884   885   886   887
888   889   890   891
892   893   894   895
896   897   898   899
900   901   902   903
904   905   906   907
908   909   910   911
912   913   914   915
916   917   918   919
920   921   922   923
924   925   926   927
928   929   930   931
932   933   934   935
936   937   938   939
940   941   942   943
944   945   946   947
948   949   950   951
952   953   954   955
956   957   958   959
960   961   962   963
964   965   966   967
968   969   970   971
972   973   974   975
976   977   978   979
980   981   982   983
984   985   986   987
988   989   990   991
992   993   994   995
996   997   998   999
1000   1001   1002   1003
1004   1005   1006   1007
1008   1009   1010   1011
1012   1013   1014   1015
1016   1017   1018   1019
1020   1021   1022   1023
1024   1025   1026   1027
1028   1029   1030   1031
1032   1033   1034   1035
1036   1037   1038   1039
1040   1041   1042   1043
1044   1045   1046   1047
1048   1049   1050   1051
1052   1053   1054   1055
1056   1057   1058   1059
1060   1061   1062   1063
1064   1065   1066   1067
1068   1069   1070   1071
1072   1073   1074   1075
1076   1077   1078   1079
1080   1081   1082   1083
1084   1085   1086   1087
1088   1089   1090   1091
1092   1093   1094   1095
1096   1097   1098   1099
1100   1101   1102   1103
1104   1105   1106   1107
1108   1109   1110   1111
1112   1113   1114   1115
1116   1117   1118   1119
1120   1121   1122   1123
1124   1125   1126   1127
1128   1129   1130   1131
1132   1133   1134   1135
1136   1137   1138   1139
1140   1141   1142   1143
1144   1145   1146   1147
1148   1149   1150   1151
1152   1153   1154   1155
1156   1157   1158   1159
1160   1161   1162   1163
1164   1165   1166   1167
1168   1169   1170   1171
1172   1173   1174   1175
1176   1177   1178   1179
1180   1181   1182   1183
1184   1185   1186   1187
1188   1189   1190   1191
1192   1193   1194   1195
1196   1197   1198   1199
1200   1201   1202   1203
1204   1205   1206   1207
1208   1209   1210   1211
1212   1213   1214   1215
1216   1217   1218   1219
1220   1221   1222   1223
1224   1225   1226   1227
1228   1229   1230   1231
1232   1233   1234   1235
1236   1237   1238   1239
1240   1241   1242   1243
1244   1245   1246   1247
1248   1249   1250   1251
1252   1253   1254   1255
1256   1257   1258   1259
1260   1261   1262   1263
1264   1265   1266   1267
1268   1269   1270   1271
1272   1273   1274   1275
1276   1277   1278   1279
1280   1281   1282   1283
1284   1285   1286   1287
1288   1289   1290   1291
1292   1293   1294   1295
1296   1297   1298   1299
1300   1301   1302   1303
1304   1305   1306   1307
1308   1309   1310   1311
1312   1313   1314   1315
1316   1317   1318   1319
1320   1321   1322   1323
1324   1325   1326   1327
1328   1329   1330   1331
1332   1333   1334   1335
1336   1337   1338   1339
1340   1341   1342   1343
1344   1345   1346   1347
1348   1349   1350   1351
1352   1353   1354   1355
1356   1357   1358   1359
1360   1361   1362   1363
1364   1365   1366   1367
1368   1369   1370   1371
1372   1373   1374   1375
1376   1377   1378   1379
1380   1381   1382   1383
1384   1385   1386   1387
1388   1389   1390   1391
1392   1393   1394   1395
1396   1397   1398   1399
1400   1401   1402   1403
1404   1405   1406   1407
1408   1409   1410   1411
1412   1413   1414   1415
1416   1417   1418   1419
1420   1421   1422   1423
1424   1425   1426   1427
1428   1429   1430   1431
1432   1433   1434   1435
1436   1437   1438   1439
1440   1441   1442   1443
1444   1445   1446   1447
1448   1449   1450   1451
1452   1453   1454   1455
1456   1457   1458   1459
1460   1461   1462   1463
1464   1465   1466   1467
1468   1469   1470   1471
1472   1473   1474   1475
1476   1477   1478   1479
1480   1481   1482   1483
1484   1485   1486   1487
1488   1489   1490   1491
1492   1493   1494   1495
1496   1497   1498   1499
1500   1501   1502   1503
1504   1505   1506   1507
1508   1509   1510   1511
1512   1513   1514   1515
1516   1517   1518   1519
1520   1521   1522   1523
1524   1525   1526   1527
1528   1529   1530   1531
1532   1533   1534   1535
1536   1537   1538   1539
1540   1541   1542   1543
1544   1545   1546   1547
1548   1549   1550   1551
1552   1553   1554   1555
1556   1557   1558   1559
1560   1561   1562   1563
1564   1565   1566   1567
1568   1569   1570   1571
1572   1573   1574   1575
1576   1577   1578   1579
1580   1581   1582   1583
1584   1585   1586   1587
1588   1589   1590   1591
1592   1593   1594   1595
1596   1597   1598   1599
1600   1601   1602   1603
1604   1605   1606   1607
1608   1609   1610   1611
1612   1613   1614   1615
1616   1617   1618   1619
1620   1621   1622   1623
1624   1625   1626   1627
1628   1629   1630   1631
1632   1633   1634   1635
1636   1637   1638   1639
1640   1641   1642   1643
1644   1645   1646   1647
1648   1649   1650   1651
1652   1653   1654   1655
1656   1657   1658   1659
1660   1661   1662   1663
1664   1665   1666   1667
1668   1669   1670   1671
1672   1673   1674   1675
1676   1677   1678   1679
1680   1681   1682   1683
1684   1685   1686   1687
1688   1689   1690   1691
1692   1693   1694   1695
1696   1697   1698   1699
1700   1701   1702   1703
1704   1705   1706   1707
1708   1709   1710   1711
1712   1713   1714   1715
1716   1717   1718   1719
1720   1721   1722   1723
1724   1725   1726   1727
1728   1729   1730   1731
1732   1733   1734   1735
1736   1737   1738   1739
1740   1741   1742   1743
1744   1745   1746   1747
1748   1749   1750   1751
1752   1753   1754   1755
1756   1757   1758   1759
1760   1761   1762   1763
1764   1765   1766   1767
1768   1769   1770   1771
1772   1773   1774   1775
1776   1777   1778   1779
1780   1781   1782   1783
1784   1785   1786   1787
1788   1789   1790   1791
1792   1793   1794   1795
1796   1797   1798   1799
1800   1801   1802   1803
1804   1805   1806   1807
1808   1809   1810   1811
1812   1813   1814   1815
1816   1817   1818   1819
1820   1821   1822   1823
1824   1825   1826   1827
1828   1829   1830   1831
1832   1833   1834   1835
1836   1837   1838   1839
1840   1841   1842   1843
1844   1845   1846   1847
1848   1849   1850   1851
1852   1853   1854   1855
1856   1857   1858   1859
1860   1861   1862   1863
1864   1865   1866   1867
1868   1869   1870   1871
1872   1873   1874   1875
1876   1877   1878   1879
1880   1881   1882   1883
1884   1885   1886   1887
1888   1889   1890   1891
1892   1893   1894   1895
1896   1897   1898   1899
1900   1901   1902   1903
1904   1905   1906   1907
1908   1909   1910   1911
1912   1913   1914   1915
1916   1917   1918   1919
1920   1921   1922   1923
1924   1925   1926   1927
1928   1929   1930   1931
1932   1933   1934   1935
1936   1937   1938   1939
1940   1941   1942   1943
1944   1945   1946   1947
1948   1949   1950   1951
1952   1953   1954   1955
1956   1957   1958   1959
1960   1961   1962   1963
1964   1965   1966   1967
1968   1969   1970   1971
1972   1973   1974   1975
1976   1977   1978   1979
1980   1981   1982   1983
1984   1985   1986   1987
1988   1989   1990   1991
1992   1993   1994   1995
1996   1997   1998   1999
2000   2001   2002   2003
2004   2005   2006   2007
2008   2009   2010   2011
2012   2013   2014   2015
2016   2017   2018   2019
2020   2021   2022   2023
2024   2025   2026   2027
2028   2029   2030   2031
2032   2033   2034   2035
2036   2037   2038   2039
2040   2041   2042   2043
2044   2045   2046   2047
2048   2049   2050   2051
2052   2053   2054   2055
2056   2057   2058   2059
2060   2061   2062   2063
2064   2065   2066   2067
2068   2069   2070   2071
2072   2073   2074   2075
2076   2077   2078   2079
2080   2081   2082   2083
2084   2085   2086   2087
2088   2089   2090   2091
2092   2093   2094   2095
2096   2097   2098   2099
2100   2101   2102   2103
2104   2105   2106   2107
2108   2109   2110   2111
2112   2113   2114   2115
2116   2117   2118   2119
2120   2121   2122   2123
2124   2125   2126   2127
2128   2129   2130   2131
2132   2133   2134   2135
2136   2137   2138   2139
2140   2141   2142   2143
2144   2145   2146   2147
2148   2149   2150   2151
2152   2153   2154   2155
2156   2157   2158   2159
2160   2161   2162   2163
2164   2165   2166   2167
2168   2169   2170   2171
2172   2173   2174   2175
2176   2177   2178   2179
2180   2181   2182   2183
2184   2185   2186   2187
2188   2189   2190   2191
2192   2193   2194   2195
2196   2197   2198   2199
2200   2201   2202   2203
2204   2205   2206   2207
2208   2209   2210   2211
2212   2213   2214   2215
2216   2217   2218   2219
2220   2221   2222   2223
2224   2225   2226   2227
2228   2229   2230   2231
2232   2233   2234   2235
2236   2237   2238   2239
2240   2241   2242   2243
2244   2245   2246   2247
2248   2249   2250   2251
2252   2253   2254   2255
2256   2257   2258   2259
2260   2261   2262   2263
2264   2265   2266   2267
2268   2269   2270   2271
2272   2273   2274   2275
2276   2277   2278   2279
2280   2281   2282   2283
2284   2285   2286   2287
2288   2289   2290   2291
2292   2293   2294   2295
2296   2297   2298   2299
2300   2301   2302   2303
2304   2305   2306   2307
2308   2309   2310   2311
2312   2313   2314   2315
2316   2317   2318   2319
2320   2321   2322   2323
2324   2325   2326   2327
2328   2329   2330   2331
2332   2333   2334   2335
2336   2337   2338   2339
2340   2341   2342   2343
2344   2345   2346   2347
2348   2349   2350   2351
2352   2353   2354   2355
2356   2357   2358   2359
2360   2361   2362   2363
2364   2365   2366   2367
2368   2369   2370   2371
2372   2373   2374   2375
2376   2377   2378   2379
2380   2381   2382   2383
2384   2385   2386   2387
2388   2389   2390   2391
2392   2393   2394   2395
2396   2397   2398   2399
2400   2401   2402   2403
2404   2405   2406   2407
2408   2409   2410   2411
2412   2413   2414   2415
2416   2417   2418   2419
2420   2421   2422   2423
2424   2425   2426   2427
2428   2429   2430   2431
2432   2433   2434   2435
2436   2437   2438   2439
2440   2441   2442   2443
2444   2445   2446   2447
2448   2449   2450   2451
2452   2453   2454   2455
2456   2457   2458   2459
2460   2461   2462   2463
2464   2465   2466   2467
2468   2469   2470   2471
2472   2473   2474   2475
2476   2477   2478   2479
2480   2481   2482   2483
2484   2485   2486   2487
2488   2489   2490   2491
2492   2493   2494   2495
2496   2497   2498   2499
2500   2501   2502   2503
2504   2505   2506   2507
2508   2509   2510   2511
2512   2513   2514   2515
2516   2517   2518   2519
2520   2521   2522   2523
2524   2525   2526   2527
2528   2529   2530   2531
2532   2533   2534   2535
2536   2537   2538   2539
2540   2541   2542   2543
2544   2545   2546   2547
2548   2549   2550   2551
2552   2553   2554   2555
2556   2557   2558   2559
2560   2561   2562   2563
2564   2565   2566   2567
2568   2569   2570   2571
2572   2573   2574   2575
2576   2577   2578   2579
2580   2581   2582   2583
2584   2585   2586   2587
2588   2589   2590   2591
2592   2593   2594   2595
2596   2597   2598   2599
2600   2601   2602   2603
2604   2605   2606   2607
2608   2609   2610   2611
2612   2613   2614   2615
2616   2617   2618   2619
2620   2621   2622   2623
2624   2625   2626   2627
2628   2629   2630   2631
2632   2633   2634   2635
2636   2637   2638   2639
2640   2641   2642   2643
2644   2645   2646   2647
2648   2649   2650   2651
2652   2653   2654   2655
2656   2657   2658   2659
2660   2661   2662   2663
2664   2665   2666   2667
2668   2669   2670   2671
2672   2673   2674   2675
2676   2677   2678   2679
2680   2681   2682   2683
2684   2685   2686   2687
2688   2689   2690   2691
2692   2693   2694   2695
2696   2697   2698   2699
2700   2701   2702   2703
2704   2705   2706   2707
2708   2709   2710   2711
2712   2713   2714   2715
2716   2717   2718   2719
2720   2721   2722   2723
2724   2725   2726   2727
2728   2729   2730   2731
2732   2733   2734   2735
2736   2737   2738   2739
2740   2741   2742   2743
2744   2745   2746   2747
2748   2749   2750   2751
2752   2753   2754   2755
2756   2757   2758   2759
2760   2761   2762   2763
2764   2765   2766   2767
2768   2769   2770   2771
2772   2773   2774   2775
2776   2777   2778   2779
2780   2781   2782   2783
2784   2785   2786   2787
2788   2789   2790   2791
2792   2793   2794   2795
2796   2797   2798   2799
2800   2801   2802   2803
2804   2805   2806   2807
2808   2809   2810   2811
2812   2813   2814   2815
2816   2817   2818   2819
2820   2821   2822   2823
2824   2825   2826   2827
2828   2829   2830   2831
2832   2833   2834   2835
2836   2837   2838   2839
2840   2841   2842   2843
2844   2845   2846   2847
2848   2849   2850   2851
2852   2853   2854   2855
2856   2857   2858   2859
2860   2861   2862   2863
2864   2865   2866   2867
2868   2869   2870   2871
2872   2873   2874   2875
2876   2877   2878   2879
2880   2881   2882   2883
2884   2885   2886   2887
2888   2889   2890   2891
2892   2893   2894   2895
2896   2897   2898   2899
2900   2901   2902   2903
2904   2905   2906   2907
2908   2909   2910   2911
2912   2913   2914   2915
2916   2917   2918   2919
2920   2921   2922   2923
2924   2925   2926   2927
2928   2929   2930   2931
2932   2933   2934   2935
2936   2937   2938   2939
2940   2941   2942   2943
2944   2945   2946   2947
2948   2949   2950   2951
2952   2953   2954   2955
2956   2957   2958   2959
2960   2961   2962   2963
2964   2965   2966   2967
2968   2969   2970   2971
2972   2973   2974   2975
2976   2977   2978   2979
2980   2981   2982   2983
2984   2985   2986   2987
2988   2989   2990   2991
2992   2993   2994   2995
2996   2997   2998   2999
3000   3001   3002   3003
3004   3005   3006   3007
3008   3009   3010   3011
3012   3013   3014   3015
3016   3017   3018   3019
3020   3021   3022   3023
3024   3025   3026   3027
3028   3029   3030   3031
3032   3033   3034   3035
3036   3037   3038   3039
3040   3041   3042   3043
3044   3045   3046   3047
3048   3049   3050   3051
3052   3053   3054   3055
3056   3057   3058   3059
3060   3061   3062   3063
3064   3065   3066   3067
3068   3069   3070   3071
3072   3073   3074   3075
3076   3077   3078   3079
3080   3081   3082   3083
3084   3085   3086   3087
3088   3089   3090   3091
3092   3093   3094   3095
3096   3097   3098   3099
3100   3101   3102   3103
3104   3105   3106   3107
3108   3109   3110   3111
3112   3113   3114   3115
3116   3117   3118   3119
3120   3121   3122   3123
3124   3125   3126   3127
3128   3129   3130   3131
3132   3133   3134   3135
3136   3137   3138   3139
3140   3141   3142   3143
3144   3145   3146   3147
3148   3149   3150   3151
3152   3153   3154   3155
3156   3157   3158   3159
3160   3161   3162   3163
3164   3165   3166   3167
3168   3169   3170   3171
3172   3173   3174   3175
3176   3177   3178   3179
3180   3181   3182   3183
3184   3185   3186   3187
3188   3189   3190   3191
3192   3193   3194   3195
3196   3197   3198   3199
3200   3201   3202   3203
3204   3205   3206   3207
3208   3209   3210   3211
3212   3213   3214   3215
3216   3217   3218   3219
3220   3221   3222   3223
3224   3225   3226   3227
3228   3229   3230   3231
3232   3233   3234   3235
3236   3237   3238   3239
3240   3241   3242   3243
3244   3245   3246   3247
3248   3249   3250   3251
3252   3253   3254   3255
3256   3257   3258   3259
3260   3261   3262   3263
3264   3265   3266   3267
3268   3269   3270   3271
3272   3273   3274   3275
3276   3277   3278   3279
3280   3281   3282   3283
3284   3285   3286   3287
3288   3289   3290   3291
3292   3293   3294   3295
3296   3297   3298   3299
3300   3301   3302   3303
3304   3305   3306   3307
3308   3309   3310   3311
3312   3313   3314   3315
3316   3317   3318   3319
3320   3321   3322   3323
3324   3325   3326   3327
3328   3329   3330   3331
3332   3333   3334   3335
3336   3337   3338   3339
3340   3341   3342   3343
3344   3345   3346   3347
3348   3349   3350   3351
3352   3353   3354   3355
3356   3357   3358   3359
3360   3361   3362   3363
3364   3365   3366   3367
3368   3369   3370   3371
3372   3373   3374   3375
3376   3377   3378   3379
3380   3381   3382   3383
3384   3385   3386   3387
3388   3389   3390   3391
3392   3393   3394   3395
3396   3397   3398   3399
3400   3401   3402   3403
3404   3405   3406   3407
3408   3409   3410   3411
3412   3413   3414   3415
3416   3417   3418   3419
3420   3421   3422   3423
3424   3425   3426   3427
3428   3429   3430   3431
3432   3433   3434   3435
3436   3437   3438   3439
3440   3441   3442   3443
3444   3445   3446   3447
3448   3449   3450   3451
3452   3453   3454   3455
3456   3457   3458   3459
3460   3461   3462   3463
3464   3465   3466   3467
3468   3469   3470   3471
3472   3473   3474   3475
3476   3477   3478   3479
3480   3481   3482   3483
3484   3485   3486   3487
3488   3489   3490   3491
3492   3493   3494   3495
3496   3497   3498   3499
3500   3501   3502   3503
3504   3505   3506   3507
3508   3509   3510   3511
3512   3513   3514   3515
3516   3517   3518   3519
3520   3521   3522   3523
3524   3525   3526   3527
3528   3529   3530   3531
3532   3533   3534   3535
3536   3537   3538   3539
3540   3541   3542   3543
3544   3545   3546   3547
3548   3549   3550   3551
3552   3553   3554   3555
3556   3557   3558   3559
3560   3561   3562   3563
3564   3565   3566   3567
3568   3569   3570   3571
3572   3573   3574   3575
3576   3577   3578   3579
3580   3581   3582   3583
3584   3585   3586   3587
3588   3589   3590   3591
3592   3593   3594   3595
3596   3597   3598   3599
3600   3601   3602   3603
3604   3605   3606   3607
3608   3609   3610   3611
3612   3613   3614   3615
3616   3617   3618   3619
3620   3621   3622   3623
3624   3625   3626   3627
3628   3629   3630   3631
3632   3633   3634   3635
3636   3637   3638   3639
3640   3641   3642   3643
3644   3645   3646   3647
3648   3649   3650   3651
3652   3653   3654   3655
3656   3657   3658   3659
3660   3661   3662   3663
3664   3665   3666   3667
3668   3669   3670   3671
3672   3673   3674   3675
3676   3677   3678   3679
3680   3681   3682   3683
3684   3685   3686   3687
3688   3689   3690   3691
3692   3693   3694   3695
3696   3697   3698   3699
3700   3701   3702   3703
3704   3705   3706   3707
3708   3709   3710   3711
3712   3713   3714   3715
3716   3717   3718   3719
3720   3721   3722   3723
3724   3725   3726   3727
3728   3729   3730   3731
3732   3733   3734   3735
3736   3737   3738   3739
3740   3741   3742   3743
3744   3745   3746   3747
3748   3749   3750   3751
3752   3753   3754   3755
3756   3757   3758   3759
3760   3761   3762   3763
3764   3765   3766   3767
3768   3769   3770   3771
3772   3773   3774   3775
3776   3777   3778   3779
3780   3781   3782   3783
3784   3785   3786   3787
3788   3789   3790   3791
3792   3793   3794   3795
3796   3797   3798   3799
3800   3801   3802   3803
3804   3805   3806   3807
3808   3809   3810   3811
3812   3813   3814   3815
3816   3817   3818   3819
3820   3821   3822   3823
3824   3825   3826   3827
3828   3829   3830   3831
3832   3833   3834   3835
3836   3837   3838   3839
3840   3841   3842   3843
3844   3845   3846   3847
3848   3849   3850   3851
3852   3853   3854   3855
3856   3857   3858   3859
3860   3861   3862   3863
3864   3865   3866   3867
3868   3869   3870   3871
3872   3873   3874   3875
3876   3877   3878   3879
3880   3881   3882   3883
3884   3885   3886   3887
3888   3889   3890   3891
3892   3893   3894   3895
3896   3897   3898   3899
3900   3901   3902   3903
3904   3905   3906   3907
3908   3909   3910   3911
3912   3913   3914   3915
3916   3917   3918   3919
3920   3921   3922   3923
3924   3925   3926   3927
3928   3929   3930   3931
3932   3933   3934   3935
3936   3937   3938   3939
3940   3941   3942   3943
3944   3945   3946   3947
3948   3949   3950   3951
3952   3953   3954   3955
3956   3957   3958   3959
3960   3961   3962   3963
3964   3965   3966   3967
3968   3969   3970   3971
3972   3973   3974   3975
3976   3977   3978   3979
3980   3981   3982   3983
3984   3985   3986   3987
3988   3989   3990   3991
3992   3993   3994   3995
3996   3997   3998   3999
4000   4001   4002   4003
4004   4005   4006   4007
4008   4009   4010   4011
4012   4013   4014   4015
4016   4017   4018   4019
4020   4021   4022   4023
4024   4025   4026   4027
4028   4029   4030   4031
4032   4033   4034   4035
4036   4037   4038   4039
4040   4041   4042   4043
4044   4045   4046   4047
4048   4049   4050   4051
4052   4053   4054   4055
4056   4057   4058   4059
4060   4061   4062   4063
4064   4065   4066   4067
4068   4069   4070   4071
4072   4073   4074   4075
4076   4077   4078   4079
4080   4081   4082   4083
4084   4085   4086   4087
4088   4089   4090   4091
4092   4093   4094   4095
4096   4097   4098   4099
4100   4101   4102   4103
4104   4105   4106   4107
4108   4109   4110   4111
4112   4113   4114   4115
4116   4117   4118   4119
4120   4121   4122   4123
4124   4125   4126   4127
4128   4129   4130   4131
4132   4133   4134   4135
4136   4137   4138   4139
4140   4141   4142   4143
4144   4145   4146   4147
4148   4149   4150   4151
4152   4153   4154   4155
4156   4157   4158   4159
4160   4161   4162   4163
4164   4165   4166   4167
4168   4169   4170   4171
4172   4173   4174   4175
4176   4177   4178   4179
4180   4181   4182   4183
4184   4185   4186   4187
4188   4189   4190   4191
4192   4193   4194   4195
4196   4197   4198   4199
4200   4201   4202   4203
4204   4205   4206   4207
4208   4209   4210   4211
4212   4213   4214   4215
4216   4217   4218   4219
4220   4221   4222   4223
4224   4225   4226   4227
4228   4229   4230   4231
4232   4233   4234   4235
4236   4237   4238   4239
4240   4241   4242   4243
4244   4245   4246   4247
4248   4249   4250   4251
4252   4253   4254   4255
4256   4257   4258   4259
4260   4261   4262   4263
4264   4265   4266   4267
4268   4269   4270   4271
4272   4273   4274   4275
4276   4277   4278   4279
4280   4281   4282   4283
4284   4285   4286   4287
4288   4289   4290   4291
4292   4293   4294   4295
4296   4297   4298   4299
4300   4301   4302   4303
4304   4305   4306   4307
4308   4309   4310   4311
4312   4313   4314   4315
4316   4317   4318   4319
4320   4321   4322   4323
4324   4325   4326   4327
4328   4329   4330   4331
4332   4333   4334   4335
4336   4337   4338   4339
4340   4341   4342   4343
4344   4345   4346   4347
4348   4349   4350   4351
4352   4353   4354   4355
4356   4357   4358   4359
4360   4361   4362   4363
4364   4365   4366   4367
4368   4369   4370   4371
4372   4373   4374   4375
4376   4377   4378   4379
4380   4381   4382   4383
4384   4385   4386   4387
4388   4389   4390   4391
4392   4393   4394   4395
4396   4397   4398   4399
4400   4401   4402   4403
4404   4405   4406   4407
4408   4409   4410   4411
4412   4413   4414   4415
4416   4417   4418   4419
4420   4421   4422   4423
4424   4425   4426   4427
4428   4429   4430   4431
4432   4433   4434   4435
4436   4437   4438   4439
4440   4441   4442   4443
4444   4445   4446   4447
4448   4449   4450   4451
4452   4453   4454   4455
4456   4457   4458   4459
4460   4461   4462   4463
4464   4465   4466   4467
4468   4469   4470   4471
4472   4473   4474   4475
4476   4477   4478   4479
4480   4481   4482   4483
4484   4485   4486   4487
4488   4489   4490   4491
4492   4493   4494   4495
4496   4497   4498   4499
4500   4501   4502   4503
4504   4505   4506   4507
4508   4509   4510   4511
4512   4513   4514   4515
4516   4517   4518   4519
4520   4521   4522   4523
4524   4525   4526   4527
4528   4529   4530   4531
4532   4533   4534   4535
4536   4537   4538   4539
4540   4541   4542   4543
4544   4545   4546   4547
4548   4549   4550   4551
4552   4553   4554   4555
4556   4557   4558   4559
4560   4561   4562   4563
4564   4565   4566   4567
4568   4569   4570   4571
4572   4573   4574   4575
4576   4577   4578   4579
4580   4581   4582   4583
4584   4585   4586   4587
4588   4589   4590   4591
4592   4593   4594   4595
4596   4597   4598   4599
4600   4601   4602   4603
4604   4605   4606   4607
4608   4609   4610   4611
4612   4613   4614   4615
4616   4617   4618   4619
4620   4621   4622   4623
4624   4625   4626   4627
4628   4629   4630   4631
4632   4633   4634   4635
4636   4637   4638   4639
4640   4641   4642   4643
4644   4645   4646   4647
4648   4649   4650   4651
4652   4653   4654   4655
4656   4657   4658   4659
4660   4661   4662   4663
4664   4665   4666   4667
4668   4669   4670   4671
4672   4673   4674   4675
4676   4677   4678   4679
4680   4681   4682   4683
4684   4685   4686   4687
4688   4689   4690   4691
4692   4693   4694   4695
4696   4697   4698   4699
4700   4701   4702   4703
4704   4705   4706   4707
4708   4709   4710   4711
4712   4713   4714   4715
4716   4717   4718   4719
4720   4721   4722   4723
4724   4725   4726   4727
4728   4729   4730   4731
4732   4733   4734   4735
4736   4737   4738   4739
4740   4741   4742   4743
4744   4745   4746   4747
4748   4749   4750   4751
4752   4753   4754   4755
4756   4757   4758   4759
4760   4761   4762   4763
4764   4765   4766   4767
4768   4769   4770   4771
4772   4773   4774   4775
4776   4777   4778   4779
4780   4781   4782   4783
4784   4785   4786   4787
4788   4789   4790   4791
4792   4793   4794   4795
4796   4797   4798   4799
4800   4801   4802   4803
4804   4805   4806   4807
4808   4809   4810   4811
4812   4813   4814   4815
4816   4817   4818   4819
4820   4821   4822   4823
4824   4825   4826   4827
4828   4829   4830   4831
4832   4833   4834   4835
4836   4837   4838   4839
4840   4841   4842   4843
4844   4845   4846   4847
4848   4849   4850   4851
4852   4853   4854   4855
4856   4857   4858   4859
4860   4861   4862   4863
4864   4865   4866   4867
4868   4869   4870   4871
4872   4873   4874   4875
4876   4877   4878   4879
4880   4881   4882   4883
4884   4885   4886   4887
4888   4889   4890   4891
4892   4893   4894   4895
4896   4897   4898   4899
4900   4901   4902   4903
4904   4905   4906   4907
4908   4909   4910   4911
4912   4913   4914   4915
4916   4917   4918   4919
4920   4921   4922   4923
4924   4925   4926   4927
4928   4929   4930   4931
4932   4933   4934   4935
4936   4937   4938   4939
4940   4941   4942   4943
4944   4945   4946   4947
4948   4949   4950   4951
4952   4953   4954   4955
4956   4957   4958   4959
4960   4961   4962   4963
4964   4965   4966   4967
4968   4969   4970   4971
4972   4973   4974   4975
4976   4977   4978   4979
4980   4981   4982   4983
4984   4985   4986   4987
4988   4989   4990   4991
4992   4993   4994   4995
4996   4997   4998   4999
5000   5001   5002   5003
5004   5005   5006   5007
5008   5009   5010   5011
5012   5013   5014   5015
5016   5017   5018   5019
5020   5021   5022   5023
5024   5025   5026   5027
5028   5029   5030   5031
5032   5033   5034   5035
5036   5037   5038   5039
5040   5041   5042   5043
5044   5045   5046   5047
5048   5049   5050   5051
5052   5053   5054   5055
5056   5057   5058   5059
5060   5061   5062   5063
5064   5065   5066   5067
5068   5069   5070   5071
5072   5073   5074   5075
5076   5077   5078   5079
5080   5081   5082   5083
5084   5085   5086   5087
5088   5089   5090   5091
5092   5093   5094   5095
5096   5097   5098   5099
5100   5101   5102   5103
5104   5105   5106   5107
5108   5109   5110   5111
5112   5113   5114   5115
5116   5117   5118   5119
5120   5121   5122   5123
5124   5125   5126   5127
5128   5129   5130   5131
5132   5133   5134   5135
5136   5137   5138   5139
5140   5141   5142   5143
5144   5145   5146   5147
5148   5149   5150   5151
5152   5153   5154   5155
5156   5157   5158   5159
5160   5161   5162   5163
5164   5165   5166   5167
5168   5169   5170   5171
5172   5173   5174   5175
5176   5177   5178   5179
5180   5181   5182   5183
5184   5185   5186   5187
5188   5189   5190   5191
5192   5193   5194   5195
5196   5197   5198   5199
5200   5201   5202   5203
5204   5205   5206   5207
5208   5209   5210   5211
5212   5213   5214   5215
5216   5217   5218   5219
5220   5221   5222   5223
5224   5225   5226   5227
5228   5229   5230   5231
5232   5233   5234   5235
5236   5237   5238   5239
5240   5241   5242   5243
5244   5245   5246   5247
5248   5249   5250   5251
5252   5253   5254   5255
5256   5257   5258   5259
5260   5261   5262   5263
5264   5265   5266   5267
5268   5269   5270   5271
5272   5273   5274   5275
5276   5277   5278   5279
5280   5281   5282   5283
5284   5285   5286   5287
5288   5289   5290   5291
5292   5293   5294   5295
5296   5297   5298   5299
5300   5301   5302   5303
5304   5305   5306   5307
5308   5309   5310   5311
5312   5313   5314   5315
5316   5317   5318   5319
5320   5321   5322   5323
5324   5325   5326   5327
5328   5329   5330   5331
5332   5333   5334   5335
5336   5337   5338   5339
5340   5341   5342   5343
5344   5345   5346   5347
5348   5349   5350   5351
5352   5353   5354   5355
5356   5357   5358   5359
5360   5361   5362   5363
5364   5365   5366   5367
5368   5369   5370   5371
5372   5373   5374   5375
5376   5377   5378   5379
5380   5381   5382   5383
5384   5385   5386   5387
5388   5389   5390   5391
5392   5393   5394   5395
5396   5397   5398   5399
5400   5401   5402   5403
5404   5405   5406   5407
5408   5409   5410   5411
5412   5413   5414   5415
5416   5417   5418   5419
5420   5421   5422   5423
5424   5425   5426   5427
5428   5429   5430   5431
5432   5433   5434   5435
5436   5437   5438   5439
5440   5441   5442   5443
5444   5445   5446   5447
5448   5449   5450   5451
5452   5453   5454   5455
5456   5457   5458   5459
5460   5461   5462   5463
5464   5465   5466   5467
5468   5469   5470   5471
5472   5473   5474   5475
5476   5477   5478   5479
5480   5481   5482   5483
5484   5485   5486   5487
5488   5489   5490   5491
5492   5493   5494   5495
5496   5497   5498   5499
5500   5501   5502   5503
5504   5505   5506   5507
5508   5509   5510   5511
5512   5513   5514   5515
5516   5517   5518   5519
5520   5521   5522   5523
5524   5525   5526   5527
5528   5529   5530   5531
5532   5533   5534   5535
5536   5537   5538   5539
5540   5541   5542   5543
5544   5545   5546   5547
5548   5549   5550   5551
5552   5553   5554   5555
5556   5557   5558   5559
5560   5561   5562   5563
5564   5565   5566   5567
5568   5569   5570   5571
5572   5573   5574   5575
5576   5577   5578   5579
5580   5581   5582   5583
5584   5585   5586   5587
5588   5589   5590   5591
5592   5593   5594   5595
5596   5597   5598   5599
5600   5601   5602   5603
5604   5605   5606   5607
5608   5609   5610   5611
5612   5613   5614   5615
5616   5617   5618   5619
5620   5621   5622   5623
5624   5625   5626   5627
5628   5629   5630   5631
5632   5633   5634   5635
5636   5637   5638   5639
5640   5641   5642   5643
5644   5645   5646   5647
5648   5649   5650   5651
5652   5653   5654   5655
5656   5657   5658   5659
5660   5661   5662   5663
5664   5665   5666   5667
5668   5669   5670   5671
5672   5673   5674   5675
5676   5677   5678   5679
5680   5681   5682   5683
5684   5685   5686   5687
5688   5689   5690   5691
5692   5693   5694   5695
5696   5697   5698   5699
5700   5701   5702   5703
5704   5705   5706   5707
5708   5709   5710   5711
5712   5713   5714   5715
5716   5717   5718   5719
5720   5721   5722   5723
5724   5725   5726   5727
5728   5729   5730   5731
5732   5733   5734   5735
5736   5737   5738   5739
5740   5741   5742   5743
5744   5745   5746   5747
5748   5749   5750   5751
5752   5753   5754   5755
5756   5757   5758   5759
5760   5761   5762   5763
5764   5765   5766   5767
5768   5769   5770   5771
5772   5773   5774   5775
5776   5777   5778   5779
5780   5781   5782   5783
5784   5785   5786   5787
5788   5789   5790   5791
5792   5793   5794   5795
5796   5797   5798   5799
5800   5801   5802   5803
5804   5805   5806   5807
5808   5809   5810   5811
5812   5813   5814   5815
5816   5817   5818   5819
5820   5821   5822   5823
5824   5825   5826   5827
5828   5829   5830   5831
5832   5833   5834   5835
5836   5837   5838   5839
5840   5841   5842   5843
5844   5845   5846   5847
5848   5849   5850   5851
5852   5853   5854   5855
5856   5857   5858   5859
5860   5861   5862   5863
5864   5865   5866   5867
5868   5869   5870   5871
5872   5873   5874   5875
5876   5877   5878   5879
5880   5881   5882   5883
5884   5885   5886   5887
5888   5889   5890   5891
5892   5893   5894   5895
5896   5897   5898   5899
5900   5901   5902   5903
5904   5905   5906   5907
5908   5909   5910   5911
5912   5913   5914   5915
5916   5917   5918   5919
5920   5921   5922   5923
5924   5925   5926   5927
5928   5929   5930   5931
5932   5933   5934   5935
5936   5937   5938   5939
5940   5941   5942   5943
5944   5945   5946   5947
5948   5949   5950   5951
5952   5953   5954   5955
5956   5957   5958   5959
5960   5961   5962   5963
5964   5965   5966   5967
5968   5969   5970   5971
5972   5973   5974   5975
5976   5977   5978   5979
5980   5981   5982   5983
5984   5985   5986   5987
5988   5989   5990   5991
5992   5993   5994   5995
5996   5997   5998   5999
              </DataArray>   
              <DataArray type="Int32" Name="offsets" format="ascii">   
4
8
12
16
20
24
28
32
36
40
44
48
52
56
60
64
68
72
76
80
84
88
92
96
100
104
108
112
116
120
124
128
132
136
140
144
148
152
156
160
164
168
172
176
180
184
188
192
196
200
204
208
212
216
220
224
228
232
236
240
244
248
252
256
260
264
268
272
276
280
284
288
292
296
300
304
308
312
316
320
324
328
332
336
340
344
348
352
356
360
364
368
372
376
380
384
388
392
396
400
404
408
412
416
420
424
428
432
436
440
444
448
452
456
460
464
468
472
476
480
484
488
492
496
500
504
508
512
516
520
524
528
532
536
540
544
548
552
556
560
564
568
572
576
580
584
588
592
596
600
604
608
612
616
620
624
628
632
636
640
644
648
652
656
660
664
668
672
676
680
684
688
692
696
700
704
708
712
716
720
724
728
732
736
740
744
748
752
756
760
764
768
772
776
780
784
788
792
796
800
804
808
812
816
820
824
828
832
836
840
844
848
852
856
860
864
868
872
876
880
884
888
892
896
900
904
908
912
916
920
924
928
932
936
940
944
948
952
956
960
964
968
972
976
980
984
988
992
996
1000
1004
1008
1012
1016
1020
1024
1028
1032
1036
1040
1044
1048
1052
1056
1060
1064
1068
1072
1076
1080
1084
1088
1092
1096
1100
1104
1108
1112
1116
1120
1124
1128
1132
1136
1140
1144
1148
1152
1156
1160
1164
1168
1172
1176
1180
1184
1188
1192
1196
1200
1204
1208
1212
1216
1220
1224
1228
1232
1236
1240
1244
1248
1252
1256
1260
1264
1268
1272
1276
1280
1284
1288
1292
1296
1300
1304
1308
1312
1316
1320
1324
1328
1332
1336
1340
1344
1348
1352
1356
1360
1364
1368
1372
1376
1380
1384
1388
1392
1396
1400
1404
1408
1412
1416
1420
1424
1428
1432
1436
1440
1444
1448
1452
1456
1460
1464
1468
1472
1476
1480
1484
1488
1492
1496
1500
1504
1508
1512
1516
1520
1524
1528
1532
1536
1540
1544
1548
1552
1556
1560
1564
1568
1572
1576
1580
1584
1588
1592
1596
1600
1604
1608
1612
1616
1620
1624
1628
1632
1636
1640
1644
1648
1652
1656
1660
1664
1668
1672
1676
1680
1684
1688
1692
1696
1700
1704
1708
1712
1716
1720
1724
1728
1732
1736
1740
1744
1748
1752
1756
1760
1764
1768
1772
1776
1780
1784
1788
1792
1796
1800
1804
1808
1812
1816
1820
1824
1828
1832
1836
1840
1844
1848
1852
1856
1860
1864
1868
1872
1876
1880
1884
1888
1892
1896
1900
1904
1908
1912
1916
1920
1924
1928
1932
1936
1940
1944
1948
1952
1956
1960
1964
1968
1972
1976
1980
1984
1988
1992
1996
2000
2004
2008
2012
2016
2020
2024
2028
2032
2036
2040
2044
2048
2052
2056
2060
2064
2068
2072
2076
2080
2084
2088
2092
2096
2100
2104
2108
2112
2116
2120
2124
2128
2132
2136
2140
2144
2148
2152
2156
2160
2164
2168
2172
2176
2180
2184
2188
2192
2196
2200
2204
2208
2212
2216
2220
2224
2228
2232
2236
2240
2244
2248
2252
2256
2260
2264
2268
2272
2276
2280
2284
2288
2292
2296
2300
2304
2308
2312
2316
2320
2324
2328
2332
2336
2340
2344
2348
2352
2356
2360
2364
2368
2372
2376
2380
2384
2388
2392
2396
2400
2404
2408
2412
2416
2420
2424
2428
2432
2436
2440
2444
2448
2452
2456
2460
2464
2468
2472
2476
2480
2484
2488
2492
2496
2500
2504
2508
2512
2516
2520
2524
2528
2532
2536
2540
2544
2548
2552
2556
2560
2564
2568
2572
2576
2580
2584
2588
2592
2596
2600
2604
2608
2612
2616
2620
2624
2628
2632
2636
2640
2644
2648
2652
2656
2660
2664
2668
2672
2676
2680
2684
2688
2692
2696
2700
2704
2708
2712
2716
2720
2724
2728
2732
2736
2740
2744
2748
2752
2756
2760
2764
2768
2772
2776
2780
2784
2788
2792
2796
2800
2804
2808
2812
2816
2820
2824
2828
2832
2836
2840
2844
2848
2852
2856
2860
2864
2868
2872
2876
2880
2884
2888
2892
2896
2900
2904
2908
2912
2916
2920
2924
2928
2932
2936
2940
2944
2948
2952
2956
2960
2964
2968
2972
2976
2980
2984
2988
2992
2996
3000
3004
3008
3012
3016
3020
3024
3028
3032
3036
3040
3044
3048
3052
3056
3060
3064
3068
3072
3076
3080
3084
3088
3092
3096
3100
3104
3108
3112
3116
3120
3124
3128
3132
3136
3140
3144
3148
3152
3156
3160
3164
3168
3172
3176
3180
3184
3188
3192
3196
3200
3204
3208
3212
3216
3220
3224
3228
3232
3236
3240
3244
3248
3252
3256
3260
3264
3268
3272
3276
3280
3284
3288
3292
3296
3300
3304
3308
3312
3316
3320
3324
3328
3332
3336
3340
3344
3348
3352
3356
3360
3364
3368
3372
3376
3380
3384
3388
3392
3396
3400
3404
3408
3412
3416
3420
3424
3428
3432
3436
3440
3444
3448
3452
3456
3460
3464
3468
3472
3476
3480
3484
3488
3492
3496
3500
3504
3508
3512
3516
3520
3524
3528
3532
3536
3540
3544
3548
3552
3556
3560
3564
3568
3572
3576
3580
3584
3588
3592
3596
3600
3604
3608
3612
3616
3620
3624
3628
3632
3636
3640
3644
3648
3652
3656
3660
3664
3668
3672
3676
3680
3684
3688
3692
3696
3700
3704
3708
3712
3716
3720
3724
3728
3732
3736
3740
3744
3748
3752
3756
3760
3764
3768
3772
3776
3780
3784
3788
3792
3796
3800
3804
3808
3812
3816
3820
3824
3828
3832
3836
3840
3844
3848
3852
3856
3860
3864
3868
3872
3876
3880
3884
3888
3892
3896
3900
3904
3908
3912
3916
3920
3924
3928
3932
3936
3940
3944
3948
3952
3956
3960
3964
3968
3972
3976
3980
3984
3988
3992
3996
4000
4004
4008
4012
4016
4020
4024
4028
4032
4036
4040
4044
4048
4052
4056
4060
4064
4068
4072
4076
4080
4084
4088
4092
4096
4100
4104
4108
4112
4116
4120
4124
4128
4132
4136
4140
4144
4148
4152
4156
4160
4164
4168
4172
4176
4180
4184
4188
4192
4196
4200
4204
4208
4212
4216
4220
4224
4228
4232
4236
4240
4244
4248
4252
4256
4260
4264
4268
4272
4276
4280
4284
4288
4292
4296
4300
4304
4308
4312
4316
4320
4324
4328
4332
4336
4340
4344
4348
4352
4356
4360
4364
4368
4372
4376
4380
4384
4388
4392
4396
4400
4404
4408
4412
4416
4420
4424
4428
4432
4436
4440
4444
4448
4452
4456
4460
4464
4468
4472
4476
4480
4484
4488
4492
4496
4500
4504
4508
4512
4516
4520
4524
4528
4532
4536
4540
4544
4548
4552
4556
4560
4564
4568
4572
4576
4580
4584
4588
4592
4596
4600
4604
4608
4612
4616
4620
4624
4628
4632
4636
4640
4644
4648
4652
4656
4660
4664
4668
4672
4676
4680
4684
4688
4692
4696
4700
4704
4708
4712
4716
4720
4724
4728
4732
4736
4740
4744
4748
4752
4756
4760
4764
4768
4772
4776
4780
4784
4788
4792
4796
4800
4804
4808
4812
4816
4820
4824
4828
4832
4836
4840
4844
4848
4852
4856
4860
4864
4868
4872
4876
4880
4884
4888
4892
4896
4900
4904
4908
4912
4916
4920
4924
4928
4932
4936
4940
4944
4948
4952
4956
4960
4964
4968
4972
4976
4980
4984
4988
4992
4996
5000
5004
5008
5012
5016
5020
5024
5028
5032
5036
5040
5044
5048
5052
5056
5060
5064
5068
5072
5076
5080
5084
5088
5092
5096
5100
5104
5108
5112
5116
5120
5124
5128
5132
5136
5140
5144
5148
5152
5156
5160
5164
5168
5172
5176
5180
5184
5188
5192
5196
5200
5204
5208
5212
5216
5220
5224
5228
5232
5236
5240
5244
5248
5252
5256
5260
5264
5268
5272
5276
5280
5284
5288
5292
5296
5300
5304
5308
5312
5316
5320
5324
5328
5332
5336
5340
5344
5348
5352
5356
5360
5364
5368
5372
5376
5380
5384
5388
5392
5396
5400
5404
5408
5412
5416
5420
5424
5428
5432
5436
5440
5444
5448
5452
5456
5460
5464
5468
5472
5476
5480
5484
5488
5492
5496
5500
5504
5508
5512
5516
5520
5524
5528
5532
5536
5540
5544
5548
5552
5556
5560
5564
5568
5572
5576
5580
5584
5588
5592
5596
5600
5604
5608
5612
5616
5620
5624
5628
5632
5636
5640
5644
5648
5652
5656
5660
5664
5668
5672
5676
5680
5684
5688
5692
5696
5700
5704
5708
5712
5716
5720
5724
5728
5732
5736
5740
5744
5748
5752
5756
5760
5764
5768
5772
5776
5780
5784
5788
5792
5796
5800
5804
5808
5812
5816
5820
5824
5828
5832
5836
5840
5844
5848
5852
5856
5860
5864
5868
5872
5876
5880
5884
5888
5892
5896
5900
5904
5908
5912
5916
5920
5924
5928
5932
5936
5940
5944
5948
5952
5956
5960
5964
5968
5972
5976
5980
5984
5988
5992
5996
6000
              </DataArray>   
              <DataArray type="UInt8" Name="types" format="ascii">   
10
10
10
10
10
10
10
10
10
10
10
10
10
10
10
10
10
10
10
10
10
10
10
10
10
10
10
10
10
10
10
10
10
10
10
10
10
10
10
10
10
10
10
10
10
10
10
10
10
10
10
10
10
10
10
10
10
10
10
10
10
10
10
10
10
10
10
10
10
10
10
10
10
10
10
10
10
10
10
10
10
10
10
10
10
10
10
10
10
10
10
10
10
10
10
10
10
10
10
10
10
10
10
10
10
10
10
10
10
10
10
10
10
10
10
10
10
10
10
10
10
10
10
10
10
10
10
10
10
10
10
10
10
10
10
10
10
10
10
10
10
10
10
10
10
10
10
10
10
10
10
10
10
10
10
10
10
10
10
10
10
10
10
10
10
10
10
10
10
10
10
10
10
10
10
10
10
10
10
10
10
10
10
10
10
10
10
10
10
10
10
10
10
10
10
10
10
10
10
10
10
10
10
10
10
10
10
10
10
10
10
10
10
10
10
10
10
10
10
10
10
10
10
10
10
10
10
10
10
10
10
10
10
10
10
10
10
10
10
10
10
10
10
10
10
10
10
10
10
10
10
10
10
10
10
10
10
10
10
10
10
10
10
10
10
10
10
10
10
10
10
10
10
10
10
10
10
10
10
10
10
10
10
10
10
10
10
10
10
10
10
10
10
10
10
10
10
10
10
10
10
10
10
10
10
10
10
10
10
10
10
10
10
10
10
10
10
10
10
10
10
10
10
10
10
10
10
10
10
10
10
10
10
10
10
10
10
10
10
10
10
10
10
10
10
10
10
10
10
10
10
10
10
10
10
10
10
10
10
10
10
10
10
10
10
10
10
10
10
10
10
10
10
10
10
10
10
10
10
10
10
10
10
10
10
10
10
10
10
10
10
10
10
10
10
10
10
10
10
10
10
10
10
10
10
10
10
10
10
10
10
10
10
10
10
10
10
10
10
10
10
10
10
10
10
10
10
10
10
10
10
10
10
10
10
10
10
10
10
10
10
10
10
10
10
10
10
10
10
10
10
10
10
10
10
10
10
10
10
10
10
10
10
10
10
10
10
10
10
10
10
10
10
10
10
10
10
10
10
10
10
10
10
10
10
10
10
10
10
10
10
10
10
10
10
10
10
10
10
10
10
10
10
10
10
10
10
10
10
10
10
10
10
10
10
10
10
10
10
10
10
10
10
10
10
10
10
10
10
10
10
10
10
10
10
10
10
10
10
10
10
10
10
10
10
10
10
10
10
10
10
10
10
10
10
10
10
10
10
10
10
10
10
10
10
10
10
10
10
10
10
10
10
10
10
10
10
10
10
10
10
10
10
10
10
10
10
10
10
10
10
10
10
10
10
10
10
10
10
10
10
10
10
10
10
10
10
10
10
10
10
10
10
10
10
10
10
10
10
10
10
10
10
10
10
10
10
10
10
10
10
10
10
10
10
10
10
10
10
10
10
10
10
10
10
10
10
10
10
10
10
10
10
10
10
10
10
10
10
10
10
10
10
10
10
10
10
10
10
10
10
10
10
10
10
10
10
10
10
10
10
10
10
10
10
10
10
10
10
10
10
10
10
10
10
10
10
10
10
10
10
10
10
10
10
10
10
10
10
10
10
10
10
10
10
10
10
10
10
10
10
10
10
10
10
10
10
10
10
10
10
10
10
10
10
10
10
10
10
10
10
10
10
10
10
10
10
10
10
10
10
10
10
10
10
10
10
10
10
10
10
10
10
10
10
10
10
10
10
10
10
10
10
10
10
10
10
10
10
10
10
10
10
10
10
10
10
10
10
10
10
10
10
10
10
10
10
10
10
10
10
10
10
10
10
10
10
10
10
10
10
10
10
10
10
10
10
10
10
10
10
10
10
10
10
10
10
10
10
10
10
10
10
10
10
10
10
10
10
10
10
10
10
10
10
10
10
10
10
10
10
10
10
10
10
10
10
10
10
10
10
10
10
10
10
10
10
10
10
10
10
10
10
10
10
10
10
10
10
10
10
10
10
10
10
10
10
10
10
10
10
10
10
10
10
10
10
10
10
10
10
10
10
10
10
10
10
10
10
10
10
10
10
10
10
10
10
10
10
10
10
10
10
10
10
10
10
10
10
10
10
10
10
10
10
10
10
10
10
10
10
10
10
10
10
10
10
10
10
10
10
10
10
10
10
10
10
10
10
10
10
10
10
10
10
10
10
10
10
10
10
10
10
10
10
10
10
10
10
10
10
10
10
10
10
10
10
10
10
10
10
10
10
10
10
10
10
10
10
10
10
10
10
10
10
10
10
10
10
10
10
10
10
10
10
10
10
10
10
10
10
10
10
10
10
10
10
10
10
10
10
10
10
10
10
10
10
10
10
10
10
10
10
10
10
10
10
10
10
10
10
10
10
10
10
10
10
10
10
10
10
10
10
10
10
10
10
10
10
10
10
10
10
10
10
10
10
10
10
10
10
10
10
10
10
10
10
10
10
10
10
10
10
10
10
10
10
10
10
10
10
10
10
10
10
10
10
10
10
10
10
10
10
10
10
10
10
10
10
10
10
10
10
10
10
10
10
10
10
10
10
10
10
10
10
10
10
10
10
10
10
10
10
10
10
10
10
10
10
10
10
10
10
10
10
10
10
10
10
10
10
10
10
10
10
10
10
10
10
10
10
10
10
10
10
10
10
10
10
10
10
10
10
10
10
10
10
10
10
10
10
10
10
10
10
10
10
10
10
10
10
10
10
10
10
10
10
10
10
10
10
10
10
10
10
10
10
10
10
10
10
10
10
10
10
10
10
10
10
10
10
10
10
10
10
10
10
10
10
10
10
10
10
10
10
10
10
10
10
10
10
10
10
10
10
10
10
10
10
10
10
10
10
10
10
10
10
10
10
10
10
10
10
10
10
10
10
10
10
10
10
10
10
10
10
10
10
10
10
10
10
10
10
10
10
10
10
10
10
10
10
10
10
10
10
10
10
10
10
10
10
10
10
10
10
10
10
10
10
10
10
10
10
10
10
10
10
10
10
10
10
10
10
10
10
10
10
10
10
10
10
10
10
10
10
10
10
10
10
10
10
10
10
10
10
10
10
10
10
10
10
10
10
10
10
10
10
10
10
10
10
10
10
10
10
10
10
10
10
10
10
10
10
10
10
10
10
10
10
10
10
10
10
10
10
10
10
10
10
10
10
10
10
10
10
10
10
10
10
10
10
10
10
10
10
10
10
10
10
10
10
10
10
10
10
10
10
10
10
10
10
10
10
10
10
10
10
10
10
10
10
10
10
10
10
10
10
10
10
10
10
10
10
10
10
10
10
10
10
10
10
10
10
10
10
10
10
10
10
10
10
10
10
10
10
10
10
10
10
10
10
10
10
10
10
10
10
10
10
10
10
10
10
10
10
10
10
10
10
10
              </DataArray>   
          </Cells>  
          <PointData>  
             <DataArray type="Float64" NumberOfComponents="3" Name="Strains" format="ascii">   
-0.0003134241246561446   0.0   -0.00020509427855468944
-0.0003134241246561446   0.0   -0.00020509427855468944
-0.0003134241246561446   0.0   -0.00020509427855468944
-0.0003134241246561446   0.0   -0.00020509427855468944
-0.0001994978405941791   3.480186288438064e-05   5.663979279214404e-06
-0.0001994978405941791   3.480186288438064e-05   5.663979279214404e-06
-0.0001994978405941791   3.480186288438064e-05   5.663979279214404e-06
-0.0001994978405941791   3.480186288438064e-05   5.663979279214404e-06
-0.0001955944990399136   0.0   -0.00019348865603311917
-0.0001955944990399136   0.0   -0.00019348865603311917
-0.0001955944990399136   0.0   -0.00019348865603311917
-0.0001955944990399136   0.0   -0.00019348865603311917
-0.00032806521616359576   4.172560963021951e-05   2.260506728220279e-06
-0.00032806521616359576   4.172560963021951e-05   2.260506728220279e-06
-0.00032806521616359576   4.172560963021951e-05   2.260506728220279e-06
-0.00032806521616359576   4.172560963021951e-05   2.260506728220279e-06
-0.00025450931184802867   9.671352101308555e-06   -0.00010110011261371159
-0.00025450931184802867   9.671352101308555e-06   -0.00010110011261371159
-0.00025450931184802867   9.671352101308555e-06   -0.00010110011261371159
-0.00025450931184802867   9.671352101308555e-06   -0.00010110011261371159
-0.00032806521616359635   0.0   -0.0002185240218112509
-0.00032806521616359635   0.0   -0.0002185240218112509
-0.00032806521616359635   0.0   -0.0002185240218112509
-0.00032806521616359635   0.0   -0.0002185240218112509
-0.0001955944990399136   4.172560963021957e-05   2.7295872506351987e-05
-0.0001955944990399136   4.172560963021957e-05   2.7295872506351987e-05
-0.0001955944990399136   4.172560963021957e-05   2.7295872506351987e-05
-0.0001955944990399136   4.172560963021957e-05   2.7295872506351987e-05
-0.0001961916125658098   0.0   -0.00019823682598471275
-0.0001961916125658098   0.0   -0.00019823682598471275
-0.0001961916125658098   0.0   -0.00019823682598471275
-0.0001961916125658098   0.0   -0.00019823682598471275
-0.00033836840053202294   4.469224121387525e-05   1.1909142563984757e-05
-0.00033836840053202294   4.469224121387525e-05   1.1909142563984757e-05
-0.00033836840053202294   4.469224121387525e-05   1.1909142563984757e-05
-0.00033836840053202294   4.469224121387525e-05   1.1909142563984757e-05
-0.00026212841436470263   1.69059965221151e-05   -9.848575423315945e-05
-0.00026212841436470263   1.69059965221151e-05   -9.848575423315945e-05
-0.00026212841436470263   1.69059965221151e-05   -9.848575423315945e-05
-0.00026212841436470263   1.69059965221151e-05   -9.848575423315945e-05
-0.00033836840053202353   0.0   -0.00022505217071303794
-0.00033836840053202353   0.0   -0.00022505217071303794
-0.00033836840053202353   0.0   -0.00022505217071303794
-0.00033836840053202353   0.0   -0.00022505217071303794
-0.0001961916125658098   4.46922412138753e-05   3.8724487292310036e-05
-0.0001961916125658098   4.46922412138753e-05   3.8724487292310036e-05
-0.0001961916125658098   4.46922412138753e-05   3.8724487292310036e-05
-0.0001961916125658098   4.46922412138753e-05   3.8724487292310036e-05
-0.00019613978386512685   0.0   -0.00019944974103685092
-0.00019613978386512685   0.0   -0.00019944974103685092
-0.00019613978386512685   0.0   -0.00019944974103685092
-0.00019613978386512685   0.0   -0.00019944974103685092
-0.00036051914192572064   5.0880956845629965e-05   4.398728162342835e-05
-0.00036051914192572064   5.0880956845629965e-05   4.398728162342835e-05
-0.00036051914192572064   5.0880956845629965e-05   4.398728162342835e-05
-0.00036051914192572064   5.0880956845629965e-05   4.398728162342835e-05
-0.0002672540921985747   2.1335358063489135e-05   -9.372710865253027e-05
-0.0002672540921985747   2.1335358063489135e-05   -9.372710865253027e-05
-0.0002672540921985747   2.1335358063489135e-05   -9.372710865253027e-05
-0.0002672540921985747   2.1335358063489135e-05   -9.372710865253027e-05
-0.00019949784059417945   0.0   -0.00018421316082406104
-0.00019949784059417945   0.0   -0.00018421316082406104
-0.00019949784059417945   0.0   -0.00018421316082406104
-0.00019949784059417945   0.0   -0.00018421316082406104
-9.079977516826788e-05   1.2779482956031647e-05   4.617971326077106e-06
-9.079977516826788e-05   1.2779482956031647e-05   4.617971326077106e-06
-9.079977516826788e-05   1.2779482956031647e-05   4.617971326077106e-06
-9.079977516826788e-05   1.2779482956031647e-05   4.617971326077106e-06
-8.737428759992048e-05   0.0   -0.00018258814837638317
-8.737428759992048e-05   0.0   -0.00018258814837638317
-8.737428759992048e-05   0.0   -0.00018258814837638317
-8.737428759992048e-05   0.0   -0.00018258814837638317
-0.0001955944990399136   1.8167512761226685e-05   -1.3121636966463947e-05
-0.0001955944990399136   1.8167512761226685e-05   -1.3121636966463947e-05
-0.0001955944990399136   1.8167512761226685e-05   -1.3121636966463947e-05
-0.0001955944990399136   1.8167512761226685e-05   -1.3121636966463947e-05
-0.0001434360640970497   1.3541770397315492e-06   -8.99643604383394e-05
-0.0001434360640970497   1.3541770397315492e-06   -8.99643604383394e-05
-0.0001434360640970497   1.3541770397315492e-06   -8.99643604383394e-05
-0.0001434360640970497   1.3541770397315492e-06   -8.99643604383394e-05
-0.00019559449903991342   0.0   -0.000193488656033119
-0.00019559449903991342   0.0   -0.000193488656033119
-0.00019559449903991342   0.0   -0.000193488656033119
-0.00019559449903991342   0.0   -0.000193488656033119
-8.737428759992048e-05   1.8167512761226685e-05   -2.221129309727969e-06
-8.737428759992048e-05   1.8167512761226685e-05   -2.221129309727969e-06
-8.737428759992048e-05   1.8167512761226685e-05   -2.221129309727969e-06
-8.737428759992048e-05   1.8167512761226685e-05   -2.221129309727969e-06
-8.546902855981885e-05   0.0   -0.00018488953220723598
-8.546902855981885e-05   0.0   -0.00018488953220723598
-8.546902855981885e-05   0.0   -0.00018488953220723598
-8.546902855981885e-05   0.0   -0.00018488953220723598
-0.0001961916125658098   2.2245489629127988e-05   -1.3699185974727851e-05
-0.0001961916125658098   2.2245489629127988e-05   -1.3699185974727851e-05
-0.0001961916125658098   2.2245489629127988e-05   -1.3699185974727851e-05
-0.0001961916125658098   2.2245489629127988e-05   -1.3699185974727851e-05
-0.00014053176379986594   7.165936521569337e-06   -9.741786872009829e-05
-0.00014053176379986594   7.165936521569337e-06   -9.741786872009829e-05
-0.00014053176379986594   7.165936521569337e-06   -9.741786872009829e-05
-0.00014053176379986594   7.165936521569337e-06   -9.741786872009829e-05
-0.0001961916125658098   0.0   -0.00019823682598471275
-0.0001961916125658098   0.0   -0.00019823682598471275
-0.0001961916125658098   0.0   -0.00019823682598471275
-0.0001961916125658098   0.0   -0.00019823682598471275
-8.546902855981885e-05   2.2245489629127988e-05   -3.518921972510804e-07
-8.546902855981885e-05   2.2245489629127988e-05   -3.518921972510804e-07
-8.546902855981885e-05   2.2245489629127988e-05   -3.518921972510804e-07
-8.546902855981885e-05   2.2245489629127988e-05   -3.518921972510804e-07
-8.374165771337626e-05   0.0   -0.0001839250828307607
-8.374165771337626e-05   0.0   -0.0001839250828307607
-8.374165771337626e-05   0.0   -0.0001839250828307607
-8.374165771337626e-05   0.0   -0.0001839250828307607
-0.00019613978386512633   2.5874430343483345e-05   -1.2119530783933242e-05
-0.00019613978386512633   2.5874430343483345e-05   -1.2119530783933242e-05
-0.00019613978386512633   2.5874430343483345e-05   -1.2119530783933242e-05
-0.00019613978386512633   2.5874430343483345e-05   -1.2119530783933242e-05
-0.00013996663513959299   1.1926452628293238e-05   -9.737265869737544e-05
-0.00013996663513959299   1.1926452628293238e-05   -9.737265869737544e-05
-0.00013996663513959299   1.1926452628293238e-05   -9.737265869737544e-05
-0.00013996663513959299   1.1926452628293238e-05   -9.737265869737544e-05
-9.079977516826803e-05   0.0   -0.00017654547105044202
-9.079977516826803e-05   0.0   -0.00017654547105044202
-9.079977516826803e-05   0.0   -0.00017654547105044202
-9.079977516826803e-05   0.0   -0.00017654547105044202
1.1938364997411159e-05   -1.6255523103520203e-06   -6.2905688271877305e-06
1.1938364997411159e-05   -1.6255523103520203e-06   -6.2905688271877305e-06
1.1938364997411159e-05   -1.6255523103520203e-06   -6.2905688271877305e-06
1.1938364997411159e-05   -1.6255523103520203e-06   -6.2905688271877305e-06
1.4103755143593256e-05   0.0   -0.0001806587218301548
1.4103755143593256e-05   0.0   -0.0001806587218301548
1.4103755143593256e-05   0.0   -0.0001806587218301548
1.4103755143593256e-05   0.0   -0.0001806587218301548
-8.737428759992048e-05   3.215710910379544e-06   -1.345807713719357e-05
-8.737428759992048e-05   3.215710910379544e-06   -1.345807713719357e-05
-8.737428759992048e-05   3.215710910379544e-06   -1.345807713719357e-05
-8.737428759992048e-05   3.215710910379544e-06   -1.345807713719357e-05
-3.83480100123373e-05   -3.427708983094475e-06   -9.118248784708071e-05
-3.83480100123373e-05   -3.427708983094475e-06   -9.118248784708071e-05
-3.83480100123373e-05   -3.427708983094475e-06   -9.118248784708071e-05
-3.83480100123373e-05   -3.427708983094475e-06   -9.118248784708071e-05
-8.737428759992048e-05   0.0   -0.00018258814837638317
-8.737428759992048e-05   0.0   -0.00018258814837638317
-8.737428759992048e-05   0.0   -0.00018258814837638317
-8.737428759992048e-05   0.0   -0.00018258814837638317
1.4103755143593281e-05   3.215710910379598e-06   -1.1528650590965797e-05
1.4103755143593281e-05   3.215710910379598e-06   -1.1528650590965797e-05
1.4103755143593281e-05   3.215710910379598e-06   -1.1528650590965797e-05
1.4103755143593281e-05   3.215710910379598e-06   -1.1528650590965797e-05
1.5806804052628563e-05   0.0   -0.00018040375656165698
1.5806804052628563e-05   0.0   -0.00018040375656165698
1.5806804052628563e-05   0.0   -0.00018040375656165698
1.5806804052628563e-05   0.0   -0.00018040375656165698
-8.54690285598187e-05   7.476292742631156e-06   -1.6096477853156895e-05
-8.54690285598187e-05   7.476292742631156e-06   -1.6096477853156895e-05
-8.54690285598187e-05   7.476292742631156e-06   -1.6096477853156895e-05
-8.54690285598187e-05   7.476292742631156e-06   -1.6096477853156895e-05
-3.5783741773645945e-05   1.820326512271572e-06   -9.551170942522928e-05
-3.5783741773645945e-05   1.820326512271572e-06   -9.551170942522928e-05
-3.5783741773645945e-05   1.820326512271572e-06   -9.551170942522928e-05
-3.5783741773645945e-05   1.820326512271572e-06   -9.551170942522928e-05
-8.546902855981885e-05   0.0   -0.00018488953220723598
-8.546902855981885e-05   0.0   -0.00018488953220723598
-8.546902855981885e-05   0.0   -0.00018488953220723598
-8.546902855981885e-05   0.0   -0.00018488953220723598
1.580680405262859e-05   7.476292742631156e-06   -1.161070220757824e-05
1.580680405262859e-05   7.476292742631156e-06   -1.161070220757824e-05
1.580680405262859e-05   7.476292742631156e-06   -1.161070220757824e-05
1.580680405262859e-05   7.476292742631156e-06   -1.161070220757824e-05
1.8113369304992648e-05   0.0   -0.00017647678016796
1.8113369304992648e-05   0.0   -0.00017647678016796
1.8113369304992648e-05   0.0   -0.00017647678016796
1.8113369304992648e-05   0.0   -0.00017647678016796
-8.374165771337619e-05   1.2413837771334257e-05   -1.4166704466812494e-05
-8.374165771337619e-05   1.2413837771334257e-05   -1.4166704466812494e-05
-8.374165771337619e-05   1.2413837771334257e-05   -1.4166704466812494e-05
-8.374165771337619e-05   1.2413837771334257e-05   -1.4166704466812494e-05
-3.367782962741303e-05   7.010626699396373e-06   -9.436449130025499e-05
-3.367782962741303e-05   7.010626699396373e-06   -9.436449130025499e-05
-3.367782962741303e-05   7.010626699396373e-06   -9.436449130025499e-05
-3.367782962741303e-05   7.010626699396373e-06   -9.436449130025499e-05
1.193836499741118e-05   0.0   -0.00017752080243665325
1.193836499741118e-05   0.0   -0.00017752080243665325
1.193836499741118e-05   0.0   -0.00017752080243665325
1.193836499741118e-05   0.0   -0.00017752080243665325
0.0001234203493008673   -1.4475706595467371e-05   -4.0291922150670627e-07
0.0001234203493008673   -1.4475706595467371e-05   -4.0291922150670627e-07
0.0001234203493008673   -1.4475706595467371e-05   -4.0291922150670627e-07
0.0001234203493008673   -1.4475706595467371e-05   -4.0291922150670627e-07
0.00012358076554636825   0.0   -0.0001872140776207099
0.00012358076554636825   0.0   -0.0001872140776207099
0.00012358076554636825   0.0   -0.0001872140776207099
0.00012358076554636825   0.0   -0.0001872140776207099
1.4103755143593305e-05   -1.0925592984257462e-05   1.8029621744694195e-06
1.4103755143593305e-05   -1.0925592984257462e-05   1.8029621744694195e-06
1.4103755143593305e-05   -1.0925592984257462e-05   1.8029621744694195e-06
1.4103755143593305e-05   -1.0925592984257462e-05   1.8029621744694195e-06
6.775956527188971e-05   -8.077729320047223e-06   -8.933210623788397e-05
6.775956527188971e-05   -8.077729320047223e-06   -8.933210623788397e-05
6.775956527188971e-05   -8.077729320047223e-06   -8.933210623788397e-05
6.775956527188971e-05   -8.077729320047223e-06   -8.933210623788397e-05
1.4103755143593305e-05   0.0   -0.00018065872183015543
1.4103755143593305e-05   0.0   -0.00018065872183015543
1.4103755143593305e-05   0.0   -0.00018065872183015543
1.4103755143593305e-05   0.0   -0.00018065872183015543
0.00012358076554636825   -1.0925592984257462e-05   -4.752393616085077e-06
0.00012358076554636825   -1.0925592984257462e-05   -4.752393616085077e-06
0.00012358076554636825   -1.0925592984257462e-05   -4.752393616085077e-06
0.00012358076554636825   -1.0925592984257462e-05   -4.752393616085077e-06
0.0001230006024150204   0.0   -0.0001845403082651215
0.0001230006024150204   0.0   -0.0001845403082651215
0.0001230006024150204   0.0   -0.0001845403082651215
0.0001230006024150204   0.0   -0.0001845403082651215
1.580680405262859e-05   -6.894252839107092e-06   -1.747425957670915e-06
1.580680405262859e-05   -6.894252839107092e-06   -1.747425957670915e-06
1.580680405262859e-05   -6.894252839107092e-06   -1.747425957670915e-06
1.580680405262859e-05   -6.894252839107092e-06   -1.747425957670915e-06
6.855217877930686e-05   -3.234655362471773e-06   -9.185214232144914e-05
6.855217877930686e-05   -3.234655362471773e-06   -9.185214232144914e-05
6.855217877930686e-05   -3.234655362471773e-06   -9.185214232144914e-05
6.855217877930686e-05   -3.234655362471773e-06   -9.185214232144914e-05
1.5806804052628576e-05   0.0   -0.00018040375656165711
1.5806804052628576e-05   0.0   -0.00018040375656165711
1.5806804052628576e-05   0.0   -0.00018040375656165711
1.5806804052628576e-05   0.0   -0.00018040375656165711
0.0001230006024150204   -6.894252839107092e-06   -5.883977661135138e-06
0.0001230006024150204   -6.894252839107092e-06   -5.883977661135138e-06
0.0001230006024150204   -6.894252839107092e-06   -5.883977661135138e-06
0.0001230006024150204   -6.894252839107092e-06   -5.883977661135138e-06
0.00012533386059253014   0.0   -0.0001773611387544136
0.00012533386059253014   0.0   -0.0001773611387544136
0.00012533386059253014   0.0   -0.0001773611387544136
0.00012533386059253014   0.0   -0.0001773611387544136
1.8113369304992678e-05   -1.4739309774221515e-06   2.2240386446020966e-06
1.8113369304992678e-05   -1.4739309774221515e-06   2.2240386446020966e-06
1.8113369304992678e-05   -1.4739309774221515e-06   2.2240386446020966e-06
1.8113369304992678e-05   -1.4739309774221515e-06   2.2240386446020966e-06
7.057033232257931e-05   2.5355148393697196e-06   -8.760990054145069e-05
7.057033232257931e-05   2.5355148393697196e-06   -8.760990054145069e-05
7.057033232257931e-05   2.5355148393697196e-06   -8.760990054145069e-05
7.057033232257931e-05   2.5355148393697196e-06   -8.760990054145069e-05
0.0001234203493008673   0.0   -0.00018620622639393367
0.0001234203493008673   0.0   -0.00018620622639393367
0.0001234203493008673   0.0   -0.00018620622639393367
0.0001234203493008673   0.0   -0.00018620622639393367
0.0002783268640816289   -3.665612695829027e-05   4.99776220656963e-05
0.0002783268640816289   -3.665612695829027e-05   4.99776220656963e-05
0.0002783268640816289   -3.665612695829027e-05   4.99776220656963e-05
0.0002783268640816289   -3.665612695829027e-05   4.99776220656963e-05
0.00026131714502421085   0.0   -0.0002059459081646587
0.00026131714502421085   0.0   -0.0002059459081646587
0.00026131714502421085   0.0   -0.0002059459081646587
0.00026131714502421085   0.0   -0.0002059459081646587
0.00012358076554636825   -3.121971757324803e-05   4.2346554842361065e-05
0.00012358076554636825   -3.121971757324803e-05   4.2346554842361065e-05
0.00012358076554636825   -3.121971757324803e-05   4.2346554842361065e-05
0.00012358076554636825   -3.121971757324803e-05   4.2346554842361065e-05
0.00019236874716253909   -1.644973480893755e-05   -8.11620708431765e-05
0.00019236874716253909   -1.644973480893755e-05   -8.11620708431765e-05
0.00019236874716253909   -1.644973480893755e-05   -8.11620708431765e-05
0.00019236874716253909   -1.644973480893755e-05   -8.11620708431765e-05
0.00012358076554636814   0.0   -0.00018721407762070975
0.00012358076554636814   0.0   -0.00018721407762070975
0.00012358076554636814   0.0   -0.00018721407762070975
0.00012358076554636814   0.0   -0.00018721407762070975
0.00026131714502420993   -3.1219717573247865e-05   2.361472429841219e-05
0.00026131714502420993   -3.1219717573247865e-05   2.361472429841219e-05
0.00026131714502420993   -3.1219717573247865e-05   2.361472429841219e-05
0.00026131714502420993   -3.1219717573247865e-05   2.361472429841219e-05
0.00025345029936577035   0.0   -0.00020166362223030245
0.00025345029936577035   0.0   -0.00020166362223030245
0.00025345029936577035   0.0   -0.00020166362223030245
0.00025345029936577035   0.0   -0.00020166362223030245
0.0001230006024150204   -2.8538856608634872e-05   3.287585331946161e-05
0.0001230006024150204   -2.8538856608634872e-05   3.287585331946161e-05
0.0001230006024150204   -2.8538856608634872e-05   3.287585331946161e-05
0.0001230006024150204   -2.8538856608634872e-05   3.287585331946161e-05
0.0001885155324560692   -1.204128717466045e-05   -8.62142384093376e-05
0.0001885155324560692   -1.204128717466045e-05   -8.62142384093376e-05
0.0001885155324560692   -1.204128717466045e-05   -8.62142384093376e-05
0.0001885155324560692   -1.204128717466045e-05   -8.62142384093376e-05
0.0001230006024150204   0.0   -0.0001845403082651215
0.0001230006024150204   0.0   -0.0001845403082651215
0.0001230006024150204   0.0   -0.0001845403082651215
0.0001230006024150204   0.0   -0.0001845403082651215
0.00025345029936576943   -2.8538856608634764e-05   1.5752539354280646e-05
0.00025345029936576943   -2.8538856608634764e-05   1.5752539354280646e-05
0.00025345029936576943   -2.8538856608634764e-05   1.5752539354280646e-05
0.00025345029936576943   -2.8538856608634764e-05   1.5752539354280646e-05
0.00024177434445549618   0.0   -0.00019069178498523268
0.00024177434445549618   0.0   -0.00019069178498523268
0.00024177434445549618   0.0   -0.00019069178498523268
0.00024177434445549618   0.0   -0.00019069178498523268
0.00012533386059253014   -2.2217743718032357e-05   1.6706334350530483e-05
0.00012533386059253014   -2.2217743718032357e-05   1.6706334350530483e-05
0.00012533386059253014   -2.2217743718032357e-05   1.6706334350530483e-05
0.00012533386059253014   -2.2217743718032357e-05   1.6706334350530483e-05
0.0001823874734352585   -5.126230600092913e-06   -8.863792825811371e-05
0.0001823874734352585   -5.126230600092913e-06   -8.863792825811371e-05
0.0001823874734352585   -5.126230600092913e-06   -8.863792825811371e-05
0.0001823874734352585   -5.126230600092913e-06   -8.863792825811371e-05
-0.0002723889893457828   3.480186288438053e-05   -0.00017831899635881247
-0.0002723889893457828   3.480186288438053e-05   -0.00017831899635881247
-0.0002723889893457828   3.480186288438053e-05   -0.00017831899635881247
-0.0002723889893457828   3.480186288438053e-05   -0.00017831899635881247
-0.00017442254980848507   3.132390383664635e-05   -1.7128372558623264e-05
-0.00017442254980848507   3.132390383664635e-05   -1.7128372558623264e-05
-0.00017442254980848507   3.132390383664635e-05   -1.7128372558623264e-05
-0.00017442254980848507   3.132390383664635e-05   -1.7128372558623264e-05
-0.00017883632120911682   4.172560963021946e-05   -0.00014972103288545837
-0.00017883632120911682   4.172560963021946e-05   -0.00014972103288545837
-0.00017883632120911682   4.172560963021946e-05   -0.00014972103288545837
-0.00017883632120911682   4.172560963021946e-05   -0.00014972103288545837
-0.000275390459874017   3.757106795984242e-05   1.3695256558268754e-05
-0.000275390459874017   3.757106795984242e-05   1.3695256558268754e-05
-0.000275390459874017   3.757106795984242e-05   1.3695256558268754e-05
-0.000275390459874017   3.757106795984242e-05   1.3695256558268754e-05
-0.00021634043874659142   3.633921545493192e-05   -8.398233381782887e-05
-0.00021634043874659142   3.633921545493192e-05   -8.398233381782887e-05
-0.00021634043874659142   3.633921545493192e-05   -8.398233381782887e-05
-0.00021634043874659142   3.633921545493192e-05   -8.398233381782887e-05
-0.000275390459874017   4.172560963021946e-05   -0.00014722830788323202
-0.000275390459874017   4.172560963021946e-05   -0.00014722830788323202
-0.000275390459874017   4.172560963021946e-05   -0.00014722830788323202
-0.000275390459874017   4.172560963021946e-05   -0.00014722830788323202
-0.00017883632120911744   3.757106795984253e-05   1.1202531556042704e-05
-0.00017883632120911744   3.757106795984253e-05   1.1202531556042704e-05
-0.00017883632120911744   3.757106795984253e-05   1.1202531556042704e-05
-0.00017883632120911744   3.757106795984253e-05   1.1202531556042704e-05
-0.00017978766601387197   4.469224121387519e-05   -0.00013457995125546992
-0.00017978766601387197   4.469224121387519e-05   -0.00013457995125546992
-0.00017978766601387197   4.469224121387519e-05   -0.00013457995125546992
-0.00017978766601387197   4.469224121387519e-05   -0.00013457995125546992
-0.00027737416737294866   4.0389627601169326e-05   3.064578584394736e-05
-0.00027737416737294866   4.0389627601169326e-05   3.064578584394736e-05
-0.00027737416737294866   4.0389627601169326e-05   3.064578584394736e-05
-0.00027737416737294866   4.0389627601169326e-05   3.064578584394736e-05
-0.0002227360275226794   4.0268568663889837e-05   -6.0345145210799716e-05
-0.0002227360275226794   4.0268568663889837e-05   -6.0345145210799716e-05
-0.0002227360275226794   4.0268568663889837e-05   -6.0345145210799716e-05
-0.0002227360275226794   4.0268568663889837e-05   -6.0345145210799716e-05
-0.0002773741673729482   4.469224121387519e-05   -0.00013199838308784623
-0.0002773741673729482   4.469224121387519e-05   -0.00013199838308784623
-0.0002773741673729482   4.469224121387519e-05   -0.00013199838308784623
-0.0002773741673729482   4.469224121387519e-05   -0.00013199838308784623
-0.00017978766601387227   4.0389627601169326e-05   2.806421767632359e-05
-0.00017978766601387227   4.0389627601169326e-05   2.806421767632359e-05
-0.00017978766601387227   4.0389627601169326e-05   2.806421767632359e-05
-0.00017978766601387227   4.0389627601169326e-05   2.806421767632359e-05
-0.00017879590396043817   5.088095684562986e-05   -9.935377835748529e-05
-0.00017879590396043817   5.088095684562986e-05   -9.935377835748529e-05
-0.00017879590396043817   5.088095684562986e-05   -9.935377835748529e-05
-0.00017879590396043817   5.088095684562986e-05   -9.935377835748529e-05
-0.0002697491893978161   4.261758957166601e-05   5.719305106918911e-05
-0.0002697491893978161   4.261758957166601e-05   5.719305106918911e-05
-0.0002697491893978161   4.261758957166601e-05   5.719305106918911e-05
-0.0002697491893978161   4.261758957166601e-05   5.719305106918911e-05
-0.0002169837506195032   4.4153533396191374e-05   -3.1670913189381237e-05
-0.0002169837506195032   4.4153533396191374e-05   -3.1670913189381237e-05
-0.0002169837506195032   4.4153533396191374e-05   -3.1670913189381237e-05
-0.0002169837506195032   4.4153533396191374e-05   -3.1670913189381237e-05
-0.00017442254980848507   1.2779482956031701e-05   -0.00018911946951420916
-0.00017442254980848507   1.2779482956031701e-05   -0.00018911946951420916
-0.00017442254980848507   1.2779482956031701e-05   -0.00018911946951420916
-0.00017442254980848507   1.2779482956031701e-05   -0.00018911946951420916
-8.257924037575024e-05   1.4574641782815097e-05   -3.497019183024754e-05
-8.257924037575024e-05   1.4574641782815097e-05   -3.497019183024754e-05
-8.257924037575024e-05   1.4574641782815097e-05   -3.497019183024754e-05
-8.257924037575024e-05   1.4574641782815097e-05   -3.497019183024754e-05
-8.457908735158493e-05   1.816751276122663e-05   -0.0001888471119132003
-8.457908735158493e-05   1.816751276122663e-05   -0.0001888471119132003
-8.457908735158493e-05   1.816751276122663e-05   -0.0001888471119132003
-8.457908735158493e-05   1.816751276122663e-05   -0.0001888471119132003
-0.00017883632120911682   2.031989683634952e-05   -3.304315259572042e-05
-0.00017883632120911682   2.031989683634952e-05   -3.304315259572042e-05
-0.00017883632120911682   2.031989683634952e-05   -3.304315259572042e-05
-0.00017883632120911682   2.031989683634952e-05   -3.304315259572042e-05
-0.00012973974557299437   1.63641486176896e-05   -0.00011249732972472976
-0.00012973974557299437   1.63641486176896e-05   -0.00011249732972472976
-0.00012973974557299437   1.63641486176896e-05   -0.00011249732972472976
-0.00012973974557299437   1.63641486176896e-05   -0.00011249732972472976
-0.00017883632120911668   1.816751276122663e-05   -0.00019013854235827384
-0.00017883632120911668   1.816751276122663e-05   -0.00019013854235827384
-0.00017883632120911668   1.816751276122663e-05   -0.00019013854235827384
-0.00017883632120911668   1.816751276122663e-05   -0.00019013854235827384
-8.457908735158508e-05   2.031989683634952e-05   -3.1751722150646764e-05
-8.457908735158508e-05   2.031989683634952e-05   -3.1751722150646764e-05
-8.457908735158508e-05   2.031989683634952e-05   -3.1751722150646764e-05
-8.457908735158508e-05   2.031989683634952e-05   -3.1751722150646764e-05
-8.52289012804505e-05   2.224548962912788e-05   -0.00018530749322207463
-8.52289012804505e-05   2.224548962912788e-05   -0.00018530749322207463
-8.52289012804505e-05   2.224548962912788e-05   -0.00018530749322207463
-8.52289012804505e-05   2.224548962912788e-05   -0.00018530749322207463
-0.00017978766601387197   2.507237512984939e-05   -2.9405683300138727e-05
-0.00017978766601387197   2.507237512984939e-05   -2.9405683300138727e-05
-0.00017978766601387197   2.507237512984939e-05   -2.9405683300138727e-05
-0.00017978766601387197   2.507237512984939e-05   -2.9405683300138727e-05
-0.0001307814249617849   2.075685802256904e-05   -0.00010849344145591499
-0.0001307814249617849   2.075685802256904e-05   -0.00010849344145591499
-0.0001307814249617849   2.075685802256904e-05   -0.00010849344145591499
-0.0001307814249617849   2.075685802256904e-05   -0.00010849344145591499
-0.00017978766601387197   2.224548962912788e-05   -0.0001870036245225076
-0.00017978766601387197   2.224548962912788e-05   -0.0001870036245225076
-0.00017978766601387197   2.224548962912788e-05   -0.0001870036245225076
-0.00017978766601387197   2.224548962912788e-05   -0.0001870036245225076
-8.52289012804508e-05   2.50723751298495e-05   -2.770955199970574e-05
-8.52289012804508e-05   2.50723751298495e-05   -2.770955199970574e-05
-8.52289012804508e-05   2.50723751298495e-05   -2.770955199970574e-05
-8.52289012804508e-05   2.50723751298495e-05   -2.770955199970574e-05
-8.505004259712402e-05   2.5874430343483345e-05   -0.00018340386528476404
-8.505004259712402e-05   2.5874430343483345e-05   -0.00018340386528476404
-8.505004259712402e-05   2.5874430343483345e-05   -0.00018340386528476404
-8.505004259712402e-05   2.5874430343483345e-05   -0.00018340386528476404
-0.000178795903960438   3.0183262989250744e-05   -2.9746062600034622e-05
-0.000178795903960438   3.0183262989250744e-05   -2.9746062600034622e-05
-0.000178795903960438   3.0183262989250744e-05   -2.9746062600034622e-05
-0.000178795903960438   3.0183262989250744e-05   -2.9746062600034622e-05
-0.0001315810832326184   2.4732617481981202e-05   -0.00010516704317537287
-0.0001315810832326184   2.4732617481981202e-05   -0.00010516704317537287
-0.0001315810832326184   2.4732617481981202e-05   -0.00010516704317537287
-0.0001315810832326184   2.4732617481981202e-05   -0.00010516704317537287
-8.25792403757501e-05   -1.6255523103520745e-06   -0.00019797558298519278
-8.25792403757501e-05   -1.6255523103520745e-06   -0.00019797558298519278
-8.25792403757501e-05   -1.6255523103520745e-06   -0.00019797558298519278
-8.25792403757501e-05   -1.6255523103520745e-06   -0.00019797558298519278
8.110133884761158e-06   -4.269280688207807e-07   -4.610745133942182e-05
8.110133884761158e-06   -4.269280688207807e-07   -4.610745133942182e-05
8.110133884761158e-06   -4.269280688207807e-07   -4.610745133942182e-05
8.110133884761158e-06   -4.269280688207807e-07   -4.610745133942182e-05
7.709257548064342e-06   3.215710910379598e-06   -0.00019909442394470077
7.709257548064342e-06   3.215710910379598e-06   -0.00019909442394470077
7.709257548064342e-06   3.215710910379598e-06   -0.00019909442394470077
7.709257548064342e-06   3.215710910379598e-06   -0.00019909442394470077
-8.457908735158493e-05   4.865103903655375e-06   -4.6270151574583454e-05
-8.457908735158493e-05   4.865103903655375e-06   -4.6270151574583454e-05
-8.457908735158493e-05   4.865103903655375e-06   -4.6270151574583454e-05
-8.457908735158493e-05   4.865103903655375e-06   -4.6270151574583454e-05
-3.806504012492561e-05   1.6128471423203878e-06   -0.00012184220956221506
-3.806504012492561e-05   1.6128471423203878e-06   -0.00012184220956221506
-3.806504012492561e-05   1.6128471423203878e-06   -0.00012184220956221506
-3.806504012492561e-05   1.6128471423203878e-06   -0.00012184220956221506
-8.457908735158493e-05   3.215710910379544e-06   -0.00020008405974066595
-8.457908735158493e-05   3.215710910379544e-06   -0.00020008405974066595
-8.457908735158493e-05   3.215710910379544e-06   -0.00020008405974066595
-8.457908735158493e-05   3.215710910379544e-06   -0.00020008405974066595
7.709257548064342e-06   4.865103903655484e-06   -4.528051577861803e-05
7.709257548064342e-06   4.865103903655484e-06   -4.528051577861803e-05
7.709257548064342e-06   4.865103903655484e-06   -4.528051577861803e-05
7.709257548064342e-06   4.865103903655484e-06   -4.528051577861803e-05
7.171191135676815e-06   7.476292742631156e-06   -0.0001995169221142218
7.171191135676815e-06   7.476292742631156e-06   -0.0001995169221142218
7.171191135676815e-06   7.476292742631156e-06   -0.0001995169221142218
7.171191135676815e-06   7.476292742631156e-06   -0.0001995169221142218
-8.52289012804505e-05   1.003488734889577e-05   -4.7051924851101783e-05
-8.52289012804505e-05   1.003488734889577e-05   -4.7051924851101783e-05
-8.52289012804505e-05   1.003488734889577e-05   -4.7051924851101783e-05
-8.52289012804505e-05   1.003488734889577e-05   -4.7051924851101783e-05
-3.8805053173487225e-05   6.099463919467915e-06   -0.00012206375097171679
-3.8805053173487225e-05   6.099463919467915e-06   -0.00012206375097171679
-3.8805053173487225e-05   6.099463919467915e-06   -0.00012206375097171679
-3.8805053173487225e-05   6.099463919467915e-06   -0.00012206375097171679
-8.52289012804505e-05   7.476292742631156e-06   -0.00020105207887798047
-8.52289012804505e-05   7.476292742631156e-06   -0.00020105207887798047
-8.52289012804505e-05   7.476292742631156e-06   -0.00020105207887798047
-8.52289012804505e-05   7.476292742631156e-06   -0.00020105207887798047
7.171191135676828e-06   1.003488734889577e-05   -4.551676808734311e-05
7.171191135676828e-06   1.003488734889577e-05   -4.551676808734311e-05
7.171191135676828e-06   1.003488734889577e-05   -4.551676808734311e-05
7.171191135676828e-06   1.003488734889577e-05   -4.551676808734311e-05
6.1197068342755145e-06   1.2413837771334257e-05   -0.00019917056471440364
6.1197068342755145e-06   1.2413837771334257e-05   -0.00019917056471440364
6.1197068342755145e-06   1.2413837771334257e-05   -0.00019917056471440364
6.1197068342755145e-06   1.2413837771334257e-05   -0.00019917056471440364
-8.505004259712412e-05   1.5422391870217335e-05   -4.902611478806764e-05
-8.505004259712412e-05   1.5422391870217335e-05   -4.902611478806764e-05
-8.505004259712412e-05   1.5422391870217335e-05   -4.902611478806764e-05
-8.505004259712412e-05   1.5422391870217335e-05   -4.902611478806764e-05
-3.9265000020126707e-05   1.0708557051738944e-05   -0.00012250621819197613
-3.9265000020126707e-05   1.0708557051738944e-05   -0.00012250621819197613
-3.9265000020126707e-05   1.0708557051738944e-05   -0.00012250621819197613
-3.9265000020126707e-05   1.0708557051738944e-05   -0.00012250621819197613
8.110133884761158e-06   -1.4475706595467317e-05   -0.00018268333487731257
8.110133884761158e-06   -1.4475706595467317e-05   -0.00018268333487731257
8.110133884761158e-06   -1.4475706595467317e-05   -0.00018268333487731257
8.110133884761158e-06   -1.4475706595467317e-05   -0.00018268333487731257
0.0001015682079362275   -1.4884720978770773e-05   -2.7165286754850552e-05
0.0001015682079362275   -1.4884720978770773e-05   -2.7165286754850552e-05
0.0001015682079362275   -1.4884720978770773e-05   -2.7165286754850552e-05
0.0001015682079362275   -1.4884720978770773e-05   -2.7165286754850552e-05
0.00010236724020369929   -1.0925592984257462e-05   -0.00018525623084246284
0.00010236724020369929   -1.0925592984257462e-05   -0.00018525623084246284
0.00010236724020369929   -1.0925592984257462e-05   -0.00018525623084246284
0.00010236724020369929   -1.0925592984257462e-05   -0.00018525623084246284
7.709257548064342e-06   -1.0081292422920731e-05   -2.7999506753206245e-05
7.709257548064342e-06   -1.0081292422920731e-05   -2.7999506753206245e-05
7.709257548064342e-06   -1.0081292422920731e-05   -2.7999506753206245e-05
7.709257548064342e-06   -1.0081292422920731e-05   -2.7999506753206245e-05
5.423620009388973e-05   -1.2060043787653126e-05   -0.0001043571601774095
5.423620009388973e-05   -1.2060043787653126e-05   -0.0001043571601774095
5.423620009388973e-05   -1.2060043787653126e-05   -0.0001043571601774095
5.423620009388973e-05   -1.2060043787653126e-05   -0.0001043571601774095
7.70925754806433e-06   -1.0925592984257462e-05   -0.00018576281117926513
7.70925754806433e-06   -1.0925592984257462e-05   -0.00018576281117926513
7.70925754806433e-06   -1.0925592984257462e-05   -0.00018576281117926513
7.70925754806433e-06   -1.0925592984257462e-05   -0.00018576281117926513
0.00010236724020369945   -1.0081292422920731e-05   -2.7492926416404148e-05
0.00010236724020369945   -1.0081292422920731e-05   -2.7492926416404148e-05
0.00010236724020369945   -1.0081292422920731e-05   -2.7492926416404148e-05
0.00010236724020369945   -1.0081292422920731e-05   -2.7492926416404148e-05
0.00010182600795539471   -6.894252839107038e-06   -0.00018874091203546705
0.00010182600795539471   -6.894252839107038e-06   -0.00018874091203546705
0.00010182600795539471   -6.894252839107038e-06   -0.00018874091203546705
0.00010182600795539471   -6.894252839107038e-06   -0.00018874091203546705
7.171191135676815e-06   -5.373029791028725e-06   -3.1895617831451234e-05
7.171191135676815e-06   -5.373029791028725e-06   -3.1895617831451234e-05
7.171191135676815e-06   -5.373029791028725e-06   -3.1895617831451234e-05
7.171191135676815e-06   -5.373029791028725e-06   -3.1895617831451234e-05
5.3626026731538056e-05   -8.220545791318471e-06   -0.00010761183422437916
5.3626026731538056e-05   -8.220545791318471e-06   -0.00010761183422437916
5.3626026731538056e-05   -8.220545791318471e-06   -0.00010761183422437916
5.3626026731538056e-05   -8.220545791318471e-06   -0.00010761183422437916
7.171191135676808e-06   -6.894252839107092e-06   -0.00018965364586431412
7.171191135676808e-06   -6.894252839107092e-06   -0.00018965364586431412
7.171191135676808e-06   -6.894252839107092e-06   -0.00018965364586431412
7.171191135676808e-06   -6.894252839107092e-06   -0.00018965364586431412
0.00010182600795539503   -5.373029791028725e-06   -3.098288400260412e-05
0.00010182600795539503   -5.373029791028725e-06   -3.098288400260412e-05
0.00010182600795539503   -5.373029791028725e-06   -3.098288400260412e-05
0.00010182600795539503   -5.373029791028725e-06   -3.098288400260412e-05
9.882208515585774e-05   -1.4739309774221515e-06   -0.0001890711609609691
9.882208515585774e-05   -1.4739309774221515e-06   -0.0001890711609609691
9.882208515585774e-05   -1.4739309774221515e-06   -0.0001890711609609691
9.882208515585774e-05   -1.4739309774221515e-06   -0.0001890711609609691
6.1197068342755145e-06   4.543411972781058e-07   -3.572416039648572e-05
6.1197068342755145e-06   4.543411972781058e-07   -3.572416039648572e-05
6.1197068342755145e-06   4.543411972781058e-07   -3.572416039648572e-05
6.1197068342755145e-06   4.543411972781058e-07   -3.572416039648572e-05
5.300998460834018e-05   -3.7357613292905625e-06   -0.00011136056183731889
5.300998460834018e-05   -3.7357613292905625e-06   -0.00011136056183731889
5.300998460834018e-05   -3.7357613292905625e-06   -0.00011136056183731889
5.300998460834018e-05   -3.7357613292905625e-06   -0.00011136056183731889
0.0001015682079362275   -3.665612695829027e-05   -0.00011055452604511742
0.0001015682079362275   -3.665612695829027e-05   -0.00011055452604511742
0.0001015682079362275   -3.665612695829027e-05   -0.00011055452604511742
0.0001015682079362275   -3.665612695829027e-05   -0.00011055452604511742
0.00019386567429989347   -2.7689771707803575e-05   4.865439771128423e-05
0.00019386567429989347   -2.7689771707803575e-05   4.865439771128423e-05
0.00019386567429989347   -2.7689771707803575e-05   4.865439771128423e-05
0.00019386567429989347   -2.7689771707803575e-05   4.865439771128423e-05
0.00020115569151742195   -3.1219717573247974e-05   -0.00013451193459429367
0.00020115569151742195   -3.1219717573247974e-05   -0.00013451193459429367
0.00020115569151742195   -3.1219717573247974e-05   -0.00013451193459429367
0.00020115569151742195   -3.1219717573247974e-05   -0.00013451193459429367
0.00010236724020369961   -2.5144137923708426e-05   2.6490136472186795e-05
0.00010236724020369961   -2.5144137923708426e-05   2.6490136472186795e-05
0.00010236724020369961   -2.5144137923708426e-05   2.6490136472186795e-05
0.00010236724020369961   -2.5144137923708426e-05   2.6490136472186795e-05
0.00014277688207536482   -3.0055019247138357e-05   -3.791273785319746e-05
0.00014277688207536482   -3.0055019247138357e-05   -3.791273785319746e-05
0.00014277688207536482   -3.0055019247138357e-05   -3.791273785319746e-05
0.00014277688207536482   -3.0055019247138357e-05   -3.791273785319746e-05
0.00010236724020369937   -3.121971757324792e-05   -0.00013815728238401688
0.00010236724020369937   -3.121971757324792e-05   -0.00013815728238401688
0.00010236724020369937   -3.121971757324792e-05   -0.00013815728238401688
0.00010236724020369937   -3.121971757324792e-05   -0.00013815728238401688
0.00020115569151742195   -2.5144137923708426e-05   3.0135484261910447e-05
0.00020115569151742195   -2.5144137923708426e-05   3.0135484261910447e-05
0.00020115569151742195   -2.5144137923708426e-05   3.0135484261910447e-05
0.00020115569151742195   -2.5144137923708426e-05   3.0135484261910447e-05
0.00020034586207860554   -2.8538856608634872e-05   -0.00014631816384862316
0.00020034586207860554   -2.8538856608634872e-05   -0.00014631816384862316
0.00020034586207860554   -2.8538856608634872e-05   -0.00014631816384862316
0.00020034586207860554   -2.8538856608634872e-05   -0.00014631816384862316
0.00010182600795539503   -2.2433994598221796e-05   1.421867581714631e-05
0.00010182600795539503   -2.2433994598221796e-05   1.421867581714631e-05
0.00010182600795539503   -2.2433994598221796e-05   1.421867581714631e-05
0.00010182600795539503   -2.2433994598221796e-05   1.421867581714631e-05
0.00014771320987760607   -2.655962924603939e-05   -5.97846132645147e-05
0.00014771320987760607   -2.655962924603939e-05   -5.97846132645147e-05
0.00014771320987760607   -2.655962924603939e-05   -5.97846132645147e-05
0.00014771320987760607   -2.655962924603939e-05   -5.97846132645147e-05
0.00010182600795539487   -2.8538856608634764e-05   -0.00014998108105487078
0.00010182600795539487   -2.8538856608634764e-05   -0.00014998108105487078
0.00010182600795539487   -2.8538856608634764e-05   -0.00014998108105487078
0.00010182600795539487   -2.8538856608634764e-05   -0.00014998108105487078
0.00020034586207860554   -2.2433994598221796e-05   1.7881593023394253e-05
0.00020034586207860554   -2.2433994598221796e-05   1.7881593023394253e-05
0.00020034586207860554   -2.2433994598221796e-05   1.7881593023394253e-05
0.00020034586207860554   -2.2433994598221796e-05   1.7881593023394253e-05
0.00019906824905388103   -2.2217743718032303e-05   -0.0001703336704177932
0.00019906824905388103   -2.2217743718032303e-05   -0.0001703336704177932
0.00019906824905388103   -2.2217743718032303e-05   -0.0001703336704177932
0.00019906824905388103   -2.2217743718032303e-05   -0.0001703336704177932
9.88220851558581e-05   -1.6599683300040852e-05   -6.627566838549937e-06
9.88220851558581e-05   -1.6599683300040852e-05   -6.627566838549937e-06
9.88220851558581e-05   -1.6599683300040852e-05   -6.627566838549937e-06
9.88220851558581e-05   -1.6599683300040852e-05   -6.627566838549937e-06
0.0001434425219607463   -2.2881550899402905e-05   -7.722584095374641e-05
0.0001434425219607463   -2.2881550899402905e-05   -7.722584095374641e-05
0.0001434425219607463   -2.2881550899402905e-05   -7.722584095374641e-05
0.0001434425219607463   -2.2881550899402905e-05   -7.722584095374641e-05
-0.00021735185777604546   3.132390383664635e-05   -0.00014974762482510159
-0.00021735185777604546   3.132390383664635e-05   -0.00014974762482510159
-0.00021735185777604546   3.132390383664635e-05   -0.00014974762482510159
-0.00021735185777604546   3.132390383664635e-05   -0.00014974762482510159
-0.0001424048039252585   2.3966621091119555e-05   -2.9250238054439638e-05
-0.0001424048039252585   2.3966621091119555e-05   -2.9250238054439638e-05
-0.0001424048039252585   2.3966621091119555e-05   -2.9250238054439638e-05
-0.0001424048039252585   2.3966621091119555e-05   -2.9250238054439638e-05
-0.00014310903242619735   3.757106795984242e-05   -0.00012431927992279318
-0.00014310903242619735   3.757106795984242e-05   -0.00012431927992279318
-0.00014310903242619735   3.757106795984242e-05   -0.00012431927992279318
-0.00014310903242619735   3.757106795984242e-05   -0.00012431927992279318
-0.00021410461750144885   2.8975413792542643e-05   -8.359122969940538e-07
-0.00021410461750144885   2.8975413792542643e-05   -8.359122969940538e-07
-0.00021410461750144885   2.8975413792542643e-05   -8.359122969940538e-07
-0.00021410461750144885   2.8975413792542643e-05   -8.359122969940538e-07
-0.00017166437900646163   3.1843145276112686e-05   -7.329028201211543e-05
-0.00017166437900646163   3.1843145276112686e-05   -7.329028201211543e-05
-0.00017166437900646163   3.1843145276112686e-05   -7.329028201211543e-05
-0.00017166437900646163   3.1843145276112686e-05   -7.329028201211543e-05
-0.00021410461750144885   3.757106795984242e-05   -0.00011916188742241323
-0.00021410461750144885   3.757106795984242e-05   -0.00011916188742241323
-0.00021410461750144885   3.757106795984242e-05   -0.00011916188742241323
-0.00021410461750144885   3.757106795984242e-05   -0.00011916188742241323
-0.00014310903242619735   2.8975413792542643e-05   -5.9933047973734655e-06
-0.00014310903242619735   2.8975413792542643e-05   -5.9933047973734655e-06
-0.00014310903242619735   2.8975413792542643e-05   -5.9933047973734655e-06
-0.00014310903242619735   2.8975413792542643e-05   -5.9933047973734655e-06
-0.00014298085840426636   4.0389627601169326e-05   -0.00010634446029840982
-0.00014298085840426636   4.0389627601169326e-05   -0.00010634446029840982
-0.00014298085840426636   4.0389627601169326e-05   -0.00010634446029840982
-0.00014298085840426636   4.0389627601169326e-05   -0.00010634446029840982
-0.00021093060114002493   3.11730630794013e-05   1.2435049640914736e-05
-0.00021093060114002493   3.11730630794013e-05   1.2435049640914736e-05
-0.00021093060114002493   3.11730630794013e-05   1.2435049640914736e-05
-0.00021093060114002493   3.11730630794013e-05   1.2435049640914736e-05
-0.00017317352118450413   3.474704602730557e-05   -5.263780672036056e-05
-0.00017317352118450413   3.474704602730557e-05   -5.263780672036056e-05
-0.00017317352118450413   3.474704602730557e-05   -5.263780672036056e-05
-0.00017317352118450413   3.474704602730557e-05   -5.263780672036056e-05
-0.00021093060114002493   4.0389627601169326e-05   -0.00010081452158534909
-0.00021093060114002493   4.0389627601169326e-05   -0.00010081452158534909
-0.00021093060114002493   4.0389627601169326e-05   -0.00010081452158534909
-0.00021093060114002493   4.0389627601169326e-05   -0.00010081452158534909
-0.00014298085840426658   3.11730630794013e-05   6.905110927854876e-06
-0.00014298085840426658   3.11730630794013e-05   6.905110927854876e-06
-0.00014298085840426658   3.11730630794013e-05   6.905110927854876e-06
-0.00014298085840426658   3.11730630794013e-05   6.905110927854876e-06
-0.0001431389796247359   4.261758957166601e-05   -8.11491873536779e-05
-0.0001431389796247359   4.261758957166601e-05   -8.11491873536779e-05
-0.0001431389796247359   4.261758957166601e-05   -8.11491873536779e-05
-0.0001431389796247359   4.261758957166601e-05   -8.11491873536779e-05
-0.0002067735086141695   3.332634959005783e-05   3.048310495100859e-05
-0.0002067735086141695   3.332634959005783e-05   3.048310495100859e-05
-0.0002067735086141695   3.332634959005783e-05   3.048310495100859e-05
-0.0002067735086141695   3.332634959005783e-05   3.048310495100859e-05
-0.00016925011329603943   3.6267284095197e-05   -3.3820447948955975e-05
-0.00016925011329603943   3.6267284095197e-05   -3.3820447948955975e-05
-0.00016925011329603943   3.6267284095197e-05   -3.3820447948955975e-05
-0.00016925011329603943   3.6267284095197e-05   -3.3820447948955975e-05
-0.0001424048039252585   1.4574641782815097e-05   -0.000173080909040112
-0.0001424048039252585   1.4574641782815097e-05   -0.000173080909040112
-0.0001424048039252585   1.4574641782815097e-05   -0.000173080909040112
-0.0001424048039252585   1.4574641782815097e-05   -0.000173080909040112
-7.238198957784889e-05   1.1938407878474885e-05   -5.795795880369993e-05
-7.238198957784889e-05   1.1938407878474885e-05   -5.795795880369993e-05
-7.238198957784889e-05   1.1938407878474885e-05   -5.795795880369993e-05
-7.238198957784889e-05   1.1938407878474885e-05   -5.795795880369993e-05
-7.32743357794716e-05   2.031989683634952e-05   -0.00017063973776059393
-7.32743357794716e-05   2.031989683634952e-05   -0.00017063973776059393
-7.32743357794716e-05   2.031989683634952e-05   -0.00017063973776059393
-7.32743357794716e-05   2.031989683634952e-05   -0.00017063973776059393
-0.00014310903242619713   1.6861940692953397e-05   -5.2173802996680085e-05
-0.00014310903242619713   1.6861940692953397e-05   -5.2173802996680085e-05
-0.00014310903242619713   1.6861940692953397e-05   -5.2173802996680085e-05
-0.00014310903242619713   1.6861940692953397e-05   -5.2173802996680085e-05
-0.00010687153463292573   1.6792591988515782e-05   -0.0001125280234294702
-0.00010687153463292573   1.6792591988515782e-05   -0.0001125280234294702
-0.00010687153463292573   1.6792591988515782e-05   -0.0001125280234294702
-0.00010687153463292573   1.6792591988515782e-05   -0.0001125280234294702
-0.00014310903242619724   2.031989683634952e-05   -0.00016856496407455582
-0.00014310903242619724   2.031989683634952e-05   -0.00016856496407455582
-0.00014310903242619724   2.031989683634952e-05   -0.00016856496407455582
-0.00014310903242619724   2.031989683634952e-05   -0.00016856496407455582
-7.327433577947174e-05   1.6861940692953397e-05   -5.424857668271749e-05
-7.327433577947174e-05   1.6861940692953397e-05   -5.424857668271749e-05
-7.327433577947174e-05   1.6861940692953397e-05   -5.424857668271749e-05
-7.327433577947174e-05   1.6861940692953397e-05   -5.424857668271749e-05
-7.3857561439333e-05   2.507237512984939e-05   -0.00016611841000316384
-7.3857561439333e-05   2.507237512984939e-05   -0.00016611841000316384
-7.3857561439333e-05   2.507237512984939e-05   -0.00016611841000316384
-7.3857561439333e-05   2.507237512984939e-05   -0.00016611841000316384
-0.00014298085840426636   2.1232293916029687e-05   -4.8608866333317265e-05
-0.00014298085840426636   2.1232293916029687e-05   -4.8608866333317265e-05
-0.00014298085840426636   2.1232293916029687e-05   -4.8608866333317265e-05
-0.00014298085840426636   2.1232293916029687e-05   -4.8608866333317265e-05
-0.00010708134521182144   2.0840620706639133e-05   -0.00010820638439508902
-0.00010708134521182144   2.0840620706639133e-05   -0.00010820638439508902
-0.00010708134521182144   2.0840620706639133e-05   -0.00010820638439508902
-0.00010708134521182144   2.0840620706639133e-05   -0.00010820638439508902
-0.00014298085840426636   2.507237512984939e-05   -0.00016381436127487208
-0.00014298085840426636   2.507237512984939e-05   -0.00016381436127487208
-0.00014298085840426636   2.507237512984939e-05   -0.00016381436127487208
-0.00014298085840426636   2.507237512984939e-05   -0.00016381436127487208
-7.385756143933326e-05   2.1232293916029687e-05   -5.0912915061608426e-05
-7.385756143933326e-05   2.1232293916029687e-05   -5.0912915061608426e-05
-7.385756143933326e-05   2.1232293916029687e-05   -5.0912915061608426e-05
-7.385756143933326e-05   2.1232293916029687e-05   -5.0912915061608426e-05
-7.460734666278298e-05   3.0183262989250852e-05   -0.00016571389242307907
-7.460734666278298e-05   3.0183262989250852e-05   -0.00016571389242307907
-7.460734666278298e-05   3.0183262989250852e-05   -0.00016571389242307907
-7.460734666278298e-05   3.0183262989250852e-05   -0.00016571389242307907
-0.00014313897962473578   2.5877243381657597e-05   -4.891089238860181e-05
-0.00014313897962473578   2.5877243381657597e-05   -4.891089238860181e-05
-0.00014313897962473578   2.5877243381657597e-05   -4.891089238860181e-05
-0.00014313897962473578   2.5877243381657597e-05   -4.891089238860181e-05
-0.00010836278314569844   2.4846767025417165e-05   -0.00010625293403991847
-0.00010836278314569844   2.4846767025417165e-05   -0.00010625293403991847
-0.00010836278314569844   2.4846767025417165e-05   -0.00010625293403991847
-0.00010836278314569844   2.4846767025417165e-05   -0.00010625293403991847
-7.238198957784878e-05   -4.269280688206723e-07   -0.00018651908343680912
-7.238198957784878e-05   -4.269280688206723e-07   -0.00018651908343680912
-7.238198957784878e-05   -4.269280688206723e-07   -0.00018651908343680912
-7.238198957784878e-05   -4.269280688206723e-07   -0.00018651908343680912
-3.1566673285931635e-06   6.332313194938252e-07   -7.050745072172755e-05
-3.1566673285931635e-06   6.332313194938252e-07   -7.050745072172755e-05
-3.1566673285931635e-06   6.332313194938252e-07   -7.050745072172755e-05
-3.1566673285931635e-06   6.332313194938252e-07   -7.050745072172755e-05
-3.87432621174385e-06   4.865103903655484e-06   -0.00018479147247402444
-3.87432621174385e-06   4.865103903655484e-06   -0.00018479147247402444
-3.87432621174385e-06   4.865103903655484e-06   -0.00018479147247402444
-3.87432621174385e-06   4.865103903655484e-06   -0.00018479147247402444
-7.32743357794716e-05   5.476261754498854e-06   -6.949148457165101e-05
-7.32743357794716e-05   5.476261754498854e-06   -6.949148457165101e-05
-7.32743357794716e-05   5.476261754498854e-06   -6.949148457165101e-05
-7.32743357794716e-05   5.476261754498854e-06   -6.949148457165101e-05
-3.7958721286310035e-05   3.1881064739426156e-06   -0.00012697794889191983
-3.7958721286310035e-05   3.1881064739426156e-06   -0.00012697794889191983
-3.7958721286310035e-05   3.1881064739426156e-06   -0.00012697794889191983
-3.7958721286310035e-05   3.1881064739426156e-06   -0.00012697794889191983
-7.32743357794716e-05   4.865103903655375e-06   -0.0001851581671845306
-7.32743357794716e-05   4.865103903655375e-06   -0.0001851581671845306
-7.32743357794716e-05   4.865103903655375e-06   -0.0001851581671845306
-7.32743357794716e-05   4.865103903655375e-06   -0.0001851581671845306
-3.874326211743853e-06   5.476261754498854e-06   -6.912478986114453e-05
-3.874326211743853e-06   5.476261754498854e-06   -6.912478986114453e-05
-3.874326211743853e-06   5.476261754498854e-06   -6.912478986114453e-05
-3.874326211743853e-06   5.476261754498854e-06   -6.912478986114453e-05
-4.397493675735432e-06   1.003488734889577e-05   -0.00018529901341266994
-4.397493675735432e-06   1.003488734889577e-05   -0.00018529901341266994
-4.397493675735432e-06   1.003488734889577e-05   -0.00018529901341266994
-4.397493675735432e-06   1.003488734889577e-05   -0.00018529901341266994
-7.385756143933313e-05   1.0304503085378953e-05   -6.969400324856453e-05
-7.385756143933313e-05   1.0304503085378953e-05   -6.969400324856453e-05
-7.385756143933313e-05   1.0304503085378953e-05   -6.969400324856453e-05
-7.385756143933313e-05   1.0304503085378953e-05   -6.969400324856453e-05
-3.888114603489766e-05   7.458266289755121e-06   -0.00012628028684524807
-3.888114603489766e-05   7.458266289755121e-06   -0.00012628028684524807
-3.888114603489766e-05   7.458266289755121e-06   -0.00012628028684524807
-3.888114603489766e-05   7.458266289755121e-06   -0.00012628028684524807
-7.385756143933313e-05   1.003488734889577e-05   -0.00018546078285456018
-7.385756143933313e-05   1.003488734889577e-05   -0.00018546078285456018
-7.385756143933313e-05   1.003488734889577e-05   -0.00018546078285456018
-7.385756143933313e-05   1.003488734889577e-05   -0.00018546078285456018
-4.397493675735442e-06   1.0304503085378953e-05   -6.953223380667365e-05
-4.397493675735442e-06   1.0304503085378953e-05   -6.953223380667365e-05
-4.397493675735442e-06   1.0304503085378953e-05   -6.953223380667365e-05
-4.397493675735442e-06   1.0304503085378953e-05   -6.953223380667365e-05
-5.211964370122876e-06   1.5422391870217335e-05   -0.00018768545771199248
-5.211964370122876e-06   1.5422391870217335e-05   -0.00018768545771199248
-5.211964370122876e-06   1.5422391870217335e-05   -0.00018768545771199248
-5.211964370122876e-06   1.5422391870217335e-05   -0.00018768545771199248
-7.46073466627829e-05   1.5245369347849933e-05   -7.19202737108063e-05
-7.46073466627829e-05   1.5245369347849933e-05   -7.19202737108063e-05
-7.46073466627829e-05   1.5245369347849933e-05   -7.19202737108063e-05
-7.46073466627829e-05   1.5245369347849933e-05   -7.19202737108063e-05
-3.9860337194131064e-05   1.1779116921149801e-05   -0.0001277522047025381
-3.9860337194131064e-05   1.1779116921149801e-05   -0.0001277522047025381
-3.9860337194131064e-05   1.1779116921149801e-05   -0.0001277522047025381
-3.9860337194131064e-05   1.1779116921149801e-05   -0.0001277522047025381
-3.156667328593167e-06   -1.4884720978770882e-05   -0.000166695414589267
-3.156667328593167e-06   -1.4884720978770882e-05   -0.000166695414589267
-3.156667328593167e-06   -1.4884720978770882e-05   -0.000166695414589267
-3.156667328593167e-06   -1.4884720978770882e-05   -0.000166695414589267
6.574326302955338e-05   -1.0001157847654152e-05   -4.8932059447020235e-05
6.574326302955338e-05   -1.0001157847654152e-05   -4.8932059447020235e-05
6.574326302955338e-05   -1.0001157847654152e-05   -4.8932059447020235e-05
6.574326302955338e-05   -1.0001157847654152e-05   -4.8932059447020235e-05
6.567967671871095e-05   -1.0081292422920731e-05   -0.00016480176397000142
6.567967671871095e-05   -1.0081292422920731e-05   -0.00016480176397000142
6.567967671871095e-05   -1.0081292422920731e-05   -0.00016480176397000142
6.567967671871095e-05   -1.0081292422920731e-05   -0.00016480176397000142
-3.874326211743853e-06   -5.56679329190117e-06   -5.1587125231188245e-05
-3.874326211743853e-06   -5.56679329190117e-06   -5.1587125231188245e-05
-3.874326211743853e-06   -5.56679329190117e-06   -5.1587125231188245e-05
-3.874326211743853e-06   -5.56679329190117e-06   -5.1587125231188245e-05
3.085897204680265e-05   -9.78681827296774e-06   -0.0001069439406734591
3.085897204680265e-05   -9.78681827296774e-06   -0.0001069439406734591
3.085897204680265e-05   -9.78681827296774e-06   -0.0001069439406734591
3.085897204680265e-05   -9.78681827296774e-06   -0.0001069439406734591
-3.874326211743853e-06   -1.0081292422920731e-05   -0.00016751046344861277
-3.874326211743853e-06   -1.0081292422920731e-05   -0.00016751046344861277
-3.874326211743853e-06   -1.0081292422920731e-05   -0.00016751046344861277
-3.874326211743853e-06   -1.0081292422920731e-05   -0.00016751046344861277
6.567967671871095e-05   -5.566793291901387e-06   -4.887842575257645e-05
6.567967671871095e-05   -5.566793291901387e-06   -4.887842575257645e-05
6.567967671871095e-05   -5.566793291901387e-06   -4.887842575257645e-05
6.567967671871095e-05   -5.566793291901387e-06   -4.887842575257645e-05
6.597087651396126e-05   -5.373029791028725e-06   -0.0001691772201888246
6.597087651396126e-05   -5.373029791028725e-06   -0.0001691772201888246
6.597087651396126e-05   -5.373029791028725e-06   -0.0001691772201888246
6.597087651396126e-05   -5.373029791028725e-06   -0.0001691772201888246
-4.397493675735449e-06   -1.2052915111054018e-06   -5.439724617395103e-05
-4.397493675735449e-06   -1.2052915111054018e-06   -5.439724617395103e-05
-4.397493675735449e-06   -1.2052915111054018e-06   -5.439724617395103e-05
-4.397493675735449e-06   -1.2052915111054018e-06   -5.439724617395103e-05
2.9905086212958585e-05   -5.940600228955583e-06   -0.00010872702742439699
2.9905086212958585e-05   -5.940600228955583e-06   -0.00010872702742439699
2.9905086212958585e-05   -5.940600228955583e-06   -0.00010872702742439699
2.9905086212958585e-05   -5.940600228955583e-06   -0.00010872702742439699
-4.397493675735435e-06   -5.373029791028725e-06   -0.0001716778631567779
-4.397493675735435e-06   -5.373029791028725e-06   -0.0001716778631567779
-4.397493675735435e-06   -5.373029791028725e-06   -0.0001716778631567779
-4.397493675735435e-06   -5.373029791028725e-06   -0.0001716778631567779
6.597087651396126e-05   -1.2052915111054018e-06   -5.189660320599628e-05
6.597087651396126e-05   -1.2052915111054018e-06   -5.189660320599628e-05
6.597087651396126e-05   -1.2052915111054018e-06   -5.189660320599628e-05
6.597087651396126e-05   -1.2052915111054018e-06   -5.189660320599628e-05
6.544937330436545e-05   4.5434119727799736e-07   -0.00017412204273969424
6.544937330436545e-05   4.5434119727799736e-07   -0.00017412204273969424
6.544937330436545e-05   4.5434119727799736e-07   -0.00017412204273969424
6.544937330436545e-05   4.5434119727799736e-07   -0.00017412204273969424
-5.211964370122886e-06   3.89866293069017e-06   -5.841973965559434e-05
-5.211964370122886e-06   3.89866293069017e-06   -5.841973965559434e-05
-5.211964370122886e-06   3.89866293069017e-06   -5.841973965559434e-05
-5.211964370122886e-06   3.89866293069017e-06   -5.841973965559434e-05
2.956306702781987e-05   -1.8215139868178916e-06   -0.00011294601916832651
2.956306702781987e-05   -1.8215139868178916e-06   -0.00011294601916832651
2.956306702781987e-05   -1.8215139868178916e-06   -0.00011294601916832651
2.956306702781987e-05   -1.8215139868178916e-06   -0.00011294601916832651
6.574326302955321e-05   -2.7689771707803575e-05   -9.332540539475445e-05
6.574326302955321e-05   -2.7689771707803575e-05   -9.332540539475445e-05
6.574326302955321e-05   -2.7689771707803575e-05   -9.332540539475445e-05
6.574326302955321e-05   -2.7689771707803575e-05   -9.332540539475445e-05
0.0001303545292063657   -1.8169775025344637e-05   2.0072036242741766e-05
0.0001303545292063657   -1.8169775025344637e-05   2.0072036242741766e-05
0.0001303545292063657   -1.8169775025344637e-05   2.0072036242741766e-05
0.0001303545292063657   -1.8169775025344637e-05   2.0072036242741766e-05
0.0001347009591401135   -2.5144137923708318e-05   -0.00010510547032855619
0.0001347009591401135   -2.5144137923708318e-05   -0.00010510547032855619
0.0001347009591401135   -2.5144137923708318e-05   -0.00010510547032855619
0.0001347009591401135   -2.5144137923708318e-05   -0.00010510547032855619
6.567967671871087e-05   -1.5622086668952038e-05   4.216769620928051e-06
6.567967671871087e-05   -1.5622086668952038e-05   4.216769620928051e-06
6.567967671871087e-05   -1.5622086668952038e-05   4.216769620928051e-06
6.567967671871087e-05   -1.5622086668952038e-05   4.216769620928051e-06
9.48825359084016e-05   -2.140152232605816e-05   -4.098700096762651e-05
9.48825359084016e-05   -2.140152232605816e-05   -4.098700096762651e-05
9.48825359084016e-05   -2.140152232605816e-05   -4.098700096762651e-05
9.48825359084016e-05   -2.140152232605816e-05   -4.098700096762651e-05
6.567967671871079e-05   -2.5144137923708318e-05   -0.00011081870108140977
6.567967671871079e-05   -2.5144137923708318e-05   -0.00011081870108140977
6.567967671871079e-05   -2.5144137923708318e-05   -0.00011081870108140977
6.567967671871079e-05   -2.5144137923708318e-05   -0.00011081870108140977
0.0001347009591401135   -1.5622086668952038e-05   9.930000373782177e-06
0.0001347009591401135   -1.5622086668952038e-05   9.930000373782177e-06
0.0001347009591401135   -1.5622086668952038e-05   9.930000373782177e-06
0.0001347009591401135   -1.5622086668952038e-05   9.930000373782177e-06
0.00013803247876972857   -2.2433994598221796e-05   -0.00011857226508015249
0.00013803247876972857   -2.2433994598221796e-05   -0.00011857226508015249
0.00013803247876972857   -2.2433994598221796e-05   -0.00011857226508015249
0.00013803247876972857   -2.2433994598221796e-05   -0.00011857226508015249
6.597087651396107e-05   -1.3428335783352953e-05   -3.872989942795414e-06
6.597087651396107e-05   -1.3428335783352953e-05   -3.872989942795414e-06
6.597087651396107e-05   -1.3428335783352953e-05   -3.872989942795414e-06
6.597087651396107e-05   -1.3428335783352953e-05   -3.872989942795414e-06
9.807843788541722e-05   -1.9756925541021108e-05   -5.358843837395403e-05
9.807843788541722e-05   -1.9756925541021108e-05   -5.358843837395403e-05
9.807843788541722e-05   -1.9756925541021108e-05   -5.358843837395403e-05
9.807843788541722e-05   -1.9756925541021108e-05   -5.358843837395403e-05
6.597087651396118e-05   -2.2433994598221796e-05   -0.0001239756603690738
6.597087651396118e-05   -2.2433994598221796e-05   -0.0001239756603690738
6.597087651396118e-05   -2.2433994598221796e-05   -0.0001239756603690738
6.597087651396118e-05   -2.2433994598221796e-05   -0.0001239756603690738
0.00013803247876972835   -1.342833578335317e-05   1.5304053461271273e-06
0.00013803247876972835   -1.342833578335317e-05   1.5304053461271273e-06
0.00013803247876972835   -1.342833578335317e-05   1.5304053461271273e-06
0.00013803247876972835   -1.342833578335317e-05   1.5304053461271273e-06
0.0001415748295142645   -1.6599683300040852e-05   -0.00014146366739401672
0.0001415748295142645   -1.6599683300040852e-05   -0.00014146366739401672
0.0001415748295142645   -1.6599683300040852e-05   -0.00014146366739401672
0.0001415748295142645   -1.6599683300040852e-05   -0.00014146366739401672
6.544937330436526e-05   -8.735108145772018e-06   -1.9306652136746752e-05
6.544937330436526e-05   -8.735108145772018e-06   -1.9306652136746752e-05
6.544937330436526e-05   -8.735108145772018e-06   -1.9306652136746752e-05
6.544937330436526e-05   -8.735108145772018e-06   -1.9306652136746752e-05
9.763140135762734e-05   -1.703059020190115e-05   -6.796607632517202e-05
9.763140135762734e-05   -1.703059020190115e-05   -6.796607632517202e-05
9.763140135762734e-05   -1.703059020190115e-05   -6.796607632517202e-05
9.763140135762734e-05   -1.703059020190115e-05   -6.796607632517202e-05
-0.0001565018828600227   2.3966621091119555e-05   -0.00011886506194084862
-0.0001565018828600227   2.3966621091119555e-05   -0.00011886506194084862
-0.0001565018828600227   2.3966621091119555e-05   -0.00011886506194084862
-0.0001565018828600227   2.3966621091119555e-05   -0.00011886506194084862
-0.0001064422043831636   1.5275619586765498e-05   -4.0646865382028925e-05
-0.0001064422043831636   1.5275619586765498e-05   -4.0646865382028925e-05
-0.0001064422043831636   1.5275619586765498e-05   -4.0646865382028925e-05
-0.0001064422043831636   1.5275619586765498e-05   -4.0646865382028925e-05
-0.00010605710114178104   2.8975413792542643e-05   -0.00010097498851927619
-0.00010605710114178104   2.8975413792542643e-05   -0.00010097498851927619
-0.00010605710114178104   2.8975413792542643e-05   -0.00010097498851927619
-0.00010605710114178104   2.8975413792542643e-05   -0.00010097498851927619
-0.0001518494588864976   1.942827150735191e-05   -1.8926106906967926e-05
-0.0001518494588864976   1.942827150735191e-05   -1.8926106906967926e-05
-0.0001518494588864976   1.942827150735191e-05   -1.8926106906967926e-05
-0.0001518494588864976   1.942827150735191e-05   -1.8926106906967926e-05
-0.00012468916029400955   2.307293499621832e-05   -6.638006932110072e-05
-0.00012468916029400955   2.307293499621832e-05   -6.638006932110072e-05
-0.00012468916029400955   2.307293499621832e-05   -6.638006932110072e-05
-0.00012468916029400955   2.307293499621832e-05   -6.638006932110072e-05
-0.0001518494588864976   2.8975413792542643e-05   -9.52467031481621e-05
-0.0001518494588864976   2.8975413792542643e-05   -9.52467031481621e-05
-0.0001518494588864976   2.8975413792542643e-05   -9.52467031481621e-05
-0.0001518494588864976   2.8975413792542643e-05   -9.52467031481621e-05
-0.00010605710114178126   1.9428271507352345e-05   -2.4654392278082235e-05
-0.00010605710114178126   1.9428271507352345e-05   -2.4654392278082235e-05
-0.00010605710114178126   1.9428271507352345e-05   -2.4654392278082235e-05
-0.00010605710114178126   1.9428271507352345e-05   -2.4654392278082235e-05
-0.00010525437739152812   3.1173063079401086e-05   -8.804766754024872e-05
-0.00010525437739152812   3.1173063079401086e-05   -8.804766754024872e-05
-0.00010525437739152812   3.1173063079401086e-05   -8.804766754024872e-05
-0.00010525437739152812   3.1173063079401086e-05   -8.804766754024872e-05
-0.00014836665324612227   2.1359083201638162e-05   -1.0305486522600152e-05
-0.00014836665324612227   2.1359083201638162e-05   -1.0305486522600152e-05
-0.00014836665324612227   2.1359083201638162e-05   -1.0305486522600152e-05
-0.00014836665324612227   2.1359083201638162e-05   -1.0305486522600152e-05
-0.00012470562254040607   2.5389280335324626e-05   -5.215865597900664e-05
-0.00012470562254040607   2.5389280335324626e-05   -5.215865597900664e-05
-0.00012470562254040607   2.5389280335324626e-05   -5.215865597900664e-05
-0.00012470562254040607   2.5389280335324626e-05   -5.215865597900664e-05
-0.00014836665324612227   3.1173063079401086e-05   -8.215927961359058e-05
-0.00014836665324612227   3.1173063079401086e-05   -8.215927961359058e-05
-0.00014836665324612227   3.1173063079401086e-05   -8.215927961359058e-05
-0.00014836665324612227   3.1173063079401086e-05   -8.215927961359058e-05
-0.00010525437739152834   2.1359083201638162e-05   -1.6193874449257862e-05
-0.00010525437739152834   2.1359083201638162e-05   -1.6193874449257862e-05
-0.00010525437739152834   2.1359083201638162e-05   -1.6193874449257862e-05
-0.00010525437739152834   2.1359083201638162e-05   -1.6193874449257862e-05
-0.00010492978358862034   3.332634959005783e-05   -7.01379188981408e-05
-0.00010492978358862034   3.332634959005783e-05   -7.01379188981408e-05
-0.00010492978358862034   3.332634959005783e-05   -7.01379188981408e-05
-0.00010492978358862034   3.332634959005783e-05   -7.01379188981408e-05
-0.00014380388679505868   2.37808742454596e-05   3.795383193491708e-07
-0.00014380388679505868   2.37808742454596e-05   3.795383193491708e-07
-0.00014380388679505868   2.37808742454596e-05   3.795383193491708e-07
-0.00014380388679505868   2.37808742454596e-05   3.795383193491708e-07
-0.00012102114820419297   2.6636756338775918e-05   -3.93052219214169e-05
-0.00012102114820419297   2.6636756338775918e-05   -3.93052219214169e-05
-0.00012102114820419297   2.6636756338775918e-05   -3.93052219214169e-05
-0.00012102114820419297   2.6636756338775918e-05   -3.93052219214169e-05
-0.00010644220438316338   1.1938407878475102e-05   -0.00015120564325011698
-0.00010644220438316338   1.1938407878475102e-05   -0.00015120564325011698
-0.00010644220438316338   1.1938407878475102e-05   -0.00015120564325011698
-0.00010644220438316338   1.1938407878475102e-05   -0.00015120564325011698
-6.110487533613119e-05   7.878026666639608e-06   -7.807965689883144e-05
-6.110487533613119e-05   7.878026666639608e-06   -7.807965689883144e-05
-6.110487533613119e-05   7.878026666639608e-06   -7.807965689883144e-05
-6.110487533613119e-05   7.878026666639608e-06   -7.807965689883144e-05
-6.1133405170315e-05   1.6861940692953397e-05   -0.00014991704643939644
-6.1133405170315e-05   1.6861940692953397e-05   -0.00014991704643939644
-6.1133405170315e-05   1.6861940692953397e-05   -0.00014991704643939644
-6.1133405170315e-05   1.6861940692953397e-05   -0.00014991704643939644
-0.00010605710114178104   1.2259341158263673e-05   -7.228266009947216e-05
-0.00010605710114178104   1.2259341158263673e-05   -7.228266009947216e-05
-0.00010605710114178104   1.2259341158263673e-05   -7.228266009947216e-05
-0.00010605710114178104   1.2259341158263673e-05   -7.228266009947216e-05
-8.291382840764196e-05   1.3046292824933203e-05   -0.00011132695232303979
-8.291382840764196e-05   1.3046292824933203e-05   -0.00011132695232303979
-8.291382840764196e-05   1.3046292824933203e-05   -0.00011132695232303979
-8.291382840764196e-05   1.3046292824933203e-05   -0.00011132695232303979
-0.00010605710114178094   1.6861940692953397e-05   -0.00014715548671858183
-0.00010605710114178094   1.6861940692953397e-05   -0.00014715548671858183
-0.00010605710114178094   1.6861940692953397e-05   -0.00014715548671858183
-0.00010605710114178094   1.6861940692953397e-05   -0.00014715548671858183
-6.1133405170315e-05   1.225934115826324e-05   -7.504421982028624e-05
-6.1133405170315e-05   1.225934115826324e-05   -7.504421982028624e-05
-6.1133405170315e-05   1.225934115826324e-05   -7.504421982028624e-05
-6.1133405170315e-05   1.225934115826324e-05   -7.504421982028624e-05
-6.108643188657643e-05   2.1232293916029687e-05   -0.0001465558030517241
-6.108643188657643e-05   2.1232293916029687e-05   -0.0001465558030517241
-6.108643188657643e-05   2.1232293916029687e-05   -0.0001465558030517241
-6.108643188657643e-05   2.1232293916029687e-05   -0.0001465558030517241
-0.00010525437739152812   1.624203016552207e-05   -6.99484022931669e-05
-0.00010525437739152812   1.624203016552207e-05   -6.99484022931669e-05
-0.00010525437739152812   1.624203016552207e-05   -6.99484022931669e-05
-0.00010525437739152812   1.624203016552207e-05   -6.99484022931669e-05
-8.252551463413117e-05   1.6640598471186294e-05   -0.0001080689812055593
-8.252551463413117e-05   1.6640598471186294e-05   -0.0001080689812055593
-8.252551463413117e-05   1.6640598471186294e-05   -0.0001080689812055593
-8.252551463413117e-05   1.6640598471186294e-05   -0.0001080689812055593
-0.00010525437739152812   2.1232293916029687e-05   -0.00014356164480141967
-0.00010525437739152812   2.1232293916029687e-05   -0.00014356164480141967
-0.00010525437739152812   2.1232293916029687e-05   -0.00014356164480141967
-0.00010525437739152812   2.1232293916029687e-05   -0.00014356164480141967
-6.108643188657654e-05   1.624203016552207e-05   -7.294256054347112e-05
-6.108643188657654e-05   1.624203016552207e-05   -7.294256054347112e-05
-6.108643188657654e-05   1.624203016552207e-05   -7.294256054347112e-05
-6.108643188657654e-05   1.624203016552207e-05   -7.294256054347112e-05
-6.113267551929546e-05   2.5877243381657597e-05   -0.00014714512683626892
-6.113267551929546e-05   2.5877243381657597e-05   -0.00014714512683626892
-6.113267551929546e-05   2.5877243381657597e-05   -0.00014714512683626892
-6.113267551929546e-05   2.5877243381657597e-05   -0.00014714512683626892
-0.00010492978358862045   2.0563985735853538e-05   -7.09619921332443e-05
-0.00010492978358862045   2.0563985735853538e-05   -7.09619921332443e-05
-0.00010492978358862045   2.0563985735853538e-05   -7.09619921332443e-05
-0.00010492978358862045   2.0563985735853538e-05   -7.09619921332443e-05
-8.30580390690757e-05   2.0192179768869535e-05   -0.00010719181608562841
-8.30580390690757e-05   2.0192179768869535e-05   -0.00010719181608562841
-8.30580390690757e-05   2.0192179768869535e-05   -0.00010719181608562841
-8.30580390690757e-05   2.0192179768869535e-05   -0.00010719181608562841
-6.110487533613108e-05   6.332313194936084e-07   -0.00016682745952823516
-6.110487533613108e-05   6.332313194936084e-07   -0.00016682745952823516
-6.110487533613108e-05   6.332313194936084e-07   -0.00016682745952823516
-6.110487533613108e-05   6.332313194936084e-07   -0.00016682745952823516
-1.641545695172371e-05   1.344157530281699e-06   -9.191853982775007e-05
-1.641545695172371e-05   1.344157530281699e-06   -9.191853982775007e-05
-1.641545695172371e-05   1.344157530281699e-06   -9.191853982775007e-05
-1.641545695172371e-05   1.344157530281699e-06   -9.191853982775007e-05
-1.64446770545742e-05   5.476261754498854e-06   -0.00016499868195301724
-1.64446770545742e-05   5.476261754498854e-06   -0.00016499868195301724
-1.64446770545742e-05   5.476261754498854e-06   -0.00016499868195301724
-1.64446770545742e-05   5.476261754498854e-06   -0.00016499868195301724
-6.113340517031489e-05   5.745049046686126e-06   -9.067874080209541e-05
-6.113340517031489e-05   5.745049046686126e-06   -9.067874080209541e-05
-6.113340517031489e-05   5.745049046686126e-06   -9.067874080209541e-05
-6.113340517031489e-05   5.745049046686126e-06   -9.067874080209541e-05
-3.851799592763029e-05   3.865449328227001e-06   -0.00012724332970882727
-3.851799592763029e-05   3.865449328227001e-06   -0.00012724332970882727
-3.851799592763029e-05   3.865449328227001e-06   -0.00012724332970882727
-3.851799592763029e-05   3.865449328227001e-06   -0.00012724332970882727
-6.113340517031489e-05   5.476261754498854e-06   -0.0001651599543283297
-6.113340517031489e-05   5.476261754498854e-06   -0.0001651599543283297
-6.113340517031489e-05   5.476261754498854e-06   -0.0001651599543283297
-6.113340517031489e-05   5.476261754498854e-06   -0.0001651599543283297
-1.64446770545742e-05   5.745049046686126e-06   -9.051746842678285e-05
-1.64446770545742e-05   5.745049046686126e-06   -9.051746842678285e-05
-1.64446770545742e-05   5.745049046686126e-06   -9.051746842678285e-05
-1.64446770545742e-05   5.745049046686126e-06   -9.051746842678285e-05
-1.6384544407685623e-05   1.0304503085378953e-05   -0.000165423626968068
-1.6384544407685623e-05   1.0304503085378953e-05   -0.000165423626968068
-1.6384544407685623e-05   1.0304503085378953e-05   -0.000165423626968068
-1.6384544407685623e-05   1.0304503085378953e-05   -0.000165423626968068
-6.108643188657643e-05   1.015994353639792e-05   -9.083374544052822e-05
-6.108643188657643e-05   1.015994353639792e-05   -9.083374544052822e-05
-6.108643188657643e-05   1.015994353639792e-05   -9.083374544052822e-05
-6.108643188657643e-05   1.015994353639792e-05   -9.083374544052822e-05
-3.8774176998359435e-05   7.712883579487784e-06   -0.0001265526009467439
-3.8774176998359435e-05   7.712883579487784e-06   -0.0001265526009467439
-3.8774176998359435e-05   7.712883579487784e-06   -0.0001265526009467439
-3.8774176998359435e-05   7.712883579487784e-06   -0.0001265526009467439
-6.108643188657643e-05   1.030450308537917e-05   -0.0001653368912386795
-6.108643188657643e-05   1.030450308537917e-05   -0.0001653368912386795
-6.108643188657643e-05   1.030450308537917e-05   -0.0001653368912386795
-6.108643188657643e-05   1.030450308537917e-05   -0.0001653368912386795
-1.638454440768565e-05   1.015994353639792e-05   -9.09204811699166e-05
-1.638454440768565e-05   1.015994353639792e-05   -9.09204811699166e-05
-1.638454440768565e-05   1.015994353639792e-05   -9.09204811699166e-05
-1.638454440768565e-05   1.015994353639792e-05   -9.09204811699166e-05
-1.6409570754169816e-05   1.5245369347849933e-05   -0.00016792689973069998
-1.6409570754169816e-05   1.5245369347849933e-05   -0.00016792689973069998
-1.6409570754169816e-05   1.5245369347849933e-05   -0.00016792689973069998
-1.6409570754169816e-05   1.5245369347849933e-05   -0.00016792689973069998
-6.113267551929546e-05   1.4652030453212849e-05   -9.303238845204066e-05
-6.113267551929546e-05   1.4652030453212849e-05   -9.303238845204066e-05
-6.113267551929546e-05   1.4652030453212849e-05   -9.303238845204066e-05
-6.113267551929546e-05   1.4652030453212849e-05   -9.303238845204066e-05
-3.9105918345245e-05   1.1610809764575278e-05   -0.0001279189179956092
-3.9105918345245e-05   1.1610809764575278e-05   -0.0001279189179956092
-3.9105918345245e-05   1.1610809764575278e-05   -0.0001279189179956092
-3.9105918345245e-05   1.1610809764575278e-05   -0.0001279189179956092
-1.6415456951723684e-05   -1.0001157847654152e-05   -0.00014775565040572414
-1.6415456951723684e-05   -1.0001157847654152e-05   -0.00014775565040572414
-1.6415456951723684e-05   -1.0001157847654152e-05   -0.00014775565040572414
-1.6415456951723684e-05   -1.0001157847654152e-05   -0.00014775565040572414
2.7651145040768143e-05   -4.63477177473472e-06   -7.109148210781993e-05
2.7651145040768143e-05   -4.63477177473472e-06   -7.109148210781993e-05
2.7651145040768143e-05   -4.63477177473472e-06   -7.109148210781993e-05
2.7651145040768143e-05   -4.63477177473472e-06   -7.109148210781993e-05
2.8011935653702615e-05   -5.56679329190117e-06   -0.00014441723361806194
2.8011935653702615e-05   -5.56679329190117e-06   -0.00014441723361806194
2.8011935653702615e-05   -5.56679329190117e-06   -0.00014441723361806194
2.8011935653702615e-05   -5.56679329190117e-06   -0.00014441723361806194
-1.64446770545742e-05   -4.938204502375441e-07   -7.336666280926594e-05
-1.64446770545742e-05   -4.938204502375441e-07   -7.336666280926594e-05
-1.64446770545742e-05   -4.938204502375441e-07   -7.336666280926594e-05
-1.64446770545742e-05   -4.938204502375441e-07   -7.336666280926594e-05
5.722742988887461e-06   -4.7922494631094485e-06   -0.00010773330547397887
5.722742988887461e-06   -4.7922494631094485e-06   -0.00010773330547397887
5.722742988887461e-06   -4.7922494631094485e-06   -0.00010773330547397887
5.722742988887461e-06   -4.7922494631094485e-06   -0.00010773330547397887
-1.64446770545742e-05   -5.56679329190117e-06   -0.00014746101732306073
-1.64446770545742e-05   -5.56679329190117e-06   -0.00014746101732306073
-1.64446770545742e-05   -5.56679329190117e-06   -0.00014746101732306073
-1.64446770545742e-05   -5.56679329190117e-06   -0.00014746101732306073
2.8011935653702723e-05   -4.938204502375441e-07   -7.032287910426773e-05
2.8011935653702723e-05   -4.938204502375441e-07   -7.032287910426773e-05
2.8011935653702723e-05   -4.938204502375441e-07   -7.032287910426773e-05
2.8011935653702723e-05   -4.938204502375441e-07   -7.032287910426773e-05
2.8855360168801136e-05   -1.2052915111056186e-06   -0.0001474691529548323
2.8855360168801136e-05   -1.2052915111056186e-06   -0.0001474691529548323
2.8855360168801136e-05   -1.2052915111056186e-06   -0.0001474691529548323
2.8855360168801136e-05   -1.2052915111056186e-06   -0.0001474691529548323
-1.638454440768565e-05   3.493852456414731e-06   -7.488879837453339e-05
-1.638454440768565e-05   3.493852456414731e-06   -7.488879837453339e-05
-1.638454440768565e-05   3.493852456414731e-06   -7.488879837453339e-05
-1.638454440768565e-05   3.493852456414731e-06   -7.488879837453339e-05
5.4693362485843635e-06   -1.3483629042881917e-06   -0.0001084066035852284
5.4693362485843635e-06   -1.3483629042881917e-06   -0.0001084066035852284
5.4693362485843635e-06   -1.3483629042881917e-06   -0.0001084066035852284
5.4693362485843635e-06   -1.3483629042881917e-06   -0.0001084066035852284
-1.638454440768564e-05   -1.2052915111056186e-06   -0.00015028863933534437
-1.638454440768564e-05   -1.2052915111056186e-06   -0.00015028863933534437
-1.638454440768564e-05   -1.2052915111056186e-06   -0.00015028863933534437
-1.638454440768564e-05   -1.2052915111056186e-06   -0.00015028863933534437
2.8855360168801244e-05   3.493852456414731e-06   -7.20693119940208e-05
2.8855360168801244e-05   3.493852456414731e-06   -7.20693119940208e-05
2.8855360168801244e-05   3.493852456414731e-06   -7.20693119940208e-05
2.8855360168801244e-05   3.493852456414731e-06   -7.20693119940208e-05
2.9266391912707867e-05   3.89866293069017e-06   -0.00015181813950824845
2.9266391912707867e-05   3.89866293069017e-06   -0.00015181813950824845
2.9266391912707867e-05   3.89866293069017e-06   -0.00015181813950824845
2.9266391912707867e-05   3.89866293069017e-06   -0.00015181813950824845
-1.6409570754169785e-05   8.068684020387604e-06   -7.819354771727068e-05
-1.6409570754169785e-05   8.068684020387604e-06   -7.819354771727068e-05
-1.6409570754169785e-05   8.068684020387604e-06   -7.819354771727068e-05
-1.6409570754169785e-05   8.068684020387604e-06   -7.819354771727068e-05
5.6245347084117955e-06   2.339849577092344e-06   -0.00011147975615559581
5.6245347084117955e-06   2.339849577092344e-06   -0.00011147975615559581
5.6245347084117955e-06   2.339849577092344e-06   -0.00011147975615559581
5.6245347084117955e-06   2.339849577092344e-06   -0.00011147975615559581
2.7651145040768143e-05   -1.8169775025344637e-05   -8.124372108168606e-05
2.7651145040768143e-05   -1.8169775025344637e-05   -8.124372108168606e-05
2.7651145040768143e-05   -1.8169775025344637e-05   -8.124372108168606e-05
2.7651145040768143e-05   -1.8169775025344637e-05   -8.124372108168606e-05
6.689129188810713e-05   -8.541016342987658e-06   -1.0066221126707204e-05
6.689129188810713e-05   -8.541016342987658e-06   -1.0066221126707204e-05
6.689129188810713e-05   -8.541016342987658e-06   -1.0066221126707204e-05
6.689129188810713e-05   -8.541016342987658e-06   -1.0066221126707204e-05
7.151545797724507e-05   -1.5622086668952038e-05   -8.53938415301134e-05
7.151545797724507e-05   -1.5622086668952038e-05   -8.53938415301134e-05
7.151545797724507e-05   -1.5622086668952038e-05   -8.53938415301134e-05
7.151545797724507e-05   -1.5622086668952038e-05   -8.53938415301134e-05
2.801193565370267e-05   -5.741758811544494e-06   -1.8816167705320392e-05
2.801193565370267e-05   -5.741758811544494e-06   -1.8816167705320392e-05
2.801193565370267e-05   -5.741758811544494e-06   -1.8816167705320392e-05
2.801193565370267e-05   -5.741758811544494e-06   -1.8816167705320392e-05
4.644873445486998e-05   -1.164723384823596e-05   -4.6000880685251213e-05
4.644873445486998e-05   -1.164723384823596e-05   -4.6000880685251213e-05
4.644873445486998e-05   -1.164723384823596e-05   -4.6000880685251213e-05
4.644873445486998e-05   -1.164723384823596e-05   -4.6000880685251213e-05
2.801193565370267e-05   -1.5622086668952038e-05   -9.132203824455706e-05
2.801193565370267e-05   -1.5622086668952038e-05   -9.132203824455706e-05
2.801193565370267e-05   -1.5622086668952038e-05   -9.132203824455706e-05
2.801193565370267e-05   -1.5622086668952038e-05   -9.132203824455706e-05
7.151545797724485e-05   -5.741758811544494e-06   -1.2887970990875866e-05
7.151545797724485e-05   -5.741758811544494e-06   -1.2887970990875866e-05
7.151545797724485e-05   -5.741758811544494e-06   -1.2887970990875866e-05
7.151545797724485e-05   -5.741758811544494e-06   -1.2887970990875866e-05
7.507038405953266e-05   -1.342833578335317e-05   -9.367114240006226e-05
7.507038405953266e-05   -1.342833578335317e-05   -9.367114240006226e-05
7.507038405953266e-05   -1.342833578335317e-05   -9.367114240006226e-05
7.507038405953266e-05   -1.342833578335317e-05   -9.367114240006226e-05
2.8855360168801244e-05   -3.804340297405319e-06   -2.2420499873745253e-05
2.8855360168801244e-05   -3.804340297405319e-06   -2.2420499873745253e-05
2.8855360168801244e-05   -3.804340297405319e-06   -2.2420499873745253e-05
2.8855360168801244e-05   -3.804340297405319e-06   -2.2420499873745253e-05
4.928367991499736e-05   -1.0212020406795506e-05   -5.2623091385104576e-05
4.928367991499736e-05   -1.0212020406795506e-05   -5.2623091385104576e-05
4.928367991499736e-05   -1.0212020406795506e-05   -5.2623091385104576e-05
4.928367991499736e-05   -1.0212020406795506e-05   -5.2623091385104576e-05
2.885536016880119e-05   -1.3428335783352953e-05   -9.944553969163045e-05
2.885536016880119e-05   -1.3428335783352953e-05   -9.944553969163045e-05
2.885536016880119e-05   -1.3428335783352953e-05   -9.944553969163045e-05
2.885536016880119e-05   -1.3428335783352953e-05   -9.944553969163045e-05
7.507038405953233e-05   -3.804340297405319e-06   -1.6646102582176196e-05
7.507038405953233e-05   -3.804340297405319e-06   -1.6646102582176196e-05
7.507038405953233e-05   -3.804340297405319e-06   -1.6646102582176196e-05
7.507038405953233e-05   -3.804340297405319e-06   -1.6646102582176196e-05
7.978850139453496e-05   -8.735108145772235e-06   -0.00010952240737275968
7.978850139453496e-05   -8.735108145772235e-06   -0.00010952240737275968
7.978850139453496e-05   -8.735108145772235e-06   -0.00010952240737275968
7.978850139453496e-05   -8.735108145772235e-06   -0.00010952240737275968
2.926639191270792e-05   1.3621282041968025e-08   -3.0568129226402605e-05
2.926639191270792e-05   1.3621282041968025e-08   -3.0568129226402605e-05
2.926639191270792e-05   1.3621282041968025e-08   -3.0568129226402605e-05
2.926639191270792e-05   1.3621282041968025e-08   -3.0568129226402605e-05
5.021240610224848e-05   -8.063765367115599e-06   -6.063172088614278e-05
5.021240610224848e-05   -8.063765367115599e-06   -6.063172088614278e-05
5.021240610224848e-05   -8.063765367115599e-06   -6.063172088614278e-05
5.021240610224848e-05   -8.063765367115599e-06   -6.063172088614278e-05
-9.500257566721199e-05   1.5275619586765498e-05   -8.885486593388251e-05
-9.500257566721199e-05   1.5275619586765498e-05   -8.885486593388251e-05
-9.500257566721199e-05   1.5275619586765498e-05   -8.885486593388251e-05
-9.500257566721199e-05   1.5275619586765498e-05   -8.885486593388251e-05
-6.999591255326342e-05   6.249188882642004e-06   -5.259295249977563e-05
-6.999591255326342e-05   6.249188882642004e-06   -5.259295249977563e-05
-6.999591255326342e-05   6.249188882642004e-06   -5.259295249977563e-05
-6.999591255326342e-05   6.249188882642004e-06   -5.259295249977563e-05
-6.895798378629063e-05   1.9428271507352345e-05   -7.838507079472538e-05
-6.895798378629063e-05   1.9428271507352345e-05   -7.838507079472538e-05
-6.895798378629063e-05   1.9428271507352345e-05   -7.838507079472538e-05
-6.895798378629063e-05   1.9428271507352345e-05   -7.838507079472538e-05
-8.985916099930066e-05   9.710062088942942e-06   -3.771884978866235e-05
-8.985916099930066e-05   9.710062088942942e-06   -3.771884978866235e-05
-8.985916099930066e-05   9.710062088942942e-06   -3.771884978866235e-05
-8.985916099930066e-05   9.710062088942942e-06   -3.771884978866235e-05
-7.752360838593047e-05   1.3697132216295219e-05   -6.067034622069499e-05
-7.752360838593047e-05   1.3697132216295219e-05   -6.067034622069499e-05
-7.752360838593047e-05   1.3697132216295219e-05   -6.067034622069499e-05
-7.752360838593047e-05   1.3697132216295219e-05   -6.067034622069499e-05
-8.985916099930066e-05   1.9428271507352345e-05   -7.255414514367991e-05
-8.985916099930066e-05   1.9428271507352345e-05   -7.255414514367991e-05
-8.985916099930066e-05   1.9428271507352345e-05   -7.255414514367991e-05
-8.985916099930066e-05   1.9428271507352345e-05   -7.255414514367991e-05
-6.895798378629074e-05   9.710062088942942e-06   -4.354977543970869e-05
-6.895798378629074e-05   9.710062088942942e-06   -4.354977543970869e-05
-6.895798378629074e-05   9.710062088942942e-06   -4.354977543970869e-05
-6.895798378629074e-05   9.710062088942942e-06   -4.354977543970869e-05
-6.747920579655228e-05   2.1359083201638162e-05   -6.999717453707059e-05
-6.747920579655228e-05   2.1359083201638162e-05   -6.999717453707059e-05
-6.747920579655228e-05   2.1359083201638162e-05   -6.999717453707059e-05
-6.747920579655228e-05   2.1359083201638162e-05   -6.999717453707059e-05
-8.574889343989126e-05   1.1453963229018493e-05   -3.360462314793344e-05
-8.574889343989126e-05   1.1453963229018493e-05   -3.360462314793344e-05
-8.574889343989126e-05   1.1453963229018493e-05   -3.360462314793344e-05
-8.574889343989126e-05   1.1453963229018493e-05   -3.360462314793344e-05
-7.616292874438083e-05   1.5562667711264966e-05   -5.204645366313249e-05
-7.616292874438083e-05   1.5562667711264966e-05   -5.204645366313249e-05
-7.616292874438083e-05   1.5562667711264966e-05   -5.204645366313249e-05
-7.616292874438083e-05   1.5562667711264966e-05   -5.204645366313249e-05
-8.574889343989115e-05   2.1359083201638162e-05   -6.405410255349827e-05
-8.574889343989115e-05   2.1359083201638162e-05   -6.405410255349827e-05
-8.574889343989115e-05   2.1359083201638162e-05   -6.405410255349827e-05
-8.574889343989115e-05   2.1359083201638162e-05   -6.405410255349827e-05
-6.747920579655239e-05   1.1453963229018493e-05   -3.954769513150511e-05
-6.747920579655239e-05   1.1453963229018493e-05   -3.954769513150511e-05
-6.747920579655239e-05   1.1453963229018493e-05   -3.954769513150511e-05
-6.747920579655239e-05   1.1453963229018493e-05   -3.954769513150511e-05
-6.646495138182263e-05   2.3780874245459167e-05   -5.922646518248618e-05
-6.646495138182263e-05   2.3780874245459167e-05   -5.922646518248618e-05
-6.646495138182263e-05   2.3780874245459167e-05   -5.922646518248618e-05
-6.646495138182263e-05   2.3780874245459167e-05   -5.922646518248618e-05
-8.051321523431208e-05   1.421406752974419e-05   -3.0072608065573716e-05
-8.051321523431208e-05   1.421406752974419e-05   -3.0072608065573716e-05
-8.051321523431208e-05   1.421406752974419e-05   -3.0072608065573716e-05
-8.051321523431208e-05   1.421406752974419e-05   -3.0072608065573716e-05
-7.259893852175657e-05   1.6848610174112055e-05   -4.484379483978918e-05
-7.259893852175657e-05   1.6848610174112055e-05   -4.484379483978918e-05
-7.259893852175657e-05   1.6848610174112055e-05   -4.484379483978918e-05
-7.259893852175657e-05   1.6848610174112055e-05   -4.484379483978918e-05
-6.999591255326342e-05   7.878026666639608e-06   -0.00012926728714605777
-6.999591255326342e-05   7.878026666639608e-06   -0.00012926728714605777
-6.999591255326342e-05   7.878026666639608e-06   -0.00012926728714605777
-6.999591255326342e-05   7.878026666639608e-06   -0.00012926728714605777
-4.969620338373895e-05   3.562374921039016e-06   -9.802382957754428e-05
-4.969620338373895e-05   3.562374921039016e-06   -9.802382957754428e-05
-4.969620338373895e-05   3.562374921039016e-06   -9.802382957754428e-05
-4.969620338373895e-05   3.562374921039016e-06   -9.802382957754428e-05
-4.9010815027196984e-05   1.225934115826324e-05   -0.0001288520034768417
-4.9010815027196984e-05   1.225934115826324e-05   -0.0001288520034768417
-4.9010815027196984e-05   1.225934115826324e-05   -0.0001288520034768417
-4.9010815027196984e-05   1.225934115826324e-05   -0.0001288520034768417
-6.895798378629095e-05   7.528233057053826e-06   -9.276805735095863e-05
-6.895798378629095e-05   7.528233057053826e-06   -9.276805735095863e-05
-6.895798378629095e-05   7.528233057053826e-06   -9.276805735095863e-05
-6.895798378629095e-05   7.528233057053826e-06   -9.276805735095863e-05
-5.883620395891599e-05   8.561531883145412e-06   -0.000110257669692241
-5.883620395891599e-05   8.561531883145412e-06   -0.000110257669692241
-5.883620395891599e-05   8.561531883145412e-06   -0.000110257669692241
-5.883620395891599e-05   8.561531883145412e-06   -0.000110257669692241
-6.895798378629063e-05   1.225934115826324e-05   -0.0001260133386161153
-6.895798378629063e-05   1.225934115826324e-05   -0.0001260133386161153
-6.895798378629063e-05   1.225934115826324e-05   -0.0001260133386161153
-6.895798378629063e-05   1.225934115826324e-05   -0.0001260133386161153
-4.9010815027196984e-05   7.528233057053826e-06   -9.560672221168459e-05
-4.9010815027196984e-05   7.528233057053826e-06   -9.560672221168459e-05
-4.9010815027196984e-05   7.528233057053826e-06   -9.560672221168459e-05
-4.9010815027196984e-05   7.528233057053826e-06   -9.560672221168459e-05
-4.8254657783393634e-05   1.624203016552207e-05   -0.00012676977719690242
-4.8254657783393634e-05   1.624203016552207e-05   -0.00012676977719690242
-4.8254657783393634e-05   1.624203016552207e-05   -0.00012676977719690242
-4.8254657783393634e-05   1.624203016552207e-05   -0.00012676977719690242
-6.74792057965525e-05   1.1211905472317037e-05   -9.171078902571396e-05
-6.74792057965525e-05   1.1211905472317037e-05   -9.171078902571396e-05
-6.74792057965525e-05   1.1211905472317037e-05   -9.171078902571396e-05
-6.74792057965525e-05   1.1211905472317037e-05   -9.171078902571396e-05
-5.793794413805196e-05   1.1763718381264769e-05   -0.00010794397953524945
-5.793794413805196e-05   1.1763718381264769e-05   -0.00010794397953524945
-5.793794413805196e-05   1.1763718381264769e-05   -0.00010794397953524945
-5.793794413805196e-05   1.1763718381264769e-05   -0.00010794397953524945
-6.747920579655228e-05   1.624203016552207e-05   -0.00012375170238097897
-6.747920579655228e-05   1.624203016552207e-05   -0.00012375170238097897
-6.747920579655228e-05   1.624203016552207e-05   -0.00012375170238097897
-6.747920579655228e-05   1.624203016552207e-05   -0.00012375170238097897
-4.825465778339358e-05   1.1211905472317037e-05   -9.472886384163676e-05
-4.825465778339358e-05   1.1211905472317037e-05   -9.472886384163676e-05
-4.825465778339358e-05   1.1211905472317037e-05   -9.472886384163676e-05
-4.825465778339358e-05   1.1211905472317037e-05   -9.472886384163676e-05
-4.757993819098596e-05   2.0563985735853538e-05   -0.0001279983640720614
-4.757993819098596e-05   2.0563985735853538e-05   -0.0001279983640720614
-4.757993819098596e-05   2.0563985735853538e-05   -0.0001279983640720614
-4.757993819098596e-05   2.0563985735853538e-05   -0.0001279983640720614
-6.646495138182273e-05   1.53012296629524e-05   -9.336568844359162e-05
-6.646495138182273e-05   1.53012296629524e-05   -9.336568844359162e-05
-6.646495138182273e-05   1.53012296629524e-05   -9.336568844359162e-05
-6.646495138182273e-05   1.53012296629524e-05   -9.336568844359162e-05
-5.757950332524643e-05   1.500282135111046e-05   -0.00010799572355078184
-5.757950332524643e-05   1.500282135111046e-05   -0.00010799572355078184
-5.757950332524643e-05   1.500282135111046e-05   -0.00010799572355078184
-5.757950332524643e-05   1.500282135111046e-05   -0.00010799572355078184
-4.9696203383738785e-05   1.344157530281699e-06   -0.00014612211684880932
-4.9696203383738785e-05   1.344157530281699e-06   -0.00014612211684880932
-4.9696203383738785e-05   1.344157530281699e-06   -0.00014612211684880932
-4.9696203383738785e-05   1.344157530281699e-06   -0.00014612211684880932
-2.9930855297951414e-05   2.0248363905867733e-06   -0.00011277146272298125
-2.9930855297951414e-05   2.0248363905867733e-06   -0.00011277146272298125
-2.9930855297951414e-05   2.0248363905867733e-06   -0.00011277146272298125
-2.9930855297951414e-05   2.0248363905867733e-06   -0.00011277146272298125
-2.9261511718595e-05   5.745049046686126e-06   -0.0001442977347841266
-2.9261511718595e-05   5.745049046686126e-06   -0.0001442977347841266
-2.9261511718595e-05   5.745049046686126e-06   -0.0001442977347841266
-2.9261511718595e-05   5.745049046686126e-06   -0.0001442977347841266
-4.9010815027196984e-05   6.059698504225913e-06   -0.00011157101894431279
-4.9010815027196984e-05   6.059698504225913e-06   -0.00011157101894431279
-4.9010815027196984e-05   6.059698504225913e-06   -0.00011157101894431279
-4.9010815027196984e-05   6.059698504225913e-06   -0.00011157101894431279
-3.922242241777798e-05   4.352601860747873e-06   -0.00012686074864059392
-3.922242241777798e-05   4.352601860747873e-06   -0.00012686074864059392
-3.922242241777798e-05   4.352601860747873e-06   -0.00012686074864059392
-3.922242241777798e-05   4.352601860747873e-06   -0.00012686074864059392
-4.9010815027196876e-05   5.745049046686126e-06   -0.00014448652445865065
-4.9010815027196876e-05   5.745049046686126e-06   -0.00014448652445865065
-4.9010815027196876e-05   5.745049046686126e-06   -0.00014448652445865065
-4.9010815027196876e-05   5.745049046686126e-06   -0.00014448652445865065
-2.9261511718595e-05   6.059698504226347e-06   -0.00011138222926978972
-2.9261511718595e-05   6.059698504226347e-06   -0.00011138222926978972
-2.9261511718595e-05   6.059698504226347e-06   -0.00011138222926978972
-2.9261511718595e-05   6.059698504226347e-06   -0.00011138222926978972
-2.851093783153512e-05   1.015994353639792e-05   -0.00014467886163936237
-2.851093783153512e-05   1.015994353639792e-05   -0.00014467886163936237
-2.851093783153512e-05   1.015994353639792e-05   -0.00014467886163936237
-2.851093783153512e-05   1.015994353639792e-05   -0.00014467886163936237
-4.825465778339358e-05   1.0130110960725539e-05   -0.00011175476217419424
-4.825465778339358e-05   1.0130110960725539e-05   -0.00011175476217419424
-4.825465778339358e-05   1.0130110960725539e-05   -0.00011175476217419424
-4.825465778339358e-05   1.0130110960725539e-05   -0.00011175476217419424
-3.876949895715017e-05   7.816166773682437e-06   -0.00012617499370570767
-3.876949895715017e-05   7.816166773682437e-06   -0.00012617499370570767
-3.876949895715017e-05   7.816166773682437e-06   -0.00012617499370570767
-3.876949895715017e-05   7.816166773682437e-06   -0.00012617499370570767
-4.8254657783393525e-05   1.015994353639792e-05   -0.00014466096209395877
-4.8254657783393525e-05   1.015994353639792e-05   -0.00014466096209395877
-4.8254657783393525e-05   1.015994353639792e-05   -0.00014466096209395877
-4.8254657783393525e-05   1.015994353639792e-05   -0.00014466096209395877
-2.8510937831535168e-05   1.0130110960725539e-05   -0.00011177266171959774
-2.8510937831535168e-05   1.0130110960725539e-05   -0.00011177266171959774
-2.8510937831535168e-05   1.0130110960725539e-05   -0.00011177266171959774
-2.8510937831535168e-05   1.0130110960725539e-05   -0.00011177266171959774
-2.7835887339484537e-05   1.4652030453212849e-05   -0.00014711499394452375
-2.7835887339484537e-05   1.4652030453212849e-05   -0.00014711499394452375
-2.7835887339484537e-05   1.4652030453212849e-05   -0.00014711499394452375
-2.7835887339484537e-05   1.4652030453212849e-05   -0.00014711499394452375
-4.757993819098601e-05   1.4261716884632174e-05   -0.00011397405438420512
-4.757993819098601e-05   1.4261716884632174e-05   -0.00011397405438420512
-4.757993819098601e-05   1.4261716884632174e-05   -0.00011397405438420512
-4.757993819098601e-05   1.4261716884632174e-05   -0.00011397405438420512
-3.839258094319348e-05   1.1325705957540219e-05   -0.0001275247099076059
-3.839258094319348e-05   1.1325705957540219e-05   -0.0001275247099076059
-3.839258094319348e-05   1.1325705957540219e-05   -0.0001275247099076059
-3.839258094319348e-05   1.1325705957540219e-05   -0.0001275247099076059
-2.993085529795131e-05   -4.63477177473472e-06   -0.00012810648345644784
-2.993085529795131e-05   -4.63477177473472e-06   -0.00012810648345644784
-2.993085529795131e-05   -4.63477177473472e-06   -0.00012810648345644784
-2.993085529795131e-05   -4.63477177473472e-06   -0.00012810648345644784
-1.073177295860732e-05   8.352673057476605e-07   -9.282598944258553e-05
-1.073177295860732e-05   8.352673057476605e-07   -9.282598944258553e-05
-1.073177295860732e-05   8.352673057476605e-07   -9.282598944258553e-05
-1.073177295860732e-05   8.352673057476605e-07   -9.282598944258553e-05
-9.737640953112314e-06   -4.938204502371105e-07   -0.00012400648096859098
-9.737640953112314e-06   -4.938204502371105e-07   -0.00012400648096859098
-9.737640953112314e-06   -4.938204502371105e-07   -0.00012400648096859098
-9.737640953112314e-06   -4.938204502371105e-07   -0.00012400648096859098
-2.926151171859495e-05   4.740259879793939e-06   -9.460714455747122e-05
-2.926151171859495e-05   4.740259879793939e-06   -9.460714455747122e-05
-2.926151171859495e-05   4.740259879793939e-06   -9.460714455747122e-05
-2.926151171859495e-05   4.740259879793939e-06   -9.460714455747122e-05
-1.971473912974135e-05   5.204031946408165e-07   -0.0001079865181944708
-1.971473912974135e-05   5.204031946408165e-07   -0.0001079865181944708
-1.971473912974135e-05   5.204031946408165e-07   -0.0001079865181944708
-1.971473912974135e-05   5.204031946408165e-07   -0.0001079865181944708
-2.92615117185949e-05   -4.938204502375441e-07   -0.0001271469291666096
-2.92615117185949e-05   -4.938204502375441e-07   -0.0001271469291666096
-2.92615117185949e-05   -4.938204502375441e-07   -0.0001271469291666096
-2.92615117185949e-05   -4.938204502375441e-07   -0.0001271469291666096
-9.737640953112314e-06   4.740259879793939e-06   -9.146669635945242e-05
-9.737640953112314e-06   4.740259879793939e-06   -9.146669635945242e-05
-9.737640953112314e-06   4.740259879793939e-06   -9.146669635945242e-05
-9.737640953112314e-06   4.740259879793939e-06   -9.146669635945242e-05
-8.271313253341631e-06   3.4938524564151648e-06   -0.00012568936926646334
-8.271313253341631e-06   3.4938524564151648e-06   -0.00012568936926646334
-8.271313253341631e-06   3.4938524564151648e-06   -0.00012568936926646334
-8.271313253341631e-06   3.4938524564151648e-06   -0.00012568936926646334
-2.851093783153512e-05   8.423535085606924e-06   -9.491447121365591e-05
-2.851093783153512e-05   8.423535085606924e-06   -9.491447121365591e-05
-2.851093783153512e-05   8.423535085606924e-06   -9.491447121365591e-05
-2.851093783153512e-05   8.423535085606924e-06   -9.491447121365591e-05
-1.9110771860392436e-05   3.6712030710554268e-06   -0.00010773001529016323
-1.9110771860392436e-05   3.6712030710554268e-06   -0.00010773001529016323
-1.9110771860392436e-05   3.6712030710554268e-06   -0.00010773001529016323
-1.9110771860392436e-05   3.6712030710554268e-06   -0.00010773001529016323
-2.8510937831535046e-05   3.4938524564151648e-06   -0.00012864717884397822
-2.8510937831535046e-05   3.4938524564151648e-06   -0.00012864717884397822
-2.8510937831535046e-05   3.4938524564151648e-06   -0.00012864717884397822
-2.8510937831535046e-05   3.4938524564151648e-06   -0.00012864717884397822
-8.271313253341631e-06   8.423535085606924e-06   -9.195666163614108e-05
-8.271313253341631e-06   8.423535085606924e-06   -9.195666163614108e-05
-8.271313253341631e-06   8.423535085606924e-06   -9.195666163614108e-05
-8.271313253341631e-06   8.423535085606924e-06   -9.195666163614108e-05
-7.2458833717855674e-06   8.068684020387604e-06   -0.00012920575247063536
-7.2458833717855674e-06   8.068684020387604e-06   -0.00012920575247063536
-7.2458833717855674e-06   8.068684020387604e-06   -0.00012920575247063536
-7.2458833717855674e-06   8.068684020387604e-06   -0.00012920575247063536
-2.7835887339484537e-05   1.2592679690946827e-05   -9.7603476593472e-05
-2.7835887339484537e-05   1.2592679690946827e-05   -9.7603476593472e-05
-2.7835887339484537e-05   1.2592679690946827e-05   -9.7603476593472e-05
-2.7835887339484537e-05   1.2592679690946827e-05   -9.7603476593472e-05
-1.8476770600564253e-05   6.977901324252238e-06   -0.00010983313747165606
-1.8476770600564253e-05   6.977901324252238e-06   -0.00010983313747165606
-1.8476770600564253e-05   6.977901324252238e-06   -0.00010983313747165606
-1.8476770600564253e-05   6.977901324252238e-06   -0.00010983313747165606
-1.0731772958607266e-05   -8.541016342988091e-06   -6.957645423645966e-05
-1.0731772958607266e-05   -8.541016342988091e-06   -6.957645423645966e-05
-1.0731772958607266e-05   -8.541016342988091e-06   -6.957645423645966e-05
-1.0731772958607266e-05   -8.541016342988091e-06   -6.957645423645966e-05
3.593102047790768e-06   1.1244693027246365e-06   -3.990237117170196e-05
3.593102047790768e-06   1.1244693027246365e-06   -3.990237117170196e-05
3.593102047790768e-06   1.1244693027246365e-06   -3.990237117170196e-05
3.593102047790768e-06   1.1244693027246365e-06   -3.990237117170196e-05
8.775900845487544e-06   -5.741758811544494e-06   -6.65307289292468e-05
8.775900845487544e-06   -5.741758811544494e-06   -6.65307289292468e-05
8.775900845487544e-06   -5.741758811544494e-06   -6.65307289292468e-05
8.775900845487544e-06   -5.741758811544494e-06   -6.65307289292468e-05
-9.737640953112314e-06   4.2066422557838e-06   -4.1643866571976457e-05
-9.737640953112314e-06   4.2066422557838e-06   -4.1643866571976457e-05
-9.737640953112314e-06   4.2066422557838e-06   -4.1643866571976457e-05
-9.737640953112314e-06   4.2066422557838e-06   -4.1643866571976457e-05
-1.9808153725948594e-06   -1.817507276716604e-06   -5.0957419486673825e-05
-1.9808153725948594e-06   -1.817507276716604e-06   -5.0957419486673825e-05
-1.9808153725948594e-06   -1.817507276716604e-06   -5.0957419486673825e-05
-1.9808153725948594e-06   -1.817507276716604e-06   -5.0957419486673825e-05
-9.737640953112314e-06   -5.741758811544494e-06   -7.2499769569643e-05
-9.737640953112314e-06   -5.741758811544494e-06   -7.2499769569643e-05
-9.737640953112314e-06   -5.741758811544494e-06   -7.2499769569643e-05
-9.737640953112314e-06   -5.741758811544494e-06   -7.2499769569643e-05
8.775900845487544e-06   4.2066422557838e-06   -3.567482593158037e-05
8.775900845487544e-06   4.2066422557838e-06   -3.567482593158037e-05
8.775900845487544e-06   4.2066422557838e-06   -3.567482593158037e-05
8.775900845487544e-06   4.2066422557838e-06   -3.567482593158037e-05
1.286676949834259e-05   -3.8043402974057526e-06   -7.019257767637913e-05
1.286676949834259e-05   -3.8043402974057526e-06   -7.019257767637913e-05
1.286676949834259e-05   -3.8043402974057526e-06   -7.019257767637913e-05
1.286676949834259e-05   -3.8043402974057526e-06   -7.019257767637913e-05
-8.271313253341631e-06   5.942292152275996e-06   -4.081041922671341e-05
-8.271313253341631e-06   5.942292152275996e-06   -4.081041922671341e-05
-8.271313253341631e-06   5.942292152275996e-06   -4.081041922671341e-05
-8.271313253341631e-06   5.942292152275996e-06   -4.081041922671341e-05
6.628351145893671e-07   -3.4558642668294087e-07   -5.192793935922268e-05
6.628351145893671e-07   -3.4558642668294087e-07   -5.192793935922268e-05
6.628351145893671e-07   -3.4558642668294087e-07   -5.192793935922268e-05
6.628351145893671e-07   -3.4558642668294087e-07   -5.192793935922268e-05
-8.271313253341631e-06   -3.8043402974057526e-06   -7.604055714618735e-05
-8.271313253341631e-06   -3.8043402974057526e-06   -7.604055714618735e-05
-8.271313253341631e-06   -3.8043402974057526e-06   -7.604055714618735e-05
-8.271313253341631e-06   -3.8043402974057526e-06   -7.604055714618735e-05
1.286676949834259e-05   5.942292152275996e-06   -3.496243975690486e-05
1.286676949834259e-05   5.942292152275996e-06   -3.496243975690486e-05
1.286676949834259e-05   5.942292152275996e-06   -3.496243975690486e-05
1.286676949834259e-05   5.942292152275996e-06   -3.496243975690486e-05
1.8019737030304495e-05   1.3621282041968025e-08   -7.86720907154832e-05
1.8019737030304495e-05   1.3621282041968025e-08   -7.86720907154832e-05
1.8019737030304495e-05   1.3621282041968025e-08   -7.86720907154832e-05
1.8019737030304495e-05   1.3621282041968025e-08   -7.86720907154832e-05
-7.2458833717855674e-06   9.030714478879855e-06   -4.1972979296767956e-05
-7.2458833717855674e-06   9.030714478879855e-06   -4.1972979296767956e-05
-7.2458833717855674e-06   9.030714478879855e-06   -4.1972979296767956e-05
-7.2458833717855674e-06   9.030714478879855e-06   -4.1972979296767956e-05
2.9182300046096522e-06   1.3449788619926753e-06   -5.430172688729556e-05
2.9182300046096522e-06   1.3449788619926753e-06   -5.430172688729556e-05
2.9182300046096522e-06   1.3449788619926753e-06   -5.430172688729556e-05
2.9182300046096522e-06   1.3449788619926753e-06   -5.430172688729556e-05
-3.3375704614583895e-05   6.249188882642004e-06   -5.9439944969842066e-05
-3.3375704614583895e-05   6.249188882642004e-06   -5.9439944969842066e-05
-3.3375704614583895e-05   6.249188882642004e-06   -5.9439944969842066e-05
-3.3375704614583895e-05   6.249188882642004e-06   -5.9439944969842066e-05
-3.355586102294478e-05   -2.8656011449501237e-06   -6.520907966699858e-05
-3.355586102294478e-05   -2.8656011449501237e-06   -6.520907966699858e-05
-3.355586102294478e-05   -2.8656011449501237e-06   -6.520907966699858e-05
-3.355586102294478e-05   -2.8656011449501237e-06   -6.520907966699858e-05
-3.185947656453715e-05   9.710062088942942e-06   -5.5841558575790706e-05
-3.185947656453715e-05   9.710062088942942e-06   -5.5841558575790706e-05
-3.185947656453715e-05   9.710062088942942e-06   -5.5841558575790706e-05
-3.185947656453715e-05   9.710062088942942e-06   -5.5841558575790706e-05
-2.7592339383553273e-05   -6.061208048576544e-08   -5.709104937577192e-05
-2.7592339383553273e-05   -6.061208048576544e-08   -5.709104937577192e-05
-2.7592339383553273e-05   -6.061208048576544e-08   -5.709104937577192e-05
-2.7592339383553273e-05   -6.061208048576544e-08   -5.709104937577192e-05
-3.0213662199208842e-05   4.300701952079412e-06   -5.533896643588774e-05
-3.0213662199208842e-05   4.300701952079412e-06   -5.533896643588774e-05
-3.0213662199208842e-05   4.300701952079412e-06   -5.533896643588774e-05
-3.0213662199208842e-05   4.300701952079412e-06   -5.533896643588774e-05
-2.7592339383553273e-05   9.710062088942942e-06   -4.9979154074133135e-05
-2.7592339383553273e-05   9.710062088942942e-06   -4.9979154074133135e-05
-2.7592339383553273e-05   9.710062088942942e-06   -4.9979154074133135e-05
-2.7592339383553273e-05   9.710062088942942e-06   -4.9979154074133135e-05
-3.185947656453726e-05   -6.061208048576544e-08   -6.295345387743014e-05
-3.185947656453726e-05   -6.061208048576544e-08   -6.295345387743014e-05
-3.185947656453726e-05   -6.061208048576544e-08   -6.295345387743014e-05
-3.185947656453726e-05   -6.061208048576544e-08   -6.295345387743014e-05
-2.972282699083837e-05   1.1453963229018493e-05   -5.182383628775031e-05
-2.972282699083837e-05   1.1453963229018493e-05   -5.182383628775031e-05
-2.972282699083837e-05   1.1453963229018493e-05   -5.182383628775031e-05
-2.972282699083837e-05   1.1453963229018493e-05   -5.182383628775031e-05
-2.28007156950654e-05   1.5207070136989687e-06   -5.7400734718180595e-05
-2.28007156950654e-05   1.5207070136989687e-06   -5.7400734718180595e-05
-2.28007156950654e-05   1.5207070136989687e-06   -5.7400734718180595e-05
-2.28007156950654e-05   1.5207070136989687e-06   -5.7400734718180595e-05
-2.7467073318485655e-05   5.7378056234356e-06   -5.2153731178324145e-05
-2.7467073318485655e-05   5.7378056234356e-06   -5.2153731178324145e-05
-2.7467073318485655e-05   5.7378056234356e-06   -5.2153731178324145e-05
-2.7467073318485655e-05   5.7378056234356e-06   -5.2153731178324145e-05
-2.28007156950654e-05   1.1453963229018493e-05   -4.5863882558559374e-05
-2.28007156950654e-05   1.1453963229018493e-05   -4.5863882558559374e-05
-2.28007156950654e-05   1.1453963229018493e-05   -4.5863882558559374e-05
-2.28007156950654e-05   1.1453963229018493e-05   -4.5863882558559374e-05
-2.972282699083837e-05   1.5207070136989687e-06   -6.336068844737218e-05
-2.972282699083837e-05   1.5207070136989687e-06   -6.336068844737218e-05
-2.972282699083837e-05   1.5207070136989687e-06   -6.336068844737218e-05
-2.972282699083837e-05   1.5207070136989687e-06   -6.336068844737218e-05
-2.8048794544101655e-05   1.4214067529743756e-05   -4.807732863395999e-05
-2.8048794544101655e-05   1.4214067529743756e-05   -4.807732863395999e-05
-2.8048794544101655e-05   1.4214067529743756e-05   -4.807732863395999e-05
-2.8048794544101655e-05   1.4214067529743756e-05   -4.807732863395999e-05
-1.688461159473362e-05   4.676425769325511e-06   -6.096171515998874e-05
-1.688461159473362e-05   4.676425769325511e-06   -6.096171515998874e-05
-1.688461159473362e-05   4.676425769325511e-06   -6.096171515998874e-05
-1.688461159473362e-05   4.676425769325511e-06   -6.096171515998874e-05
-2.4027483125907856e-05   7.1081658896705174e-06   -5.0515973346905354e-05
-2.4027483125907856e-05   7.1081658896705174e-06   -5.0515973346905354e-05
-2.4027483125907856e-05   7.1081658896705174e-06   -5.0515973346905354e-05
-2.4027483125907856e-05   7.1081658896705174e-06   -5.0515973346905354e-05
-3.3555861022944674e-05   3.5623749210394497e-06   -0.00010775030501680456
-3.3555861022944674e-05   3.5623749210394497e-06   -0.00010775030501680456
-3.3555861022944674e-05   3.5623749210394497e-06   -0.00010775030501680456
-3.3555861022944674e-05   3.5623749210394497e-06   -0.00010775030501680456
-3.845526014250125e-05   -6.38480238841603e-07   -0.00011843648331199435
-3.845526014250125e-05   -6.38480238841603e-07   -0.00011843648331199435
-3.845526014250125e-05   -6.38480238841603e-07   -0.00011843648331199435
-3.845526014250125e-05   -6.38480238841603e-07   -0.00011843648331199435
-3.7078669273938204e-05   7.528233057054259e-06   -0.00010783847719413389
-3.7078669273938204e-05   7.528233057054259e-06   -0.00010783847719413389
-3.7078669273938204e-05   7.528233057054259e-06   -0.00010783847719413389
-3.7078669273938204e-05   7.528233057054259e-06   -0.00010783847719413389
-3.185947656453715e-05   2.8971718785669037e-06   -0.00011375849500270879
-3.185947656453715e-05   2.8971718785669037e-06   -0.00011375849500270879
-3.185947656453715e-05   2.8971718785669037e-06   -0.00011375849500270879
-3.185947656453715e-05   2.8971718785669037e-06   -0.00011375849500270879
-3.4826375522342614e-05   4.1082448798855295e-06   -0.00010954030720715965
-3.4826375522342614e-05   4.1082448798855295e-06   -0.00010954030720715965
-3.4826375522342614e-05   4.1082448798855295e-06   -0.00010954030720715965
-3.4826375522342614e-05   4.1082448798855295e-06   -0.00010954030720715965
-3.185947656453704e-05   7.528233057053826e-06   -0.00010505984048704
-3.185947656453704e-05   7.528233057053826e-06   -0.00010505984048704
-3.185947656453704e-05   7.528233057053826e-06   -0.00010505984048704
-3.185947656453704e-05   7.528233057053826e-06   -0.00010505984048704
-3.7078669273938095e-05   2.8971718785669037e-06   -0.00011653713170980159
-3.7078669273938095e-05   2.8971718785669037e-06   -0.00011653713170980159
-3.7078669273938095e-05   2.8971718785669037e-06   -0.00011653713170980159
-3.7078669273938095e-05   2.8971718785669037e-06   -0.00011653713170980159
-3.564747717238427e-05   1.1211905472316604e-05   -0.00010693549141712732
-3.564747717238427e-05   1.1211905472316604e-05   -0.00010693549141712732
-3.564747717238427e-05   1.1211905472316604e-05   -0.00010693549141712732
-3.564747717238427e-05   1.1211905472316604e-05   -0.00010693549141712732
-2.9722826990838478e-05   6.2976367470402375e-06   -0.000113861347151203
-2.9722826990838478e-05   6.2976367470402375e-06   -0.000113861347151203
-2.9722826990838478e-05   6.2976367470402375e-06   -0.000113861347151203
-2.9722826990838478e-05   6.2976367470402375e-06   -0.000113861347151203
-3.344641059463787e-05   6.954064951215401e-06   -0.00010804923140070994
-3.344641059463787e-05   6.954064951215401e-06   -0.00010804923140070994
-3.344641059463787e-05   6.954064951215401e-06   -0.00010804923140070994
-3.344641059463787e-05   6.954064951215401e-06   -0.00010804923140070994
-2.972282699083837e-05   1.1211905472316604e-05   -0.00010398693018196003
-2.972282699083837e-05   1.1211905472316604e-05   -0.00010398693018196003
-2.972282699083837e-05   1.1211905472316604e-05   -0.00010398693018196003
-2.972282699083837e-05   1.1211905472316604e-05   -0.00010398693018196003
-3.564747717238416e-05   6.29763674703937e-06   -0.00011680990838636878
-3.564747717238416e-05   6.29763674703937e-06   -0.00011680990838636878
-3.564747717238416e-05   6.29763674703937e-06   -0.00011680990838636878
-3.564747717238416e-05   6.29763674703937e-06   -0.00011680990838636878
-3.4297475334037946e-05   1.5301229662952835e-05   -0.00010870490926039077
-3.4297475334037946e-05   1.5301229662952835e-05   -0.00010870490926039077
-3.4297475334037946e-05   1.5301229662952835e-05   -0.00010870490926039077
-3.4297475334037946e-05   1.5301229662952835e-05   -0.00010870490926039077
-2.8048794544101763e-05   1.017692253321538e-05   -0.00011604479296577555
-2.8048794544101763e-05   1.017692253321538e-05   -0.00011604479296577555
-2.8048794544101763e-05   1.017692253321538e-05   -0.00011604479296577555
-2.8048794544101763e-05   1.017692253321538e-05   -0.00011604479296577555
-3.2229849905076485e-05   9.935192620715363e-06   -0.00010893132941665101
-3.2229849905076485e-05   9.935192620715363e-06   -0.00010893132941665101
-3.2229849905076485e-05   9.935192620715363e-06   -0.00010893132941665101
-3.2229849905076485e-05   9.935192620715363e-06   -0.00010893132941665101
-3.845526014250114e-05   2.0248363905867733e-06   -0.0001254268585743532
-3.845526014250114e-05   2.0248363905867733e-06   -0.0001254268585743532
-3.845526014250114e-05   2.0248363905867733e-06   -0.0001254268585743532
-3.845526014250114e-05   2.0248363905867733e-06   -0.0001254268585743532
-4.3642682220048384e-05   2.907440396588898e-06   -0.00013354299963333092
-4.3642682220048384e-05   2.907440396588898e-06   -0.00013354299963333092
-4.3642682220048384e-05   2.907440396588898e-06   -0.00013354299963333092
-4.3642682220048384e-05   2.907440396588898e-06   -0.00013354299963333092
-4.22884186119715e-05   6.059698504226347e-06   -0.00012350426678332414
-4.22884186119715e-05   6.059698504226347e-06   -0.00012350426678332414
-4.22884186119715e-05   6.059698504226347e-06   -0.00012350426678332414
-4.22884186119715e-05   6.059698504226347e-06   -0.00012350426678332414
-3.7078669273938204e-05   6.557210409955001e-06   -0.00013248568949015117
-3.7078669273938204e-05   6.557210409955001e-06   -0.00013248568949015117
-3.7078669273938204e-05   6.557210409955001e-06   -0.00013248568949015117
-3.7078669273938204e-05   6.557210409955001e-06   -0.00013248568949015117
-4.0123426632440105e-05   4.954391871050089e-06   -0.0001264494027693058
-4.0123426632440105e-05   4.954391871050089e-06   -0.0001264494027693058
-4.0123426632440105e-05   4.954391871050089e-06   -0.0001264494027693058
-4.0123426632440105e-05   4.954391871050089e-06   -0.0001264494027693058
-3.707866927393804e-05   6.059698504226347e-06   -0.00012380277392676133
-3.707866927393804e-05   6.059698504226347e-06   -0.00012380277392676133
-3.707866927393804e-05   6.059698504226347e-06   -0.00012380277392676133
-3.707866927393804e-05   6.059698504226347e-06   -0.00012380277392676133
-4.228841861197157e-05   6.557210409955001e-06   -0.00013218718234671387
-4.228841861197157e-05   6.557210409955001e-06   -0.00013218718234671387
-4.228841861197157e-05   6.557210409955001e-06   -0.00013218718234671387
-4.228841861197157e-05   6.557210409955001e-06   -0.00013218718234671387
-4.086614998494104e-05   1.0130110960725972e-05   -0.00012386668857396416
-4.086614998494104e-05   1.0130110960725972e-05   -0.00012386668857396416
-4.086614998494104e-05   1.0130110960725972e-05   -0.00012386668857396416
-4.086614998494104e-05   1.0130110960725972e-05   -0.00012386668857396416
-3.564747717238427e-05   1.0287946253592292e-05   -0.00013265917777061185
-3.564747717238427e-05   1.0287946253592292e-05   -0.00013265917777061185
-3.564747717238427e-05   1.0287946253592292e-05   -0.00013265917777061185
-3.564747717238427e-05   1.0287946253592292e-05   -0.00013265917777061185
-3.898382383559552e-05   8.073348654684051e-06   -0.00012576984143924892
-3.898382383559552e-05   8.073348654684051e-06   -0.00012576984143924892
-3.898382383559552e-05   8.073348654684051e-06   -0.00012576984143924892
-3.898382383559552e-05   8.073348654684051e-06   -0.00012576984143924892
-3.564747717238416e-05   1.0130110960725539e-05   -0.0001239613897496836
-3.564747717238416e-05   1.0130110960725539e-05   -0.0001239613897496836
-3.564747717238416e-05   1.0130110960725539e-05   -0.0001239613897496836
-3.564747717238416e-05   1.0130110960725539e-05   -0.0001239613897496836
-4.086614998494104e-05   1.0287946253592292e-05   -0.00013256447659489154
-4.086614998494104e-05   1.0287946253592292e-05   -0.00013256447659489154
-4.086614998494104e-05   1.0287946253592292e-05   -0.00013256447659489154
-4.086614998494104e-05   1.0287946253592292e-05   -0.00013256447659489154
-3.9524206822317976e-05   1.4261716884632174e-05   -0.00012627067661311704
-3.9524206822317976e-05   1.4261716884632174e-05   -0.00012627067661311704
-3.9524206822317976e-05   1.4261716884632174e-05   -0.00012627067661311704
-3.9524206822317976e-05   1.4261716884632174e-05   -0.00012627067661311704
-3.4297475334037946e-05   1.406995845821147e-05   -0.00013486684070439746
-3.4297475334037946e-05   1.406995845821147e-05   -0.00013486684070439746
-3.4297475334037946e-05   1.406995845821147e-05   -0.00013486684070439746
-3.4297475334037946e-05   1.406995845821147e-05   -0.00013486684070439746
-3.793298492928409e-05   1.1235794125187548e-05   -0.00012710715944583983
-3.793298492928409e-05   1.1235794125187548e-05   -0.00012710715944583983
-3.793298492928409e-05   1.1235794125187548e-05   -0.00012710715944583983
-3.793298492928409e-05   1.1235794125187548e-05   -0.00012710715944583983
-4.364268222004822e-05   8.352673057472268e-07   -0.00010823384633864555
-4.364268222004822e-05   8.352673057472268e-07   -0.00010823384633864555
-4.364268222004822e-05   8.352673057472268e-07   -0.00010823384633864555
-4.364268222004822e-05   8.352673057472268e-07   -0.00010823384633864555
-4.9100381502703995e-05   6.472015651250683e-06   -0.0001139479628024364
-4.9100381502703995e-05   6.472015651250683e-06   -0.0001139479628024364
-4.9100381502703995e-05   6.472015651250683e-06   -0.0001139479628024364
-4.9100381502703995e-05   6.472015651250683e-06   -0.0001139479628024364
-4.746587800606879e-05   4.740259879793939e-06   -0.00010349433953310214
-4.746587800606879e-05   4.740259879793939e-06   -0.00010349433953310214
-4.746587800606879e-05   4.740259879793939e-06   -0.00010349433953310214
-4.746587800606879e-05   4.740259879793939e-06   -0.00010349433953310214
-4.22884186119715e-05   1.0131664109636236e-05   -0.00011535828106116808
-4.22884186119715e-05   1.0131664109636236e-05   -0.00011535828106116808
-4.22884186119715e-05   1.0131664109636236e-05   -0.00011535828106116808
-4.22884186119715e-05   1.0131664109636236e-05   -0.00011535828106116808
-4.52723769041988e-05   5.9542881283344146e-06   -0.00010787859165200988
-4.52723769041988e-05   5.9542881283344146e-06   -0.00010787859165200988
-4.52723769041988e-05   5.9542881283344146e-06   -0.00010787859165200988
-4.52723769041988e-05   5.9542881283344146e-06   -0.00010787859165200988
-4.228841861197143e-05   4.740259879793939e-06   -0.000106729182071007
-4.228841861197143e-05   4.740259879793939e-06   -0.000106729182071007
-4.228841861197143e-05   4.740259879793939e-06   -0.000106729182071007
-4.228841861197143e-05   4.740259879793939e-06   -0.000106729182071007
-4.746587800606879e-05   1.0131664109636236e-05   -0.00011212343852326414
-4.746587800606879e-05   1.0131664109636236e-05   -0.00011212343852326414
-4.746587800606879e-05   1.0131664109636236e-05   -0.00011212343852326414
-4.746587800606879e-05   1.0131664109636236e-05   -0.00011212343852326414
-4.5363064474604345e-05   8.423535085606924e-06   -0.0001039561912583413
-4.5363064474604345e-05   8.423535085606924e-06   -0.0001039561912583413
-4.5363064474604345e-05   8.423535085606924e-06   -0.0001039561912583413
-4.5363064474604345e-05   8.423535085606924e-06   -0.0001039561912583413
-4.086614998494096e-05   1.3510713101741283e-05   -0.00011450335555079334
-4.086614998494096e-05   1.3510713101741283e-05   -0.00011450335555079334
-4.086614998494096e-05   1.3510713101741283e-05   -0.00011450335555079334
-4.086614998494096e-05   1.3510713101741283e-05   -0.00011450335555079334
-4.3812224011356644e-05   8.855174460111609e-06   -0.00010679990898845713
-4.3812224011356644e-05   8.855174460111609e-06   -0.00010679990898845713
-4.3812224011356644e-05   8.855174460111609e-06   -0.00010679990898845713
-4.3812224011356644e-05   8.855174460111609e-06   -0.00010679990898845713
-4.0866149984940854e-05   8.423535085606924e-06   -0.00010700849806802087
-4.0866149984940854e-05   8.423535085606924e-06   -0.00010700849806802087
-4.0866149984940854e-05   8.423535085606924e-06   -0.00010700849806802087
-4.0866149984940854e-05   8.423535085606924e-06   -0.00010700849806802087
-4.53630644746044e-05   1.3510713101741283e-05   -0.00011145104874111253
-4.53630644746044e-05   1.3510713101741283e-05   -0.00011145104874111253
-4.53630644746044e-05   1.3510713101741283e-05   -0.00011145104874111253
-4.53630644746044e-05   1.3510713101741283e-05   -0.00011145104874111253
-4.3708709153184304e-05   1.2592679690946827e-05   -0.00010684016604164352
-4.3708709153184304e-05   1.2592679690946827e-05   -0.00010684016604164352
-4.3708709153184304e-05   1.2592679690946827e-05   -0.00010684016604164352
-4.3708709153184304e-05   1.2592679690946827e-05   -0.00010684016604164352
-3.9524206822317976e-05   1.7302254090266478e-05   -0.00011664008123267863
-3.9524206822317976e-05   1.7302254090266478e-05   -0.00011664008123267863
-3.9524206822317976e-05   1.7302254090266478e-05   -0.00011664008123267863
-3.9524206822317976e-05   1.7302254090266478e-05   -0.00011664008123267863
-4.271059987321374e-05   1.1823857144012233e-05   -0.00010804238798009833
-4.271059987321374e-05   1.1823857144012233e-05   -0.00010804238798009833
-4.271059987321374e-05   1.1823857144012233e-05   -0.00010804238798009833
-4.271059987321374e-05   1.1823857144012233e-05   -0.00010804238798009833
-4.910038150270383e-05   1.1244693027246365e-06   -5.772747044788902e-05
-4.910038150270383e-05   1.1244693027246365e-06   -5.772747044788902e-05
-4.910038150270383e-05   1.1244693027246365e-06   -5.772747044788902e-05
-4.910038150270383e-05   1.1244693027246365e-06   -5.772747044788902e-05
-5.928915303886871e-05   1.085749940730324e-05   -6.886893827874954e-05
-5.928915303886871e-05   1.085749940730324e-05   -6.886893827874954e-05
-5.928915303886871e-05   1.085749940730324e-05   -6.886893827874954e-05
-5.928915303886871e-05   1.085749940730324e-05   -6.886893827874954e-05
-5.3544630478894665e-05   4.2066422557838e-06   -4.769276649311182e-05
-5.3544630478894665e-05   4.2066422557838e-06   -4.769276649311182e-05
-5.3544630478894665e-05   4.2066422557838e-06   -4.769276649311182e-05
-5.3544630478894665e-05   4.2066422557838e-06   -4.769276649311182e-05
-4.7465878006068736e-05   1.4171214343307315e-05   -6.380276386700183e-05
-4.7465878006068736e-05   1.4171214343307315e-05   -6.380276386700183e-05
-4.7465878006068736e-05   1.4171214343307315e-05   -6.380276386700183e-05
-4.7465878006068736e-05   1.4171214343307315e-05   -6.380276386700183e-05
-5.0231051910733417e-05   7.995992185827645e-06   -5.548900739807405e-05
-5.0231051910733417e-05   7.995992185827645e-06   -5.548900739807405e-05
-5.0231051910733417e-05   7.995992185827645e-06   -5.548900739807405e-05
-5.0231051910733417e-05   7.995992185827645e-06   -5.548900739807405e-05
-4.746587800606857e-05   4.2066422557838e-06   -5.367150974562498e-05
-4.746587800606857e-05   4.2066422557838e-06   -5.367150974562498e-05
-4.746587800606857e-05   4.2066422557838e-06   -5.367150974562498e-05
-4.746587800606857e-05   4.2066422557838e-06   -5.367150974562498e-05
-5.354463047889456e-05   1.4171214343306447e-05   -5.782402061448814e-05
-5.354463047889456e-05   1.4171214343306447e-05   -5.782402061448814e-05
-5.354463047889456e-05   1.4171214343306447e-05   -5.782402061448814e-05
-5.354463047889456e-05   1.4171214343306447e-05   -5.782402061448814e-05
-4.887225841555842e-05   5.942292152275996e-06   -4.696201851776003e-05
-4.887225841555842e-05   5.942292152275996e-06   -4.696201851776003e-05
-4.887225841555842e-05   5.942292152275996e-06   -4.696201851776003e-05
-4.887225841555842e-05   5.942292152275996e-06   -4.696201851776003e-05
-4.5363064474604345e-05   1.568884270419877e-05   -5.865860541717034e-05
-4.5363064474604345e-05   1.568884270419877e-05   -5.865860541717034e-05
-4.5363064474604345e-05   1.568884270419877e-05   -5.865860541717034e-05
-4.5363064474604345e-05   1.568884270419877e-05   -5.865860541717034e-05
-4.7758526892297166e-05   9.52531734248023e-06   -5.0968052837318265e-05
-4.7758526892297166e-05   9.52531734248023e-06   -5.0968052837318265e-05
-4.7758526892297166e-05   9.52531734248023e-06   -5.0968052837318265e-05
-4.7758526892297166e-05   9.52531734248023e-06   -5.0968052837318265e-05
-4.536306447460424e-05   5.942292152275996e-06   -5.280994884891395e-05
-4.536306447460424e-05   5.942292152275996e-06   -5.280994884891395e-05
-4.536306447460424e-05   5.942292152275996e-06   -5.280994884891395e-05
-4.536306447460424e-05   5.942292152275996e-06   -5.280994884891395e-05
-4.887225841555842e-05   1.568884270419877e-05   -5.2810675086016525e-05
-4.887225841555842e-05   1.568884270419877e-05   -5.2810675086016525e-05
-4.887225841555842e-05   1.568884270419877e-05   -5.2810675086016525e-05
-4.887225841555842e-05   1.568884270419877e-05   -5.2810675086016525e-05
-4.3167937048978005e-05   9.030714478879855e-06   -4.85113957377195e-05
-4.3167937048978005e-05   9.030714478879855e-06   -4.85113957377195e-05
-4.3167937048978005e-05   9.030714478879855e-06   -4.85113957377195e-05
-4.3167937048978005e-05   9.030714478879855e-06   -4.85113957377195e-05
-4.3708709153184196e-05   1.8051831828139187e-05   -5.302277930693106e-05
-4.3708709153184196e-05   1.8051831828139187e-05   -5.302277930693106e-05
-4.3708709153184196e-05   1.8051831828139187e-05   -5.302277930693106e-05
-4.3708709153184196e-05   1.8051831828139187e-05   -5.302277930693106e-05
-4.415771382045998e-05   1.076922273787577e-05   -4.790487274064677e-05
-4.415771382045998e-05   1.076922273787577e-05   -4.790487274064677e-05
-4.415771382045998e-05   1.076922273787577e-05   -4.790487274064677e-05
-4.415771382045998e-05   1.076922273787577e-05   -4.790487274064677e-05
2.8909848379950415e-05   -2.8656011449501237e-06   -3.03456690906455e-05
2.8909848379950415e-05   -2.8656011449501237e-06   -3.03456690906455e-05
2.8909848379950415e-05   -2.8656011449501237e-06   -3.03456690906455e-05
2.8909848379950415e-05   -2.8656011449501237e-06   -3.03456690906455e-05
2.916779872553306e-06   -1.216762276062388e-05   -7.924866290571152e-05
2.916779872553306e-06   -1.216762276062388e-05   -7.924866290571152e-05
2.916779872553306e-06   -1.216762276062388e-05   -7.924866290571152e-05
2.916779872553306e-06   -1.216762276062388e-05   -7.924866290571152e-05
5.246197463765266e-06   -6.06120804866328e-08   -3.346675700883865e-05
5.246197463765266e-06   -6.06120804866328e-08   -3.346675700883865e-05
5.246197463765266e-06   -6.06120804866328e-08   -3.346675700883865e-05
5.246197463765266e-06   -6.06120804866328e-08   -3.346675700883865e-05
3.5366204973360117e-05   -9.99255103123313e-06   -7.770760615438146e-05
3.5366204973360117e-05   -9.99255103123313e-06   -7.770760615438146e-05
3.5366204973360117e-05   -9.99255103123313e-06   -7.770760615438146e-05
3.5366204973360117e-05   -9.99255103123313e-06   -7.770760615438146e-05
1.7438460925897918e-05   -5.065229889101089e-06   -5.078442542722373e-05
1.7438460925897918e-05   -5.065229889101089e-06   -5.078442542722373e-05
1.7438460925897918e-05   -5.065229889101089e-06   -5.078442542722373e-05
1.7438460925897918e-05   -5.065229889101089e-06   -5.078442542722373e-05
3.5366204973360117e-05   -6.06120804866328e-08   -2.750759363839058e-05
3.5366204973360117e-05   -6.06120804866328e-08   -2.750759363839058e-05
3.5366204973360117e-05   -6.06120804866328e-08   -2.750759363839058e-05
3.5366204973360117e-05   -6.06120804866328e-08   -2.750759363839058e-05
5.246197463765374e-06   -9.99255103123313e-06   -8.36667695248304e-05
5.246197463765374e-06   -9.99255103123313e-06   -8.36667695248304e-05
5.246197463765374e-06   -9.99255103123313e-06   -8.36667695248304e-05
5.246197463765374e-06   -9.99255103123313e-06   -8.36667695248304e-05
7.989335522705127e-06   1.5207070136989687e-06   -3.3703613939215817e-05
7.989335522705127e-06   1.5207070136989687e-06   -3.3703613939215817e-05
7.989335522705127e-06   1.5207070136989687e-06   -3.3703613939215817e-05
7.989335522705127e-06   1.5207070136989687e-06   -3.3703613939215817e-05
4.0833025538806415e-05   -8.54880116082056e-06   -8.240139239467314e-05
4.0833025538806415e-05   -8.54880116082056e-06   -8.240139239467314e-05
4.0833025538806415e-05   -8.54880116082056e-06   -8.240139239467314e-05
4.0833025538806415e-05   -8.54880116082056e-06   -8.240139239467314e-05
2.1540793059348295e-05   -4.052810593294792e-06   -5.2945265936094315e-05
2.1540793059348295e-05   -4.052810593294792e-06   -5.2945265936094315e-05
2.1540793059348295e-05   -4.052810593294792e-06   -5.2945265936094315e-05
2.1540793059348295e-05   -4.052810593294792e-06   -5.2945265936094315e-05
4.083302553880663e-05   1.5207070136989687e-06   -2.7661909034503926e-05
4.083302553880663e-05   1.5207070136989687e-06   -2.7661909034503926e-05
4.083302553880663e-05   1.5207070136989687e-06   -2.7661909034503926e-05
4.083302553880663e-05   1.5207070136989687e-06   -2.7661909034503926e-05
7.989335522705127e-06   -8.54880116082056e-06   -8.844309729938546e-05
7.989335522705127e-06   -8.54880116082056e-06   -8.844309729938546e-05
7.989335522705127e-06   -8.54880116082056e-06   -8.844309729938546e-05
7.989335522705127e-06   -8.54880116082056e-06   -8.844309729938546e-05
1.0254806031539162e-05   4.676425769325511e-06   -3.6878699860327414e-05
1.0254806031539162e-05   4.676425769325511e-06   -3.6878699860327414e-05
1.0254806031539162e-05   4.676425769325511e-06   -3.6878699860327414e-05
1.0254806031539162e-05   4.676425769325511e-06   -3.6878699860327414e-05
4.7399228069954684e-05   -4.904731390035361e-06   -9.303737562873756e-05
4.7399228069954684e-05   -4.904731390035361e-06   -9.303737562873756e-05
4.7399228069954684e-05   -4.904731390035361e-06   -9.303737562873756e-05
4.7399228069954684e-05   -4.904731390035361e-06   -9.303737562873756e-05
2.4820151952050765e-05   -2.5716375380039833e-06   -5.680543841011837e-05
2.4820151952050765e-05   -2.5716375380039833e-06   -5.680543841011837e-05
2.4820151952050765e-05   -2.5716375380039833e-06   -5.680543841011837e-05
2.4820151952050765e-05   -2.5716375380039833e-06   -5.680543841011837e-05
2.9167798725534145e-06   -6.384802388407357e-07   -8.66337726091169e-05
2.9167798725534145e-06   -6.384802388407357e-07   -8.66337726091169e-05
2.9167798725534145e-06   -6.384802388407357e-07   -8.66337726091169e-05
2.9167798725534145e-06   -6.384802388407357e-07   -8.66337726091169e-05
-2.753448548356948e-05   -4.83893936620728e-06   -0.00013990615701240825
-2.753448548356948e-05   -4.83893936620728e-06   -0.00013990615701240825
-2.753448548356948e-05   -4.83893936620728e-06   -0.00013990615701240825
-2.753448548356948e-05   -4.83893936620728e-06   -0.00013990615701240825
-2.548568946360443e-05   2.8971718785669037e-06   -8.712836387984434e-05
-2.548568946360443e-05   2.8971718785669037e-06   -8.712836387984434e-05
-2.548568946360443e-05   2.8971718785669037e-06   -8.712836387984434e-05
-2.548568946360443e-05   2.8971718785669037e-06   -8.712836387984434e-05
5.246197463765374e-06   -1.863771030979032e-06   -0.00013549160967973374
5.246197463765374e-06   -1.863771030979032e-06   -0.00013549160967973374
5.246197463765374e-06   -1.863771030979032e-06   -0.00013549160967973374
5.246197463765374e-06   -1.863771030979032e-06   -0.00013549160967973374
-1.0953461964348897e-05   -2.02238103456584e-07   -0.00010948909705605682
-1.0953461964348897e-05   -2.02238103456584e-07   -0.00010948909705605682
-1.0953461964348897e-05   -2.02238103456584e-07   -0.00010948909705605682
-1.0953461964348897e-05   -2.02238103456584e-07   -0.00010948909705605682
5.246197463765374e-06   2.8971718785669037e-06   -8.42717981341173e-05
5.246197463765374e-06   2.8971718785669037e-06   -8.42717981341173e-05
5.246197463765374e-06   2.8971718785669037e-06   -8.42717981341173e-05
5.246197463765374e-06   2.8971718785669037e-06   -8.42717981341173e-05
-2.548568946360443e-05   -1.863771030979032e-06   -0.00013834817542546143
-2.548568946360443e-05   -1.863771030979032e-06   -0.00013834817542546143
-2.548568946360443e-05   -1.863771030979032e-06   -0.00013834817542546143
-2.548568946360443e-05   -1.863771030979032e-06   -0.00013834817542546143
-2.342543888692516e-05   6.29763674703937e-06   -8.725661843378071e-05
-2.342543888692516e-05   6.29763674703937e-06   -8.725661843378071e-05
-2.342543888692516e-05   6.29763674703937e-06   -8.725661843378071e-05
-2.342543888692516e-05   6.29763674703937e-06   -8.725661843378071e-05
7.989335522705127e-06   1.2103937624824423e-06   -0.0001365622299924307
7.989335522705127e-06   1.2103937624824423e-06   -0.0001365622299924307
7.989335522705127e-06   1.2103937624824423e-06   -0.0001365622299924307
7.989335522705127e-06   1.2103937624824423e-06   -0.0001365622299924307
-9.135283173829505e-06   2.2368942359978286e-06   -0.00010863709911564828
-9.135283173829505e-06   2.2368942359978286e-06   -0.00010863709911564828
-9.135283173829505e-06   2.2368942359978286e-06   -0.00010863709911564828
-9.135283173829505e-06   2.2368942359978286e-06   -0.00010863709911564828
7.989335522705127e-06   6.2976367470402375e-06   -8.420427264304664e-05
7.989335522705127e-06   6.2976367470402375e-06   -8.420427264304664e-05
7.989335522705127e-06   6.2976367470402375e-06   -8.420427264304664e-05
7.989335522705127e-06   6.2976367470402375e-06   -8.420427264304664e-05
-2.342543888692516e-05   1.2103937624824423e-06   -0.00013961457578316478
-2.342543888692516e-05   1.2103937624824423e-06   -0.00013961457578316478
-2.342543888692516e-05   1.2103937624824423e-06   -0.00013961457578316478
-2.342543888692516e-05   1.2103937624824423e-06   -0.00013961457578316478
-2.1454992052542398e-05   1.0176922533216247e-05   -8.943680682886677e-05
-2.1454992052542398e-05   1.0176922533216247e-05   -8.943680682886677e-05
-2.1454992052542398e-05   1.0176922533216247e-05   -8.943680682886677e-05
-2.1454992052542398e-05   1.0176922533216247e-05   -8.943680682886677e-05
1.0254806031539053e-05   4.847565501542826e-06   -0.00013908885608333215
1.0254806031539053e-05   4.847565501542826e-06   -0.00013908885608333215
1.0254806031539053e-05   4.847565501542826e-06   -0.00013908885608333215
1.0254806031539053e-05   4.847565501542826e-06   -0.00013908885608333215
-7.114542311752214e-06   4.937151282033772e-06   -0.00011019369364614407
-7.114542311752214e-06   4.937151282033772e-06   -0.00011019369364614407
-7.114542311752214e-06   4.937151282033772e-06   -0.00011019369364614407
-7.114542311752214e-06   4.937151282033772e-06   -0.00011019369364614407
-2.7534485483569535e-05   2.9074403965880305e-06   -0.00010479012681047532
-2.7534485483569535e-05   2.9074403965880305e-06   -0.00010479012681047532
-2.7534485483569535e-05   2.9074403965880305e-06   -0.00010479012681047532
-2.7534485483569535e-05   2.9074403965880305e-06   -0.00010479012681047532
-5.773144511042029e-05   3.6666435158571806e-06   -0.00015466287098366525
-5.773144511042029e-05   3.6666435158571806e-06   -0.00015466287098366525
-5.773144511042029e-05   3.6666435158571806e-06   -0.00015466287098366525
-5.773144511042029e-05   3.6666435158571806e-06   -0.00015466287098366525
-5.566686450713258e-05   6.557210409954134e-06   -0.0001029252563591529
-5.566686450713258e-05   6.557210409954134e-06   -0.0001029252563591529
-5.566686450713258e-05   6.557210409954134e-06   -0.0001029252563591529
-5.566686450713258e-05   6.557210409954134e-06   -0.0001029252563591529
-2.548568946360443e-05   6.809985911691678e-06   -0.00015337888006607494
-2.548568946360443e-05   6.809985911691678e-06   -0.00015337888006607494
-2.548568946360443e-05   6.809985911691678e-06   -0.00015337888006607494
-2.548568946360443e-05   6.809985911691678e-06   -0.00015337888006607494
-4.136342588079798e-05   5.627358794503892e-06   -0.00012620640976710655
-4.136342588079798e-05   5.627358794503892e-06   -0.00012620640976710655
-4.136342588079798e-05   5.627358794503892e-06   -0.00012620640976710655
-4.136342588079798e-05   5.627358794503892e-06   -0.00012620640976710655
-2.548568946360443e-05   6.557210409955001e-06   -0.0001030769216601949
-2.548568946360443e-05   6.557210409955001e-06   -0.0001030769216601949
-2.548568946360443e-05   6.557210409955001e-06   -0.0001030769216601949
-2.548568946360443e-05   6.557210409955001e-06   -0.0001030769216601949
-5.566686450713258e-05   6.809985911691678e-06   -0.00015322721476503359
-5.566686450713258e-05   6.809985911691678e-06   -0.00015322721476503359
-5.566686450713258e-05   6.809985911691678e-06   -0.00015322721476503359
-5.566686450713258e-05   6.809985911691678e-06   -0.00015322721476503359
-5.357085273818271e-05   1.0287946253592292e-05   -0.00010319468853953791
-5.357085273818271e-05   1.0287946253592292e-05   -0.00010319468853953791
-5.357085273818271e-05   1.0287946253592292e-05   -0.00010319468853953791
-5.357085273818271e-05   1.0287946253592292e-05   -0.00010319468853953791
-2.3425438886925216e-05   1.0139945051068806e-05   -0.0001533482442367853
-2.3425438886925216e-05   1.0139945051068806e-05   -0.0001533482442367853
-2.3425438886925216e-05   1.0139945051068806e-05   -0.0001533482442367853
-2.3425438886925216e-05   1.0139945051068806e-05   -0.0001533482442367853
-3.9544147044311175e-05   8.36853910847913e-06   -0.0001254208870755904
-3.9544147044311175e-05   8.36853910847913e-06   -0.0001254208870755904
-3.9544147044311175e-05   8.36853910847913e-06   -0.0001254208870755904
-3.9544147044311175e-05   8.36853910847913e-06   -0.0001254208870755904
-2.3425438886925216e-05   1.0287946253592292e-05   -0.00010310588781802313
-2.3425438886925216e-05   1.0287946253592292e-05   -0.00010310588781802313
-2.3425438886925216e-05   1.0287946253592292e-05   -0.00010310588781802313
-2.3425438886925216e-05   1.0287946253592292e-05   -0.00010310588781802313
-5.357085273818263e-05   1.0139945051068806e-05   -0.0001534370449583003
-5.357085273818263e-05   1.0139945051068806e-05   -0.0001534370449583003
-5.357085273818263e-05   1.0139945051068806e-05   -0.0001534370449583003
-5.357085273818263e-05   1.0139945051068806e-05   -0.0001534370449583003
-5.157184896627598e-05   1.406995845821147e-05   -0.00010550990507940654
-5.157184896627598e-05   1.406995845821147e-05   -0.00010550990507940654
-5.157184896627598e-05   1.406995845821147e-05   -0.00010550990507940654
-5.157184896627598e-05   1.406995845821147e-05   -0.00010550990507940654
-2.1454992052542506e-05   1.3527233808611518e-05   -0.00015537903181253544
-2.1454992052542506e-05   1.3527233808611518e-05   -0.00015537903181253544
-2.1454992052542506e-05   1.3527233808611518e-05   -0.00015537903181253544
-2.1454992052542506e-05   1.3527233808611518e-05   -0.00015537903181253544
-3.7849816196395196e-05   1.1151083165288067e-05   -0.0001266286345201216
-3.7849816196395196e-05   1.1151083165288067e-05   -0.0001266286345201216
-3.7849816196395196e-05   1.1151083165288067e-05   -0.0001266286345201216
-3.7849816196395196e-05   1.1151083165288067e-05   -0.0001266286345201216
-5.773144511042037e-05   6.472015651250683e-06   -8.812161711532155e-05
-5.773144511042037e-05   6.472015651250683e-06   -8.812161711532155e-05
-5.773144511042037e-05   6.472015651250683e-06   -8.812161711532155e-05
-5.773144511042037e-05   6.472015651250683e-06   -8.812161711532155e-05
-8.753007011352701e-05   1.191078776394388e-05   -0.0001345227288528845
-8.753007011352701e-05   1.191078776394388e-05   -0.0001345227288528845
-8.753007011352701e-05   1.191078776394388e-05   -0.0001345227288528845
-8.753007011352701e-05   1.191078776394388e-05   -0.0001345227288528845
-8.51741366723908e-05   1.0131664109636236e-05   -8.301596621899726e-05
-8.51741366723908e-05   1.0131664109636236e-05   -8.301596621899726e-05
-8.51741366723908e-05   1.0131664109636236e-05   -8.301596621899726e-05
-8.51741366723908e-05   1.0131664109636236e-05   -8.301596621899726e-05
-5.566686450713258e-05   1.5265645533986058e-05   -0.00013527514201570467
-5.566686450713258e-05   1.5265645533986058e-05   -0.00013527514201570467
-5.566686450713258e-05   1.5265645533986058e-05   -0.00013527514201570467
-5.566686450713258e-05   1.5265645533986058e-05   -0.00013527514201570467
-7.103076773826659e-05   1.1384262424217473e-05   -0.00010733980676461922
-7.103076773826659e-05   1.1384262424217473e-05   -0.00010733980676461922
-7.103076773826659e-05   1.1384262424217473e-05   -0.00010733980676461922
-7.103076773826659e-05   1.1384262424217473e-05   -0.00010733980676461922
-5.5666864507132675e-05   1.0131664109636236e-05   -8.609635507360758e-05
-5.5666864507132675e-05   1.0131664109636236e-05   -8.609635507360758e-05
-5.5666864507132675e-05   1.0131664109636236e-05   -8.609635507360758e-05
-5.5666864507132675e-05   1.0131664109636236e-05   -8.609635507360758e-05
-8.5174136672391e-05   1.5265645533986925e-05   -0.00013219475316109466
-8.5174136672391e-05   1.5265645533986925e-05   -0.00013219475316109466
-8.5174136672391e-05   1.5265645533986925e-05   -0.00013219475316109466
-8.5174136672391e-05   1.5265645533986925e-05   -0.00013219475316109466
-8.236191620469716e-05   1.3510713101741283e-05   -8.226602989222205e-05
-8.236191620469716e-05   1.3510713101741283e-05   -8.226602989222205e-05
-8.236191620469716e-05   1.3510713101741283e-05   -8.226602989222205e-05
-8.236191620469716e-05   1.3510713101741283e-05   -8.226602989222205e-05
-5.357085273818271e-05   1.828994244043678e-05   -0.00013311867327296434
-5.357085273818271e-05   1.828994244043678e-05   -0.00013311867327296434
-5.357085273818271e-05   1.828994244043678e-05   -0.00013311867327296434
-5.357085273818271e-05   1.828994244043678e-05   -0.00013311867327296434
-6.866060037176672e-05   1.403037630087322e-05   -0.00010541335419992089
-6.866060037176672e-05   1.403037630087322e-05   -0.00010541335419992089
-6.866060037176672e-05   1.403037630087322e-05   -0.00010541335419992089
-6.866060037176672e-05   1.403037630087322e-05   -0.00010541335419992089
-5.357085273818267e-05   1.3510713101741283e-05   -8.513356749543935e-05
-5.357085273818267e-05   1.3510713101741283e-05   -8.513356749543935e-05
-5.357085273818267e-05   1.3510713101741283e-05   -8.513356749543935e-05
-5.357085273818267e-05   1.3510713101741283e-05   -8.513356749543935e-05
-8.236191620469716e-05   1.828994244043678e-05   -0.00013025113566974677
-8.236191620469716e-05   1.828994244043678e-05   -0.00013025113566974677
-8.236191620469716e-05   1.828994244043678e-05   -0.00013025113566974677
-8.236191620469716e-05   1.828994244043678e-05   -0.00013025113566974677
-8.001677916213575e-05   1.7302254090266478e-05   -8.454212022980783e-05
-8.001677916213575e-05   1.7302254090266478e-05   -8.454212022980783e-05
-8.001677916213575e-05   1.7302254090266478e-05   -8.454212022980783e-05
-8.001677916213575e-05   1.7302254090266478e-05   -8.454212022980783e-05
-5.157184896627598e-05   2.1678871293644673e-05   -0.0001345763075449349
-5.157184896627598e-05   2.1678871293644673e-05   -0.0001345763075449349
-5.157184896627598e-05   2.1678871293644673e-05   -0.0001345763075449349
-5.157184896627598e-05   2.1678871293644673e-05   -0.0001345763075449349
-6.706078017491172e-05   1.6640923608340907e-05   -0.0001057386535860256
-6.706078017491172e-05   1.6640923608340907e-05   -0.0001057386535860256
-6.706078017491172e-05   1.6640923608340907e-05   -0.0001057386535860256
-6.706078017491172e-05   1.6640923608340907e-05   -0.0001057386535860256
-8.753007011352701e-05   1.085749940730324e-05   -4.56191473867662e-05
-8.753007011352701e-05   1.085749940730324e-05   -4.56191473867662e-05
-8.753007011352701e-05   1.085749940730324e-05   -4.56191473867662e-05
-8.753007011352701e-05   1.085749940730324e-05   -4.56191473867662e-05
-0.00012144902377659369   2.047013151337644e-05   -9.638315756156646e-05
-0.00012144902377659369   2.047013151337644e-05   -9.638315756156646e-05
-0.00012144902377659369   2.047013151337644e-05   -9.638315756156646e-05
-0.00012144902377659369   2.047013151337644e-05   -9.638315756156646e-05
-0.00011502796673006782   1.4171214343306447e-05   -2.8828650531307915e-05
-0.00011502796673006782   1.4171214343306447e-05   -2.8828650531307915e-05
-0.00011502796673006782   1.4171214343306447e-05   -2.8828650531307915e-05
-0.00011502796673006782   1.4171214343306447e-05   -2.8828650531307915e-05
-8.51741366723908e-05   2.3948949395687265e-05   -8.445167499219748e-05
-8.51741366723908e-05   2.3948949395687265e-05   -8.445167499219748e-05
-8.51741366723908e-05   2.3948949395687265e-05   -8.445167499219748e-05
-8.51741366723908e-05   2.3948949395687265e-05   -8.445167499219748e-05
-9.813255481006208e-05   1.7766260888921366e-05   -5.914469832535296e-05
-9.813255481006208e-05   1.7766260888921366e-05   -5.914469832535296e-05
-9.813255481006208e-05   1.7766260888921366e-05   -5.914469832535296e-05
-9.813255481006208e-05   1.7766260888921366e-05   -5.914469832535296e-05
-8.517413667239086e-05   1.4171214343306447e-05   -3.4695291562734844e-05
-8.517413667239086e-05   1.4171214343306447e-05   -3.4695291562734844e-05
-8.517413667239086e-05   1.4171214343306447e-05   -3.4695291562734844e-05
-8.517413667239086e-05   1.4171214343306447e-05   -3.4695291562734844e-05
-0.00011502796673006749   2.3948949395686397e-05   -7.858503396077033e-05
-0.00011502796673006749   2.3948949395686397e-05   -7.858503396077033e-05
-0.00011502796673006749   2.3948949395686397e-05   -7.858503396077033e-05
-0.00011502796673006749   2.3948949395686397e-05   -7.858503396077033e-05
-0.00010972055425664351   1.568884270419877e-05   -2.3770458274915193e-05
-0.00010972055425664351   1.568884270419877e-05   -2.3770458274915193e-05
-0.00010972055425664351   1.568884270419877e-05   -2.3770458274915193e-05
-0.00010972055425664351   1.568884270419877e-05   -2.3770458274915193e-05
-8.2361916204697e-05   2.5194056526472823e-05   -7.507131665485762e-05
-8.2361916204697e-05   2.5194056526472823e-05   -7.507131665485762e-05
-8.2361916204697e-05   2.5194056526472823e-05   -7.507131665485762e-05
-8.2361916204697e-05   2.5194056526472823e-05   -7.507131665485762e-05
-9.575202488006477e-05   1.9324832417899618e-05   -4.923293439743374e-05
-9.575202488006477e-05   1.9324832417899618e-05   -4.923293439743374e-05
-9.575202488006477e-05   1.9324832417899618e-05   -4.923293439743374e-05
-9.575202488006477e-05   1.9324832417899618e-05   -4.923293439743374e-05
-8.236191620469716e-05   1.568884270419877e-05   -2.947358656827997e-05
-8.236191620469716e-05   1.568884270419877e-05   -2.947358656827997e-05
-8.236191620469716e-05   1.568884270419877e-05   -2.947358656827997e-05
-8.236191620469716e-05   1.568884270419877e-05   -2.947358656827997e-05
-0.0001097205542566434   2.5194056526472823e-05   -6.936818836149328e-05
-0.0001097205542566434   2.5194056526472823e-05   -6.936818836149328e-05
-0.0001097205542566434   2.5194056526472823e-05   -6.936818836149328e-05
-0.0001097205542566434   2.5194056526472823e-05   -6.936818836149328e-05
-0.00010345511314518887   1.8051831828139187e-05   -1.8510405845381835e-05
-0.00010345511314518887   1.8051831828139187e-05   -1.8510405845381835e-05
-0.00010345511314518887   1.8051831828139187e-05   -1.8510405845381835e-05
-0.00010345511314518887   1.8051831828139187e-05   -1.8510405845381835e-05
-8.001677916213575e-05   2.6785426991924113e-05   -6.281445291540718e-05
-8.001677916213575e-05   2.6785426991924113e-05   -6.281445291540718e-05
-8.001677916213575e-05   2.6785426991924113e-05   -6.281445291540718e-05
-8.001677916213575e-05   2.6785426991924113e-05   -6.281445291540718e-05
-9.077574471103145e-05   2.0081960191049852e-05   -4.086076358672465e-05
-9.077574471103145e-05   2.0081960191049852e-05   -4.086076358672465e-05
-9.077574471103145e-05   2.0081960191049852e-05   -4.086076358672465e-05
-9.077574471103145e-05   2.0081960191049852e-05   -4.086076358672465e-05
9.262216805652084e-05   -1.216762276062388e-05   -1.1345326736684862e-06
9.262216805652084e-05   -1.216762276062388e-05   -1.1345326736684862e-06
9.262216805652084e-05   -1.216762276062388e-05   -1.1345326736684862e-06
9.262216805652084e-05   -1.216762276062388e-05   -1.1345326736684862e-06
3.954985995999877e-05   -2.2006611936488223e-05   -9.549177300672337e-05
3.954985995999877e-05   -2.2006611936488223e-05   -9.549177300672337e-05
3.954985995999877e-05   -2.2006611936488223e-05   -9.549177300672337e-05
3.954985995999877e-05   -2.2006611936488223e-05   -9.549177300672337e-05
4.2393788735190386e-05   -9.99255103123313e-06   -1.0897551676033145e-05
4.2393788735190386e-05   -9.99255103123313e-06   -1.0897551676033145e-05
4.2393788735190386e-05   -9.99255103123313e-06   -1.0897551676033145e-05
4.2393788735190386e-05   -9.99255103123313e-06   -1.0897551676033145e-05
9.969947374424714e-05   -2.0459597971657882e-05   -0.00010012679852687274
9.969947374424714e-05   -2.0459597971657882e-05   -0.00010012679852687274
9.969947374424714e-05   -2.0459597971657882e-05   -0.00010012679852687274
9.969947374424714e-05   -2.0459597971657882e-05   -0.00010012679852687274
6.580494689879671e-05   -1.4485293017180677e-05   -4.7220503423808444e-05
6.580494689879671e-05   -1.4485293017180677e-05   -4.7220503423808444e-05
6.580494689879671e-05   -1.4485293017180677e-05   -4.7220503423808444e-05
6.580494689879671e-05   -1.4485293017180677e-05   -4.7220503423808444e-05
9.969947374424747e-05   -9.99255103123313e-06   -4.617323511777859e-06
9.969947374424747e-05   -9.99255103123313e-06   -4.617323511777859e-06
9.969947374424747e-05   -9.99255103123313e-06   -4.617323511777859e-06
9.969947374424747e-05   -9.99255103123313e-06   -4.617323511777859e-06
4.239378873519017e-05   -2.0459597971657882e-05   -0.00010640702669112738
4.239378873519017e-05   -2.0459597971657882e-05   -0.00010640702669112738
4.239378873519017e-05   -2.0459597971657882e-05   -0.00010640702669112738
4.239378873519017e-05   -2.0459597971657882e-05   -0.00010640702669112738
4.5542005626743516e-05   -8.548801160821427e-06   -1.516593275337208e-05
4.5542005626743516e-05   -8.548801160821427e-06   -1.516593275337208e-05
4.5542005626743516e-05   -8.548801160821427e-06   -1.516593275337208e-05
4.5542005626743516e-05   -8.548801160821427e-06   -1.516593275337208e-05
0.00010565388948675274   -1.913850467054768e-05   -0.00010899858374755194
0.00010565388948675274   -1.913850467054768e-05   -0.00010899858374755194
0.00010565388948675274   -1.913850467054768e-05   -0.00010899858374755194
0.00010565388948675274   -1.913850467054768e-05   -0.00010899858374755194
7.112192124355767e-05   -1.3897799236418061e-05   -5.458972660270494e-05
7.112192124355767e-05   -1.3897799236418061e-05   -5.458972660270494e-05
7.112192124355767e-05   -1.3897799236418061e-05   -5.458972660270494e-05
7.112192124355767e-05   -1.3897799236418061e-05   -5.458972660270494e-05
0.00010565388948675285   -8.548801160821427e-06   -8.812110647536675e-06
0.00010565388948675285   -8.548801160821427e-06   -8.812110647536675e-06
0.00010565388948675285   -8.548801160821427e-06   -8.812110647536675e-06
0.00010565388948675285   -8.548801160821427e-06   -8.812110647536675e-06
4.554200562674341e-05   -1.9138504670546813e-05   -0.00011535240585338865
4.554200562674341e-05   -1.9138504670546813e-05   -0.00011535240585338865
4.554200562674341e-05   -1.9138504670546813e-05   -0.00011535240585338865
4.554200562674341e-05   -1.9138504670546813e-05   -0.00011535240585338865
4.815147261207054e-05   -4.904731390035361e-06   -2.5044909317309058e-05
4.815147261207054e-05   -4.904731390035361e-06   -2.5044909317309058e-05
4.815147261207054e-05   -4.904731390035361e-06   -2.5044909317309058e-05
4.815147261207054e-05   -4.904731390035361e-06   -2.5044909317309058e-05
0.00011256634099828747   -1.4951195638947777e-05   -0.00012637514474498962
0.00011256634099828747   -1.4951195638947777e-05   -0.00012637514474498962
0.00011256634099828747   -1.4951195638947777e-05   -0.00012637514474498962
0.00011256634099828747   -1.4951195638947777e-05   -0.00012637514474498962
7.402855120513255e-05   -1.2270404488355126e-05   -6.375396978008929e-05
7.402855120513255e-05   -1.2270404488355126e-05   -6.375396978008929e-05
7.402855120513255e-05   -1.2270404488355126e-05   -6.375396978008929e-05
7.402855120513255e-05   -1.2270404488355126e-05   -6.375396978008929e-05
3.954985995999877e-05   -4.83893936620728e-06   -6.517514480946455e-05
3.954985995999877e-05   -4.83893936620728e-06   -6.517514480946455e-05
3.954985995999877e-05   -4.83893936620728e-06   -6.517514480946455e-05
3.954985995999877e-05   -4.83893936620728e-06   -6.517514480946455e-05
-1.6711148701119218e-05   -1.034966702815384e-05   -0.00016224992917516189
-1.6711148701119218e-05   -1.034966702815384e-05   -0.00016224992917516189
-1.6711148701119218e-05   -1.034966702815384e-05   -0.00016224992917516189
-1.6711148701119218e-05   -1.034966702815384e-05   -0.00016224992917516189
-1.4060009281962823e-05   -1.863771030979032e-06   -6.653276060105805e-05
-1.4060009281962823e-05   -1.863771030979032e-06   -6.653276060105805e-05
-1.4060009281962823e-05   -1.863771030979032e-06   -6.653276060105805e-05
-1.4060009281962823e-05   -1.863771030979032e-06   -6.653276060105805e-05
4.239378873519017e-05   -8.214385647847301e-06   -0.0001568120551928582
4.239378873519017e-05   -8.214385647847301e-06   -0.0001568120551928582
4.239378873519017e-05   -8.214385647847301e-06   -0.0001568120551928582
4.239378873519017e-05   -8.214385647847301e-06   -0.0001568120551928582
1.2935607384571157e-05   -5.012374040346858e-06   -0.00010963629323965964
1.2935607384571157e-05   -5.012374040346858e-06   -0.00010963629323965964
1.2935607384571157e-05   -5.012374040346858e-06   -0.00010963629323965964
1.2935607384571157e-05   -5.012374040346858e-06   -0.00010963629323965964
4.239378873519028e-05   -1.863771030979032e-06   -6.272239183093605e-05
4.239378873519028e-05   -1.863771030979032e-06   -6.272239183093605e-05
4.239378873519028e-05   -1.863771030979032e-06   -6.272239183093605e-05
4.239378873519028e-05   -1.863771030979032e-06   -6.272239183093605e-05
-1.406000928196277e-05   -8.214385647847301e-06   -0.0001606224239629789
-1.406000928196277e-05   -8.214385647847301e-06   -0.0001606224239629789
-1.406000928196277e-05   -8.214385647847301e-06   -0.0001606224239629789
-1.406000928196277e-05   -8.214385647847301e-06   -0.0001606224239629789
-1.1528533996045206e-05   1.2103937624824423e-06   -6.737312753737467e-05
-1.1528533996045206e-05   1.2103937624824423e-06   -6.737312753737467e-05
-1.1528533996045206e-05   1.2103937624824423e-06   -6.737312753737467e-05
-1.1528533996045206e-05   1.2103937624824423e-06   -6.737312753737467e-05
4.554200562674341e-05   -5.603043055780153e-06   -0.00015840263148439904
4.554200562674341e-05   -5.603043055780153e-06   -0.00015840263148439904
4.554200562674341e-05   -5.603043055780153e-06   -0.00015840263148439904
4.554200562674341e-05   -5.603043055780153e-06   -0.00015840263148439904
1.5045521166192656e-05   -3.1270067135571317e-06   -0.0001090607791888118
1.5045521166192656e-05   -3.1270067135571317e-06   -0.0001090607791888118
1.5045521166192656e-05   -3.1270067135571317e-06   -0.0001090607791888118
1.5045521166192656e-05   -3.1270067135571317e-06   -0.0001090607791888118
4.5542005626743516e-05   1.2103937624824423e-06   -6.328506544641755e-05
4.5542005626743516e-05   1.2103937624824423e-06   -6.328506544641755e-05
4.5542005626743516e-05   1.2103937624824423e-06   -6.328506544641755e-05
4.5542005626743516e-05   1.2103937624824423e-06   -6.328506544641755e-05
-1.1528533996045206e-05   -5.603043055781021e-06   -0.00016249069357535638
-1.1528533996045206e-05   -5.603043055781021e-06   -0.00016249069357535638
-1.1528533996045206e-05   -5.603043055781021e-06   -0.00016249069357535638
-1.1528533996045206e-05   -5.603043055781021e-06   -0.00016249069357535638
-9.148869402897657e-06   4.847565501541959e-06   -6.964839314882801e-05
-9.148869402897657e-06   4.847565501541959e-06   -6.964839314882801e-05
-9.148869402897657e-06   4.847565501541959e-06   -6.964839314882801e-05
-9.148869402897657e-06   4.847565501541959e-06   -6.964839314882801e-05
4.815147261207054e-05   -2.3202639526922683e-06   -0.00016084826550123482
4.815147261207054e-05   -2.3202639526922683e-06   -0.00016084826550123482
4.815147261207054e-05   -2.3202639526922683e-06   -0.00016084826550123482
4.815147261207054e-05   -2.3202639526922683e-06   -0.00016084826550123482
1.7667342227863715e-05   -8.037215531685182e-07   -0.00011095130696727286
1.7667342227863715e-05   -8.037215531685182e-07   -0.00011095130696727286
1.7667342227863715e-05   -8.037215531685182e-07   -0.00011095130696727286
1.7667342227863715e-05   -8.037215531685182e-07   -0.00011095130696727286
-1.6711148701119272e-05   3.6666435158571806e-06   -8.369381724944924e-05
-1.6711148701119272e-05   3.6666435158571806e-06   -8.369381724944924e-05
-1.6711148701119272e-05   3.6666435158571806e-06   -8.369381724944924e-05
-1.6711148701119272e-05   3.6666435158571806e-06   -8.369381724944924e-05
-7.198152441639831e-05   1.7972454942208685e-06   -0.00017693274892123002
-7.198152441639831e-05   1.7972454942208685e-06   -0.00017693274892123002
-7.198152441639831e-05   1.7972454942208685e-06   -0.00017693274892123002
-7.198152441639831e-05   1.7972454942208685e-06   -0.00017693274892123002
-6.912730952907321e-05   6.809985911691678e-06   -8.313408801706099e-05
-6.912730952907321e-05   6.809985911691678e-06   -8.313408801706099e-05
-6.912730952907321e-05   6.809985911691678e-06   -8.313408801706099e-05
-6.912730952907321e-05   6.809985911691678e-06   -8.313408801706099e-05
-1.406000928196277e-05   4.192281286041419e-06   -0.00017334229898685464
-1.406000928196277e-05   4.192281286041419e-06   -0.00017334229898685464
-1.406000928196277e-05   4.192281286041419e-06   -0.00017334229898685464
-1.406000928196277e-05   4.192281286041419e-06   -0.00017334229898685464
-4.267408770888179e-05   5.023807390168444e-06   -0.0001261510839378001
-4.267408770888179e-05   5.023807390168444e-06   -0.0001261510839378001
-4.267408770888179e-05   5.023807390168444e-06   -0.0001261510839378001
-4.267408770888179e-05   5.023807390168444e-06   -0.0001261510839378001
-1.4060009281962823e-05   6.809985911691678e-06   -8.156346524167135e-05
-1.4060009281962823e-05   6.809985911691678e-06   -8.156346524167135e-05
-1.4060009281962823e-05   6.809985911691678e-06   -8.156346524167135e-05
-1.4060009281962823e-05   6.809985911691678e-06   -8.156346524167135e-05
-6.912730952907321e-05   4.192281286041419e-06   -0.00017491292176224525
-6.912730952907321e-05   4.192281286041419e-06   -0.00017491292176224525
-6.912730952907321e-05   4.192281286041419e-06   -0.00017491292176224525
-6.912730952907321e-05   4.192281286041419e-06   -0.00017491292176224525
-6.637550522873317e-05   1.0139945051068806e-05   -8.300848142412873e-05
-6.637550522873317e-05   1.0139945051068806e-05   -8.300848142412873e-05
-6.637550522873317e-05   1.0139945051068806e-05   -8.300848142412873e-05
-6.637550522873317e-05   1.0139945051068806e-05   -8.300848142412873e-05
-1.1528533996045206e-05   6.970469329180794e-06   -0.00017251841471214253
-1.1528533996045206e-05   6.970469329180794e-06   -0.00017251841471214253
-1.1528533996045206e-05   6.970469329180794e-06   -0.00017251841471214253
-1.1528533996045206e-05   6.970469329180794e-06   -0.00017251841471214253
-4.021575260263021e-05   7.265216849560233e-06   -0.0001248832322133951
-4.021575260263021e-05   7.265216849560233e-06   -0.0001248832322133951
-4.021575260263021e-05   7.265216849560233e-06   -0.0001248832322133951
-4.021575260263021e-05   7.265216849560233e-06   -0.0001248832322133951
-1.1528533996045206e-05   1.0139945051068806e-05   -8.11067959909954e-05
-1.1528533996045206e-05   1.0139945051068806e-05   -8.11067959909954e-05
-1.1528533996045206e-05   1.0139945051068806e-05   -8.11067959909954e-05
-1.1528533996045206e-05   1.0139945051068806e-05   -8.11067959909954e-05
-6.637550522873317e-05   6.970469329180794e-06   -0.00017442010014527554
-6.637550522873317e-05   6.970469329180794e-06   -0.00017442010014527554
-6.637550522873317e-05   6.970469329180794e-06   -0.00017442010014527554
-6.637550522873317e-05   6.970469329180794e-06   -0.00017442010014527554
-6.383249483731379e-05   1.3527233808612385e-05   -8.495178150706977e-05
-6.383249483731379e-05   1.3527233808612385e-05   -8.495178150706977e-05
-6.383249483731379e-05   1.3527233808612385e-05   -8.495178150706977e-05
-6.383249483731379e-05   1.3527233808612385e-05   -8.495178150706977e-05
-9.148869402897657e-06   9.842522395208178e-06   -0.00017388033038305507
-9.148869402897657e-06   9.842522395208178e-06   -0.00017388033038305507
-9.148869402897657e-06   9.842522395208178e-06   -0.00017388033038305507
-9.148869402897657e-06   9.842522395208178e-06   -0.00017388033038305507
-3.801740821771209e-05   9.565250947089071e-06   -0.00012559973615616055
-3.801740821771209e-05   9.565250947089071e-06   -0.00012559973615616055
-3.801740821771209e-05   9.565250947089071e-06   -0.00012559973615616055
-3.801740821771209e-05   9.565250947089071e-06   -0.00012559973615616055
-7.198152441639845e-05   1.191078776394388e-05   -6.793857719926584e-05
-7.198152441639845e-05   1.191078776394388e-05   -6.793857719926584e-05
-7.198152441639845e-05   1.191078776394388e-05   -6.793857719926584e-05
-7.198152441639845e-05   1.191078776394388e-05   -6.793857719926584e-05
-0.00012617845394173813   1.4377061688671845e-05   -0.0001567870287199945
-0.00012617845394173813   1.4377061688671845e-05   -0.0001567870287199945
-0.00012617845394173813   1.4377061688671845e-05   -0.0001567870287199945
-0.00012617845394173813   1.4377061688671845e-05   -0.0001567870287199945
-0.00012274136277745827   1.5265645533986058e-05   -6.388678286976942e-05
-0.00012274136277745827   1.5265645533986058e-05   -6.388678286976942e-05
-0.00012274136277745827   1.5265645533986058e-05   -6.388678286976942e-05
-0.00012274136277745827   1.5265645533986058e-05   -6.388678286976942e-05
-6.912730952907332e-05   1.7424366197259407e-05   -0.00015453877068170835
-6.912730952907332e-05   1.7424366197259407e-05   -0.00015453877068170835
-6.912730952907332e-05   1.7424366197259407e-05   -0.00015453877068170835
-6.912730952907332e-05   1.7424366197259407e-05   -0.00015453877068170835
-9.679374402486531e-05   1.538776866781468e-05   -0.00010720608800438757
-9.679374402486531e-05   1.538776866781468e-05   -0.00010720608800438757
-9.679374402486531e-05   1.538776866781468e-05   -0.00010720608800438757
-9.679374402486531e-05   1.538776866781468e-05   -0.00010720608800438757
-6.912730952907332e-05   1.5265645533986925e-05   -6.518201526773282e-05
-6.912730952907332e-05   1.5265645533986925e-05   -6.518201526773282e-05
-6.912730952907332e-05   1.5265645533986925e-05   -6.518201526773282e-05
-6.912730952907332e-05   1.5265645533986925e-05   -6.518201526773282e-05
-0.00012274136277745846   1.7424366197259407e-05   -0.0001532435382837448
-0.00012274136277745846   1.7424366197259407e-05   -0.0001532435382837448
-0.00012274136277745846   1.7424366197259407e-05   -0.0001532435382837448
-0.00012274136277745846   1.7424366197259407e-05   -0.0001532435382837448
-0.000118944966192225   1.828994244043678e-05   -6.163431928182285e-05
-0.000118944966192225   1.828994244043678e-05   -6.163431928182285e-05
-0.000118944966192225   1.828994244043678e-05   -6.163431928182285e-05
-0.000118944966192225   1.828994244043678e-05   -6.163431928182285e-05
-6.63755052287333e-05   2.00495932020546e-05   -0.00015030587801127853
-6.63755052287333e-05   2.00495932020546e-05   -0.00015030587801127853
-6.63755052287333e-05   2.00495932020546e-05   -0.00015030587801127853
-6.63755052287333e-05   2.00495932020546e-05   -0.00015030587801127853
-9.332424352712901e-05   1.775672304902675e-05   -0.00010401559208880238
-9.332424352712901e-05   1.775672304902675e-05   -0.00010401559208880238
-9.332424352712901e-05   1.775672304902675e-05   -0.00010401559208880238
-9.332424352712901e-05   1.775672304902675e-05   -0.00010401559208880238
-6.637550522873324e-05   1.828994244043678e-05   -6.269010973879207e-05
-6.637550522873324e-05   1.828994244043678e-05   -6.269010973879207e-05
-6.637550522873324e-05   1.828994244043678e-05   -6.269010973879207e-05
-6.637550522873324e-05   1.828994244043678e-05   -6.269010973879207e-05
-0.000118944966192225   2.0049593202053732e-05   -0.00014925008755430937
-0.000118944966192225   2.0049593202053732e-05   -0.00014925008755430937
-0.000118944966192225   2.0049593202053732e-05   -0.00014925008755430937
-0.000118944966192225   2.0049593202053732e-05   -0.00014925008755430937
-0.0001157352024171706   2.1678871293644673e-05   -6.305566026288409e-05
-0.0001157352024171706   2.1678871293644673e-05   -6.305566026288409e-05
-0.0001157352024171706   2.1678871293644673e-05   -6.305566026288409e-05
-0.0001157352024171706   2.1678871293644673e-05   -6.305566026288409e-05
-6.383249483731391e-05   2.295847493835341e-05   -0.00015032793508280336
-6.383249483731391e-05   2.295847493835341e-05   -0.00015032793508280336
-6.383249483731391e-05   2.295847493835341e-05   -0.00015032793508280336
-6.383249483731391e-05   2.295847493835341e-05   -0.00015032793508280336
-9.114925141237717e-05   1.994060806758801e-05   -0.00010298928733523839
-9.114925141237717e-05   1.994060806758801e-05   -0.00010298928733523839
-9.114925141237717e-05   1.994060806758801e-05   -0.00010298928733523839
-9.114925141237717e-05   1.994060806758801e-05   -0.00010298928733523839
-0.00012617845394173813   2.047013151337644e-05   -3.408682081675572e-05
-0.00012617845394173813   2.047013151337644e-05   -3.408682081675572e-05
-0.00012617845394173813   2.047013151337644e-05   -3.408682081675572e-05
-0.00012617845394173813   2.047013151337644e-05   -3.408682081675572e-05
-0.0001831971241443412   2.8326123130473224e-05   -0.00012440434285083783
-0.0001831971241443412   2.8326123130473224e-05   -0.00012440434285083783
-0.0001831971241443412   2.8326123130473224e-05   -0.00012440434285083783
-0.0001831971241443412   2.8326123130473224e-05   -0.00012440434285083783
-0.00017535072903948368   2.3948949395687265e-05   -1.1088593198291946e-05
-0.00017535072903948368   2.3948949395687265e-05   -1.1088593198291946e-05
-0.00017535072903948368   2.3948949395687265e-05   -1.1088593198291946e-05
-0.00017535072903948368   2.3948949395687265e-05   -1.1088593198291946e-05
-0.00012274136277745827   3.237413523332188e-05   -0.00010382598180424885
-0.00012274136277745827   3.237413523332188e-05   -0.00010382598180424885
-0.00012274136277745827   3.237413523332188e-05   -0.00010382598180424885
-0.00012274136277745827   3.237413523332188e-05   -0.00010382598180424885
-0.00014558556607618034   2.6988548429834024e-05   -6.252095755761945e-05
-0.00014558556607618034   2.6988548429834024e-05   -6.252095755761945e-05
-0.00014558556607618034   2.6988548429834024e-05   -6.252095755761945e-05
-0.00014558556607618034   2.6988548429834024e-05   -6.252095755761945e-05
-0.00012274136277745838   2.3948949395686397e-05   -1.6143704700872022e-05
-0.00012274136277745838   2.3948949395686397e-05   -1.6143704700872022e-05
-0.00012274136277745838   2.3948949395686397e-05   -1.6143704700872022e-05
-0.00012274136277745838   2.3948949395686397e-05   -1.6143704700872022e-05
-0.00017535072903948325   3.237413523332188e-05   -9.87708703016673e-05
-0.00017535072903948325   3.237413523332188e-05   -9.87708703016673e-05
-0.00017535072903948325   3.237413523332188e-05   -9.87708703016673e-05
-0.00017535072903948325   3.237413523332188e-05   -9.87708703016673e-05
-0.00016889303156692907   2.5194056526472823e-05   -1.5091944203958138e-06
-0.00016889303156692907   2.5194056526472823e-05   -1.5091944203958138e-06
-0.00016889303156692907   2.5194056526472823e-05   -1.5091944203958138e-06
-0.00016889303156692907   2.5194056526472823e-05   -1.5091944203958138e-06
-0.000118944966192225   3.343623293736858e-05   -8.970127589144023e-05
-0.000118944966192225   3.343623293736858e-05   -8.970127589144023e-05
-0.000118944966192225   3.343623293736858e-05   -8.970127589144023e-05
-0.000118944966192225   3.343623293736858e-05   -8.970127589144023e-05
-0.00014287428058487616   2.859215989670528e-05   -4.6912641412622154e-05
-0.00014287428058487616   2.859215989670528e-05   -4.6912641412622154e-05
-0.00014287428058487616   2.859215989670528e-05   -4.6912641412622154e-05
-0.00014287428058487616   2.859215989670528e-05   -4.6912641412622154e-05
-0.000118944966192225   2.5194056526472823e-05   -6.454500266933703e-06
-0.000118944966192225   2.5194056526472823e-05   -6.454500266933703e-06
-0.000118944966192225   2.5194056526472823e-05   -6.454500266933703e-06
-0.000118944966192225   2.5194056526472823e-05   -6.454500266933703e-06
-0.00016889303156692842   3.343623293736858e-05   -8.475597004490264e-05
-0.00016889303156692842   3.343623293736858e-05   -8.475597004490264e-05
-0.00016889303156692842   3.343623293736858e-05   -8.475597004490264e-05
-0.00016889303156692842   3.343623293736858e-05   -8.475597004490264e-05
-0.0001619384064397745   2.6785426991924113e-05   1.0628195039549121e-05
-0.0001619384064397745   2.6785426991924113e-05   1.0628195039549121e-05
-0.0001619384064397745   2.6785426991924113e-05   1.0628195039549121e-05
-0.0001619384064397745   2.6785426991924113e-05   1.0628195039549121e-05
-0.0001157352024171706   3.4365378650144836e-05   -7.09251159930574e-05
-0.0001157352024171706   3.4365378650144836e-05   -7.09251159930574e-05
-0.0001157352024171706   3.4365378650144836e-05   -7.09251159930574e-05
-0.0001157352024171706   3.4365378650144836e-05   -7.09251159930574e-05
-0.00013634876431764138   2.885609340804677e-05   -3.3263608347015026e-05
-0.00013634876431764138   2.885609340804677e-05   -3.3263608347015026e-05
-0.00013634876431764138   2.885609340804677e-05   -3.3263608347015026e-05
-0.00013634876431764138   2.885609340804677e-05   -3.3263608347015026e-05
0.0001576368091986387   -2.2006611936488223e-05   3.08157265574132e-05
0.0001576368091986387   -2.2006611936488223e-05   3.08157265574132e-05
0.0001576368091986387   -2.2006611936488223e-05   3.08157265574132e-05
0.0001576368091986387   -2.2006611936488223e-05   3.08157265574132e-05
7.606534253500887e-05   -3.265146731346296e-05   -0.00011152363110815368
7.606534253500887e-05   -3.265146731346296e-05   -0.00011152363110815368
7.606534253500887e-05   -3.265146731346296e-05   -0.00011152363110815368
7.606534253500887e-05   -3.265146731346296e-05   -0.00011152363110815368
7.921985170593728e-05   -2.0459597971657882e-05   1.4630678670429602e-05
7.921985170593728e-05   -2.0459597971657882e-05   1.4630678670429602e-05
7.921985170593728e-05   -2.0459597971657882e-05   1.4630678670429602e-05
7.921985170593728e-05   -2.0459597971657882e-05   1.4630678670429602e-05
0.00016492136970832922   -3.188114258806992e-05   -0.0001213522578970437
0.00016492136970832922   -3.188114258806992e-05   -0.0001213522578970437
0.00016492136970832922   -3.188114258806992e-05   -0.0001213522578970437
0.00016492136970832922   -3.188114258806992e-05   -0.0001213522578970437
0.00011460861049896159   -2.4110311656208583e-05   -4.216015777388062e-05
0.00011460861049896159   -2.4110311656208583e-05   -4.216015777388062e-05
0.00011460861049896159   -2.4110311656208583e-05   -4.216015777388062e-05
0.00011460861049896159   -2.4110311656208583e-05   -4.216015777388062e-05
0.00016492136970832955   -2.0459597971657882e-05   2.1483605440276998e-05
0.00016492136970832955   -2.0459597971657882e-05   2.1483605440276998e-05
0.00016492136970832955   -2.0459597971657882e-05   2.1483605440276998e-05
0.00016492136970832955   -2.0459597971657882e-05   2.1483605440276998e-05
7.921985170593717e-05   -3.188114258806992e-05   -0.00012820518466689088
7.921985170593717e-05   -3.188114258806992e-05   -0.00012820518466689088
7.921985170593717e-05   -3.188114258806992e-05   -0.00012820518466689088
7.921985170593717e-05   -3.188114258806992e-05   -0.00012820518466689088
8.235684889165208e-05   -1.9138504670546813e-05   6.730557521814236e-06
8.235684889165208e-05   -1.9138504670546813e-05   6.730557521814236e-06
8.235684889165208e-05   -1.9138504670546813e-05   6.730557521814236e-06
8.235684889165208e-05   -1.9138504670546813e-05   6.730557521814236e-06
0.00017051878387833435   -3.077694507810317e-05   -0.00013322293654478975
0.00017051878387833435   -3.077694507810317e-05   -0.00013322293654478975
0.00017051878387833435   -3.077694507810317e-05   -0.00013322293654478975
0.00017051878387833435   -3.077694507810317e-05   -0.00013322293654478975
0.00012073719143257703   -2.403237495478272e-05   -5.4300357875852615e-05
0.00012073719143257703   -2.403237495478272e-05   -5.4300357875852615e-05
0.00012073719143257703   -2.403237495478272e-05   -5.4300357875852615e-05
0.00012073719143257703   -2.403237495478272e-05   -5.4300357875852615e-05
0.00017051878387833435   -1.9138504670546813e-05   1.3713621766347876e-05
0.00017051878387833435   -1.9138504670546813e-05   1.3713621766347876e-05
0.00017051878387833435   -1.9138504670546813e-05   1.3713621766347876e-05
0.00017051878387833435   -1.9138504670546813e-05   1.3713621766347876e-05
8.235684889165208e-05   -3.07769450781023e-05   -0.00014020600078932252
8.235684889165208e-05   -3.07769450781023e-05   -0.00014020600078932252
8.235684889165208e-05   -3.07769450781023e-05   -0.00014020600078932252
8.235684889165208e-05   -3.07769450781023e-05   -0.00014020600078932252
8.449419436106788e-05   -1.4951195638947777e-05   -9.212944640239057e-06
8.449419436106788e-05   -1.4951195638947777e-05   -9.212944640239057e-06
8.449419436106788e-05   -1.4951195638947777e-05   -9.212944640239057e-06
8.449419436106788e-05   -1.4951195638947777e-05   -9.212944640239057e-06
0.00017643548232861017   -2.6460529840899305e-05   -0.00015554282406497126
0.00017643548232861017   -2.6460529840899305e-05   -0.00015554282406497126
0.00017643548232861017   -2.6460529840899305e-05   -0.00015554282406497126
0.00017643548232861017   -2.6460529840899305e-05   -0.00015554282406497126
0.00012248086701231834   -2.2190260750841982e-05   -6.818062665852123e-05
0.00012248086701231834   -2.2190260750841982e-05   -6.818062665852123e-05
0.00012248086701231834   -2.2190260750841982e-05   -6.818062665852123e-05
0.00012248086701231834   -2.2190260750841982e-05   -6.818062665852123e-05
7.606534253500898e-05   -1.034966702815384e-05   -3.9022906240042746e-05
7.606534253500898e-05   -1.034966702815384e-05   -3.9022906240042746e-05
7.606534253500898e-05   -1.034966702815384e-05   -3.9022906240042746e-05
7.606534253500898e-05   -1.034966702815384e-05   -3.9022906240042746e-05
-4.4258811694739345e-06   -2.126725681840351e-05   -0.000179725499621663
-4.4258811694739345e-06   -2.126725681840351e-05   -0.000179725499621663
-4.4258811694739345e-06   -2.126725681840351e-05   -0.000179725499621663
-4.4258811694739345e-06   -2.126725681840351e-05   -0.000179725499621663
-1.1839144475750407e-06   -8.214385647847301e-06   -4.300419058226278e-05
-1.1839144475750407e-06   -8.214385647847301e-06   -4.300419058226278e-05
-1.1839144475750407e-06   -8.214385647847301e-06   -4.300419058226278e-05
-1.1839144475750407e-06   -8.214385647847301e-06   -4.300419058226278e-05
7.921985170593728e-05   -2.0264120232782803e-05   -0.00016978062675382204
7.921985170593728e-05   -2.0264120232782803e-05   -0.00016978062675382204
7.921985170593728e-05   -2.0264120232782803e-05   -0.00016978062675382204
7.921985170593728e-05   -2.0264120232782803e-05   -0.00016978062675382204
3.753500141125265e-05   -1.2861672644116917e-05   -0.00010474734481588015
3.753500141125265e-05   -1.2861672644116917e-05   -0.00010474734481588015
3.753500141125265e-05   -1.2861672644116917e-05   -0.00010474734481588015
3.753500141125265e-05   -1.2861672644116917e-05   -0.00010474734481588015
7.921985170593717e-05   -8.214385647847301e-06   -3.577434983130078e-05
7.921985170593717e-05   -8.214385647847301e-06   -3.577434983130078e-05
7.921985170593717e-05   -8.214385647847301e-06   -3.577434983130078e-05
7.921985170593717e-05   -8.214385647847301e-06   -3.577434983130078e-05
-1.1839144475750407e-06   -2.0264120232782803e-05   -0.00017701046750478316
-1.1839144475750407e-06   -2.0264120232782803e-05   -0.00017701046750478316
-1.1839144475750407e-06   -2.0264120232782803e-05   -0.00017701046750478316
-1.1839144475750407e-06   -2.0264120232782803e-05   -0.00017701046750478316
1.673481022987334e-06   -5.603043055781021e-06   -4.398913011191292e-05
1.673481022987334e-06   -5.603043055781021e-06   -4.398913011191292e-05
1.673481022987334e-06   -5.603043055781021e-06   -4.398913011191292e-05
1.673481022987334e-06   -5.603043055781021e-06   -4.398913011191292e-05
8.235684889165208e-05   -1.838547972697613e-05   -0.00017079194789030412
8.235684889165208e-05   -1.838547972697613e-05   -0.00017079194789030412
8.235684889165208e-05   -1.838547972697613e-05   -0.00017079194789030412
8.235684889165208e-05   -1.838547972697613e-05   -0.00017079194789030412
3.975118935826467e-05   -1.1822484012886068e-05   -0.00010372031276311008
3.975118935826467e-05   -1.1822484012886068e-05   -0.00010372031276311008
3.975118935826467e-05   -1.1822484012886068e-05   -0.00010372031276311008
3.975118935826467e-05   -1.1822484012886068e-05   -0.00010372031276311008
8.235684889165208e-05   -5.603043055781021e-06   -3.6319668109195506e-05
8.235684889165208e-05   -5.603043055781021e-06   -3.6319668109195506e-05
8.235684889165208e-05   -5.603043055781021e-06   -3.6319668109195506e-05
8.235684889165208e-05   -5.603043055781021e-06   -3.6319668109195506e-05
1.6734810229873881e-06   -1.838547972697613e-05   -0.00017846140989302142
1.6734810229873881e-06   -1.838547972697613e-05   -0.00017846140989302142
1.6734810229873881e-06   -1.838547972697613e-05   -0.00017846140989302142
1.6734810229873881e-06   -1.838547972697613e-05   -0.00017846140989302142
3.711362879325864e-06   -2.3202639526922683e-06   -4.569410197162536e-05
3.711362879325864e-06   -2.3202639526922683e-06   -4.569410197162536e-05
3.711362879325864e-06   -2.3202639526922683e-06   -4.569410197162536e-05
3.711362879325864e-06   -2.3202639526922683e-06   -4.569410197162536e-05
8.44941943610681e-05   -1.5713455826841215e-05   -0.00017229623931670735
8.44941943610681e-05   -1.5713455826841215e-05   -0.00017229623931670735
8.44941943610681e-05   -1.5713455826841215e-05   -0.00017229623931670735
8.44941943610681e-05   -1.5713455826841215e-05   -0.00017229623931670735
4.2389978805340046e-05   -9.984439833627193e-06   -0.00010555995631975654
4.2389978805340046e-05   -9.984439833627193e-06   -0.00010555995631975654
4.2389978805340046e-05   -9.984439833627193e-06   -0.00010555995631975654
4.2389978805340046e-05   -9.984439833627193e-06   -0.00010555995631975654
-4.4258811694739345e-06   1.7972454942208685e-06   -5.913464104727751e-05
-4.4258811694739345e-06   1.7972454942208685e-06   -5.913464104727751e-05
-4.4258811694739345e-06   1.7972454942208685e-06   -5.913464104727751e-05
-4.4258811694739345e-06   1.7972454942208685e-06   -5.913464104727751e-05
-8.372754255795797e-05   -1.1335006477273049e-05   -0.00019918342787764772
-8.372754255795797e-05   -1.1335006477273049e-05   -0.00019918342787764772
-8.372754255795797e-05   -1.1335006477273049e-05   -0.00019918342787764772
-8.372754255795797e-05   -1.1335006477273049e-05   -0.00019918342787764772
-7.983924068671349e-05   4.1922812860405514e-06   -6.433409482255702e-05
-7.983924068671349e-05   4.1922812860405514e-06   -6.433409482255702e-05
-7.983924068671349e-05   4.1922812860405514e-06   -6.433409482255702e-05
-7.983924068671349e-05   4.1922812860405514e-06   -6.433409482255702e-05
-1.1839144475750407e-06   -1.0157767407989807e-05   -0.0001868162760047024
-1.1839144475750407e-06   -1.0157767407989807e-05   -0.0001868162760047024
-1.1839144475750407e-06   -1.0157767407989807e-05   -0.0001868162760047024
-1.1839144475750407e-06   -1.0157767407989807e-05   -0.0001868162760047024
-4.1785881787794875e-05   -2.3011123678759807e-06   -0.00012386032346173737
-4.1785881787794875e-05   -2.3011123678759807e-06   -0.00012386032346173737
-4.1785881787794875e-05   -2.3011123678759807e-06   -0.00012386032346173737
-4.1785881787794875e-05   -2.3011123678759807e-06   -0.00012386032346173737
-1.1839144475750407e-06   4.192281286041419e-06   -5.572406560613863e-05
-1.1839144475750407e-06   4.192281286041419e-06   -5.572406560613863e-05
-1.1839144475750407e-06   4.192281286041419e-06   -5.572406560613863e-05
-1.1839144475750407e-06   4.192281286041419e-06   -5.572406560613863e-05
-7.983924068671349e-05   -1.0157767407989807e-05   -0.0001954263052211208
-7.983924068671349e-05   -1.0157767407989807e-05   -0.0001954263052211208
-7.983924068671349e-05   -1.0157767407989807e-05   -0.0001954263052211208
-7.983924068671349e-05   -1.0157767407989807e-05   -0.0001954263052211208
-7.627174679485094e-05   6.970469329180794e-06   -6.318466240310544e-05
-7.627174679485094e-05   6.970469329180794e-06   -6.318466240310544e-05
-7.627174679485094e-05   6.970469329180794e-06   -6.318466240310544e-05
-7.627174679485094e-05   6.970469329180794e-06   -6.318466240310544e-05
1.6734810229873881e-06   -8.309215928161383e-06   -0.00018392556427843034
1.6734810229873881e-06   -8.309215928161383e-06   -0.00018392556427843034
1.6734810229873881e-06   -8.309215928161383e-06   -0.00018392556427843034
1.6734810229873881e-06   -8.309215928161383e-06   -0.00018392556427843034
-3.861566146128399e-05   -9.473696896637046e-07   -0.0001211941012144095
-3.861566146128399e-05   -9.473696896637046e-07   -0.0001211941012144095
-3.861566146128399e-05   -9.473696896637046e-07   -0.0001211941012144095
-3.861566146128399e-05   -9.473696896637046e-07   -0.0001211941012144095
1.6734810229873881e-06   6.970469329180794e-06   -5.401685124870048e-05
1.6734810229873881e-06   6.970469329180794e-06   -5.401685124870048e-05
1.6734810229873881e-06   6.970469329180794e-06   -5.401685124870048e-05
1.6734810229873881e-06   6.970469329180794e-06   -5.401685124870048e-05
-7.627174679485104e-05   -8.309215928161383e-06   -0.00019309337543283725
-7.627174679485104e-05   -8.309215928161383e-06   -0.00019309337543283725
-7.627174679485104e-05   -8.309215928161383e-06   -0.00019309337543283725
-7.627174679485104e-05   -8.309215928161383e-06   -0.00019309337543283725
-7.38650034226945e-05   9.842522395208178e-06   -6.426607796876458e-05
-7.38650034226945e-05   9.842522395208178e-06   -6.426607796876458e-05
-7.38650034226945e-05   9.842522395208178e-06   -6.426607796876458e-05
-7.38650034226945e-05   9.842522395208178e-06   -6.426607796876458e-05
3.711362879325864e-06   -6.558492251224415e-06   -0.00018371941301760617
3.711362879325864e-06   -6.558492251224415e-06   -0.00018371941301760617
3.711362879325864e-06   -6.558492251224415e-06   -0.00018371941301760617
3.711362879325864e-06   -6.558492251224415e-06   -0.00018371941301760617
-3.635098210175023e-05   5.744205451843273e-07   -0.00012122858572699211
-3.635098210175023e-05   5.744205451843273e-07   -0.00012122858572699211
-3.635098210175023e-05   5.744205451843273e-07   -0.00012122858572699211
-3.635098210175023e-05   5.744205451843273e-07   -0.00012122858572699211
-8.372754255795784e-05   1.4377061688671845e-05   -4.8348036383775474e-05
-8.372754255795784e-05   1.4377061688671845e-05   -4.8348036383775474e-05
-8.372754255795784e-05   1.4377061688671845e-05   -4.8348036383775474e-05
-8.372754255795784e-05   1.4377061688671845e-05   -4.8348036383775474e-05
-0.0001641127309121384   2.5174580854615478e-06   -0.0001894391124693355
-0.0001641127309121384   2.5174580854615478e-06   -0.0001894391124693355
-0.0001641127309121384   2.5174580854615478e-06   -0.0001894391124693355
-0.0001641127309121384   2.5174580854615478e-06   -0.0001894391124693355
-0.0001585790747354168   1.7424366197259407e-05   -5.158456263905289e-05
-0.0001585790747354168   1.7424366197259407e-05   -5.158456263905289e-05
-0.0001585790747354168   1.7424366197259407e-05   -5.158456263905289e-05
-0.0001585790747354168   1.7424366197259407e-05   -5.158456263905289e-05
-7.983924068671332e-05   4.716668035537573e-06   -0.0001751930004898589
-7.983924068671332e-05   4.716668035537573e-06   -0.0001751930004898589
-7.983924068671332e-05   4.716668035537573e-06   -0.0001751930004898589
-7.983924068671332e-05   4.716668035537573e-06   -0.0001751930004898589
-0.00012029417093614691   1.0817115089844544e-05   -0.00011142838497338672
-0.00012029417093614691   1.0817115089844544e-05   -0.00011142838497338672
-0.00012029417093614691   1.0817115089844544e-05   -0.00011142838497338672
-0.00012029417093614691   1.0817115089844544e-05   -0.00011142838497338672
-7.983924068671332e-05   1.7424366197259407e-05   -4.395994374201909e-05
-7.983924068671332e-05   1.7424366197259407e-05   -4.395994374201909e-05
-7.983924068671332e-05   1.7424366197259407e-05   -4.395994374201909e-05
-7.983924068671332e-05   1.7424366197259407e-05   -4.395994374201909e-05
-0.00015857907473541707   4.716668035537573e-06   -0.00018281761938689165
-0.00015857907473541707   4.716668035537573e-06   -0.00018281761938689165
-0.00015857907473541707   4.716668035537573e-06   -0.00018281761938689165
-0.00015857907473541707   4.716668035537573e-06   -0.00018281761938689165
-0.00015323721998563352   2.0049593202053732e-05   -4.705408448058956e-05
-0.00015323721998563352   2.0049593202053732e-05   -4.705408448058956e-05
-0.00015323721998563352   2.0049593202053732e-05   -4.705408448058956e-05
-0.00015323721998563352   2.0049593202053732e-05   -4.705408448058956e-05
-7.627174679485104e-05   6.743519516251226e-06   -0.00016734622892041352
-7.627174679485104e-05   6.743519516251226e-06   -0.00016734622892041352
-7.627174679485104e-05   6.743519516251226e-06   -0.00016734622892041352
-7.627174679485104e-05   6.743519516251226e-06   -0.00016734622892041352
-0.00011530403986020656   1.2730222206496118e-05   -0.00010588442875896647
-0.00011530403986020656   1.2730222206496118e-05   -0.00010588442875896647
-0.00011530403986020656   1.2730222206496118e-05   -0.00010588442875896647
-0.00011530403986020656   1.2730222206496118e-05   -0.00010588442875896647
-7.627174679485083e-05   2.0049593202053732e-05   -3.907044026910805e-05
-7.627174679485083e-05   2.0049593202053732e-05   -3.907044026910805e-05
-7.627174679485083e-05   2.0049593202053732e-05   -3.907044026910805e-05
-7.627174679485083e-05   2.0049593202053732e-05   -3.907044026910805e-05
-0.0001532372199856338   6.743519516251226e-06   -0.00017532987313189502
-0.0001532372199856338   6.743519516251226e-06   -0.00017532987313189502
-0.0001532372199856338   6.743519516251226e-06   -0.00017532987313189502
-0.0001532372199856338   6.743519516251226e-06   -0.00017532987313189502
-0.00014917414865491348   2.295847493835341e-05   -4.7200119292137646e-05
-0.00014917414865491348   2.295847493835341e-05   -4.7200119292137646e-05
-0.00014917414865491348   2.295847493835341e-05   -4.7200119292137646e-05
-0.00014917414865491348   2.295847493835341e-05   -4.7200119292137646e-05
-7.386500342269461e-05   8.463035818907956e-06   -0.0001640180978741698
-7.386500342269461e-05   8.463035818907956e-06   -0.0001640180978741698
-7.386500342269461e-05   8.463035818907956e-06   -0.0001640180978741698
-7.386500342269461e-05   8.463035818907956e-06   -0.0001640180978741698
-0.00011248346862248987   1.406408182214134e-05   -0.00010301461680978357
-0.00011248346862248987   1.406408182214134e-05   -0.00010301461680978357
-0.00011248346862248987   1.406408182214134e-05   -0.00010301461680978357
-0.00011248346862248987   1.406408182214134e-05   -0.00010301461680978357
-0.0001641127309121384   2.8326123130473224e-05   -2.7794707646802523e-05
-0.0001641127309121384   2.8326123130473224e-05   -2.7794707646802523e-05
-0.0001641127309121384   2.8326123130473224e-05   -2.7794707646802523e-05
-0.0001641127309121384   2.8326123130473224e-05   -2.7794707646802523e-05
-0.0002480335875895374   2.667235438226414e-05   -0.0001686550633580603
-0.0002480335875895374   2.667235438226414e-05   -0.0001686550633580603
-0.0002480335875895374   2.667235438226414e-05   -0.0001686550633580603
-0.0002480335875895374   2.667235438226414e-05   -0.0001686550633580603
-0.00023717688617219522   3.237413523332188e-05   -1.2753194508574942e-06
-0.00023717688617219522   3.237413523332188e-05   -1.2753194508574942e-06
-0.00023717688617219522   3.237413523332188e-05   -1.2753194508574942e-06
-0.00023717688617219522   3.237413523332188e-05   -1.2753194508574942e-06
-0.00015857907473541653   3.38602797478214e-05   -0.00013316335855418786
-0.00015857907473541653   3.38602797478214e-05   -0.00013316335855418786
-0.00015857907473541653   3.38602797478214e-05   -0.00013316335855418786
-0.00015857907473541653   3.38602797478214e-05   -0.00013316335855418786
-0.00019326113115744728   3.193940438763181e-05   -7.420740596802283e-05
-0.00019326113115744728   3.193940438763181e-05   -7.420740596802283e-05
-0.00019326113115744728   3.193940438763181e-05   -7.420740596802283e-05
-0.00019326113115744728   3.193940438763181e-05   -7.420740596802283e-05
-0.00015857907473541694   3.237413523332188e-05   -2.1670061595563395e-06
-0.00015857907473541694   3.237413523332188e-05   -2.1670061595563395e-06
-0.00015857907473541694   3.237413523332188e-05   -2.1670061595563395e-06
-0.00015857907473541694   3.237413523332188e-05   -2.1670061595563395e-06
-0.00023717688617219522   3.38602797478214e-05   -0.00013227167184548787
-0.00023717688617219522   3.38602797478214e-05   -0.00013227167184548787
-0.00023717688617219522   3.38602797478214e-05   -0.00013227167184548787
-0.00023717688617219522   3.38602797478214e-05   -0.00013227167184548787
-0.00022816337252762594   3.343623293736945e-05   1.3715819971852651e-05
-0.00022816337252762594   3.343623293736945e-05   1.3715819971852651e-05
-0.00022816337252762594   3.343623293736945e-05   1.3715819971852651e-05
-0.00022816337252762594   3.343623293736945e-05   1.3715819971852651e-05
-0.00015323721998563352   3.547138758665941e-05   -0.00011238219372104198
-0.00015323721998563352   3.547138758665941e-05   -0.00011238219372104198
-0.00015323721998563352   3.547138758665941e-05   -0.00011238219372104198
-0.00015323721998563352   3.547138758665941e-05   -0.00011238219372104198
-0.00018909765660054297   3.426985299768981e-05   -5.1893878609476744e-05
-0.00018909765660054297   3.426985299768981e-05   -5.1893878609476744e-05
-0.00018909765660054297   3.426985299768981e-05   -5.1893878609476744e-05
-0.00018909765660054297   3.426985299768981e-05   -5.1893878609476744e-05
-0.0001532372199856338   3.343623293736945e-05   1.2494727182277982e-05
-0.0001532372199856338   3.343623293736945e-05   1.2494727182277982e-05
-0.0001532372199856338   3.343623293736945e-05   1.2494727182277982e-05
-0.0001532372199856338   3.343623293736945e-05   1.2494727182277982e-05
-0.00022816337252762556   3.547138758665941e-05   -0.00011116110093146916
-0.00022816337252762556   3.547138758665941e-05   -0.00011116110093146916
-0.00022816337252762556   3.547138758665941e-05   -0.00011116110093146916
-0.00022816337252762556   3.547138758665941e-05   -0.00011116110093146916
-0.00021874611964897074   3.436537865014397e-05   3.37757958433953e-05
-0.00021874611964897074   3.436537865014397e-05   3.37757958433953e-05
-0.00021874611964897074   3.436537865014397e-05   3.37757958433953e-05
-0.00021874611964897074   3.436537865014397e-05   3.37757958433953e-05
-0.00014917414865491348   3.8266809037830994e-05   -8.451834737931241e-05
-0.00014917414865491348   3.8266809037830994e-05   -8.451834737931241e-05
-0.00014917414865491348   3.8266809037830994e-05   -8.451834737931241e-05
-0.00014917414865491348   3.8266809037830994e-05   -8.451834737931241e-05
-0.0001800263171428941   3.506460558243968e-05   -3.1176744492778625e-05
-0.0001800263171428941   3.506460558243968e-05   -3.1176744492778625e-05
-0.0001800263171428941   3.506460558243968e-05   -3.1176744492778625e-05
-0.0001800263171428941   3.506460558243968e-05   -3.1176744492778625e-05
0.0002170676407889777   -3.265146731346296e-05   7.370707860594218e-05
0.0002170676407889777   -3.265146731346296e-05   7.370707860594218e-05
0.0002170676407889777   -3.265146731346296e-05   7.370707860594218e-05
0.0002170676407889777   -3.265146731346296e-05   7.370707860594218e-05
0.00010921664764195079   -4.134479554941499e-05   -0.00011126057358067272
0.00010921664764195079   -4.134479554941499e-05   -0.00011126057358067272
0.00010921664764195079   -4.134479554941499e-05   -0.00011126057358067272
0.00010921664764195079   -4.134479554941499e-05   -0.00011126057358067272
0.00011192021595300916   -3.188114258807079e-05   5.2785480424730885e-05
0.00011192021595300916   -3.188114258807079e-05   5.2785480424730885e-05
0.00011192021595300916   -3.188114258807079e-05   5.2785480424730885e-05
0.00011192021595300916   -3.188114258807079e-05   5.2785480424730885e-05
0.00022252219937491042   -4.2378721616789794e-05   -0.00012525261119453917
0.00022252219937491042   -4.2378721616789794e-05   -0.00012525261119453917
0.00022252219937491042   -4.2378721616789794e-05   -0.00012525261119453917
0.00022252219937491042   -4.2378721616789794e-05   -0.00012525261119453917
0.00015860918274828592   -3.335445448314489e-05   -2.4145477097018298e-05
0.00015860918274828592   -3.335445448314489e-05   -2.4145477097018298e-05
0.00015860918274828592   -3.335445448314489e-05   -2.4145477097018298e-05
0.00015860918274828592   -3.335445448314489e-05   -2.4145477097018298e-05
0.00022252219937491042   -3.188114258807079e-05   5.9084027841963156e-05
0.00022252219937491042   -3.188114258807079e-05   5.9084027841963156e-05
0.00022252219937491042   -3.188114258807079e-05   5.9084027841963156e-05
0.00022252219937491042   -3.188114258807079e-05   5.9084027841963156e-05
0.00011192021595300916   -4.2378721616789794e-05   -0.00013155115861177057
0.00011192021595300916   -4.2378721616789794e-05   -0.00013155115861177057
0.00011192021595300916   -4.2378721616789794e-05   -0.00013155115861177057
0.00011192021595300916   -4.2378721616789794e-05   -0.00013155115861177057
0.00011420622166148756   -3.07769450781023e-05   4.160545264199431e-05
0.00011420622166148756   -3.07769450781023e-05   4.160545264199431e-05
0.00011420622166148756   -3.07769450781023e-05   4.160545264199431e-05
0.00011420622166148756   -3.07769450781023e-05   4.160545264199431e-05
0.00022592510637647726   -4.200164108251851e-05   -0.0001378578709470055
0.00022592510637647726   -4.200164108251851e-05   -0.0001378578709470055
0.00022592510637647726   -4.200164108251851e-05   -0.0001378578709470055
0.00022592510637647726   -4.200164108251851e-05   -0.0001378578709470055
0.0001642320841586402   -3.4416394389840885e-05   -3.9587315266216994e-05
0.0001642320841586402   -3.4416394389840885e-05   -3.9587315266216994e-05
0.0001642320841586402   -3.4416394389840885e-05   -3.9587315266216994e-05
0.0001642320841586402   -3.4416394389840885e-05   -3.9587315266216994e-05
0.00022592510637647726   -3.07769450781023e-05   4.8340270244644386e-05
0.00022592510637647726   -3.07769450781023e-05   4.8340270244644386e-05
0.00022592510637647726   -3.07769450781023e-05   4.8340270244644386e-05
0.00022592510637647726   -3.07769450781023e-05   4.8340270244644386e-05
0.00011420622166148756   -4.200164108251851e-05   -0.00014459268854965547
0.00011420622166148756   -4.200164108251851e-05   -0.00014459268854965547
0.00011420622166148756   -4.200164108251851e-05   -0.00014459268854965547
0.00011420622166148756   -4.200164108251851e-05   -0.00014459268854965547
0.00011659972872272019   -2.6460529840899305e-05   1.9872117605230014e-05
0.00011659972872272019   -2.6460529840899305e-05   1.9872117605230014e-05
0.00011659972872272019   -2.6460529840899305e-05   1.9872117605230014e-05
0.00011659972872272019   -2.6460529840899305e-05   1.9872117605230014e-05
0.00022927537799310516   -3.96849480089681e-05   -0.00015998598027790276
0.00022927537799310516   -3.96849480089681e-05   -0.00015998598027790276
0.00022927537799310516   -3.96849480089681e-05   -0.00015998598027790276
0.00022927537799310516   -3.96849480089681e-05   -0.00015998598027790276
0.00016434711895178575   -3.3133035220643536e-05   -5.5703362882032845e-05
0.00016434711895178575   -3.3133035220643536e-05   -5.5703362882032845e-05
0.00016434711895178575   -3.3133035220643536e-05   -5.5703362882032845e-05
0.00016434711895178575   -3.3133035220643536e-05   -5.5703362882032845e-05
0.00010921664764195079   -2.126725681840351e-05   6.83976702501362e-06
0.00010921664764195079   -2.126725681840351e-05   6.83976702501362e-06
0.00010921664764195079   -2.126725681840351e-05   6.83976702501362e-06
0.00010921664764195079   -2.126725681840351e-05   6.83976702501362e-06
1.3242075136760535e-05   -4.173932870225189e-05   -0.00016540109694727911
1.3242075136760535e-05   -4.173932870225189e-05   -0.00016540109694727911
1.3242075136760535e-05   -4.173932870225189e-05   -0.00016540109694727911
1.3242075136760535e-05   -4.173932870225189e-05   -0.00016540109694727911
1.6396431558233604e-05   -2.0264120232781936e-05   -1.5544839687469877e-06
1.6396431558233604e-05   -2.0264120232781936e-05   -1.5544839687469877e-06
1.6396431558233604e-05   -2.0264120232781936e-05   -1.5544839687469877e-06
1.6396431558233604e-05   -2.0264120232781936e-05   -1.5544839687469877e-06
0.00011192021595300943   -4.153832407702632e-05   -0.00014799626898682604
0.00011192021595300943   -4.153832407702632e-05   -0.00014799626898682604
0.00011192021595300943   -4.153832407702632e-05   -0.00014799626898682604
0.00011192021595300943   -4.153832407702632e-05   -0.00014799626898682604
6.294455574311315e-05   -2.8144275862116916e-05   -7.440659756594394e-05
6.294455574311315e-05   -2.8144275862116916e-05   -7.440659756594394e-05
6.294455574311315e-05   -2.8144275862116916e-05   -7.440659756594394e-05
6.294455574311315e-05   -2.8144275862116916e-05   -7.440659756594394e-05
0.00011192021595300905   -2.0264120232781936e-05   1.1210038337801029e-05
0.00011192021595300905   -2.0264120232781936e-05   1.1210038337801029e-05
0.00011192021595300905   -2.0264120232781936e-05   1.1210038337801029e-05
0.00011192021595300905   -2.0264120232781936e-05   1.1210038337801029e-05
1.639643155823355e-05   -4.153832407702632e-05   -0.00016076079129337222
1.639643155823355e-05   -4.153832407702632e-05   -0.00016076079129337222
1.639643155823355e-05   -4.153832407702632e-05   -0.00016076079129337222
1.639643155823355e-05   -4.153832407702632e-05   -0.00016076079129337222
1.9244180582335076e-05   -1.838547972697613e-05   -2.5482618972371904e-06
1.9244180582335076e-05   -1.838547972697613e-05   -2.5482618972371904e-06
1.9244180582335076e-05   -1.838547972697613e-05   -2.5482618972371904e-06
1.9244180582335076e-05   -1.838547972697613e-05   -2.5482618972371904e-06
0.00011420622166148756   -4.099842545739196e-05   -0.00014725056292424154
0.00011420622166148756   -4.099842545739196e-05   -0.00014725056292424154
0.00011420622166148756   -4.099842545739196e-05   -0.00014725056292424154
0.00011420622166148756   -4.099842545739196e-05   -0.00014725056292424154
6.474692040389835e-05   -2.8469833887483087e-05   -7.233554910353627e-05
6.474692040389835e-05   -2.8469833887483087e-05   -7.233554910353627e-05
6.474692040389835e-05   -2.8469833887483087e-05   -7.233554910353627e-05
6.474692040389835e-05   -2.8469833887483087e-05   -7.233554910353627e-05
0.00011420622166148756   -1.838547972697613e-05   1.1019505541011963e-05
0.00011420622166148756   -1.838547972697613e-05   1.1019505541011963e-05
0.00011420622166148756   -1.838547972697613e-05   1.1019505541011963e-05
0.00011420622166148756   -1.838547972697613e-05   1.1019505541011963e-05
1.9244180582335022e-05   -4.099842545739196e-05   -0.00016081833036249178
1.9244180582335022e-05   -4.099842545739196e-05   -0.00016081833036249178
1.9244180582335022e-05   -4.099842545739196e-05   -0.00016081833036249178
1.9244180582335022e-05   -4.099842545739196e-05   -0.00016081833036249178
2.349153715007024e-05   -1.5713455826842082e-05   -4.492625157935873e-06
2.349153715007024e-05   -1.5713455826842082e-05   -4.492625157935873e-06
2.349153715007024e-05   -1.5713455826842082e-05   -4.492625157935873e-06
2.349153715007024e-05   -1.5713455826842082e-05   -4.492625157935873e-06
0.00011659972872272008   -3.990833588117873e-05   -0.00014515601641308326
0.00011659972872272008   -3.990833588117873e-05   -0.00014515601641308326
0.00011659972872272008   -3.990833588117873e-05   -0.00014515601641308326
0.00011659972872272008   -3.990833588117873e-05   -0.00014515601641308326
6.815502051909134e-05   -2.8048857563009455e-05   -7.15305230646029e-05
6.815502051909134e-05   -2.8048857563009455e-05   -7.15305230646029e-05
6.815502051909134e-05   -2.8048857563009455e-05   -7.15305230646029e-05
6.815502051909134e-05   -2.8048857563009455e-05   -7.15305230646029e-05
1.3242075136760535e-05   -1.1335006477273916e-05   -1.702205317838379e-05
1.3242075136760535e-05   -1.1335006477273916e-05   -1.702205317838379e-05
1.3242075136760535e-05   -1.1335006477273916e-05   -1.702205317838379e-05
1.3242075136760535e-05   -1.1335006477273916e-05   -1.702205317838379e-05
-8.175195333416966e-05   -5.062947653019893e-05   -0.0001989221159950233
-8.175195333416966e-05   -5.062947653019893e-05   -0.0001989221159950233
-8.175195333416966e-05   -5.062947653019893e-05   -0.0001989221159950233
-8.175195333416966e-05   -5.062947653019893e-05   -0.0001989221159950233
-7.684152001707418e-05   -1.0157767407990674e-05   -3.632735488942607e-05
-7.684152001707418e-05   -1.0157767407990674e-05   -3.632735488942607e-05
-7.684152001707418e-05   -1.0157767407990674e-05   -3.632735488942607e-05
-7.684152001707418e-05   -1.0157767407990674e-05   -3.632735488942607e-05
1.639643155823355e-05   -5.176953810925866e-05   -0.0001667568784275115
1.639643155823355e-05   -5.176953810925866e-05   -0.0001667568784275115
1.639643155823355e-05   -5.176953810925866e-05   -0.0001667568784275115
1.639643155823355e-05   -5.176953810925866e-05   -0.0001667568784275115
-3.112987572518526e-05   -2.869482368786716e-05   -0.00010139119494131563
-3.112987572518526e-05   -2.869482368786716e-05   -0.00010139119494131563
-3.112987572518526e-05   -2.869482368786716e-05   -0.00010139119494131563
-3.112987572518526e-05   -2.869482368786716e-05   -0.00010139119494131563
1.639643155823355e-05   -1.0157767407990674e-05   -1.1360292468664927e-05
1.639643155823355e-05   -1.0157767407990674e-05   -1.1360292468664927e-05
1.639643155823355e-05   -1.0157767407990674e-05   -1.1360292468664927e-05
1.639643155823355e-05   -1.0157767407990674e-05   -1.1360292468664927e-05
-7.684152001707429e-05   -5.176953810925866e-05   -0.00019172394084827297
-7.684152001707429e-05   -5.176953810925866e-05   -0.00019172394084827297
-7.684152001707429e-05   -5.176953810925866e-05   -0.00019172394084827297
-7.684152001707429e-05   -5.176953810925866e-05   -0.00019172394084827297
-7.26136226598852e-05   -8.309215928161383e-06   -3.3958045837779484e-05
-7.26136226598852e-05   -8.309215928161383e-06   -3.3958045837779484e-05
-7.26136226598852e-05   -8.309215928161383e-06   -3.3958045837779484e-05
-7.26136226598852e-05   -8.309215928161383e-06   -3.3958045837779484e-05
1.9244180582335022e-05   -5.155193185338129e-05   -0.00016110875501968108
1.9244180582335022e-05   -5.155193185338129e-05   -0.00016110875501968108
1.9244180582335022e-05   -5.155193185338129e-05   -0.00016110875501968108
1.9244180582335022e-05   -5.155193185338129e-05   -0.00016110875501968108
-2.7641377180246903e-05   -2.9362781616169148e-05   -9.627964889103889e-05
-2.7641377180246903e-05   -2.9362781616169148e-05   -9.627964889103889e-05
-2.7641377180246903e-05   -2.9362781616169148e-05   -9.627964889103889e-05
-2.7641377180246903e-05   -2.9362781616169148e-05   -9.627964889103889e-05
1.9244180582335022e-05   -8.309215928161383e-06   -8.012416282647192e-06
1.9244180582335022e-05   -8.309215928161383e-06   -8.012416282647192e-06
1.9244180582335022e-05   -8.309215928161383e-06   -8.012416282647192e-06
1.9244180582335022e-05   -8.309215928161383e-06   -8.012416282647192e-06
-7.261362265988548e-05   -5.155193185338129e-05   -0.00018705438457481197
-7.261362265988548e-05   -5.155193185338129e-05   -0.00018705438457481197
-7.261362265988548e-05   -5.155193185338129e-05   -0.00018705438457481197
-7.261362265988548e-05   -5.155193185338129e-05   -0.00018705438457481197
-6.532116038316857e-05   -6.558492251224415e-06   -3.380861264200372e-05
-6.532116038316857e-05   -6.558492251224415e-06   -3.380861264200372e-05
-6.532116038316857e-05   -6.558492251224415e-06   -3.380861264200372e-05
-6.532116038316857e-05   -6.558492251224415e-06   -3.380861264200372e-05
2.3491537150070296e-05   -4.9773040430654836e-05   -0.00015590104628974294
2.3491537150070296e-05   -4.9773040430654836e-05   -0.00015590104628974294
2.3491537150070296e-05   -4.9773040430654836e-05   -0.00015590104628974294
2.3491537150070296e-05   -4.9773040430654836e-05   -0.00015590104628974294
-2.3109280044404494e-05   -2.8734045100300976e-05   -9.085641483049715e-05
-2.3109280044404494e-05   -2.8734045100300976e-05   -9.085641483049715e-05
-2.3109280044404494e-05   -2.8734045100300976e-05   -9.085641483049715e-05
-2.3109280044404494e-05   -2.8734045100300976e-05   -9.085641483049715e-05
-8.17519533341695e-05   2.517458085462415e-06   -2.373865763990058e-05
-8.17519533341695e-05   2.517458085462415e-06   -2.373865763990058e-05
-8.17519533341695e-05   2.517458085462415e-06   -2.373865763990058e-05
-8.17519533341695e-05   2.517458085462415e-06   -2.373865763990058e-05
-0.00018784600690158605   -6.339799993855706e-05   -0.00024011135506667343
-0.00018784600690158605   -6.339799993855706e-05   -0.00024011135506667343
-0.00018784600690158605   -6.339799993855706e-05   -0.00024011135506667343
-0.00018784600690158605   -6.339799993855706e-05   -0.00024011135506667343
-0.00018200300476647798   4.7166680355384405e-06   -6.133187698145921e-05
-0.00018200300476647798   4.7166680355384405e-06   -6.133187698145921e-05
-0.00018200300476647798   4.7166680355384405e-06   -6.133187698145921e-05
-0.00018200300476647798   4.7166680355384405e-06   -6.133187698145921e-05
-7.684152001707418e-05   -7.06797100032859e-05   -0.0001913631914071712
-7.684152001707418e-05   -7.06797100032859e-05   -0.0001913631914071712
-7.684152001707418e-05   -7.06797100032859e-05   -0.0001913631914071712
-7.684152001707418e-05   -7.06797100032859e-05   -0.0001913631914071712
-0.00013019566418704477   -3.23823276776828e-05   -0.00012541804718591443
-0.00013019566418704477   -3.23823276776828e-05   -0.00012541804718591443
-0.00013019566418704477   -3.23823276776828e-05   -0.00012541804718591443
-0.00013019566418704477   -3.23823276776828e-05   -0.00012541804718591443
-7.684152001707418e-05   4.716668035537573e-06   -1.60940501581653e-05
-7.684152001707418e-05   4.716668035537573e-06   -1.60940501581653e-05
-7.684152001707418e-05   4.716668035537573e-06   -1.60940501581653e-05
-7.684152001707418e-05   4.716668035537573e-06   -1.60940501581653e-05
-0.00018200300476647798   -7.06797100032859e-05   -0.00023660101823046523
-0.00018200300476647798   -7.06797100032859e-05   -0.00023660101823046523
-0.00018200300476647798   -7.06797100032859e-05   -0.00023660101823046523
-0.00018200300476647798   -7.06797100032859e-05   -0.00023660101823046523
-0.0001763995804642602   6.743519516251226e-06   -5.491638234119203e-05
-0.0001763995804642602   6.743519516251226e-06   -5.491638234119203e-05
-0.0001763995804642602   6.743519516251226e-06   -5.491638234119203e-05
-0.0001763995804642602   6.743519516251226e-06   -5.491638234119203e-05
-7.261362265988531e-05   -7.109895217680996e-05   -0.00018118749566598002
-7.261362265988531e-05   -7.109895217680996e-05   -0.00018118749566598002
-7.261362265988531e-05   -7.109895217680996e-05   -0.00018118749566598002
-7.261362265988531e-05   -7.109895217680996e-05   -0.00018118749566598002
-0.00012449917933573986   -3.2514546668093586e-05   -0.00011786221117811947
-0.00012449917933573986   -3.2514546668093586e-05   -0.00011786221117811947
-0.00012449917933573986   -3.2514546668093586e-05   -0.00011786221117811947
-0.00012449917933573986   -3.2514546668093586e-05   -0.00011786221117811947
-7.261362265988531e-05   6.743519516251226e-06   -8.210899325354452e-06
-7.261362265988531e-05   6.743519516251226e-06   -8.210899325354452e-06
-7.261362265988531e-05   6.743519516251226e-06   -8.210899325354452e-06
-7.261362265988531e-05   6.743519516251226e-06   -8.210899325354452e-06
-0.00017639958046426047   -7.109895217680996e-05   -0.00022789297868181652
-0.00017639958046426047   -7.109895217680996e-05   -0.00022789297868181652
-0.00017639958046426047   -7.109895217680996e-05   -0.00022789297868181652
-0.00017639958046426047   -7.109895217680996e-05   -0.00022789297868181652
-0.00016723144463095814   8.463035818908823e-06   -4.836495404173576e-05
-0.00016723144463095814   8.463035818908823e-06   -4.836495404173576e-05
-0.00016723144463095814   8.463035818908823e-06   -4.836495404173576e-05
-0.00016723144463095814   8.463035818908823e-06   -4.836495404173576e-05
-6.532116038316873e-05   -6.503407306613848e-05   -0.00017411716245702396
-6.532116038316873e-05   -6.503407306613848e-05   -0.00017411716245702396
-6.532116038316873e-05   -6.503407306613848e-05   -0.00017411716245702396
-6.532116038316873e-05   -6.503407306613848e-05   -0.00017411716245702396
-0.00011885489056374753   -2.8824109822942617e-05   -0.00010662025676864018
-0.00011885489056374753   -2.8824109822942617e-05   -0.00010662025676864018
-0.00011885489056374753   -2.8824109822942617e-05   -0.00010662025676864018
-0.00011885489056374753   -2.8824109822942617e-05   -0.00010662025676864018
-0.00018784600690158605   2.667235438226414e-05   -4.1511622094113354e-05
-0.00018784600690158605   2.667235438226414e-05   -4.1511622094113354e-05
-0.00018784600690158605   2.667235438226414e-05   -4.1511622094113354e-05
-0.00018784600690158605   2.667235438226414e-05   -4.1511622094113354e-05
-0.00032401032222499875   0.0   -0.00028445556026249295
-0.00032401032222499875   0.0   -0.00028445556026249295
-0.00032401032222499875   0.0   -0.00028445556026249295
-0.00032401032222499875   0.0   -0.00028445556026249295
-0.00031544173386135706   3.386027974782227e-05   -3.199378399744695e-05
-0.00031544173386135706   3.386027974782227e-05   -3.199378399744695e-05
-0.00031544173386135706   3.386027974782227e-05   -3.199378399744695e-05
-0.00031544173386135706   3.386027974782227e-05   -3.199378399744695e-05
-0.00018200300476647766   0.0   -0.0002340754979735537
-0.00018200300476647766   0.0   -0.0002340754979735537
-0.00018200300476647766   0.0   -0.0002340754979735537
-0.00018200300476647766   0.0   -0.0002340754979735537
-0.00024159867037644138   1.0294515464958146e-05   -0.00014092609790258912
-0.00024159867037644138   1.0294515464958146e-05   -0.00014092609790258912
-0.00024159867037644138   1.0294515464958146e-05   -0.00014092609790258912
-0.00024159867037644138   1.0294515464958146e-05   -0.00014092609790258912
-0.00018200300476647785   3.38602797478214e-05   -1.1677616148754281e-05
-0.00018200300476647785   3.38602797478214e-05   -1.1677616148754281e-05
-0.00018200300476647785   3.38602797478214e-05   -1.1677616148754281e-05
-0.00018200300476647785   3.38602797478214e-05   -1.1677616148754281e-05
-0.0003154417338613565   0.0   -0.00025439166582224594
-0.0003154417338613565   0.0   -0.00025439166582224594
-0.0003154417338613565   0.0   -0.00025439166582224594
-0.0003154417338613565   0.0   -0.00025439166582224594
-0.0003082053883148821   3.547138758665854e-05   -1.325153548233527e-05
-0.0003082053883148821   3.547138758665854e-05   -1.325153548233527e-05
-0.0003082053883148821   3.547138758665854e-05   -1.325153548233527e-05
-0.0003082053883148821   3.547138758665854e-05   -1.325153548233527e-05
-0.00017639958046426047   0.0   -0.00021164504934804274
-0.00017639958046426047   0.0   -0.00021164504934804274
-0.00017639958046426047   0.0   -0.00021164504934804274
-0.00017639958046426047   0.0   -0.00021164504934804274
-0.00023899480006230817   1.6383688449335757e-05   -0.00011714989642089507
-0.00023899480006230817   1.6383688449335757e-05   -0.00011714989642089507
-0.00023899480006230817   1.6383688449335757e-05   -0.00011714989642089507
-0.00023899480006230817   1.6383688449335757e-05   -0.00011714989642089507
-0.00017639958046426047   3.547138758665854e-05   8.031297069660027e-06
-0.00017639958046426047   3.547138758665854e-05   8.031297069660027e-06
-0.00017639958046426047   3.547138758665854e-05   8.031297069660027e-06
-0.00017639958046426047   3.547138758665854e-05   8.031297069660027e-06
-0.00030820538831488153   0.0   -0.0002329278819000382
-0.00030820538831488153   0.0   -0.0002329278819000382
-0.00030820538831488153   0.0   -0.0002329278819000382
-0.00030820538831488153   0.0   -0.0002329278819000382
-0.0002937799140819351   3.8266809037830994e-05   1.6871974502090034e-05
-0.0002937799140819351   3.8266809037830994e-05   1.6871974502090034e-05
-0.0002937799140819351   3.8266809037830994e-05   1.6871974502090034e-05
-0.0002937799140819351   3.8266809037830994e-05   1.6871974502090034e-05
-0.00016723144463095843   0.0   -0.00017108205582684084
-0.00016723144463095843   0.0   -0.00017108205582684084
-0.00016723144463095843   0.0   -0.00017108205582684084
-0.00016723144463095843   0.0   -0.00017108205582684084
-0.00022644730382472204   2.0229542149337656e-05   -8.452668246016983e-05
-0.00022644730382472204   2.0229542149337656e-05   -8.452668246016983e-05
-0.00022644730382472204   2.0229542149337656e-05   -8.452668246016983e-05
-0.00022644730382472204   2.0229542149337656e-05   -8.452668246016983e-05
0.00024015924936068769   -4.134479554941499e-05   0.00014355087104989204
0.00024015924936068769   -4.134479554941499e-05   0.00014355087104989204
0.00024015924936068769   -4.134479554941499e-05   0.00014355087104989204
0.00024015924936068769   -4.134479554941499e-05   0.00014355087104989204
0.00012473064633236077   -3.176102616591486e-05   -4.307987236721808e-05
0.00012473064633236077   -3.176102616591486e-05   -4.307987236721808e-05
0.00012473064633236077   -3.176102616591486e-05   -4.307987236721808e-05
0.00012473064633236077   -3.176102616591486e-05   -4.307987236721808e-05
0.00012156664920764726   -4.2378721616789794e-05   0.0001268968464448574
0.00012156664920764726   -4.2378721616789794e-05   0.0001268968464448574
0.00012156664920764726   -4.2378721616789794e-05   0.0001268968464448574
0.00012156664920764726   -4.2378721616789794e-05   0.0001268968464448574
0.00023755453752818007   -3.4938480064777844e-05   -7.088044568723815e-05
0.00023755453752818007   -3.4938480064777844e-05   -7.088044568723815e-05
0.00023755453752818007   -3.4938480064777844e-05   -7.088044568723815e-05
0.00023755453752818007   -3.4938480064777844e-05   -7.088044568723815e-05
0.0001736027085240228   -3.55727769757834e-05   3.608651413296185e-05
0.0001736027085240228   -3.55727769757834e-05   3.608651413296185e-05
0.0001736027085240228   -3.55727769757834e-05   3.608651413296185e-05
0.0001736027085240228   -3.55727769757834e-05   3.608651413296185e-05
0.00023755453752818007   -4.2378721616789794e-05   0.00012243270151365056
0.00023755453752818007   -4.2378721616789794e-05   0.00012243270151365056
0.00023755453752818007   -4.2378721616789794e-05   0.00012243270151365056
0.00023755453752818007   -4.2378721616789794e-05   0.00012243270151365056
0.00012156664920764726   -3.4938480064777844e-05   -6.641630075603089e-05
0.00012156664920764726   -3.4938480064777844e-05   -6.641630075603089e-05
0.00012156664920764726   -3.4938480064777844e-05   -6.641630075603089e-05
0.00012156664920764726   -3.4938480064777844e-05   -6.641630075603089e-05
0.00011870685768690929   -4.200164108251851e-05   0.00011398998594713654
0.00011870685768690929   -4.200164108251851e-05   0.00011398998594713654
0.00011870685768690929   -4.200164108251851e-05   0.00011398998594713654
0.00011870685768690929   -4.200164108251851e-05   0.00011398998594713654
0.0002345514785311438   -3.523823655202617e-05   -8.314242484488412e-05
0.0002345514785311438   -3.523823655202617e-05   -8.314242484488412e-05
0.0002345514785311438   -3.523823655202617e-05   -8.314242484488412e-05
0.0002345514785311438   -3.523823655202617e-05   -8.314242484488412e-05
0.00017344012060144167   -3.6196397082575646e-05   1.928473468961519e-05
0.00017344012060144167   -3.6196397082575646e-05   1.928473468961519e-05
0.00017344012060144167   -3.6196397082575646e-05   1.928473468961519e-05
0.00017344012060144167   -3.6196397082575646e-05   1.928473468961519e-05
0.00023455147853114412   -4.200164108251851e-05   0.00010993194322884113
0.00023455147853114412   -4.200164108251851e-05   0.00010993194322884113
0.00023455147853114412   -4.200164108251851e-05   0.00010993194322884113
0.00023455147853114412   -4.200164108251851e-05   0.00010993194322884113
0.00011870685768690929   -3.523823655202617e-05   -7.908438212658742e-05
0.00011870685768690929   -3.523823655202617e-05   -7.908438212658742e-05
0.00011870685768690929   -3.523823655202617e-05   -7.908438212658742e-05
0.00011870685768690929   -3.523823655202617e-05   -7.908438212658742e-05
0.00011521915114173033   -3.96849480089681e-05   9.299197771464162e-05
0.00011521915114173033   -3.96849480089681e-05   9.299197771464162e-05
0.00011521915114173033   -3.96849480089681e-05   9.299197771464162e-05
0.00011521915114173033   -3.96849480089681e-05   9.299197771464162e-05
0.00022984707564776408   -3.4528051132439244e-05   -0.0001011487012546659
0.00022984707564776408   -3.4528051132439244e-05   -0.0001011487012546659
0.00022984707564776408   -3.4528051132439244e-05   -0.0001011487012546659
0.00022984707564776408   -3.4528051132439244e-05   -0.0001011487012546659
0.00016749163396092656   -3.442193004226865e-05   2.713362235961061e-06
0.00016749163396092656   -3.442193004226865e-05   2.713362235961061e-06
0.00016749163396092656   -3.442193004226865e-05   2.713362235961061e-06
0.00016749163396092656   -3.442193004226865e-05   2.713362235961061e-06
0.00012473064633236077   -4.173932870225189e-05   0.00010744385244369596
0.00012473064633236077   -4.173932870225189e-05   0.00010744385244369596
0.00012473064633236077   -4.173932870225189e-05   0.00010744385244369596
0.00012473064633236077   -4.173932870225189e-05   0.00010744385244369596
2.692932831704144e-05   -1.9751339337020432e-05   -4.236555062936496e-05
2.692932831704144e-05   -1.9751339337020432e-05   -4.236555062936496e-05
2.692932831704144e-05   -1.9751339337020432e-05   -4.236555062936496e-05
2.692932831704144e-05   -1.9751339337020432e-05   -4.236555062936496e-05
2.192129300596519e-05   -4.153832407702632e-05   0.00012280057441277185
2.192129300596519e-05   -4.153832407702632e-05   0.00012280057441277185
2.192129300596519e-05   -4.153832407702632e-05   0.00012280057441277185
2.192129300596519e-05   -4.153832407702632e-05   0.00012280057441277185
0.00012156664920764726   -2.0956926838745435e-05   -5.562385759966715e-05
0.00012156664920764726   -2.0956926838745435e-05   -5.562385759966715e-05
0.00012156664920764726   -2.0956926838745435e-05   -5.562385759966715e-05
0.00012156664920764726   -2.0956926838745435e-05   -5.562385759966715e-05
7.368937986739128e-05   -2.98510308549306e-05   2.950805371047154e-05
7.368937986739128e-05   -2.98510308549306e-05   2.950805371047154e-05
7.368937986739128e-05   -2.98510308549306e-05   2.950805371047154e-05
7.368937986739128e-05   -2.98510308549306e-05   2.950805371047154e-05
0.00012156664920764731   -4.153832407702632e-05   0.00011045173606980246
0.00012156664920764731   -4.153832407702632e-05   0.00011045173606980246
0.00012156664920764731   -4.153832407702632e-05   0.00011045173606980246
0.00012156664920764731   -4.153832407702632e-05   0.00011045173606980246
2.192129300596519e-05   -2.0956926838745435e-05   -4.3275019256697536e-05
2.192129300596519e-05   -2.0956926838745435e-05   -4.3275019256697536e-05
2.192129300596519e-05   -2.0956926838745435e-05   -4.3275019256697536e-05
2.192129300596519e-05   -2.0956926838745435e-05   -4.3275019256697536e-05
1.835397782091818e-05   -4.099842545739196e-05   0.00012302949471486302
1.835397782091818e-05   -4.099842545739196e-05   0.00012302949471486302
1.835397782091818e-05   -4.099842545739196e-05   0.00012302949471486302
1.835397782091818e-05   -4.099842545739196e-05   0.00012302949471486302
0.00011870685768690929   -2.1502786886871267e-05   -5.592268820410202e-05
0.00011870685768690929   -2.1502786886871267e-05   -5.592268820410202e-05
0.00011870685768690929   -2.1502786886871267e-05   -5.592268820410202e-05
0.00011870685768690929   -2.1502786886871267e-05   -5.592268820410202e-05
6.940590730832038e-05   -2.9246891990877127e-05   3.089202548928432e-05
6.940590730832038e-05   -2.9246891990877127e-05   3.089202548928432e-05
6.940590730832038e-05   -2.9246891990877127e-05   3.089202548928432e-05
6.940590730832038e-05   -2.9246891990877127e-05   3.089202548928432e-05
0.0001187068576869095   -4.099842545739196e-05   0.00011133211157255025
0.0001187068576869095   -4.099842545739196e-05   0.00011133211157255025
0.0001187068576869095   -4.099842545739196e-05   0.00011133211157255025
0.0001187068576869095   -4.099842545739196e-05   0.00011133211157255025
1.835397782091818e-05   -2.1502786886871267e-05   -4.4225305061789365e-05
1.835397782091818e-05   -2.1502786886871267e-05   -4.4225305061789365e-05
1.835397782091818e-05   -2.1502786886871267e-05   -4.4225305061789365e-05
1.835397782091818e-05   -2.1502786886871267e-05   -4.4225305061789365e-05
1.4384047780764686e-05   -3.990833588117873e-05   0.00012708039551094594
1.4384047780764686e-05   -3.990833588117873e-05   0.00012708039551094594
1.4384047780764686e-05   -3.990833588117873e-05   0.00012708039551094594
1.4384047780764686e-05   -3.990833588117873e-05   0.00012708039551094594
0.00011521915114173016   -2.1035330830105475e-05   -5.2301913121306906e-05
0.00011521915114173016   -2.1035330830105475e-05   -5.2301913121306906e-05
0.00011521915114173016   -2.1035330830105475e-05   -5.2301913121306906e-05
0.00011521915114173016   -2.1035330830105475e-05   -5.2301913121306906e-05
6.677851860040072e-05   -2.7977215905521102e-05   3.2597605492824485e-05
6.677851860040072e-05   -2.7977215905521102e-05   3.2597605492824485e-05
6.677851860040072e-05   -2.7977215905521102e-05   3.2597605492824485e-05
6.677851860040072e-05   -2.7977215905521102e-05   3.2597605492824485e-05
2.6929328317041494e-05   -5.062947653019893e-05   0.00011069230904684618
2.6929328317041494e-05   -5.062947653019893e-05   0.00011069230904684618
2.6929328317041494e-05   -5.062947653019893e-05   0.00011069230904684618
2.6929328317041494e-05   -5.062947653019893e-05   0.00011069230904684618
-6.69953211530933e-05   -8.479561492528292e-06   -2.0558824380776698e-05
-6.69953211530933e-05   -8.479561492528292e-06   -2.0558824380776698e-05
-6.69953211530933e-05   -8.479561492528292e-06   -2.0558824380776698e-05
-6.69953211530933e-05   -8.479561492528292e-06   -2.0558824380776698e-05
-7.478888525332811e-05   -5.176953810925866e-05   0.00014249051920044078
-7.478888525332811e-05   -5.176953810925866e-05   0.00014249051920044078
-7.478888525332811e-05   -5.176953810925866e-05   0.00014249051920044078
-7.478888525332811e-05   -5.176953810925866e-05   0.00014249051920044078
2.192129300596519e-05   -8.959484906246457e-06   -4.437914315352288e-05
2.192129300596519e-05   -8.959484906246457e-06   -4.437914315352288e-05
2.192129300596519e-05   -8.959484906246457e-06   -4.437914315352288e-05
2.192129300596519e-05   -8.959484906246457e-06   -4.437914315352288e-05
-2.238189330536054e-05   -2.900067986612992e-05   4.1484217674616665e-05
-2.238189330536054e-05   -2.900067986612992e-05   4.1484217674616665e-05
-2.238189330536054e-05   -2.900067986612992e-05   4.1484217674616665e-05
-2.238189330536054e-05   -2.900067986612992e-05   4.1484217674616665e-05
2.192129300596519e-05   -5.176953810925866e-05   0.00011680448727863224
2.192129300596519e-05   -5.176953810925866e-05   0.00011680448727863224
2.192129300596519e-05   -5.176953810925866e-05   0.00011680448727863224
2.192129300596519e-05   -5.176953810925866e-05   0.00011680448727863224
-7.478888525332795e-05   -8.959484906246457e-06   -1.8693111231714993e-05
-7.478888525332795e-05   -8.959484906246457e-06   -1.8693111231714993e-05
-7.478888525332795e-05   -8.959484906246457e-06   -1.8693111231714993e-05
-7.478888525332795e-05   -8.959484906246457e-06   -1.8693111231714993e-05
-7.95457924894143e-05   -5.155193185338129e-05   0.00014794343104996503
-7.95457924894143e-05   -5.155193185338129e-05   0.00014794343104996503
-7.95457924894143e-05   -5.155193185338129e-05   0.00014794343104996503
-7.95457924894143e-05   -5.155193185338129e-05   0.00014794343104996503
1.835397782091818e-05   -9.544663532895514e-06   -4.0427213792880424e-05
1.835397782091818e-05   -9.544663532895514e-06   -4.0427213792880424e-05
1.835397782091818e-05   -9.544663532895514e-06   -4.0427213792880424e-05
1.835397782091818e-05   -9.544663532895514e-06   -4.0427213792880424e-05
-2.7654957204601826e-05   -2.892631666388465e-05   4.788333646157917e-05
-2.7654957204601826e-05   -2.892631666388465e-05   4.788333646157917e-05
-2.7654957204601826e-05   -2.892631666388465e-05   4.788333646157917e-05
-2.7654957204601826e-05   -2.892631666388465e-05   4.788333646157917e-05
1.8353977820918126e-05   -5.155193185338129e-05   0.00012273907005767339
1.8353977820918126e-05   -5.155193185338129e-05   0.00012273907005767339
1.8353977820918126e-05   -5.155193185338129e-05   0.00012273907005767339
1.8353977820918126e-05   -5.155193185338129e-05   0.00012273907005767339
-7.954579248941419e-05   -9.544663532895514e-06   -1.5222852800588459e-05
-7.954579248941419e-05   -9.544663532895514e-06   -1.5222852800588459e-05
-7.954579248941419e-05   -9.544663532895514e-06   -1.5222852800588459e-05
-7.954579248941419e-05   -9.544663532895514e-06   -1.5222852800588459e-05
-8.514838853224767e-05   -4.9773040430654836e-05   0.00015501467198106474
-8.514838853224767e-05   -4.9773040430654836e-05   0.00015501467198106474
-8.514838853224767e-05   -4.9773040430654836e-05   0.00015501467198106474
-8.514838853224767e-05   -4.9773040430654836e-05   0.00015501467198106474
1.4384047780764686e-05   -9.502409907028234e-06   -3.5035100188132305e-05
1.4384047780764686e-05   -9.502409907028234e-06   -3.5035100188132305e-05
1.4384047780764686e-05   -9.502409907028234e-06   -3.5035100188132305e-05
1.4384047780764686e-05   -9.502409907028234e-06   -3.5035100188132305e-05
-3.194544264516165e-05   -2.7798825401700866e-05   5.315856648521516e-05
-3.194544264516165e-05   -2.7798825401700866e-05   5.315856648521516e-05
-3.194544264516165e-05   -2.7798825401700866e-05   5.315856648521516e-05
-3.194544264516165e-05   -2.7798825401700866e-05   5.315856648521516e-05
-6.699532115309341e-05   -6.339799993855706e-05   0.0001343422938122089
-6.699532115309341e-05   -6.339799993855706e-05   0.0001343422938122089
-6.699532115309341e-05   -6.339799993855706e-05   0.0001343422938122089
-6.699532115309341e-05   -6.339799993855706e-05   0.0001343422938122089
-0.00017414544295272892   8.62125803976696e-06   -1.0296877335225219e-06
-0.00017414544295272892   8.62125803976696e-06   -1.0296877335225219e-06
-0.00017414544295272892   8.62125803976696e-06   -1.0296877335225219e-06
-0.00017414544295272892   8.62125803976696e-06   -1.0296877335225219e-06
-0.00018348643540428816   -7.06797100032859e-05   0.00019009589293936084
-0.00018348643540428816   -7.06797100032859e-05   0.00019009589293936084
-0.00018348643540428816   -7.06797100032859e-05   0.00019009589293936084
-0.00018348643540428816   -7.06797100032859e-05   0.00019009589293936084
-7.478888525332795e-05   8.061330493079263e-06   -3.83113149433911e-05
-7.478888525332795e-05   8.061330493079263e-06   -3.83113149433911e-05
-7.478888525332795e-05   8.061330493079263e-06   -3.83113149433911e-05
-7.478888525332795e-05   8.061330493079263e-06   -3.83113149433911e-05
-0.0001230927790064056   -2.6544464787977076e-05   6.295865181370425e-05
-0.0001230927790064056   -2.6544464787977076e-05   6.295865181370425e-05
-0.0001230927790064056   -2.6544464787977076e-05   6.295865181370425e-05
-0.0001230927790064056   -2.6544464787977076e-05   6.295865181370425e-05
-7.478888525332811e-05   -7.06797100032859e-05   0.00014285126864154243
-7.478888525332811e-05   -7.06797100032859e-05   0.00014285126864154243
-7.478888525332811e-05   -7.06797100032859e-05   0.00014285126864154243
-7.478888525332811e-05   -7.06797100032859e-05   0.00014285126864154243
-0.00018348643540428816   8.061330493079263e-06   8.933309354427522e-06
-0.00018348643540428816   8.061330493079263e-06   8.933309354427522e-06
-0.00018348643540428816   8.061330493079263e-06   8.933309354427522e-06
-0.00018348643540428816   8.061330493079263e-06   8.933309354427522e-06
-0.0001891847324994772   -7.109895217680996e-05   0.00020070602140953662
-0.0001891847324994772   -7.109895217680996e-05   0.00020070602140953662
-0.0001891847324994772   -7.109895217680996e-05   0.00020070602140953662
-0.0001891847324994772   -7.109895217680996e-05   0.00020070602140953662
-7.954579248941419e-05   7.060550241090244e-06   -2.892124672464148e-05
-7.954579248941419e-05   7.060550241090244e-06   -2.892124672464148e-05
-7.954579248941419e-05   7.060550241090244e-06   -2.892124672464148e-05
-7.954579248941419e-05   7.060550241090244e-06   -2.892124672464148e-05
-0.0001291776744989608   -3.0480188165168606e-05   7.632299966835762e-05
-0.0001291776744989608   -3.0480188165168606e-05   7.632299966835762e-05
-0.0001291776744989608   -3.0480188165168606e-05   7.632299966835762e-05
-0.0001291776744989608   -3.0480188165168606e-05   7.632299966835762e-05
-7.954579248941408e-05   -7.109895217680996e-05   0.0001538103199587972
-7.954579248941408e-05   -7.109895217680996e-05   0.0001538103199587972
-7.954579248941408e-05   -7.109895217680996e-05   0.0001538103199587972
-7.954579248941408e-05   -7.109895217680996e-05   0.0001538103199587972
-0.00018918473249947688   7.060550241090244e-06   1.797445472609925e-05
-0.00018918473249947688   7.060550241090244e-06   1.797445472609925e-05
-0.00018918473249947688   7.060550241090244e-06   1.797445472609925e-05
-0.00018918473249947688   7.060550241090244e-06   1.797445472609925e-05
-0.0001953187818049663   -6.503407306613848e-05   0.00020530663971328727
-0.0001953187818049663   -6.503407306613848e-05   0.00020530663971328727
-0.0001953187818049663   -6.503407306613848e-05   0.00020530663971328727
-0.0001953187818049663   -6.503407306613848e-05   0.00020530663971328727
-8.514838853224734e-05   5.931518586937967e-06   -2.0890037399754922e-05
-8.514838853224734e-05   5.931518586937967e-06   -2.0890037399754922e-05
-8.514838853224734e-05   5.931518586937967e-06   -2.0890037399754922e-05
-8.514838853224734e-05   5.931518586937967e-06   -2.0890037399754922e-05
-0.00013542680728722311   -3.072369021486082e-05   8.490045247295261e-05
-0.00013542680728722311   -3.072369021486082e-05   8.490045247295261e-05
-0.00013542680728722311   -3.072369021486082e-05   8.490045247295261e-05
-0.00013542680728722311   -3.072369021486082e-05   8.490045247295261e-05
-0.00017414544295272827   0.0   0.00014921305603274142
-0.00017414544295272827   0.0   0.00014921305603274142
-0.00017414544295272827   0.0   0.00014921305603274142
-0.00017414544295272827   0.0   0.00014921305603274142
-0.0003072882022559046   4.022497203507759e-05   -4.855655958483935e-05
-0.0003072882022559046   4.022497203507759e-05   -4.855655958483935e-05
-0.0003072882022559046   4.022497203507759e-05   -4.855655958483935e-05
-0.0003072882022559046   4.022497203507759e-05   -4.855655958483935e-05
-0.00032021652753147023   0.0   0.00021588258825505635
-0.00032021652753147023   0.0   0.00021588258825505635
-0.00032021652753147023   0.0   0.00021588258825505635
-0.00032021652753147023   0.0   0.00021588258825505635
-0.00018348643540428783   3.876862509797491e-05   -3.5262073682366295e-05
-0.00018348643540428783   3.876862509797491e-05   -3.5262073682366295e-05
-0.00018348643540428783   3.876862509797491e-05   -3.5262073682366295e-05
-0.00018348643540428783   3.876862509797491e-05   -3.5262073682366295e-05
-0.0002357729921228025   2.386907374276985e-05   6.0821918328280464e-05
-0.0002357729921228025   2.386907374276985e-05   6.0821918328280464e-05
-0.0002357729921228025   2.386907374276985e-05   6.0821918328280464e-05
-0.0002357729921228025   2.386907374276985e-05   6.0821918328280464e-05
-0.00018348643540428767   0.0   0.0001926214131962702
-0.00018348643540428767   0.0   0.0001926214131962702
-0.00018348643540428767   0.0   0.0001926214131962702
-0.00018348643540428767   0.0   0.0001926214131962702
-0.0003202165275314707   3.876862509797491e-05   -1.2000898623580787e-05
-0.0003202165275314707   3.876862509797491e-05   -1.2000898623580787e-05
-0.0003202165275314707   3.876862509797491e-05   -1.2000898623580787e-05
-0.0003202165275314707   3.876862509797491e-05   -1.2000898623580787e-05
-0.0003267333145246453   0.0   0.00023960636169387001
-0.0003267333145246453   0.0   0.00023960636169387001
-0.0003267333145246453   0.0   0.00023960636169387001
-0.0003267333145246453   0.0   0.00023960636169387001
-0.00018918473249947688   3.775401825093297e-05   -1.2293685965304984e-05
-0.00018918473249947688   3.775401825093297e-05   -1.2293685965304984e-05
-0.00018918473249947688   3.775401825093297e-05   -1.2293685965304984e-05
-0.00018918473249947688   3.775401825093297e-05   -1.2293685965304984e-05
-0.0002481840178639662   1.9915631802164963e-05   9.67414881781083e-05
-0.0002481840178639662   1.9915631802164963e-05   9.67414881781083e-05
-0.0002481840178639662   1.9915631802164963e-05   9.67414881781083e-05
-0.0002481840178639662   1.9915631802164963e-05   9.67414881781083e-05
-0.00018918473249947688   0.0   0.00021695395074330937
-0.00018918473249947688   0.0   0.00021695395074330937
-0.00018918473249947688   0.0   0.00021695395074330937
-0.00018918473249947688   0.0   0.00021695395074330937
-0.0003267333145246464   3.7754018250934704e-05   1.0358724985255231e-05
-0.0003267333145246464   3.7754018250934704e-05   1.0358724985255231e-05
-0.0003267333145246464   3.7754018250934704e-05   1.0358724985255231e-05
-0.0003267333145246464   3.7754018250934704e-05   1.0358724985255231e-05
-0.00033401187048809854   0.0   0.00027125296582391784
-0.00033401187048809854   0.0   0.00027125296582391784
-0.00033401187048809854   0.0   0.00027125296582391784
-0.00033401187048809854   0.0   0.00027125296582391784
-0.0001953187818049663   3.13549235823659e-05   2.1284863869276563e-05
-0.0001953187818049663   3.13549235823659e-05   2.1284863869276563e-05
-0.0001953187818049663   3.13549235823659e-05   2.1284863869276563e-05
-0.0001953187818049663   3.13549235823659e-05   2.1284863869276563e-05
-0.00025032718884558994   1.3940532988846246e-05   0.00012341417662642862
-0.00025032718884558994   1.3940532988846246e-05   0.00012341417662642862
-0.00025032718884558994   1.3940532988846246e-05   0.00012341417662642862
-0.00025032718884558994   1.3940532988846246e-05   0.00012341417662642862
0.00021080364022682633   -3.176102616591313e-05   0.00015003791060905127
0.00021080364022682633   -3.176102616591313e-05   0.00015003791060905127
0.00021080364022682633   -3.176102616591313e-05   0.00015003791060905127
0.00021080364022682633   -3.176102616591313e-05   0.00015003791060905127
0.00010670533867498857   -2.3873448328251903e-05   -1.8726711941415702e-05
0.00010670533867498857   -2.3873448328251903e-05   -1.8726711941415702e-05
0.00010670533867498857   -2.3873448328251903e-05   -1.8726711941415702e-05
0.00010670533867498857   -2.3873448328251903e-05   -1.8726711941415702e-05
0.00010386434851598924   -3.4938480064777844e-05   0.0001310473922997513
0.00010386434851598924   -3.4938480064777844e-05   0.0001310473922997513
0.00010386434851598924   -3.4938480064777844e-05   0.0001310473922997513
0.00010386434851598924   -3.4938480064777844e-05   0.0001310473922997513
0.0002057204806154789   -2.7079420669557513e-05   -4.3428263503196834e-05
0.0002057204806154789   -2.7079420669557513e-05   -4.3428263503196834e-05
0.0002057204806154789   -2.7079420669557513e-05   -4.3428263503196834e-05
0.0002057204806154789   -2.7079420669557513e-05   -4.3428263503196834e-05
0.00014979411096516023   -2.8231064466852085e-05   5.0473338859044004e-05
0.00014979411096516023   -2.8231064466852085e-05   5.0473338859044004e-05
0.00014979411096516023   -2.8231064466852085e-05   5.0473338859044004e-05
0.00014979411096516023   -2.8231064466852085e-05   5.0473338859044004e-05
0.00020572048061547852   -3.4938480064777844e-05   0.00012633195666262014
0.00020572048061547852   -3.4938480064777844e-05   0.00012633195666262014
0.00020572048061547852   -3.4938480064777844e-05   0.00012633195666262014
0.00020572048061547852   -3.4938480064777844e-05   0.00012633195666262014
0.0001038643485159894   -2.7079420669557513e-05   -3.871282786606454e-05
0.0001038643485159894   -2.7079420669557513e-05   -3.871282786606454e-05
0.0001038643485159894   -2.7079420669557513e-05   -3.871282786606454e-05
0.0001038643485159894   -2.7079420669557513e-05   -3.871282786606454e-05
0.00010020307132101657   -3.523823655202617e-05   0.00011767885054832054
0.00010020307132101657   -3.523823655202617e-05   0.00011767885054832054
0.00010020307132101657   -3.523823655202617e-05   0.00011767885054832054
0.00010020307132101657   -3.523823655202617e-05   0.00011767885054832054
0.00020058467012921063   -2.756119507413106e-05   -5.423003901873814e-05
0.00020058467012921063   -2.756119507413106e-05   -5.423003901873814e-05
0.00020058467012921063   -2.756119507413106e-05   -5.423003901873814e-05
0.00020058467012921063   -2.756119507413106e-05   -5.423003901873814e-05
0.00014834283270029363   -2.9468882103778418e-05   3.3984302247243216e-05
0.00014834283270029363   -2.9468882103778418e-05   3.3984302247243216e-05
0.00014834283270029363   -2.9468882103778418e-05   3.3984302247243216e-05
0.00014834283270029363   -2.9468882103778418e-05   3.3984302247243216e-05
0.00020058467012921063   -3.523823655202617e-05   0.00011307262566158556
0.00020058467012921063   -3.523823655202617e-05   0.00011307262566158556
0.00020058467012921063   -3.523823655202617e-05   0.00011307262566158556
0.00020058467012921063   -3.523823655202617e-05   0.00011307262566158556
0.00010020307132101657   -2.756119507413106e-05   -4.962381413200264e-05
0.00010020307132101657   -2.756119507413106e-05   -4.962381413200264e-05
0.00010020307132101657   -2.756119507413106e-05   -4.962381413200264e-05
0.00010020307132101657   -2.756119507413106e-05   -4.962381413200264e-05
9.636364024481157e-05   -3.4528051132439244e-05   9.786833584103215e-05
9.636364024481157e-05   -3.4528051132439244e-05   9.786833584103215e-05
9.636364024481157e-05   -3.4528051132439244e-05   9.786833584103215e-05
9.636364024481157e-05   -3.4528051132439244e-05   9.786833584103215e-05
0.00019415731135674012   -2.7410139439711795e-05   -6.939186302782013e-05
0.00019415731135674012   -2.7410139439711795e-05   -6.939186302782013e-05
0.00019415731135674012   -2.7410139439711795e-05   -6.939186302782013e-05
0.00019415731135674012   -2.7410139439711795e-05   -6.939186302782013e-05
0.00014168882248060126   -2.870523895266361e-05   1.883267814018467e-05
0.00014168882248060126   -2.870523895266361e-05   1.883267814018467e-05
0.00014168882248060126   -2.870523895266361e-05   1.883267814018467e-05
0.00014168882248060126   -2.870523895266361e-05   1.883267814018467e-05
0.00010670533867498873   -1.9751339337022167e-05   0.0001422919854303633
0.00010670533867498873   -1.9751339337022167e-05   0.0001422919854303633
0.00010670533867498873   -1.9751339337022167e-05   0.0001422919854303633
0.00010670533867498873   -1.9751339337022167e-05   0.0001422919854303633
1.1915367801807332e-05   -8.451744484855306e-06   -8.911542446973092e-06
1.1915367801807332e-05   -8.451744484855306e-06   -8.911542446973092e-06
1.1915367801807332e-05   -8.451744484855306e-06   -8.911542446973092e-06
1.1915367801807332e-05   -8.451744484855306e-06   -8.911542446973092e-06
9.095712236478922e-06   -2.0956926838745435e-05   0.00014830622715251117
9.095712236478922e-06   -2.0956926838745435e-05   0.00014830622715251117
9.095712236478922e-06   -2.0956926838745435e-05   0.00014830622715251117
9.095712236478922e-06   -2.0956926838745435e-05   0.00014830622715251117
0.0001038643485159894   -1.017960734474993e-05   -1.6107891676403246e-05
0.0001038643485159894   -1.017960734474993e-05   -1.6107891676403246e-05
0.0001038643485159894   -1.017960734474993e-05   -1.6107891676403246e-05
0.0001038643485159894   -1.017960734474993e-05   -1.6107891676403246e-05
5.7341916560780566e-05   -1.3790573611222393e-05   6.359607467549546e-05
5.7341916560780566e-05   -1.3790573611222393e-05   6.359607467549546e-05
5.7341916560780566e-05   -1.3790573611222393e-05   6.359607467549546e-05
5.7341916560780566e-05   -1.3790573611222393e-05   6.359607467549546e-05
0.0001038643485159893   -2.0956926838745435e-05   0.0001418398354561144
0.0001038643485159893   -2.0956926838745435e-05   0.0001418398354561144
0.0001038643485159893   -2.0956926838745435e-05   0.0001418398354561144
0.0001038643485159893   -2.0956926838745435e-05   0.0001418398354561144
9.095712236478922e-06   -1.017960734474993e-05   -9.641499980006518e-06
9.095712236478922e-06   -1.017960734474993e-05   -9.641499980006518e-06
9.095712236478922e-06   -1.017960734474993e-05   -9.641499980006518e-06
9.095712236478922e-06   -1.017960734474993e-05   -9.641499980006518e-06
5.493597621265215e-06   -2.1502786886871267e-05   0.00014695046123771194
5.493597621265215e-06   -2.1502786886871267e-05   0.00014695046123771194
5.493597621265215e-06   -2.1502786886871267e-05   0.00014695046123771194
5.493597621265215e-06   -2.1502786886871267e-05   0.00014695046123771194
0.00010020307132101657   -1.1319592275365123e-05   -1.7008578362111943e-05
0.00010020307132101657   -1.1319592275365123e-05   -1.7008578362111943e-05
0.00010020307132101657   -1.1319592275365123e-05   -1.7008578362111943e-05
0.00010020307132101657   -1.1319592275365123e-05   -1.7008578362111943e-05
5.3770805030510456e-05   -1.444831305004099e-05   6.225576458687362e-05
5.3770805030510456e-05   -1.444831305004099e-05   6.225576458687362e-05
5.3770805030510456e-05   -1.444831305004099e-05   6.225576458687362e-05
5.3770805030510456e-05   -1.444831305004099e-05   6.225576458687362e-05
0.00010020307132101641   -2.1502786886871267e-05   0.00014084054447080756
0.00010020307132101641   -2.1502786886871267e-05   0.00014084054447080756
0.00010020307132101641   -2.1502786886871267e-05   0.00014084054447080756
0.00010020307132101641   -2.1502786886871267e-05   0.00014084054447080756
5.493597621265215e-06   -1.1319592275365123e-05   -1.0898661595207942e-05
5.493597621265215e-06   -1.1319592275365123e-05   -1.0898661595207942e-05
5.493597621265215e-06   -1.1319592275365123e-05   -1.0898661595207942e-05
5.493597621265215e-06   -1.1319592275365123e-05   -1.0898661595207942e-05
1.5140781749580835e-06   -2.1035330830105475e-05   0.00014915132136727842
1.5140781749580835e-06   -2.1035330830105475e-05   0.00014915132136727842
1.5140781749580835e-06   -2.1035330830105475e-05   0.00014915132136727842
1.5140781749580835e-06   -2.1035330830105475e-05   0.00014915132136727842
9.636364024481151e-05   -1.181810496542722e-05   -1.4461617601284468e-05
9.636364024481151e-05   -1.181810496542722e-05   -1.4461617601284468e-05
9.636364024481151e-05   -1.181810496542722e-05   -1.4461617601284468e-05
9.636364024481151e-05   -1.181810496542722e-05   -1.4461617601284468e-05
5.0850528867063766e-05   -1.4321061775528568e-05   6.289534211435723e-05
5.0850528867063766e-05   -1.4321061775528568e-05   6.289534211435723e-05
5.0850528867063766e-05   -1.4321061775528568e-05   6.289534211435723e-05
5.0850528867063766e-05   -1.4321061775528568e-05   6.289534211435723e-05
1.1915367801807332e-05   -8.479561492528292e-06   0.00014558851956764877
1.1915367801807332e-05   -8.479561492528292e-06   0.00014558851956764877
1.1915367801807332e-05   -8.479561492528292e-06   0.00014558851956764877
1.1915367801807332e-05   -8.479561492528292e-06   0.00014558851956764877
-7.98944836544302e-05   7.450495476913829e-06   2.1301346555847867e-06
-7.98944836544302e-05   7.450495476913829e-06   2.1301346555847867e-06
-7.98944836544302e-05   7.450495476913829e-06   2.1301346555847867e-06
-7.98944836544302e-05   7.450495476913829e-06   2.1301346555847867e-06
-8.307040422153296e-05   -8.959484906248191e-06   0.00015624921412194653
-8.307040422153296e-05   -8.959484906248191e-06   0.00015624921412194653
-8.307040422153296e-05   -8.959484906248191e-06   0.00015624921412194653
-8.307040422153296e-05   -8.959484906248191e-06   0.00015624921412194653
9.095712236478922e-06   6.119033204184804e-06   -6.408090840999176e-06
9.095712236478922e-06   6.119033204184804e-06   -6.408090840999176e-06
9.095712236478922e-06   6.119033204184804e-06   -6.408090840999176e-06
9.095712236478922e-06   6.119033204184804e-06   -6.408090840999176e-06
-3.542239744165919e-05   -2.6650209359463384e-07   7.162007980123213e-05
-3.542239744165919e-05   -2.6650209359463384e-07   7.162007980123213e-05
-3.542239744165919e-05   -2.6650209359463384e-07   7.162007980123213e-05
-3.542239744165919e-05   -2.6650209359463384e-07   7.162007980123213e-05
9.095712236478922e-06   -8.959484906248191e-06   0.0001472021032556869
9.095712236478922e-06   -8.959484906248191e-06   0.0001472021032556869
9.095712236478922e-06   -8.959484906248191e-06   0.0001472021032556869
9.095712236478922e-06   -8.959484906248191e-06   0.0001472021032556869
-8.307040422153296e-05   6.119033204186539e-06   2.6390200252605564e-06
-8.307040422153296e-05   6.119033204186539e-06   2.6390200252605564e-06
-8.307040422153296e-05   6.119033204186539e-06   2.6390200252605564e-06
-8.307040422153296e-05   6.119033204186539e-06   2.6390200252605564e-06
-8.733433258917918e-05   -9.544663532895514e-06   0.00015940306323687474
-8.733433258917918e-05   -9.544663532895514e-06   0.00015940306323687474
-8.733433258917918e-05   -9.544663532895514e-06   0.00015940306323687474
-8.733433258917918e-05   -9.544663532895514e-06   0.00015940306323687474
5.493597621265215e-06   4.879521017528768e-06   -3.964664510786964e-06
5.493597621265215e-06   4.879521017528768e-06   -3.964664510786964e-06
5.493597621265215e-06   4.879521017528768e-06   -3.964664510786964e-06
5.493597621265215e-06   4.879521017528768e-06   -3.964664510786964e-06
-3.855681366474699e-05   -6.470978785901027e-07   7.276865897023707e-05
-3.855681366474699e-05   -6.470978785901027e-07   7.276865897023707e-05
-3.855681366474699e-05   -6.470978785901027e-07   7.276865897023707e-05
-3.855681366474699e-05   -6.470978785901027e-07   7.276865897023707e-05
5.493597621265215e-06   -9.544663532895514e-06   0.00015074855250662034
5.493597621265215e-06   -9.544663532895514e-06   0.00015074855250662034
5.493597621265215e-06   -9.544663532895514e-06   0.00015074855250662034
5.493597621265215e-06   -9.544663532895514e-06   0.00015074855250662034
-8.733433258917902e-05   4.879521017528768e-06   4.689846219466456e-06
-8.733433258917902e-05   4.879521017528768e-06   4.689846219466456e-06
-8.733433258917902e-05   4.879521017528768e-06   4.689846219466456e-06
-8.733433258917902e-05   4.879521017528768e-06   4.689846219466456e-06
-9.18773960771339e-05   -9.502409907028234e-06   0.00016318646331717462
-9.18773960771339e-05   -9.502409907028234e-06   0.00016318646331717462
-9.18773960771339e-05   -9.502409907028234e-06   0.00016318646331717462
-9.18773960771339e-05   -9.502409907028234e-06   0.00016318646331717462
1.5140781749580835e-06   3.9844768385810525e-06   -5.581258170108934e-07
1.5140781749580835e-06   3.9844768385810525e-06   -5.581258170108934e-07
1.5140781749580835e-06   3.9844768385810525e-06   -5.581258170108934e-07
1.5140781749580835e-06   3.9844768385810525e-06   -5.581258170108934e-07
-4.255646951877113e-05   -9.236935699496324e-07   7.583768925099226e-05
-4.255646951877113e-05   -9.236935699496324e-07   7.583768925099226e-05
-4.255646951877113e-05   -9.236935699496324e-07   7.583768925099226e-05
-4.255646951877113e-05   -9.236935699496324e-07   7.583768925099226e-05
-7.989448365442999e-05   8.62125803976696e-06   0.00013146413560957346
-7.989448365442999e-05   8.62125803976696e-06   0.00013146413560957346
-7.989448365442999e-05   8.62125803976696e-06   0.00013146413560957346
-7.989448365442999e-05   8.62125803976696e-06   0.00013146413560957346
-0.00016976733687421215   2.4350769003523426e-05   -8.886246511808846e-06
-0.00016976733687421215   2.4350769003523426e-05   -8.886246511808846e-06
-0.00016976733687421215   2.4350769003523426e-05   -8.886246511808846e-06
-0.00016976733687421215   2.4350769003523426e-05   -8.886246511808846e-06
-0.00017440582134293088   8.061330493079263e-06   0.0001456007886999535
-0.00017440582134293088   8.061330493079263e-06   0.0001456007886999535
-0.00017440582134293088   8.061330493079263e-06   0.0001456007886999535
-0.00017440582134293088   8.061330493079263e-06   0.0001456007886999535
-8.307040422153258e-05   2.3010960975882594e-05   -1.5594684792058847e-05
-8.307040422153258e-05   2.3010960975882594e-05   -1.5594684792058847e-05
-8.307040422153258e-05   2.3010960975882594e-05   -1.5594684792058847e-05
-8.307040422153258e-05   2.3010960975882594e-05   -1.5594684792058847e-05
-0.00012577576740205746   1.6304102128897324e-05   5.960503581700649e-05
-0.00012577576740205746   1.6304102128897324e-05   5.960503581700649e-05
-0.00012577576740205746   1.6304102128897324e-05   5.960503581700649e-05
-0.00012577576740205746   1.6304102128897324e-05   5.960503581700649e-05
-8.307040422153274e-05   8.061330493079263e-06   0.00013663101041027064
-8.307040422153274e-05   8.061330493079263e-06   0.00013663101041027064
-8.307040422153274e-05   8.061330493079263e-06   0.00013663101041027064
-8.307040422153274e-05   8.061330493079263e-06   0.00013663101041027064
-0.0001744058213429306   2.3010960975882594e-05   -6.624906502376415e-06
-0.0001744058213429306   2.3010960975882594e-05   -6.624906502376415e-06
-0.0001744058213429306   2.3010960975882594e-05   -6.624906502376415e-06
-0.0001744058213429306   2.3010960975882594e-05   -6.624906502376415e-06
-0.00018008585252936326   7.060550241090244e-06   0.00015453420043698516
-0.00018008585252936326   7.060550241090244e-06   0.00015453420043698516
-0.00018008585252936326   7.060550241090244e-06   0.00015453420043698516
-0.00018008585252936326   7.060550241090244e-06   0.00015453420043698516
-8.733433258917902e-05   2.1776435448024253e-05   -8.881197254151244e-06
-8.733433258917902e-05   2.1776435448024253e-05   -8.881197254151244e-06
-8.733433258917902e-05   2.1776435448024253e-05   -8.881197254151244e-06
-8.733433258917902e-05   2.1776435448024253e-05   -8.881197254151244e-06
-0.0001292396889275579   1.598460025631701e-05   6.443616442483938e-05
-0.0001292396889275579   1.598460025631701e-05   6.443616442483938e-05
-0.0001292396889275579   1.598460025631701e-05   6.443616442483938e-05
-0.0001292396889275579   1.598460025631701e-05   6.443616442483938e-05
-8.733433258917896e-05   7.060550241090244e-06   0.00014570466931282128
-8.733433258917896e-05   7.060550241090244e-06   0.00014570466931282128
-8.733433258917896e-05   7.060550241090244e-06   0.00014570466931282128
-8.733433258917896e-05   7.060550241090244e-06   0.00014570466931282128
-0.00018008585252936326   2.1776435448025988e-05   -5.166612998845285e-08
-0.00018008585252936326   2.1776435448025988e-05   -5.166612998845285e-08
-0.00018008585252936326   2.1776435448025988e-05   -5.166612998845285e-08
-0.00018008585252936326   2.1776435448025988e-05   -5.166612998845285e-08
-0.000186100807551813   5.931518586937967e-06   0.0001616834933246816
-0.000186100807551813   5.931518586937967e-06   0.0001616834933246816
-0.000186100807551813   5.931518586937967e-06   0.0001616834933246816
-0.000186100807551813   5.931518586937967e-06   0.0001616834933246816
-9.187739607713358e-05   2.0122094475778785e-05   -3.8698713330895425e-06
-9.187739607713358e-05   2.0122094475778785e-05   -3.8698713330895425e-06
-9.187739607713358e-05   2.0122094475778785e-05   -3.8698713330895425e-06
-9.187739607713358e-05   2.0122094475778785e-05   -3.8698713330895425e-06
-0.00013497781684185692   1.4979073233235482e-05   7.10499760203146e-05
-0.00013497781684185692   1.4979073233235482e-05   7.10499760203146e-05
-0.00013497781684185692   1.4979073233235482e-05   7.10499760203146e-05
-0.00013497781684185692   1.4979073233235482e-05   7.10499760203146e-05
-0.00016976733687421215   4.022497203507759e-05   6.923998711546447e-05
-0.00016976733687421215   4.022497203507759e-05   6.923998711546447e-05
-0.00016976733687421215   4.022497203507759e-05   6.923998711546447e-05
-0.00016976733687421215   4.022497203507759e-05   6.923998711546447e-05
-0.00025575202387254135   3.960202953477796e-05   -7.44415900485974e-05
-0.00025575202387254135   3.960202953477796e-05   -7.44415900485974e-05
-0.00025575202387254135   3.960202953477796e-05   -7.44415900485974e-05
-0.00025575202387254135   3.960202953477796e-05   -7.44415900485974e-05
-0.00026407117437079347   3.876862509797491e-05   0.00010234733561773068
-0.00026407117437079347   3.876862509797491e-05   0.00010234733561773068
-0.00026407117437079347   3.876862509797491e-05   0.00010234733561773068
-0.00026407117437079347   3.876862509797491e-05   0.00010234733561773068
-0.0001744058213429306   4.033850835559547e-05   -4.803684938327942e-05
-0.0001744058213429306   4.033850835559547e-05   -4.803684938327942e-05
-0.0001744058213429306   4.033850835559547e-05   -4.803684938327942e-05
-0.0001744058213429306   4.033850835559547e-05   -4.803684938327942e-05
-0.0002073049289152093   4.037979257593208e-05   6.770226038315145e-06
-0.0002073049289152093   4.037979257593208e-05   6.770226038315145e-06
-0.0002073049289152093   4.037979257593208e-05   6.770226038315145e-06
-0.0002073049289152093   4.037979257593208e-05   6.770226038315145e-06
-0.00017440582134293044   3.876862509797664e-05   0.00010140540566315904
-0.00017440582134293044   3.876862509797664e-05   0.00010140540566315904
-0.00017440582134293044   3.876862509797664e-05   0.00010140540566315904
-0.00017440582134293044   3.876862509797664e-05   0.00010140540566315904
-0.00026407117437079347   4.033850835559374e-05   -4.709491942870821e-05
-0.00026407117437079347   4.033850835559374e-05   -4.709491942870821e-05
-0.00026407117437079347   4.033850835559374e-05   -4.709491942870821e-05
-0.00026407117437079347   4.033850835559374e-05   -4.709491942870821e-05
-0.00027222987736439275   3.775401825093297e-05   0.00012563781634158337
-0.00027222987736439275   3.775401825093297e-05   0.00012563781634158337
-0.00027222987736439275   3.775401825093297e-05   0.00012563781634158337
-0.00027222987736439275   3.775401825093297e-05   0.00012563781634158337
-0.00018008585252936294   4.0040279244273405e-05   -2.9307314979469708e-05
-0.00018008585252936294   4.0040279244273405e-05   -2.9307314979469708e-05
-0.00018008585252936294   4.0040279244273405e-05   -2.9307314979469708e-05
-0.00018008585252936294   4.0040279244273405e-05   -2.9307314979469708e-05
-0.0002168012372021542   4.035329681895648e-05   3.1697182263709135e-05
-0.0002168012372021542   4.035329681895648e-05   3.1697182263709135e-05
-0.0002168012372021542   4.035329681895648e-05   3.1697182263709135e-05
-0.0002168012372021542   4.035329681895648e-05   3.1697182263709135e-05
-0.00018008585252936294   3.775401825093297e-05   0.00012426605974558136
-0.00018008585252936294   3.775401825093297e-05   0.00012426605974558136
-0.00018008585252936294   3.775401825093297e-05   0.00012426605974558136
-0.00018008585252936294   3.775401825093297e-05   0.00012426605974558136
-0.00027222987736439275   4.004027924427254e-05   -2.7935558383467268e-05
-0.00027222987736439275   4.004027924427254e-05   -2.7935558383467268e-05
-0.00027222987736439275   4.004027924427254e-05   -2.7935558383467268e-05
-0.00027222987736439275   4.004027924427254e-05   -2.7935558383467268e-05
-0.00028184796345391506   3.13549235823659e-05   0.00016456805207291057
-0.00028184796345391506   3.13549235823659e-05   0.00016456805207291057
-0.00028184796345391506   3.13549235823659e-05   0.00016456805207291057
-0.00028184796345391506   3.13549235823659e-05   0.00016456805207291057
-0.00018610080755181234   3.6836611034106286e-05   1.7004464316959598e-06
-0.00018610080755181234   3.6836611034106286e-05   1.7004464316959598e-06
-0.00018610080755181234   3.6836611034106286e-05   1.7004464316959598e-06
-0.00018610080755181234   3.6836611034106286e-05   1.7004464316959598e-06
-0.00022026804867242327   3.842041085827183e-05   5.769556840488259e-05
-0.00022026804867242327   3.842041085827183e-05   5.769556840488259e-05
-0.00022026804867242327   3.842041085827183e-05   5.769556840488259e-05
-0.00022026804867242327   3.842041085827183e-05   5.769556840488259e-05
0.00017049373821347754   -2.3873448328253638e-05   0.00013195065484280805
0.00017049373821347754   -2.3873448328253638e-05   0.00013195065484280805
0.00017049373821347754   -2.3873448328253638e-05   0.00013195065484280805
0.00017049373821347754   -2.3873448328253638e-05   0.00013195065484280805
8.448346702068184e-05   -1.7440577354194478e-05   -7.5400745607502595e-06
8.448346702068184e-05   -1.7440577354194478e-05   -7.5400745607502595e-06
8.448346702068184e-05   -1.7440577354194478e-05   -7.5400745607502595e-06
8.448346702068184e-05   -1.7440577354194478e-05   -7.5400745607502595e-06
8.121224639970123e-05   -2.7079420669557513e-05   0.00011480215965467468
8.121224639970123e-05   -2.7079420669557513e-05   0.00011480215965467468
8.121224639970123e-05   -2.7079420669557513e-05   0.00011480215965467468
8.121224639970123e-05   -2.7079420669557513e-05   0.00011480215965467468
0.00016447409470395094   -2.025545429703169e-05   -2.8061967342589075e-05
0.00016447409470395094   -2.025545429703169e-05   -2.8061967342589075e-05
0.00016447409470395094   -2.025545429703169e-05   -2.8061967342589075e-05
0.00016447409470395094   -2.025545429703169e-05   -2.8061967342589075e-05
0.0001194341936265158   -2.1936850822144686e-05   4.8013372368202505e-05
0.0001194341936265158   -2.1936850822144686e-05   4.8013372368202505e-05
0.0001194341936265158   -2.1936850822144686e-05   4.8013372368202505e-05
0.0001194341936265158   -2.1936850822144686e-05   4.8013372368202505e-05
0.00016447409470395067   -2.7079420669557513e-05   0.00011070777983115954
0.00016447409470395067   -2.7079420669557513e-05   0.00011070777983115954
0.00016447409470395067   -2.7079420669557513e-05   0.00011070777983115954
0.00016447409470395067   -2.7079420669557513e-05   0.00011070777983115954
8.121224639970147e-05   -2.025545429703169e-05   -2.3967587519073928e-05
8.121224639970147e-05   -2.025545429703169e-05   -2.3967587519073928e-05
8.121224639970147e-05   -2.025545429703169e-05   -2.3967587519073928e-05
8.121224639970147e-05   -2.025545429703169e-05   -2.3967587519073928e-05
7.757944011222762e-05   -2.7561195074132794e-05   0.00010292190997210175
7.757944011222762e-05   -2.7561195074132794e-05   0.00010292190997210175
7.757944011222762e-05   -2.7561195074132794e-05   0.00010292190997210175
7.757944011222762e-05   -2.7561195074132794e-05   0.00010292190997210175
0.00015902759323383248   -2.0824549547905462e-05   -3.686699921297393e-05
0.00015902759323383248   -2.0824549547905462e-05   -3.686699921297393e-05
0.00015902759323383248   -2.0824549547905462e-05   -3.686699921297393e-05
0.00015902759323383248   -2.0824549547905462e-05   -3.686699921297393e-05
0.000117145090785783   -2.3026097692431177e-05   3.4258100420489046e-05
0.000117145090785783   -2.3026097692431177e-05   3.4258100420489046e-05
0.000117145090785783   -2.3026097692431177e-05   3.4258100420489046e-05
0.000117145090785783   -2.3026097692431177e-05   3.4258100420489046e-05
0.00015902759323383194   -2.756119507413106e-05   9.887992265636674e-05
0.00015902759323383194   -2.756119507413106e-05   9.887992265636674e-05
0.00015902759323383194   -2.756119507413106e-05   9.887992265636674e-05
0.00015902759323383194   -2.756119507413106e-05   9.887992265636674e-05
7.757944011222776e-05   -2.0824549547905462e-05   -3.282501189723862e-05
7.757944011222776e-05   -2.0824549547905462e-05   -3.282501189723862e-05
7.757944011222776e-05   -2.0824549547905462e-05   -3.282501189723862e-05
7.757944011222776e-05   -2.0824549547905462e-05   -3.282501189723862e-05
7.408740879624341e-05   -2.7410139439711795e-05   8.638482869070731e-05
7.408740879624341e-05   -2.7410139439711795e-05   8.638482869070731e-05
7.408740879624341e-05   -2.7410139439711795e-05   8.638482869070731e-05
7.408740879624341e-05   -2.7410139439711795e-05   8.638482869070731e-05
0.00015286319682094904   -2.1072926031399583e-05   -4.871047939545377e-05
0.00015286319682094904   -2.1072926031399583e-05   -4.871047939545377e-05
0.00015286319682094904   -2.1072926031399583e-05   -4.871047939545377e-05
0.00015286319682094904   -2.1072926031399583e-05   -4.871047939545377e-05
0.00011106613215676062   -2.2644443177529013e-05   2.1894205332540607e-05
0.00011106613215676062   -2.2644443177529013e-05   2.1894205332540607e-05
0.00011106613215676062   -2.2644443177529013e-05   2.1894205332540607e-05
0.00011106613215676062   -2.2644443177529013e-05   2.1894205332540607e-05
8.448346702068184e-05   -8.451744484855306e-06   0.0001388457900103838
8.448346702068184e-05   -8.451744484855306e-06   0.0001388457900103838
8.448346702068184e-05   -8.451744484855306e-06   0.0001388457900103838
8.448346702068184e-05   -8.451744484855306e-06   0.0001388457900103838
3.75346943605687e-06   -3.328600656001858e-06   7.3696803333227895e-06
3.75346943605687e-06   -3.328600656001858e-06   7.3696803333227895e-06
3.75346943605687e-06   -3.328600656001858e-06   7.3696803333227895e-06
3.75346943605687e-06   -3.328600656001858e-06   7.3696803333227895e-06
6.154576476543445e-07   -1.0179607344751665e-05   0.00014031734016889917
6.154576476543445e-07   -1.0179607344751665e-05   0.00014031734016889917
6.154576476543445e-07   -1.0179607344751665e-05   0.00014031734016889917
6.154576476543445e-07   -1.0179607344751665e-05   0.00014031734016889917
8.121224639970147e-05   -5.329200137148271e-06   3.0791145909249266e-06
8.121224639970147e-05   -5.329200137148271e-06   3.0791145909249266e-06
8.121224639970147e-05   -5.329200137148271e-06   3.0791145909249266e-06
8.121224639970147e-05   -5.329200137148271e-06   3.0791145909249266e-06
4.20015207360503e-05   -6.567324121270479e-06   6.9173198420817e-05
4.20015207360503e-05   -6.567324121270479e-06   6.9173198420817e-05
4.20015207360503e-05   -6.567324121270479e-06   6.9173198420817e-05
4.20015207360503e-05   -6.567324121270479e-06   6.9173198420817e-05
8.121224639970142e-05   -1.017960734474993e-05   0.00013740709584433592
8.121224639970142e-05   -1.017960734474993e-05   0.00013740709584433592
8.121224639970142e-05   -1.017960734474993e-05   0.00013740709584433592
8.121224639970142e-05   -1.017960734474993e-05   0.00013740709584433592
6.154576476543445e-07   -5.329200137148271e-06   5.989358915486388e-06
6.154576476543445e-07   -5.329200137148271e-06   5.989358915486388e-06
6.154576476543445e-07   -5.329200137148271e-06   5.989358915486388e-06
6.154576476543445e-07   -5.329200137148271e-06   5.989358915486388e-06
-2.6461380782214655e-06   -1.1319592275363388e-05   0.00013823621478838317
-2.6461380782214655e-06   -1.1319592275363388e-05   0.00013823621478838317
-2.6461380782214655e-06   -1.1319592275363388e-05   0.00013823621478838317
-2.6461380782214655e-06   -1.1319592275363388e-05   0.00013823621478838317
7.757944011222776e-05   -6.821143864713282e-06   1.8278487579113196e-06
7.757944011222776e-05   -6.821143864713282e-06   1.8278487579113196e-06
7.757944011222776e-05   -6.821143864713282e-06   1.8278487579113196e-06
7.757944011222776e-05   -6.821143864713282e-06   1.8278487579113196e-06
3.840446741250266e-05   -7.618148611581409e-06   6.759767277224251e-05
3.840446741250266e-05   -7.618148611581409e-06   6.759767277224251e-05
3.840446741250266e-05   -7.618148611581409e-06   6.759767277224251e-05
3.840446741250266e-05   -7.618148611581409e-06   6.759767277224251e-05
7.757944011222762e-05   -1.1319592275363388e-05   0.00013553714574199294
7.757944011222762e-05   -1.1319592275363388e-05   0.00013553714574199294
7.757944011222762e-05   -1.1319592275363388e-05   0.00013553714574199294
7.757944011222762e-05   -1.1319592275363388e-05   0.00013553714574199294
-2.6461380782214655e-06   -6.821143864713282e-06   4.526917804301665e-06
-2.6461380782214655e-06   -6.821143864713282e-06   4.526917804301665e-06
-2.6461380782214655e-06   -6.821143864713282e-06   4.526917804301665e-06
-2.6461380782214655e-06   -6.821143864713282e-06   4.526917804301665e-06
-6.041623817973493e-06   -1.181810496542722e-05   0.00013933216318703142
-6.041623817973493e-06   -1.181810496542722e-05   0.00013933216318703142
-6.041623817973493e-06   -1.181810496542722e-05   0.00013933216318703142
-6.041623817973493e-06   -1.181810496542722e-05   0.00013933216318703142
7.408740879624363e-05   -8.00504482305342e-06   3.4959394112460645e-06
7.408740879624363e-05   -8.00504482305342e-06   3.4959394112460645e-06
7.408740879624363e-05   -8.00504482305342e-06   3.4959394112460645e-06
7.408740879624363e-05   -8.00504482305342e-06   3.4959394112460645e-06
3.569081808115233e-05   -8.189417232929222e-06   6.760088071566025e-05
3.569081808115233e-05   -8.189417232929222e-06   6.760088071566025e-05
3.569081808115233e-05   -8.189417232929222e-06   6.760088071566025e-05
3.569081808115233e-05   -8.189417232929222e-06   6.760088071566025e-05
3.75346943605687e-06   7.450495476913829e-06   0.00014340331922859002
3.75346943605687e-06   7.450495476913829e-06   0.00014340331922859002
3.75346943605687e-06   7.450495476913829e-06   0.00014340331922859002
3.75346943605687e-06   7.450495476913829e-06   0.00014340331922859002
-7.460285279086646e-05   1.086126944741233e-05   1.4855913232683302e-05
-7.460285279086646e-05   1.086126944741233e-05   1.4855913232683302e-05
-7.460285279086646e-05   1.086126944741233e-05   1.4855913232683302e-05
-7.460285279086646e-05   1.086126944741233e-05   1.4855913232683302e-05
-7.788026180274561e-05   6.119033204186539e-06   0.00014539322868291696
-7.788026180274561e-05   6.119033204186539e-06   0.00014539322868291696
-7.788026180274561e-05   6.119033204186539e-06   0.00014539322868291696
-7.788026180274561e-05   6.119033204186539e-06   0.00014539322868291696
6.154576476543445e-07   9.18983216253999e-06   1.2724550223905048e-05
6.154576476543445e-07   9.18983216253999e-06   1.2724550223905048e-05
6.154576476543445e-07   9.18983216253999e-06   1.2724550223905048e-05
6.154576476543445e-07   9.18983216253999e-06   1.2724550223905048e-05
-3.7086407916028e-05   8.506943698834493e-06   7.597072590826695e-05
-3.7086407916028e-05   8.506943698834493e-06   7.597072590826695e-05
-3.7086407916028e-05   8.506943698834493e-06   7.597072590826695e-05
-3.7086407916028e-05   8.506943698834493e-06   7.597072590826695e-05
6.154576476543445e-07   6.119033204186539e-06   0.0001435507493079049
6.154576476543445e-07   6.119033204186539e-06   0.0001435507493079049
6.154576476543445e-07   6.119033204186539e-06   0.0001435507493079049
6.154576476543445e-07   6.119033204186539e-06   0.0001435507493079049
-7.788026180274561e-05   9.18983216253999e-06   1.4567029598917987e-05
-7.788026180274561e-05   9.18983216253999e-06   1.4567029598917987e-05
-7.788026180274561e-05   9.18983216253999e-06   1.4567029598917987e-05
-7.788026180274561e-05   9.18983216253999e-06   1.4567029598917987e-05
-8.13428856617902e-05   4.879521017528768e-06   0.00014678243849493896
-8.13428856617902e-05   4.879521017528768e-06   0.00014678243849493896
-8.13428856617902e-05   4.879521017528768e-06   0.00014678243849493896
-8.13428856617902e-05   4.879521017528768e-06   0.00014678243849493896
-2.6461380782214655e-06   7.566565387751023e-06   1.4008965900190158e-05
-2.6461380782214655e-06   7.566565387751023e-06   1.4008965900190158e-05
-2.6461380782214655e-06   7.566565387751023e-06   1.4008965900190158e-05
-2.6461380782214655e-06   7.566565387751023e-06   1.4008965900190158e-05
-4.0132124371681155e-05   7.549046890643202e-06   7.649612082088727e-05
-4.0132124371681155e-05   7.549046890643202e-06   7.649612082088727e-05
-4.0132124371681155e-05   7.549046890643202e-06   7.649612082088727e-05
-4.0132124371681155e-05   7.549046890643202e-06   7.649612082088727e-05
-2.6461380782214655e-06   4.879521017527033e-06   0.0001451702118728049
-2.6461380782214655e-06   4.879521017527033e-06   0.0001451702118728049
-2.6461380782214655e-06   4.879521017527033e-06   0.0001451702118728049
-2.6461380782214655e-06   4.879521017527033e-06   0.0001451702118728049
-8.13428856617903e-05   7.566565387751023e-06   1.562119252232312e-05
-8.13428856617903e-05   7.566565387751023e-06   1.562119252232312e-05
-8.13428856617903e-05   7.566565387751023e-06   1.562119252232312e-05
-8.13428856617903e-05   7.566565387751023e-06   1.562119252232312e-05
-8.491702887514576e-05   3.9844768385810525e-06   0.00014898737954291592
-8.491702887514576e-05   3.9844768385810525e-06   0.00014898737954291592
-8.491702887514576e-05   3.9844768385810525e-06   0.00014898737954291592
-8.491702887514576e-05   3.9844768385810525e-06   0.00014898737954291592
-6.041623817973493e-06   6.1212436559439365e-06   1.6246311023879645e-05
-6.041623817973493e-06   6.1212436559439365e-06   1.6246311023879645e-05
-6.041623817973493e-06   6.1212436559439365e-06   1.6246311023879645e-05
-6.041623817973493e-06   6.1212436559439365e-06   1.6246311023879645e-05
-4.342792578834433e-05   6.630589518876948e-06   7.825120679007366e-05
-4.342792578834433e-05   6.630589518876948e-06   7.825120679007366e-05
-4.342792578834433e-05   6.630589518876948e-06   7.825120679007366e-05
-4.342792578834433e-05   6.630589518876948e-06   7.825120679007366e-05
-7.460285279086679e-05   2.4350769003523426e-05   0.00012499569586524057
-7.460285279086679e-05   2.4350769003523426e-05   0.00012499569586524057
-7.460285279086679e-05   2.4350769003523426e-05   0.00012499569586524057
-7.460285279086679e-05   2.4350769003523426e-05   0.00012499569586524057
-0.00015042295711975844   2.4657371347870834e-05   -1.1871832763053064e-06
-0.00015042295711975844   2.4657371347870834e-05   -1.1871832763053064e-06
-0.00015042295711975844   2.4657371347870834e-05   -1.1871832763053064e-06
-0.00015042295711975844   2.4657371347870834e-05   -1.1871832763053064e-06
-0.0001542286806110139   2.3010960975882594e-05   0.00012718611990649407
-0.0001542286806110139   2.3010960975882594e-05   0.00012718611990649407
-0.0001542286806110139   2.3010960975882594e-05   0.00012718611990649407
-0.0001542286806110139   2.3010960975882594e-05   0.00012718611990649407
-7.788026180274572e-05   2.3055287710709547e-05   -8.784081484912963e-08
-7.788026180274572e-05   2.3055287710709547e-05   -8.784081484912963e-08
-7.788026180274572e-05   2.3055287710709547e-05   -8.784081484912963e-08
-7.788026180274572e-05   2.3055287710709547e-05   -8.784081484912963e-08
-0.0001137726635551249   2.371982073015068e-05   5.9334108960785786e-05
-0.0001137726635551249   2.371982073015068e-05   5.9334108960785786e-05
-0.0001137726635551249   2.371982073015068e-05   5.9334108960785786e-05
-0.0001137726635551249   2.371982073015068e-05   5.9334108960785786e-05
-7.788026180274572e-05   2.3010960975882594e-05   0.00012715952386559756
-7.788026180274572e-05   2.3010960975882594e-05   0.00012715952386559756
-7.788026180274572e-05   2.3010960975882594e-05   0.00012715952386559756
-7.788026180274572e-05   2.3010960975882594e-05   0.00012715952386559756
-0.00015422868061101358   2.3055287710709547e-05   -6.12447739528274e-08
-0.00015422868061101358   2.3055287710709547e-05   -6.12447739528274e-08
-0.00015422868061101358   2.3055287710709547e-05   -6.12447739528274e-08
-0.00015422868061101358   2.3055287710709547e-05   -6.12447739528274e-08
-0.00015844992090133258   2.1776435448025988e-05   0.00013309563219506687
-0.00015844992090133258   2.1776435448025988e-05   0.00013309563219506687
-0.00015844992090133258   2.1776435448025988e-05   0.00013309563219506687
-0.00015844992090133258   2.1776435448025988e-05   0.00013309563219506687
-8.13428856617903e-05   2.1583497404268313e-05   4.699669622082762e-06
-8.13428856617903e-05   2.1583497404268313e-05   4.699669622082762e-06
-8.13428856617903e-05   2.1583497404268313e-05   4.699669622082762e-06
-8.13428856617903e-05   2.1583497404268313e-05   4.699669622082762e-06
-0.00011653470331354201   2.2811599490685577e-05   6.261583778981953e-05
-0.00011653470331354201   2.2811599490685577e-05   6.261583778981953e-05
-0.00011653470331354201   2.2811599490685577e-05   6.261583778981953e-05
-0.00011653470331354201   2.2811599490685577e-05   6.261583778981953e-05
-8.13428856617902e-05   2.1776435448024253e-05   0.00013321139502131974
-8.13428856617902e-05   2.1776435448024253e-05   0.00013321139502131974
-8.13428856617902e-05   2.1776435448024253e-05   0.00013321139502131974
-8.13428856617902e-05   2.1776435448024253e-05   0.00013321139502131974
-0.00015844992090133236   2.1583497404268313e-05   4.5839067958292415e-06
-0.00015844992090133236   2.1583497404268313e-05   4.5839067958292415e-06
-0.00015844992090133236   2.1583497404268313e-05   4.5839067958292415e-06
-0.00015844992090133236   2.1583497404268313e-05   4.5839067958292415e-06
-0.00016247491584132662   2.0122094475778785e-05   0.00013738470931043759
-0.00016247491584132662   2.0122094475778785e-05   0.00013738470931043759
-0.00016247491584132662   2.0122094475778785e-05   0.00013738470931043759
-0.00016247491584132662   2.0122094475778785e-05   0.00013738470931043759
-8.491702887514598e-05   1.9790773360719646e-05   8.320357035838423e-06
-8.491702887514598e-05   1.9790773360719646e-05   8.320357035838423e-06
-8.491702887514598e-05   1.9790773360719646e-05   8.320357035838423e-06
-8.491702887514598e-05   1.9790773360719646e-05   8.320357035838423e-06
-0.0001209050932901667   2.163867281008286e-05   6.7191724724594e-05
-0.0001209050932901667   2.163867281008286e-05   6.7191724724594e-05
-0.0001209050932901667   2.163867281008286e-05   6.7191724724594e-05
-0.0001209050932901667   2.163867281008286e-05   6.7191724724594e-05
-0.00015042295711975811   3.960202953477883e-05   5.999807923523937e-05
-0.00015042295711975811   3.960202953477883e-05   5.999807923523937e-05
-0.00015042295711975811   3.960202953477883e-05   5.999807923523937e-05
-0.00015042295711975811   3.960202953477883e-05   5.999807923523937e-05
-0.00022234632142168484   3.544154876310851e-05   -6.237048306430727e-05
-0.00022234632142168484   3.544154876310851e-05   -6.237048306430727e-05
-0.00022234632142168484   3.544154876310851e-05   -6.237048306430727e-05
-0.00022234632142168484   3.544154876310851e-05   -6.237048306430727e-05
-0.00022833804216952603   4.033850835559374e-05   8.30500858248727e-05
-0.00022833804216952603   4.033850835559374e-05   8.30500858248727e-05
-0.00022833804216952603   4.033850835559374e-05   8.30500858248727e-05
-0.00022833804216952603   4.033850835559374e-05   8.30500858248727e-05
-0.0001542286806110139   3.579835635439746e-05   -3.774142557193033e-05
-0.0001542286806110139   3.579835635439746e-05   -3.774142557193033e-05
-0.0001542286806110139   3.579835635439746e-05   -3.774142557193033e-05
-0.0001542286806110139   3.579835635439746e-05   -3.774142557193033e-05
-0.00018160650595211534   3.7585847512861675e-05   6.81578863482679e-06
-0.00018160650595211534   3.7585847512861675e-05   6.81578863482679e-06
-0.00018160650595211534   3.7585847512861675e-05   6.81578863482679e-06
-0.00018160650595211534   3.7585847512861675e-05   6.81578863482679e-06
-0.00015422868061101347   4.0338508355594604e-05   8.577417702559063e-05
-0.00015422868061101347   4.0338508355594604e-05   8.577417702559063e-05
-0.00015422868061101347   4.0338508355594604e-05   8.577417702559063e-05
-0.00015422868061101347   4.0338508355594604e-05   8.577417702559063e-05
-0.00022833804216952668   3.579835635439746e-05   -4.046551677264806e-05
-0.00022833804216952668   3.579835635439746e-05   -4.046551677264806e-05
-0.00022833804216952668   3.579835635439746e-05   -4.046551677264806e-05
-0.00022833804216952668   3.579835635439746e-05   -4.046551677264806e-05
-0.00023419355288136737   4.004027924427167e-05   0.0001010552131641999
-0.00023419355288136737   4.004027924427167e-05   0.0001010552131641999
-0.00023419355288136737   4.004027924427167e-05   0.0001010552131641999
-0.00023419355288136737   4.004027924427167e-05   0.0001010552131641999
-0.00015844992090133258   3.539899560862925e-05   -2.2399403287807216e-05
-0.00015844992090133258   3.539899560862925e-05   -2.2399403287807216e-05
-0.00015844992090133258   3.539899560862925e-05   -2.2399403287807216e-05
-0.00015844992090133258   3.539899560862925e-05   -2.2399403287807216e-05
-0.00018893384049826632   3.826448989343017e-05   2.6687832802871868e-05
-0.00018893384049826632   3.826448989343017e-05   2.6687832802871868e-05
-0.00018893384049826632   3.826448989343017e-05   2.6687832802871868e-05
-0.00018893384049826632   3.826448989343017e-05   2.6687832802871868e-05
-0.00015844992090133258   4.0040279244273405e-05   0.00010383998334558605
-0.00015844992090133258   4.0040279244273405e-05   0.00010383998334558605
-0.00015844992090133258   4.0040279244273405e-05   0.00010383998334558605
-0.00015844992090133258   4.0040279244273405e-05   0.00010383998334558605
-0.00023419355288136834   3.539899560862925e-05   -2.5184173469193147e-05
-0.00023419355288136834   3.539899560862925e-05   -2.5184173469193147e-05
-0.00023419355288136834   3.539899560862925e-05   -2.5184173469193147e-05
-0.00023419355288136834   3.539899560862925e-05   -2.5184173469193147e-05
-0.0002410370193126443   3.6836611034106286e-05   0.0001319322175701151
-0.0002410370193126443   3.6836611034106286e-05   0.0001319322175701151
-0.0002410370193126443   3.6836611034106286e-05   0.0001319322175701151
-0.0002410370193126443   3.6836611034106286e-05   0.0001319322175701151
-0.00016247491584132662   3.2655837747768215e-05   3.5038424230531603e-06
-0.00016247491584132662   3.2655837747768215e-05   3.5038424230531603e-06
-0.00016247491584132662   3.2655837747768215e-05   3.5038424230531603e-06
-0.00016247491584132662   3.2655837747768215e-05   3.5038424230531603e-06
-0.0001908461763213089   3.713393536607969e-05   4.81024179853737e-05
-0.0001908461763213089   3.713393536607969e-05   4.81024179853737e-05
-0.0001908461763213089   3.713393536607969e-05   4.81024179853737e-05
-0.0001908461763213089   3.713393536607969e-05   4.81024179853737e-05
0.0001289706506210297   -1.7440577354194478e-05   0.00010983917135745126
0.0001289706506210297   -1.7440577354194478e-05   0.00010983917135745126
0.0001289706506210297   -1.7440577354194478e-05   0.00010983917135745126
0.0001289706506210297   -1.7440577354194478e-05   0.00010983917135745126
6.0757362765269987e-05   -1.1469492649670253e-05   -2.6699091276727316e-07
6.0757362765269987e-05   -1.1469492649670253e-05   -2.6699091276727316e-07
6.0757362765269987e-05   -1.1469492649670253e-05   -2.6699091276727316e-07
6.0757362765269987e-05   -1.1469492649670253e-05   -2.6699091276727316e-07
5.7839631433358874e-05   -2.025545429703169e-05   9.65602728188273e-05
5.7839631433358874e-05   -2.025545429703169e-05   9.65602728188273e-05
5.7839631433358874e-05   -2.025545429703169e-05   9.65602728188273e-05
5.7839631433358874e-05   -2.025545429703169e-05   9.65602728188273e-05
0.000123328682906771   -1.3941696378937107e-05   -1.6376401054383843e-05
0.000123328682906771   -1.3941696378937107e-05   -1.6376401054383843e-05
0.000123328682906771   -1.3941696378937107e-05   -1.6376401054383843e-05
0.000123328682906771   -1.3941696378937107e-05   -1.6376401054383843e-05
8.836055379139396e-05   -1.590102228613173e-05   4.307940968222902e-05
8.836055379139396e-05   -1.590102228613173e-05   4.307940968222902e-05
8.836055379139396e-05   -1.590102228613173e-05   4.307940968222902e-05
8.836055379139396e-05   -1.590102228613173e-05   4.307940968222902e-05
0.000123328682906771   -2.0255454297032557e-05   9.277201806797038e-05
0.000123328682906771   -2.0255454297032557e-05   9.277201806797038e-05
0.000123328682906771   -2.0255454297032557e-05   9.277201806797038e-05
0.000123328682906771   -2.0255454297032557e-05   9.277201806797038e-05
5.783963143335898e-05   -1.3941696378937107e-05   -1.2588146303525727e-05
5.783963143335898e-05   -1.3941696378937107e-05   -1.2588146303525727e-05
5.783963143335898e-05   -1.3941696378937107e-05   -1.2588146303525727e-05
5.783963143335898e-05   -1.3941696378937107e-05   -1.2588146303525727e-05
5.462234847555301e-05   -2.0824549547905462e-05   8.722114512270569e-05
5.462234847555301e-05   -2.0824549547905462e-05   8.722114512270569e-05
5.462234847555301e-05   -2.0824549547905462e-05   8.722114512270569e-05
5.462234847555301e-05   -2.0824549547905462e-05   8.722114512270569e-05
0.00011838813334650575   -1.4605256214319726e-05   -2.278673899570161e-05
0.00011838813334650575   -1.4605256214319726e-05   -2.278673899570161e-05
0.00011838813334650575   -1.4605256214319726e-05   -2.278673899570161e-05
0.00011838813334650575   -1.4605256214319726e-05   -2.278673899570161e-05
8.600068666017812e-05   -1.6902315401898238e-05   3.25705743273938e-05
8.600068666017812e-05   -1.6902315401898238e-05   3.25705743273938e-05
8.600068666017812e-05   -1.6902315401898238e-05   3.25705743273938e-05
8.600068666017812e-05   -1.6902315401898238e-05   3.25705743273938e-05
0.00011838813334650553   -2.082454954790633e-05   8.348956912255286e-05
0.00011838813334650553   -2.082454954790633e-05   8.348956912255286e-05
0.00011838813334650553   -2.082454954790633e-05   8.348956912255286e-05
0.00011838813334650553   -2.082454954790633e-05   8.348956912255286e-05
5.4622348475553094e-05   -1.4605256214319726e-05   -1.9055162995548942e-05
5.4622348475553094e-05   -1.4605256214319726e-05   -1.9055162995548942e-05
5.4622348475553094e-05   -1.4605256214319726e-05   -1.9055162995548942e-05
5.4622348475553094e-05   -1.4605256214319726e-05   -1.9055162995548942e-05
5.165341479907771e-05   -2.1072926031399583e-05   7.460189477238258e-05
5.165341479907771e-05   -2.1072926031399583e-05   7.460189477238258e-05
5.165341479907771e-05   -2.1072926031399583e-05   7.460189477238258e-05
5.165341479907771e-05   -2.1072926031399583e-05   7.460189477238258e-05
0.00011287398323017168   -1.5239833884806049e-05   -3.093224123406333e-05
0.00011287398323017168   -1.5239833884806049e-05   -3.093224123406333e-05
0.00011287398323017168   -1.5239833884806049e-05   -3.093224123406333e-05
0.00011287398323017168   -1.5239833884806049e-05   -3.093224123406333e-05
8.086558776296404e-05   -1.6812948887492615e-05   2.3358953546230137e-05
8.086558776296404e-05   -1.6812948887492615e-05   2.3358953546230137e-05
8.086558776296404e-05   -1.6812948887492615e-05   2.3358953546230137e-05
8.086558776296404e-05   -1.6812948887492615e-05   2.3358953546230137e-05
6.075736276526978e-05   -3.3286006560009906e-06   0.0001252576907769254
6.075736276526978e-05   -3.3286006560009906e-06   0.0001252576907769254
6.075736276526978e-05   -3.3286006560009906e-06   0.0001252576907769254
6.075736276526978e-05   -3.3286006560009906e-06   0.0001252576907769254
-3.831178108305486e-06   -2.8936382070847422e-08   1.958992121865906e-05
-3.831178108305486e-06   -2.8936382070847422e-08   1.958992121865906e-05
-3.831178108305486e-06   -2.8936382070847422e-08   1.958992121865906e-05
-3.831178108305486e-06   -2.8936382070847422e-08   1.958992121865906e-05
-6.572473041538494e-06   -5.329200137148271e-06   0.00012549361419726592
-6.572473041538494e-06   -5.329200137148271e-06   0.00012549361419726592
-6.572473041538494e-06   -5.329200137148271e-06   0.00012549361419726592
-6.572473041538494e-06   -5.329200137148271e-06   0.00012549361419726592
5.783963143335898e-05   -2.184801356414079e-06   1.6253467470664183e-05
5.783963143335898e-05   -2.184801356414079e-06   1.6253467470664183e-05
5.783963143335898e-05   -2.184801356414079e-06   1.6253467470664183e-05
5.783963143335898e-05   -2.184801356414079e-06   1.6253467470664183e-05
2.661110768003691e-05   -2.7952498189882935e-06   6.866727613707849e-05
2.661110768003691e-05   -2.7952498189882935e-06   6.866727613707849e-05
2.661110768003691e-05   -2.7952498189882935e-06   6.866727613707849e-05
2.661110768003691e-05   -2.7952498189882935e-06   6.866727613707849e-05
5.7839631433358846e-05   -5.329200137147404e-06   0.0001236069749288261
5.7839631433358846e-05   -5.329200137147404e-06   0.0001236069749288261
5.7839631433358846e-05   -5.329200137147404e-06   0.0001236069749288261
5.7839631433358846e-05   -5.329200137147404e-06   0.0001236069749288261
-6.572473041538494e-06   -2.184801356414079e-06   1.8140106739104357e-05
-6.572473041538494e-06   -2.184801356414079e-06   1.8140106739104357e-05
-6.572473041538494e-06   -2.184801356414079e-06   1.8140106739104357e-05
-6.572473041538494e-06   -2.184801356414079e-06   1.8140106739104357e-05
-9.371364241443961e-06   -6.821143864713282e-06   0.00012363302366076145
-9.371364241443961e-06   -6.821143864713282e-06   0.00012363302366076145
-9.371364241443961e-06   -6.821143864713282e-06   0.00012363302366076145
-9.371364241443961e-06   -6.821143864713282e-06   0.00012363302366076145
5.4622348475553094e-05   -3.889447393200587e-06   1.5217817916193718e-05
5.4622348475553094e-05   -3.889447393200587e-06   1.5217817916193718e-05
5.4622348475553094e-05   -3.889447393200587e-06   1.5217817916193718e-05
5.4622348475553094e-05   -3.889447393200587e-06   1.5217817916193718e-05
2.354115212851913e-05   -4.128516203650949e-06   6.71632531141912e-05
2.354115212851913e-05   -4.128516203650949e-06   6.71632531141912e-05
2.354115212851913e-05   -4.128516203650949e-06   6.71632531141912e-05
2.354115212851913e-05   -4.128516203650949e-06   6.71632531141912e-05
5.462234847555301e-05   -6.8211438647124145e-06   0.00012187400577785574
5.462234847555301e-05   -6.8211438647124145e-06   0.00012187400577785574
5.462234847555301e-05   -6.8211438647124145e-06   0.00012187400577785574
5.462234847555301e-05   -6.8211438647124145e-06   0.00012187400577785574
-9.371364241443961e-06   -3.889447393200587e-06   1.6976835799100212e-05
-9.371364241443961e-06   -3.889447393200587e-06   1.6976835799100212e-05
-9.371364241443961e-06   -3.889447393200587e-06   1.6976835799100212e-05
-9.371364241443961e-06   -3.889447393200587e-06   1.6976835799100212e-05
-1.2184994154187023e-05   -8.00504482305342e-06   0.00012452416567074968
-1.2184994154187023e-05   -8.00504482305342e-06   0.00012452416567074968
-1.2184994154187023e-05   -8.00504482305342e-06   0.00012452416567074968
-1.2184994154187023e-05   -8.00504482305342e-06   0.00012452416567074968
5.165341479907774e-05   -5.474744595295247e-06   1.6608637278654314e-05
5.165341479907774e-05   -5.474744595295247e-06   1.6608637278654314e-05
5.165341479907774e-05   -5.474744595295247e-06   1.6608637278654314e-05
5.165341479907774e-05   -5.474744595295247e-06   1.6608637278654314e-05
2.1188859882824275e-05   -5.121801994637659e-06   6.717112991201765e-05
2.1188859882824275e-05   -5.121801994637659e-06   6.717112991201765e-05
2.1188859882824275e-05   -5.121801994637659e-06   6.717112991201765e-05
2.1188859882824275e-05   -5.121801994637659e-06   6.717112991201765e-05
-3.8311781083055405e-06   1.086126944741233e-05   0.0001326772578583461
-3.8311781083055405e-06   1.086126944741233e-05   0.0001326772578583461
-3.8311781083055405e-06   1.086126944741233e-05   0.0001326772578583461
-3.8311781083055405e-06   1.086126944741233e-05   0.0001326772578583461
-6.706534785629287e-05   1.116765372197702e-05   2.747080550977209e-05
-6.706534785629287e-05   1.116765372197702e-05   2.747080550977209e-05
-6.706534785629287e-05   1.116765372197702e-05   2.747080550977209e-05
-6.706534785629287e-05   1.116765372197702e-05   2.747080550977209e-05
-6.981961171264239e-05   9.18983216253999e-06   0.00013227534815213153
-6.981961171264239e-05   9.18983216253999e-06   0.00013227534815213153
-6.981961171264239e-05   9.18983216253999e-06   0.00013227534815213153
-6.981961171264239e-05   9.18983216253999e-06   0.00013227534815213153
-6.572473041538494e-06   9.267403239950414e-06   2.6816907720511856e-05
-6.572473041538494e-06   9.267403239950414e-06   2.6816907720511856e-05
-6.572473041538494e-06   9.267403239950414e-06   2.6816907720511856e-05
-6.572473041538494e-06   9.267403239950414e-06   2.6816907720511856e-05
-3.6918105254895824e-05   9.94815478430177e-06   7.698451048282983e-05
-3.6918105254895824e-05   9.94815478430177e-06   7.698451048282983e-05
-3.6918105254895824e-05   9.94815478430177e-06   7.698451048282983e-05
-3.6918105254895824e-05   9.94815478430177e-06   7.698451048282983e-05
-6.572473041538494e-06   9.18983216253999e-06   0.00013222880550568545
-6.572473041538494e-06   9.18983216253999e-06   0.00013222880550568545
-6.572473041538494e-06   9.18983216253999e-06   0.00013222880550568545
-6.572473041538494e-06   9.18983216253999e-06   0.00013222880550568545
-6.981961171264239e-05   9.267403239950414e-06   2.6863450366957937e-05
-6.981961171264239e-05   9.267403239950414e-06   2.6863450366957937e-05
-6.981961171264239e-05   9.267403239950414e-06   2.6863450366957937e-05
-6.981961171264239e-05   9.267403239950414e-06   2.6863450366957937e-05
-7.264362716732692e-05   7.566565387751023e-06   0.00013301335361448792
-7.264362716732692e-05   7.566565387751023e-06   0.00013301335361448792
-7.264362716732692e-05   7.566565387751023e-06   0.00013301335361448792
-7.264362716732692e-05   7.566565387751023e-06   0.00013301335361448792
-9.371364241444015e-06   7.397035150813816e-06   2.7661300213512583e-05
-9.371364241444015e-06   7.397035150813816e-06   2.7661300213512583e-05
-9.371364241444015e-06   7.397035150813816e-06   2.7661300213512583e-05
-9.371364241444015e-06   7.397035150813816e-06   2.7661300213512583e-05
-3.947697453563032e-05   8.667890063589201e-06   7.707480442282653e-05
-3.947697453563032e-05   8.667890063589201e-06   7.707480442282653e-05
-3.947697453563032e-05   8.667890063589201e-06   7.707480442282653e-05
-3.947697453563032e-05   8.667890063589201e-06   7.707480442282653e-05
-9.371364241444015e-06   7.566565387751023e-06   0.00013311507175665146
-9.371364241444015e-06   7.566565387751023e-06   0.00013311507175665146
-9.371364241444015e-06   7.566565387751023e-06   0.00013311507175665146
-9.371364241444015e-06   7.566565387751023e-06   0.00013311507175665146
-7.264362716732692e-05   7.397035150812949e-06   2.7559582071349804e-05
-7.264362716732692e-05   7.397035150812949e-06   2.7559582071349804e-05
-7.264362716732692e-05   7.397035150812949e-06   2.7559582071349804e-05
-7.264362716732692e-05   7.397035150812949e-06   2.7559582071349804e-05
-7.54674077091495e-05   6.121243655943069e-06   0.00013468700744659508
-7.54674077091495e-05   6.121243655943069e-06   0.00013468700744659508
-7.54674077091495e-05   6.121243655943069e-06   0.00013468700744659508
-7.54674077091495e-05   6.121243655943069e-06   0.00013468700744659508
-1.2184994154187077e-05   5.621754070336479e-06   2.9516011939688326e-05
-1.2184994154187077e-05   5.621754070336479e-06   2.9516011939688326e-05
-1.2184994154187077e-05   5.621754070336479e-06   2.9516011939688326e-05
-1.2184994154187077e-05   5.621754070336479e-06   2.9516011939688326e-05
-4.2155057023759296e-05   7.419603842533096e-06   7.838740685899308e-05
-4.2155057023759296e-05   7.419603842533096e-06   7.838740685899308e-05
-4.2155057023759296e-05   7.419603842533096e-06   7.838740685899308e-05
-4.2155057023759296e-05   7.419603842533096e-06   7.838740685899308e-05
-6.706534785629287e-05   2.4657371347870834e-05   0.0001166340305074889
-6.706534785629287e-05   2.4657371347870834e-05   0.0001166340305074889
-6.706534785629287e-05   2.4657371347870834e-05   0.0001166340305074889
-6.706534785629287e-05   2.4657371347870834e-05   0.0001166340305074889
-0.0001288521740421436   2.1934035470969407e-05   1.2021985338263753e-05
-0.0001288521740421436   2.1934035470969407e-05   1.2021985338263753e-05
-0.0001288521740421436   2.1934035470969407e-05   1.2021985338263753e-05
-0.0001288521740421436   2.1934035470969407e-05   1.2021985338263753e-05
-0.00013181430341526986   2.3055287710709547e-05   0.00011585271128788759
-0.00013181430341526986   2.3055287710709547e-05   0.00011585271128788759
-0.00013181430341526986   2.3055287710709547e-05   0.00011585271128788759
-0.00013181430341526986   2.3055287710709547e-05   0.00011585271128788759
-6.981961171264239e-05   2.0109010293247083e-05   1.4295991567319895e-05
-6.981961171264239e-05   2.0109010293247083e-05   1.4295991567319895e-05
-6.981961171264239e-05   2.0109010293247083e-05   1.4295991567319895e-05
-6.981961171264239e-05   2.0109010293247083e-05   1.4295991567319895e-05
-9.90608797296543e-05   2.2152602662602223e-05   6.180528284072595e-05
-9.90608797296543e-05   2.2152602662602223e-05   6.180528284072595e-05
-9.90608797296543e-05   2.2152602662602223e-05   6.180528284072595e-05
-9.90608797296543e-05   2.2152602662602223e-05   6.180528284072595e-05
-6.981961171264239e-05   2.3055287710709547e-05   0.00011762047773836506
-6.981961171264239e-05   2.3055287710709547e-05   0.00011762047773836506
-6.981961171264239e-05   2.3055287710709547e-05   0.00011762047773836506
-6.981961171264239e-05   2.3055287710709547e-05   0.00011762047773836506
-0.00013181430341526986   2.0109010293247083e-05   1.25282251168422e-05
-0.00013181430341526986   2.0109010293247083e-05   1.25282251168422e-05
-0.00013181430341526986   2.0109010293247083e-05   1.25282251168422e-05
-0.00013181430341526986   2.0109010293247083e-05   1.25282251168422e-05
-0.0001350775987871911   2.1583497404268313e-05   0.00012018975942875917
-0.0001350775987871911   2.1583497404268313e-05   0.00012018975942875917
-0.0001350775987871911   2.1583497404268313e-05   0.00012018975942875917
-0.0001350775987871911   2.1583497404268313e-05   0.00012018975942875917
-7.264362716732703e-05   1.841337859512064e-05   1.8035211347807757e-05
-7.264362716732703e-05   1.841337859512064e-05   1.8035211347807757e-05
-7.264362716732703e-05   1.841337859512064e-05   1.8035211347807757e-05
-7.264362716732703e-05   1.841337859512064e-05   1.8035211347807757e-05
-0.00010119752542705655   2.0985238902653143e-05   6.40819255961734e-05
-0.00010119752542705655   2.0985238902653143e-05   6.40819255961734e-05
-0.00010119752542705655   2.0985238902653143e-05   6.40819255961734e-05
-0.00010119752542705655   2.0985238902653143e-05   6.40819255961734e-05
-7.264362716732703e-05   2.1583497404268313e-05   0.00012209183071424778
-7.264362716732703e-05   2.1583497404268313e-05   0.00012209183071424778
-7.264362716732703e-05   2.1583497404268313e-05   0.00012209183071424778
-7.264362716732703e-05   2.1583497404268313e-05   0.00012209183071424778
-0.0001350775987871911   1.841337859512064e-05   1.613314006231872e-05
-0.0001350775987871911   1.841337859512064e-05   1.613314006231872e-05
-0.0001350775987871911   1.841337859512064e-05   1.613314006231872e-05
-0.0001350775987871911   1.841337859512064e-05   1.613314006231872e-05
-0.00013806431778246443   1.9790773360719646e-05   0.00012347047901983734
-0.00013806431778246443   1.9790773360719646e-05   0.00012347047901983734
-0.00013806431778246443   1.9790773360719646e-05   0.00012347047901983734
-0.00013806431778246443   1.9790773360719646e-05   0.00012347047901983734
-7.54674077091496e-05   1.6443249446886424e-05   2.11508099126124e-05
-7.54674077091496e-05   1.6443249446886424e-05   2.11508099126124e-05
-7.54674077091496e-05   1.6443249446886424e-05   2.11508099126124e-05
-7.54674077091496e-05   1.6443249446886424e-05   2.11508099126124e-05
-0.00010457559087682293   1.967383786473202e-05   6.772609547469905e-05
-0.00010457559087682293   1.967383786473202e-05   6.772609547469905e-05
-0.00010457559087682293   1.967383786473202e-05   6.772609547469905e-05
-0.00010457559087682293   1.967383786473202e-05   6.772609547469905e-05
-0.0001288521740421436   3.544154876310851e-05   5.6313017656347414e-05
-0.0001288521740421436   3.544154876310851e-05   5.6313017656347414e-05
-0.0001288521740421436   3.544154876310851e-05   5.6313017656347414e-05
-0.0001288521740421436   3.544154876310851e-05   5.6313017656347414e-05
-0.00018740799475249967   3.0164825511228878e-05   -4.444605081204041e-05
-0.00018740799475249967   3.0164825511228878e-05   -4.444605081204041e-05
-0.00018740799475249967   3.0164825511228878e-05   -4.444605081204041e-05
-0.00018740799475249967   3.0164825511228878e-05   -4.444605081204041e-05
-0.0001927256698578898   3.579835635439746e-05   7.469063032325678e-05
-0.0001927256698578898   3.579835635439746e-05   7.469063032325678e-05
-0.0001927256698578898   3.579835635439746e-05   7.469063032325678e-05
-0.0001927256698578898   3.579835635439746e-05   7.469063032325678e-05
-0.00013181430341526986   2.999518940997696e-05   -2.334641358112447e-05
-0.00013181430341526986   2.999518940997696e-05   -2.334641358112447e-05
-0.00013181430341526986   2.999518940997696e-05   -2.334641358112447e-05
-0.00013181430341526986   2.999518940997696e-05   -2.334641358112447e-05
-0.00015410792688578303   3.2376310158305915e-05   1.238095308740022e-05
-0.00015410792688578303   3.2376310158305915e-05   1.238095308740022e-05
-0.00015410792688578303   3.2376310158305915e-05   1.238095308740022e-05
-0.00015410792688578303   3.2376310158305915e-05   1.238095308740022e-05
-0.00013181430341526975   3.579835635439746e-05   7.817253048990943e-05
-0.00013181430341526975   3.579835635439746e-05   7.817253048990943e-05
-0.00013181430341526975   3.579835635439746e-05   7.817253048990943e-05
-0.00013181430341526975   3.579835635439746e-05   7.817253048990943e-05
-0.00019272566985789022   2.999518940997696e-05   -2.68283137477769e-05
-0.00019272566985789022   2.999518940997696e-05   -2.68283137477769e-05
-0.00019272566985789022   2.999518940997696e-05   -2.68283137477769e-05
-0.00019272566985789022   2.999518940997696e-05   -2.68283137477769e-05
-0.00019749227090087103   3.539899560862925e-05   8.959366670748502e-05
-0.00019749227090087103   3.539899560862925e-05   8.959366670748502e-05
-0.00019749227090087103   3.539899560862925e-05   8.959366670748502e-05
-0.00019749227090087103   3.539899560862925e-05   8.959366670748502e-05
-0.0001350775987871911   2.9377691212566052e-05   -1.0818004177678715e-05
-0.0001350775987871911   2.9377691212566052e-05   -1.0818004177678715e-05
-0.0001350775987871911   2.9377691212566052e-05   -1.0818004177678715e-05
-0.0001350775987871911   2.9377691212566052e-05   -1.0818004177678715e-05
-0.0001601931461209074   3.2727008837377634e-05   2.903165080363505e-05
-0.0001601931461209074   3.2727008837377634e-05   2.903165080363505e-05
-0.0001601931461209074   3.2727008837377634e-05   2.903165080363505e-05
-0.0001601931461209074   3.2727008837377634e-05   2.903165080363505e-05
-0.0001350775987871911   3.539899560862925e-05   9.320644934512293e-05
-0.0001350775987871911   3.539899560862925e-05   9.320644934512293e-05
-0.0001350775987871911   3.539899560862925e-05   9.320644934512293e-05
-0.0001350775987871911   3.539899560862925e-05   9.320644934512293e-05
-0.00019749227090087125   2.937769121256692e-05   -1.443078681531533e-05
-0.00019749227090087125   2.937769121256692e-05   -1.443078681531533e-05
-0.00019749227090087125   2.937769121256692e-05   -1.443078681531533e-05
-0.00019749227090087125   2.937769121256692e-05   -1.443078681531533e-05
-0.0002029745163444935   3.2655837747768215e-05   0.00011526054491623958
-0.0002029745163444935   3.2655837747768215e-05   0.00011526054491623958
-0.0002029745163444935   3.2655837747768215e-05   0.00011526054491623958
-0.0002029745163444935   3.2655837747768215e-05   0.00011526054491623958
-0.00013806431778246443   2.666881748135657e-05   1.0669092806037637e-05
-0.00013806431778246443   2.666881748135657e-05   1.0669092806037637e-05
-0.00013806431778246443   2.666881748135657e-05   1.0669092806037637e-05
-0.00013806431778246443   2.666881748135657e-05   1.0669092806037637e-05
-0.00016153799952580415   3.160566843180522e-05   4.682978514133863e-05
-0.00016153799952580415   3.160566843180522e-05   4.682978514133863e-05
-0.00016153799952580415   3.160566843180522e-05   4.682978514133863e-05
-0.00016153799952580415   3.160566843180522e-05   4.682978514133863e-05
8.842068713055867e-05   -1.1469492649670253e-05   8.911923983118261e-05
8.842068713055867e-05   -1.1469492649670253e-05   8.911923983118261e-05
8.842068713055867e-05   -1.1469492649670253e-05   8.911923983118261e-05
8.842068713055867e-05   -1.1469492649670253e-05   8.911923983118261e-05
3.666180188478154e-05   -5.575439065607507e-06   6.390863238657854e-06
3.666180188478154e-05   -5.575439065607507e-06   6.390863238657854e-06
3.666180188478154e-05   -5.575439065607507e-06   6.390863238657854e-06
3.666180188478154e-05   -5.575439065607507e-06   6.390863238657854e-06
3.432069577483298e-05   -1.3941696378937107e-05   8.01767424963868e-05
3.432069577483298e-05   -1.3941696378937107e-05   8.01767424963868e-05
3.432069577483298e-05   -1.3941696378937107e-05   8.01767424963868e-05
3.432069577483298e-05   -1.3941696378937107e-05   8.01767424963868e-05
8.344460203848719e-05   -7.779648724078221e-06   -5.393663202618332e-06
8.344460203848719e-05   -7.779648724078221e-06   -5.393663202618332e-06
8.344460203848719e-05   -7.779648724078221e-06   -5.393663202618332e-06
8.344460203848719e-05   -7.779648724078221e-06   -5.393663202618332e-06
5.768822240806935e-05   -9.928594947110868e-06   3.882300391523354e-05
5.768822240806935e-05   -9.928594947110868e-06   3.882300391523354e-05
5.768822240806935e-05   -9.928594947110868e-06   3.882300391523354e-05
5.768822240806935e-05   -9.928594947110868e-06   3.882300391523354e-05
8.344460203848732e-05   -1.394169637893624e-05   7.647951390347268e-05
8.344460203848732e-05   -1.394169637893624e-05   7.647951390347268e-05
8.344460203848732e-05   -1.394169637893624e-05   7.647951390347268e-05
8.344460203848732e-05   -1.394169637893624e-05   7.647951390347268e-05
3.432069577483286e-05   -7.779648724078221e-06   -1.69643460970351e-06
3.432069577483286e-05   -7.779648724078221e-06   -1.69643460970351e-06
3.432069577483286e-05   -7.779648724078221e-06   -1.69643460970351e-06
3.432069577483286e-05   -7.779648724078221e-06   -1.69643460970351e-06
3.1694914705747586e-05   -1.4605256214318858e-05   7.352909171223386e-05
3.1694914705747586e-05   -1.4605256214318858e-05   7.352909171223386e-05
3.1694914705747586e-05   -1.4605256214318858e-05   7.352909171223386e-05
3.1694914705747586e-05   -1.4605256214318858e-05   7.352909171223386e-05
7.917668850370067e-05   -8.542290931135357e-06   -9.244977120930658e-06
7.917668850370067e-05   -8.542290931135357e-06   -9.244977120930658e-06
7.917668850370067e-05   -8.542290931135357e-06   -9.244977120930658e-06
7.917668850370067e-05   -8.542290931135357e-06   -9.244977120930658e-06
5.545656264236337e-05   -1.0862173317784975e-05   3.1680495413288824e-05
5.545656264236337e-05   -1.0862173317784975e-05   3.1680495413288824e-05
5.545656264236337e-05   -1.0862173317784975e-05   3.1680495413288824e-05
5.545656264236337e-05   -1.0862173317784975e-05   3.1680495413288824e-05
7.91766885037008e-05   -1.4605256214318858e-05   6.98913125423235e-05
7.91766885037008e-05   -1.4605256214318858e-05   6.98913125423235e-05
7.91766885037008e-05   -1.4605256214318858e-05   6.98913125423235e-05
7.91766885037008e-05   -1.4605256214318858e-05   6.98913125423235e-05
3.169491470574753e-05   -8.542290931135357e-06   -5.607197951020947e-06
3.169491470574753e-05   -8.542290931135357e-06   -5.607197951020947e-06
3.169491470574753e-05   -8.542290931135357e-06   -5.607197951020947e-06
3.169491470574753e-05   -8.542290931135357e-06   -5.607197951020947e-06
2.9342705838382145e-05   -1.5239833884806049e-05   6.492547082974712e-05
2.9342705838382145e-05   -1.5239833884806049e-05   6.492547082974712e-05
2.9342705838382145e-05   -1.5239833884806049e-05   6.492547082974712e-05
2.9342705838382145e-05   -1.5239833884806049e-05   6.492547082974712e-05
7.434228910921094e-05   -9.562801150568047e-06   -1.3480054262176742e-05
7.434228910921094e-05   -9.562801150568047e-06   -1.3480054262176742e-05
7.434228910921094e-05   -9.562801150568047e-06   -1.3480054262176742e-05
7.434228910921094e-05   -9.562801150568047e-06   -1.3480054262176742e-05
5.1377119081143234e-05   -1.1053585115881545e-05   2.5689699497124046e-05
5.1377119081143234e-05   -1.1053585115881545e-05   2.5689699497124046e-05
5.1377119081143234e-05   -1.1053585115881545e-05   2.5689699497124046e-05
5.1377119081143234e-05   -1.1053585115881545e-05   2.5689699497124046e-05
3.666180188478166e-05   -2.8936382070847422e-08   0.00011053278554868816
3.666180188478166e-05   -2.8936382070847422e-08   0.00011053278554868816
3.666180188478166e-05   -2.8936382070847422e-08   0.00011053278554868816
3.666180188478166e-05   -2.8936382070847422e-08   0.00011053278554868816
-1.1941728267527731e-05   2.952785285655589e-06   3.131593496214164e-05
-1.1941728267527731e-05   2.952785285655589e-06   3.131593496214164e-05
-1.1941728267527731e-05   2.952785285655589e-06   3.131593496214164e-05
-1.1941728267527731e-05   2.952785285655589e-06   3.131593496214164e-05
-1.4091295794681539e-05   -2.184801356414079e-06   0.00011075794944148676
-1.4091295794681539e-05   -2.184801356414079e-06   0.00011075794944148676
-1.4091295794681539e-05   -2.184801356414079e-06   0.00011075794944148676
-1.4091295794681539e-05   -2.184801356414079e-06   0.00011075794944148676
3.432069577483286e-05   7.145205951023664e-07   2.8331703654719815e-05
3.432069577483286e-05   7.145205951023664e-07   2.8331703654719815e-05
3.432069577483286e-05   7.145205951023664e-07   2.8331703654719815e-05
3.432069577483286e-05   7.145205951023664e-07   2.8331703654719815e-05
1.0892134062560251e-05   1.7276488167589782e-07   6.770435993656523e-05
1.0892134062560251e-05   1.7276488167589782e-07   6.770435993656523e-05
1.0892134062560251e-05   1.7276488167589782e-07   6.770435993656523e-05
1.0892134062560251e-05   1.7276488167589782e-07   6.770435993656523e-05
3.4320695774832954e-05   -2.184801356414079e-06   0.00010901835627057663
3.4320695774832954e-05   -2.184801356414079e-06   0.00010901835627057663
3.4320695774832954e-05   -2.184801356414079e-06   0.00010901835627057663
3.4320695774832954e-05   -2.184801356414079e-06   0.00010901835627057663
-1.4091295794681539e-05   7.145205951032338e-07   3.007129682563005e-05
-1.4091295794681539e-05   7.145205951032338e-07   3.007129682563005e-05
-1.4091295794681539e-05   7.145205951032338e-07   3.007129682563005e-05
-1.4091295794681539e-05   7.145205951032338e-07   3.007129682563005e-05
-1.6288253618358293e-05   -3.889447393200587e-06   0.00010946251217851689
-1.6288253618358293e-05   -3.889447393200587e-06   0.00010946251217851689
-1.6288253618358293e-05   -3.889447393200587e-06   0.00010946251217851689
-1.6288253618358293e-05   -3.889447393200587e-06   0.00010946251217851689
3.169491470574753e-05   -1.122048135633602e-06   2.7830125417133313e-05
3.169491470574753e-05   -1.122048135633602e-06   2.7830125417133313e-05
3.169491470574753e-05   -1.122048135633602e-06   2.7830125417133313e-05
3.169491470574753e-05   -1.122048135633602e-06   2.7830125417133313e-05
8.532435489749208e-06   -1.3231455946085408e-06   6.655491591918698e-05
8.532435489749208e-06   -1.3231455946085408e-06   6.655491591918698e-05
8.532435489749208e-06   -1.3231455946085408e-06   6.655491591918698e-05
8.532435489749208e-06   -1.3231455946085408e-06   6.655491591918698e-05
3.169491470574764e-05   -3.889447393200587e-06   0.000107802072623976
3.169491470574764e-05   -3.889447393200587e-06   0.000107802072623976
3.169491470574764e-05   -3.889447393200587e-06   0.000107802072623976
3.169491470574764e-05   -3.889447393200587e-06   0.000107802072623976
-1.6288253618358347e-05   -1.1220481356327347e-06   2.949056497167455e-05
-1.6288253618358347e-05   -1.1220481356327347e-06   2.949056497167455e-05
-1.6288253618358347e-05   -1.1220481356327347e-06   2.949056497167455e-05
-1.6288253618358347e-05   -1.1220481356327347e-06   2.949056497167455e-05
-1.8466130793202246e-05   -5.474744595295247e-06   0.00011048833957445856
-1.8466130793202246e-05   -5.474744595295247e-06   0.00011048833957445856
-1.8466130793202246e-05   -5.474744595295247e-06   0.00011048833957445856
-1.8466130793202246e-05   -5.474744595295247e-06   0.00011048833957445856
2.934270583838201e-05   -2.9383353953773422e-06   2.9285099668534834e-05
2.934270583838201e-05   -2.9383353953773422e-06   2.9285099668534834e-05
2.934270583838201e-05   -2.9383353953773422e-06   2.9285099668534834e-05
2.934270583838201e-05   -2.9383353953773422e-06   2.9285099668534834e-05
6.662226560280063e-06   -2.576414102199373e-06   6.686874568946421e-05
6.662226560280063e-06   -2.576414102199373e-06   6.686874568946421e-05
6.662226560280063e-06   -2.576414102199373e-06   6.686874568946421e-05
6.662226560280063e-06   -2.576414102199373e-06   6.686874568946421e-05
-1.1941728267527677e-05   1.1167653721976152e-05   0.0001200188722756991
-1.1941728267527677e-05   1.1167653721976152e-05   0.0001200188722756991
-1.1941728267527677e-05   1.1167653721976152e-05   0.0001200188722756991
-1.1941728267527677e-05   1.1167653721976152e-05   0.0001200188722756991
-5.975736133936177e-05   1.097265652077583e-05   4.0209152168588745e-05
-5.975736133936177e-05   1.097265652077583e-05   4.0209152168588745e-05
-5.975736133936177e-05   1.097265652077583e-05   4.0209152168588745e-05
-5.975736133936177e-05   1.097265652077583e-05   4.0209152168588745e-05
-6.187629689916941e-05   9.267403239950414e-06   0.00011923417230418499
-6.187629689916941e-05   9.267403239950414e-06   0.00011923417230418499
-6.187629689916941e-05   9.267403239950414e-06   0.00011923417230418499
-6.187629689916941e-05   9.267403239950414e-06   0.00011923417230418499
-1.4091295794681539e-05   8.933106375435401e-06   3.979308191541574e-05
-1.4091295794681539e-05   8.933106375435401e-06   3.979308191541574e-05
-1.4091295794681539e-05   8.933106375435401e-06   3.979308191541574e-05
-1.4091295794681539e-05   8.933106375435401e-06   3.979308191541574e-05
-3.700820738932858e-05   9.83915296576092e-06   7.744430661896728e-05
-3.700820738932858e-05   9.83915296576092e-06   7.744430661896728e-05
-3.700820738932858e-05   9.83915296576092e-06   7.744430661896728e-05
-3.700820738932858e-05   9.83915296576092e-06   7.744430661896728e-05
-1.4091295794681539e-05   9.267403239950414e-06   0.00011943475042289469
-1.4091295794681539e-05   9.267403239950414e-06   0.00011943475042289469
-1.4091295794681539e-05   9.267403239950414e-06   0.00011943475042289469
-1.4091295794681539e-05   9.267403239950414e-06   0.00011943475042289469
-6.187629689916941e-05   8.933106375435401e-06   3.959250379670636e-05
-6.187629689916941e-05   8.933106375435401e-06   3.959250379670636e-05
-6.187629689916941e-05   8.933106375435401e-06   3.959250379670636e-05
-6.187629689916941e-05   8.933106375435401e-06   3.959250379670636e-05
-6.404692505563507e-05   7.397035150813816e-06   0.0001198588193605946
-6.404692505563507e-05   7.397035150813816e-06   0.0001198588193605946
-6.404692505563507e-05   7.397035150813816e-06   0.0001198588193605946
-6.404692505563507e-05   7.397035150813816e-06   0.0001198588193605946
-1.6288253618358184e-05   6.916773096923325e-06   4.054919086413436e-05
-1.6288253618358184e-05   6.916773096923325e-06   4.054919086413436e-05
-1.6288253618358184e-05   6.916773096923325e-06   4.054919086413436e-05
-1.6288253618358184e-05   6.916773096923325e-06   4.054919086413436e-05
-3.8950596983745395e-05   8.356405972876138e-06   7.745598341420948e-05
-3.8950596983745395e-05   8.356405972876138e-06   7.745598341420948e-05
-3.8950596983745395e-05   8.356405972876138e-06   7.745598341420948e-05
-3.8950596983745395e-05   8.356405972876138e-06   7.745598341420948e-05
-1.6288253618358293e-05   7.397035150813816e-06   0.00012014697659292828
-1.6288253618358293e-05   7.397035150813816e-06   0.00012014697659292828
-1.6288253618358293e-05   7.397035150813816e-06   0.00012014697659292828
-1.6288253618358293e-05   7.397035150813816e-06   0.00012014697659292828
-6.404692505563507e-05   6.916773096923325e-06   4.026103363180024e-05
-6.404692505563507e-05   6.916773096923325e-06   4.026103363180024e-05
-6.404692505563507e-05   6.916773096923325e-06   4.026103363180024e-05
-6.404692505563507e-05   6.916773096923325e-06   4.026103363180024e-05
-6.619301341654574e-05   5.621754070336479e-06   0.00012148934378443822
-6.619301341654574e-05   5.621754070336479e-06   0.00012148934378443822
-6.619301341654574e-05   5.621754070336479e-06   0.00012148934378443822
-6.619301341654574e-05   5.621754070336479e-06   0.00012148934378443822
-1.8466130793202138e-05   4.974770213003223e-06   4.2332729726599636e-05
-1.8466130793202138e-05   4.974770213003223e-06   4.2332729726599636e-05
-1.8466130793202138e-05   4.974770213003223e-06   4.2332729726599636e-05
-1.8466130793202138e-05   4.974770213003223e-06   4.2332729726599636e-05
-4.098137988045415e-05   6.907884945173137e-06   7.869827603271761e-05
-4.098137988045415e-05   6.907884945173137e-06   7.869827603271761e-05
-4.098137988045415e-05   6.907884945173137e-06   7.869827603271761e-05
-4.098137988045415e-05   6.907884945173137e-06   7.869827603271761e-05
-5.975736133936177e-05   2.193403547096854e-05   0.00010608705530961013
-5.975736133936177e-05   2.193403547096854e-05   0.00010608705530961013
-5.975736133936177e-05   2.193403547096854e-05   0.00010608705530961013
-5.975736133936177e-05   2.193403547096854e-05   0.00010608705530961013
-0.0001067313577054501   1.8770331949696448e-05   2.5898839253367216e-05
-0.0001067313577054501   1.8770331949696448e-05   2.5898839253367216e-05
-0.0001067313577054501   1.8770331949696448e-05   2.5898839253367216e-05
-0.0001067313577054501   1.8770331949696448e-05   2.5898839253367216e-05
-0.00010900214217082803   2.0109010293247083e-05   0.00010466565546451978
-0.00010900214217082803   2.0109010293247083e-05   0.00010466565546451978
-0.00010900214217082803   2.0109010293247083e-05   0.00010466565546451978
-0.00010900214217082803   2.0109010293247083e-05   0.00010466565546451978
-6.187629689916919e-05   1.6773913559866953e-05   2.8123638051782756e-05
-6.187629689916919e-05   1.6773913559866953e-05   2.8123638051782756e-05
-6.187629689916919e-05   1.6773913559866953e-05   2.8123638051782756e-05
-6.187629689916919e-05   1.6773913559866953e-05   2.8123638051782756e-05
-8.410473860735615e-05   1.9073097600816845e-05   6.379153047419376e-05
-8.410473860735615e-05   1.9073097600816845e-05   6.379153047419376e-05
-8.410473860735615e-05   1.9073097600816845e-05   6.379153047419376e-05
-8.410473860735615e-05   1.9073097600816845e-05   6.379153047419376e-05
-6.187629689916941e-05   2.0109010293247083e-05   0.00010666671350454716
-6.187629689916941e-05   2.0109010293247083e-05   0.00010666671350454716
-6.187629689916941e-05   2.0109010293247083e-05   0.00010666671350454716
-6.187629689916941e-05   2.0109010293247083e-05   0.00010666671350454716
-0.00010900214217082792   1.677391355986782e-05   2.612258001175559e-05
-0.00010900214217082792   1.677391355986782e-05   2.612258001175559e-05
-0.00010900214217082792   1.677391355986782e-05   2.612258001175559e-05
-0.00010900214217082792   1.677391355986782e-05   2.612258001175559e-05
-0.00011155973714426371   1.841337859512064e-05   0.00010824496569670616
-0.00011155973714426371   1.841337859512064e-05   0.00010824496569670616
-0.00011155973714426371   1.841337859512064e-05   0.00010824496569670616
-0.00011155973714426371   1.841337859512064e-05   0.00010824496569670616
-6.404692505563485e-05   1.493090702787709e-05   3.1146428489337886e-05
-6.404692505563485e-05   1.493090702787709e-05   3.1146428489337886e-05
-6.404692505563485e-05   1.493090702787709e-05   3.1146428489337886e-05
-6.404692505563485e-05   1.493090702787709e-05   3.1146428489337886e-05
-8.568657715747461e-05   1.7711293870313616e-05   6.55442832202778e-05
-8.568657715747461e-05   1.7711293870313616e-05   6.55442832202778e-05
-8.568657715747461e-05   1.7711293870313616e-05   6.55442832202778e-05
-8.568657715747461e-05   1.7711293870313616e-05   6.55442832202778e-05
-6.404692505563507e-05   1.841337859512064e-05   0.00011033444863705168
-6.404692505563507e-05   1.841337859512064e-05   0.00011033444863705168
-6.404692505563507e-05   1.841337859512064e-05   0.00011033444863705168
-6.404692505563507e-05   1.841337859512064e-05   0.00011033444863705168
-0.0001115597371442635   1.493090702787709e-05   2.905694554899193e-05
-0.0001115597371442635   1.493090702787709e-05   2.905694554899193e-05
-0.0001115597371442635   1.493090702787709e-05   2.905694554899193e-05
-0.0001115597371442635   1.493090702787709e-05   2.905694554899193e-05
-0.00011383684885849866   1.6443249446886424e-05   0.00011128281361139428
-0.00011383684885849866   1.6443249446886424e-05   0.00011128281361139428
-0.00011383684885849866   1.6443249446886424e-05   0.00011128281361139428
-0.00011383684885849866   1.6443249446886424e-05   0.00011128281361139428
-6.619301341654552e-05   1.287487961799949e-05   3.401744310547214e-05
-6.619301341654552e-05   1.287487961799949e-05   3.401744310547214e-05
-6.619301341654552e-05   1.287487961799949e-05   3.401744310547214e-05
-6.619301341654552e-05   1.287487961799949e-05   3.401744310547214e-05
-8.824497458571933e-05   1.6282750468102868e-05   6.872598921070158e-05
-8.824497458571933e-05   1.6282750468102868e-05   6.872598921070158e-05
-8.824497458571933e-05   1.6282750468102868e-05   6.872598921070158e-05
-8.824497458571933e-05   1.6282750468102868e-05   6.872598921070158e-05
-0.0001067313577054501   3.0164825511228878e-05   5.0886830997670836e-05
-0.0001067313577054501   3.0164825511228878e-05   5.0886830997670836e-05
-0.0001067313577054501   3.0164825511228878e-05   5.0886830997670836e-05
-0.0001067313577054501   3.0164825511228878e-05   5.0886830997670836e-05
-0.00015066228293907167   2.4558398813492692e-05   -2.5695233743674214e-05
-0.00015066228293907167   2.4558398813492692e-05   -2.5695233743674214e-05
-0.00015066228293907167   2.4558398813492692e-05   -2.5695233743674214e-05
-0.00015066228293907167   2.4558398813492692e-05   -2.5695233743674214e-05
-0.00015540188827949043   2.999518940997696e-05   6.513806084957035e-05
-0.00015540188827949043   2.999518940997696e-05   6.513806084957035e-05
-0.00015540188827949043   2.999518940997696e-05   6.513806084957035e-05
-0.00015540188827949043   2.999518940997696e-05   6.513806084957035e-05
-0.0001090021421708276   2.3906929548339097e-05   -8.541893414551471e-06
-0.0001090021421708276   2.3906929548339097e-05   -8.541893414551471e-06
-0.0001090021421708276   2.3906929548339097e-05   -8.541893414551471e-06
-0.0001090021421708276   2.3906929548339097e-05   -8.541893414551471e-06
-0.00012556340079436875   2.6669304009128633e-05   1.740277961487886e-05
-0.00012556340079436875   2.6669304009128633e-05   1.740277961487886e-05
-0.00012556340079436875   2.6669304009128633e-05   1.740277961487886e-05
-0.00012556340079436875   2.6669304009128633e-05   1.740277961487886e-05
-0.00010900214217082792   2.9995189409976093e-05   6.87910167665529e-05
-0.00010900214217082792   2.9995189409976093e-05   6.87910167665529e-05
-0.00010900214217082792   2.9995189409976093e-05   6.87910167665529e-05
-0.00010900214217082792   2.9995189409976093e-05   6.87910167665529e-05
-0.00015540188827949065   2.390692954833823e-05   -1.2194849331534667e-05
-0.00015540188827949065   2.390692954833823e-05   -1.2194849331534667e-05
-0.00015540188827949065   2.390692954833823e-05   -1.2194849331534667e-05
-0.00015540188827949065   2.390692954833823e-05   -1.2194849331534667e-05
-0.00015954263026246086   2.937769121256692e-05   7.754315065559934e-05
-0.00015954263026246086   2.937769121256692e-05   7.754315065559934e-05
-0.00015954263026246086   2.937769121256692e-05   7.754315065559934e-05
-0.00015954263026246086   2.937769121256692e-05   7.754315065559934e-05
-0.00011155973714426317   2.3126573210717656e-05   1.3223329263793888e-06
-0.00011155973714426317   2.3126573210717656e-05   1.3223329263793888e-06
-0.00011155973714426317   2.3126573210717656e-05   1.3223329263793888e-06
-0.00011155973714426317   2.3126573210717656e-05   1.3223329263793888e-06
-0.00013056389801501125   2.667852910316626e-05   3.0864760842161214e-05
-0.00013056389801501125   2.667852910316626e-05   3.0864760842161214e-05
-0.00013056389801501125   2.667852910316626e-05   3.0864760842161214e-05
-0.00013056389801501125   2.667852910316626e-05   3.0864760842161214e-05
-0.00011155973714426371   2.9377691212566052e-05   8.129382145670829e-05
-0.00011155973714426371   2.9377691212566052e-05   8.129382145670829e-05
-0.00011155973714426371   2.9377691212566052e-05   8.129382145670829e-05
-0.00011155973714426371   2.9377691212566052e-05   8.129382145670829e-05
-0.00015954263026246086   2.3126573210717656e-05   -2.4283378747295623e-06
-0.00015954263026246086   2.3126573210717656e-05   -2.4283378747295623e-06
-0.00015954263026246086   2.3126573210717656e-05   -2.4283378747295623e-06
-0.00015954263026246086   2.3126573210717656e-05   -2.4283378747295623e-06
-0.00016435069693626712   2.666881748135657e-05   9.912051625218365e-05
-0.00016435069693626712   2.666881748135657e-05   9.912051625218365e-05
-0.00016435069693626712   2.666881748135657e-05   9.912051625218365e-05
-0.00016435069693626712   2.666881748135657e-05   9.912051625218365e-05
-0.00011383684885849811   2.0520326479797624e-05   1.861986405683855e-05
-0.00011383684885849811   2.0520326479797624e-05   1.861986405683855e-05
-0.00011383684885849811   2.0520326479797624e-05   1.861986405683855e-05
-0.00011383684885849811   2.0520326479797624e-05   1.861986405683855e-05
-0.00013171492222440178   2.5544681076903816e-05   4.540204024174694e-05
-0.00013171492222440178   2.5544681076903816e-05   4.540204024174694e-05
-0.00013171492222440178   2.5544681076903816e-05   4.540204024174694e-05
-0.00013171492222440178   2.5544681076903816e-05   4.540204024174694e-05
4.862665158409074e-05   -5.575439065607507e-06   6.984989731140777e-05
4.862665158409074e-05   -5.575439065607507e-06   6.984989731140777e-05
4.862665158409074e-05   -5.575439065607507e-06   6.984989731140777e-05
4.862665158409074e-05   -5.575439065607507e-06   6.984989731140777e-05
1.2529559976651896e-05   2.3671126184697522e-07   1.3175368162149023e-05
1.2529559976651896e-05   2.3671126184697522e-07   1.3175368162149023e-05
1.2529559976651896e-05   2.3671126184697522e-07   1.3175368162149023e-05
1.2529559976651896e-05   2.3671126184697522e-07   1.3175368162149023e-05
1.078611289324357e-05   -7.779648724078221e-06   6.518916544051177e-05
1.078611289324357e-05   -7.779648724078221e-06   6.518916544051177e-05
1.078611289324357e-05   -7.779648724078221e-06   6.518916544051177e-05
1.078611289324357e-05   -7.779648724078221e-06   6.518916544051177e-05
4.4322677030125986e-05   -1.7338053193713746e-06   5.6673858362180085e-06
4.4322677030125986e-05   -1.7338053193713746e-06   5.6673858362180085e-06
4.4322677030125986e-05   -1.7338053193713746e-06   5.6673858362180085e-06
4.4322677030125986e-05   -1.7338053193713746e-06   5.6673858362180085e-06
2.7341402685102095e-05   -3.992099471793187e-06   3.532448623604583e-05
2.7341402685102095e-05   -3.992099471793187e-06   3.532448623604583e-05
2.7341402685102095e-05   -3.992099471793187e-06   3.532448623604583e-05
2.7341402685102095e-05   -3.992099471793187e-06   3.532448623604583e-05
4.4322677030126094e-05   -7.779648724079088e-06   6.156165939768784e-05
4.4322677030126094e-05   -7.779648724079088e-06   6.156165939768784e-05
4.4322677030126094e-05   -7.779648724079088e-06   6.156165939768784e-05
4.4322677030126094e-05   -7.779648724079088e-06   6.156165939768784e-05
1.0786112893243556e-05   -1.7338053193713746e-06   9.294891879042377e-06
1.0786112893243556e-05   -1.7338053193713746e-06   9.294891879042377e-06
1.0786112893243556e-05   -1.7338053193713746e-06   9.294891879042377e-06
1.0786112893243556e-05   -1.7338053193713746e-06   9.294891879042377e-06
8.757801627533787e-06   -8.542290931136225e-06   6.122568905422539e-05
8.757801627533787e-06   -8.542290931136225e-06   6.122568905422539e-05
8.757801627533787e-06   -8.542290931136225e-06   6.122568905422539e-05
8.757801627533787e-06   -8.542290931136225e-06   6.122568905422539e-05
4.068263205335139e-05   -2.588913537036365e-06   4.445611908069789e-06
4.068263205335139e-05   -2.588913537036365e-06   4.445611908069789e-06
4.068263205335139e-05   -2.588913537036365e-06   4.445611908069789e-06
4.068263205335139e-05   -2.588913537036365e-06   4.445611908069789e-06
2.5248109831926438e-05   -4.851696511316665e-06   3.152748539501292e-05
2.5248109831926438e-05   -4.851696511316665e-06   3.152748539501292e-05
2.5248109831926438e-05   -4.851696511316665e-06   3.152748539501292e-05
2.5248109831926438e-05   -4.851696511316665e-06   3.152748539501292e-05
4.0682632053351444e-05   -8.542290931136225e-06   5.765366261776617e-05
4.0682632053351444e-05   -8.542290931136225e-06   5.765366261776617e-05
4.0682632053351444e-05   -8.542290931136225e-06   5.765366261776617e-05
4.0682632053351444e-05   -8.542290931136225e-06   5.765366261776617e-05
8.757801627533746e-06   -2.588913537036365e-06   8.017638344529933e-06
8.757801627533746e-06   -2.588913537036365e-06   8.017638344529933e-06
8.757801627533746e-06   -2.588913537036365e-06   8.017638344529933e-06
8.757801627533746e-06   -2.588913537036365e-06   8.017638344529933e-06
7.002286523668735e-06   -9.562801150568047e-06   5.667886964098607e-05
7.002286523668735e-06   -9.562801150568047e-06   5.667886964098607e-05
7.002286523668735e-06   -9.562801150568047e-06   5.667886964098607e-05
7.002286523668735e-06   -9.562801150568047e-06   5.667886964098607e-05
3.642599984382051e-05   -4.0236907466557545e-06   4.3158811983873865e-06
3.642599984382051e-05   -4.0236907466557545e-06   4.3158811983873865e-06
3.642599984382051e-05   -4.0236907466557545e-06   4.3158811983873865e-06
3.642599984382051e-05   -4.0236907466557545e-06   4.3158811983873865e-06
2.2200976462173994e-05   -5.305199003898149e-06   2.879315845547779e-05
2.2200976462173994e-05   -5.305199003898149e-06   2.879315845547779e-05
2.2200976462173994e-05   -5.305199003898149e-06   2.879315845547779e-05
2.2200976462173994e-05   -5.305199003898149e-06   2.879315845547779e-05
1.252955997665191e-05   2.952785285655589e-06   9.647322623072743e-05
1.252955997665191e-05   2.952785285655589e-06   9.647322623072743e-05
1.252955997665191e-05   2.952785285655589e-06   9.647322623072743e-05
1.252955997665191e-05   2.952785285655589e-06   9.647322623072743e-05
-2.038773627527666e-05   5.573255506518757e-06   4.318334794336425e-05
-2.038773627527666e-05   5.573255506518757e-06   4.318334794336425e-05
-2.038773627527666e-05   5.573255506518757e-06   4.318334794336425e-05
-2.038773627527666e-05   5.573255506518757e-06   4.318334794336425e-05
-2.1917365163709695e-05   7.145205951032338e-07   9.679213502392439e-05
-2.1917365163709695e-05   7.145205951032338e-07   9.679213502392439e-05
-2.1917365163709695e-05   7.145205951032338e-07   9.679213502392439e-05
-2.1917365163709695e-05   7.145205951032338e-07   9.679213502392439e-05
1.0786112893243556e-05   3.3392394600843464e-06   4.071150694334735e-05
1.0786112893243556e-05   3.3392394600843464e-06   4.071150694334735e-05
1.0786112893243556e-05   3.3392394600843464e-06   4.071150694334735e-05
1.0786112893243556e-05   3.3392394600843464e-06   4.071150694334735e-05
-4.991252284621261e-06   2.9253816321928375e-06   6.725543026985908e-05
-4.991252284621261e-06   2.9253816321928375e-06   6.725543026985908e-05
-4.991252284621261e-06   2.9253816321928375e-06   6.725543026985908e-05
-4.991252284621261e-06   2.9253816321928375e-06   6.725543026985908e-05
1.0786112893243556e-05   7.145205951032338e-07   9.52173037049352e-05
1.0786112893243556e-05   7.145205951032338e-07   9.52173037049352e-05
1.0786112893243556e-05   7.145205951032338e-07   9.52173037049352e-05
1.0786112893243556e-05   7.145205951032338e-07   9.52173037049352e-05
-2.1917365163709695e-05   3.3392394600843464e-06   4.2286338262335996e-05
-2.1917365163709695e-05   3.3392394600843464e-06   4.2286338262335996e-05
-2.1917365163709695e-05   3.3392394600843464e-06   4.2286338262335996e-05
-2.1917365163709695e-05   3.3392394600843464e-06   4.2286338262335996e-05
-2.3490843221392972e-05   -1.1220481356327347e-06   9.620054313523325e-05
-2.3490843221392972e-05   -1.1220481356327347e-06   9.620054313523325e-05
-2.3490843221392972e-05   -1.1220481356327347e-06   9.620054313523325e-05
-2.3490843221392972e-05   -1.1220481356327347e-06   9.620054313523325e-05
8.757801627533746e-06   1.4405030524548487e-06   4.091527100750272e-05
8.757801627533746e-06   1.4405030524548487e-06   4.091527100750272e-05
8.757801627533746e-06   1.4405030524548487e-06   4.091527100750272e-05
8.757801627533746e-06   1.4405030524548487e-06   4.091527100750272e-05
-6.6217391298585175e-06   1.3638634377161757e-06   6.65938227053344e-05
-6.6217391298585175e-06   1.3638634377161757e-06   6.65938227053344e-05
-6.6217391298585175e-06   1.3638634377161757e-06   6.65938227053344e-05
-6.6217391298585175e-06   1.3638634377161757e-06   6.65938227053344e-05
8.757801627533787e-06   -1.122048135633602e-06   9.466301242238044e-05
8.757801627533787e-06   -1.122048135633602e-06   9.466301242238044e-05
8.757801627533787e-06   -1.122048135633602e-06   9.466301242238044e-05
8.757801627533787e-06   -1.122048135633602e-06   9.466301242238044e-05
-2.3490843221393026e-05   1.4405030524548487e-06   4.245280172035558e-05
-2.3490843221393026e-05   1.4405030524548487e-06   4.245280172035558e-05
-2.3490843221393026e-05   1.4405030524548487e-06   4.245280172035558e-05
-2.3490843221393026e-05   1.4405030524548487e-06   4.245280172035558e-05
-2.503991220238961e-05   -2.9383353953773422e-06   9.749691788938503e-05
-2.503991220238961e-05   -2.9383353953773422e-06   9.749691788938503e-05
-2.503991220238961e-05   -2.9383353953773422e-06   9.749691788938503e-05
-2.503991220238961e-05   -2.9383353953773422e-06   9.749691788938503e-05
7.002286523668708e-06   -5.064787983290533e-07   4.263413938772551e-05
7.002286523668708e-06   -5.064787983290533e-07   4.263413938772551e-05
7.002286523668708e-06   -5.064787983290533e-07   4.263413938772551e-05
7.002286523668708e-06   -5.064787983290533e-07   4.263413938772551e-05
-8.006054837159808e-06   -4.360512707770464e-08   6.737031745302315e-05
-8.006054837159808e-06   -4.360512707770464e-08   6.737031745302315e-05
-8.006054837159808e-06   -4.360512707770464e-08   6.737031745302315e-05
-8.006054837159808e-06   -4.360512707770464e-08   6.737031745302315e-05
-2.038773627527666e-05   1.097265652077583e-05   0.00010705572389041332
-2.038773627527666e-05   1.097265652077583e-05   0.00010705572389041332
-2.038773627527666e-05   1.097265652077583e-05   0.00010705572389041332
-2.038773627527666e-05   1.097265652077583e-05   0.00010705572389041332
-5.276851652851757e-05   1.0326393696688703e-05   5.269999910722601e-05
-5.276851652851757e-05   1.0326393696688703e-05   5.269999910722601e-05
-5.276851652851757e-05   1.0326393696688703e-05   5.269999910722601e-05
-5.276851652851757e-05   1.0326393696688703e-05   5.269999910722601e-05
-5.423443593643659e-05   8.933106375435401e-06   0.00010611081214164254
-5.423443593643659e-05   8.933106375435401e-06   0.00010611081214164254
-5.423443593643659e-05   8.933106375435401e-06   0.00010611081214164254
-5.423443593643659e-05   8.933106375435401e-06   0.00010611081214164254
-2.191736516370964e-05   8.261259755323012e-06   5.2652135492499094e-05
-2.191736516370964e-05   8.261259755323012e-06   5.2652135492499094e-05
-2.191736516370964e-05   8.261259755323012e-06   5.2652135492499094e-05
-2.191736516370964e-05   8.261259755323012e-06   5.2652135492499094e-05
-3.7394964928163496e-05   9.398451719431697e-06   7.776581992146008e-05
-3.7394964928163496e-05   9.398451719431697e-06   7.776581992146008e-05
-3.7394964928163496e-05   9.398451719431697e-06   7.776581992146008e-05
-3.7394964928163496e-05   9.398451719431697e-06   7.776581992146008e-05
-2.1917365163709695e-05   8.933106375435401e-06   0.00010651392011370997
-2.1917365163709695e-05   8.933106375435401e-06   0.00010651392011370997
-2.1917365163709695e-05   8.933106375435401e-06   0.00010651392011370997
-2.1917365163709695e-05   8.933106375435401e-06   0.00010651392011370997
-5.423443593643648e-05   8.261259755323012e-06   5.224902752043155e-05
-5.423443593643648e-05   8.261259755323012e-06   5.224902752043155e-05
-5.423443593643648e-05   8.261259755323012e-06   5.224902752043155e-05
-5.423443593643648e-05   8.261259755323012e-06   5.224902752043155e-05
-5.574909325613915e-05   6.916773096923325e-06   0.00010683302738415676
-5.574909325613915e-05   6.916773096923325e-06   0.00010683302738415676
-5.574909325613915e-05   6.916773096923325e-06   0.00010683302738415676
-5.574909325613915e-05   6.916773096923325e-06   0.00010683302738415676
-2.3490843221393026e-05   6.206537024361532e-06   5.349541896978354e-05
-2.3490843221393026e-05   6.206537024361532e-06   5.349541896978354e-05
-2.3490843221393026e-05   6.206537024361532e-06   5.349541896978354e-05
-2.3490843221393026e-05   6.206537024361532e-06   5.349541896978354e-05
-3.870155093490597e-05   7.825089475388403e-06   7.787546702168861e-05
-3.870155093490597e-05   7.825089475388403e-06   7.787546702168861e-05
-3.870155093490597e-05   7.825089475388403e-06   7.787546702168861e-05
-3.870155093490597e-05   7.825089475388403e-06   7.787546702168861e-05
-2.3490843221393026e-05   6.916773096923325e-06   0.00010725916902769349
-2.3490843221393026e-05   6.916773096923325e-06   0.00010725916902769349
-2.3490843221393026e-05   6.916773096923325e-06   0.00010725916902769349
-2.3490843221393026e-05   6.916773096923325e-06   0.00010725916902769349
-5.5749093256138933e-05   6.206537024361532e-06   5.306927732624681e-05
-5.5749093256138933e-05   6.206537024361532e-06   5.306927732624681e-05
-5.5749093256138933e-05   6.206537024361532e-06   5.306927732624681e-05
-5.5749093256138933e-05   6.206537024361532e-06   5.306927732624681e-05
-5.7240553998407005e-05   4.97477021300409e-06   0.00010858041859702992
-5.7240553998407005e-05   4.97477021300409e-06   0.00010858041859702992
-5.7240553998407005e-05   4.97477021300409e-06   0.00010858041859702992
-5.7240553998407005e-05   4.97477021300409e-06   0.00010858041859702992
-2.503991220238961e-05   4.237630495554021e-06   5.535496610080469e-05
-2.503991220238961e-05   4.237630495554021e-06   5.535496610080469e-05
-2.503991220238961e-05   4.237630495554021e-06   5.535496610080469e-05
-2.503991220238961e-05   4.237630495554021e-06   5.535496610080469e-05
-4.0090550565935565e-05   6.282512840622215e-06   7.921243396634143e-05
-4.0090550565935565e-05   6.282512840622215e-06   7.921243396634143e-05
-4.0090550565935565e-05   6.282512840622215e-06   7.921243396634143e-05
-4.0090550565935565e-05   6.282512840622215e-06   7.921243396634143e-05
-5.276851652851757e-05   1.8770331949696448e-05   9.42558753935026e-05
-5.276851652851757e-05   1.8770331949696448e-05   9.42558753935026e-05
-5.276851652851757e-05   1.8770331949696448e-05   9.42558753935026e-05
-5.276851652851757e-05   1.8770331949696448e-05   9.42558753935026e-05
-8.45300535355822e-05   1.5300676500757532e-05   3.923818711236448e-05
-8.45300535355822e-05   1.5300676500757532e-05   3.923818711236448e-05
-8.45300535355822e-05   1.5300676500757532e-05   3.923818711236448e-05
-8.45300535355822e-05   1.5300676500757532e-05   3.923818711236448e-05
-8.612593596449346e-05   1.6773913559866953e-05   9.250687034392021e-05
-8.612593596449346e-05   1.6773913559866953e-05   9.250687034392021e-05
-8.612593596449346e-05   1.6773913559866953e-05   9.250687034392021e-05
-8.612593596449346e-05   1.6773913559866953e-05   9.250687034392021e-05
-5.423443593643637e-05   1.3215453471869011e-05   4.148944634995832e-05
-5.423443593643637e-05   1.3215453471869011e-05   4.148944634995832e-05
-5.423443593643637e-05   1.3215453471869011e-05   4.148944634995832e-05
-5.423443593643637e-05   1.3215453471869011e-05   4.148944634995832e-05
-6.924813755155191e-05   1.576159439415324e-05   6.49845978217844e-05
-6.924813755155191e-05   1.576159439415324e-05   6.49845978217844e-05
-6.924813755155191e-05   1.576159439415324e-05   6.49845978217844e-05
-6.924813755155191e-05   1.576159439415324e-05   6.49845978217844e-05
-5.423443593643659e-05   1.6773913559866953e-05   9.464194639672002e-05
-5.423443593643659e-05   1.6773913559866953e-05   9.464194639672002e-05
-5.423443593643659e-05   1.6773913559866953e-05   9.464194639672002e-05
-5.423443593643659e-05   1.6773913559866953e-05   9.464194639672002e-05
-8.612593596449324e-05   1.3215453471869011e-05   3.9354370297159814e-05
-8.612593596449324e-05   1.3215453471869011e-05   3.9354370297159814e-05
-8.612593596449324e-05   1.3215453471869011e-05   3.9354370297159814e-05
-8.612593596449324e-05   1.3215453471869011e-05   3.9354370297159814e-05
-8.801823896927583e-05   1.493090702787709e-05   9.55538976191916e-05
-8.801823896927583e-05   1.493090702787709e-05   9.55538976191916e-05
-8.801823896927583e-05   1.493090702787709e-05   9.55538976191916e-05
-8.801823896927583e-05   1.493090702787709e-05   9.55538976191916e-05
-5.5749093256138933e-05   1.1323365990371405e-05   4.393651271980027e-05
-5.5749093256138933e-05   1.1323365990371405e-05   4.393651271980027e-05
-5.5749093256138933e-05   1.1323365990371405e-05   4.393651271980027e-05
-5.5749093256138933e-05   1.1323365990371405e-05   4.393651271980027e-05
-7.028838099709921e-05   1.4284712824384413e-05   6.639185085432564e-05
-7.028838099709921e-05   1.4284712824384413e-05   6.639185085432564e-05
-7.028838099709921e-05   1.4284712824384413e-05   6.639185085432564e-05
-7.028838099709921e-05   1.4284712824384413e-05   6.639185085432564e-05
-5.5749093256138933e-05   1.493090702787709e-05   9.771842224169354e-05
-5.5749093256138933e-05   1.493090702787709e-05   9.771842224169354e-05
-5.5749093256138933e-05   1.493090702787709e-05   9.771842224169354e-05
-5.5749093256138933e-05   1.493090702787709e-05   9.771842224169354e-05
-8.801823896927561e-05   1.1323365990371405e-05   4.177198809729747e-05
-8.801823896927561e-05   1.1323365990371405e-05   4.177198809729747e-05
-8.801823896927561e-05   1.1323365990371405e-05   4.177198809729747e-05
-8.801823896927561e-05   1.1323365990371405e-05   4.177198809729747e-05
-8.964500792513186e-05   1.287487961799949e-05   9.851157928027036e-05
-8.964500792513186e-05   1.287487961799949e-05   9.851157928027036e-05
-8.964500792513186e-05   1.287487961799949e-05   9.851157928027036e-05
-8.964500792513186e-05   1.287487961799949e-05   9.851157928027036e-05
-5.724055399840679e-05   9.305307934612955e-06   4.6645899079094484e-05
-5.724055399840679e-05   9.305307934612955e-06   4.6645899079094484e-05
-5.724055399840679e-05   9.305307934612955e-06   4.6645899079094484e-05
-5.724055399840679e-05   9.305307934612955e-06   4.6645899079094484e-05
-7.206564989595022e-05   1.2809966703183559e-05   6.925159698052729e-05
-7.206564989595022e-05   1.2809966703183559e-05   6.925159698052729e-05
-7.206564989595022e-05   1.2809966703183559e-05   6.925159698052729e-05
-7.206564989595022e-05   1.2809966703183559e-05   6.925159698052729e-05
-8.453005353558263e-05   2.4558398813492692e-05   4.3943865145740484e-05
-8.453005353558263e-05   2.4558398813492692e-05   4.3943865145740484e-05
-8.453005353558263e-05   2.4558398813492692e-05   4.3943865145740484e-05
-8.453005353558263e-05   2.4558398813492692e-05   4.3943865145740484e-05
-0.00011305449082664953   1.876323032107708e-05   -7.073964768154924e-06
-0.00011305449082664953   1.876323032107708e-05   -7.073964768154924e-06
-0.00011305449082664953   1.876323032107708e-05   -7.073964768154924e-06
-0.00011305449082664953   1.876323032107708e-05   -7.073964768154924e-06
-0.00011714047166831243   2.390692954833823e-05   5.4111089065393e-05
-0.00011714047166831243   2.390692954833823e-05   5.4111089065393e-05
-0.00011714047166831243   2.390692954833823e-05   5.4111089065393e-05
-0.00011714047166831243   2.390692954833823e-05   5.4111089065393e-05
-8.612593596449324e-05   1.76880831279716e-05   6.151504077915072e-06
-8.612593596449324e-05   1.76880831279716e-05   6.151504077915072e-06
-8.612593596449324e-05   1.76880831279716e-05   6.151504077915072e-06
-8.612593596449324e-05   1.76880831279716e-05   6.151504077915072e-06
-9.656645084136638e-05   2.0847540334573145e-05   2.1656687882080396e-05
-9.656645084136638e-05   2.0847540334573145e-05   2.1656687882080396e-05
-9.656645084136638e-05   2.0847540334573145e-05   2.1656687882080396e-05
-9.656645084136638e-05   2.0847540334573145e-05   2.1656687882080396e-05
-8.612593596449302e-05   2.3906929548339097e-05   5.7842396917612716e-05
-8.612593596449302e-05   2.3906929548339097e-05   5.7842396917612716e-05
-8.612593596449302e-05   2.3906929548339097e-05   5.7842396917612716e-05
-8.612593596449302e-05   2.3906929548339097e-05   5.7842396917612716e-05
-0.00011714047166831243   1.76880831279716e-05   2.4201962256953542e-06
-0.00011714047166831243   1.76880831279716e-05   2.4201962256953542e-06
-0.00011714047166831243   1.76880831279716e-05   2.4201962256953542e-06
-0.00011714047166831243   1.76880831279716e-05   2.4201962256953542e-06
-0.00012066372188678344   2.3126573210718523e-05   6.402180782305675e-05
-0.00012066372188678344   2.3126573210718523e-05   6.402180782305675e-05
-0.00012066372188678344   2.3126573210718523e-05   6.402180782305675e-05
-0.00012066372188678344   2.3126573210718523e-05   6.402180782305675e-05
-8.801823896927561e-05   1.6797444588182928e-05   1.3410146800732535e-05
-8.801823896927561e-05   1.6797444588182928e-05   1.3410146800732535e-05
-8.801823896927561e-05   1.6797444588182928e-05   1.3410146800732535e-05
-8.801823896927561e-05   1.6797444588182928e-05   1.3410146800732535e-05
-0.00010047791422877262   2.0563719642773676e-05   3.191650720047552e-05
-0.00010047791422877262   2.0563719642773676e-05   3.191650720047552e-05
-0.00010047791422877262   2.0563719642773676e-05   3.191650720047552e-05
-0.00010047791422877262   2.0563719642773676e-05   3.191650720047552e-05
-8.801823896927561e-05   2.3126573210718523e-05   6.78192849965782e-05
-8.801823896927561e-05   2.3126573210718523e-05   6.78192849965782e-05
-8.801823896927561e-05   2.3126573210718523e-05   6.78192849965782e-05
-8.801823896927561e-05   2.3126573210718523e-05   6.78192849965782e-05
-0.00012066372188678344   1.6797444588182928e-05   9.612669627211091e-06
-0.00012066372188678344   1.6797444588182928e-05   9.612669627211091e-06
-0.00012066372188678344   1.6797444588182928e-05   9.612669627211091e-06
-0.00012066372188678344   1.6797444588182928e-05   9.612669627211091e-06
-0.0001248863496264073   2.0520326479797624e-05   8.15753191739585e-05
-0.0001248863496264073   2.0520326479797624e-05   8.15753191739585e-05
-0.0001248863496264073   2.0520326479797624e-05   8.15753191739585e-05
-0.0001248863496264073   2.0520326479797624e-05   8.15753191739585e-05
-8.964500792513165e-05   1.4387488221447031e-05   2.6519452626842712e-05
-8.964500792513165e-05   1.4387488221447031e-05   2.6519452626842712e-05
-8.964500792513165e-05   1.4387488221447031e-05   2.6519452626842712e-05
-8.964500792513165e-05   1.4387488221447031e-05   2.6519452626842712e-05
-0.00010147747696176359   1.9467874615081322e-05   4.319200251838356e-05
-0.00010147747696176359   1.9467874615081322e-05   4.319200251838356e-05
-0.00010147747696176359   1.9467874615081322e-05   4.319200251838356e-05
-0.00010147747696176359   1.9467874615081322e-05   4.319200251838356e-05
8.998861317468653e-06   2.3671126184697522e-07   5.186467739891993e-05
8.998861317468653e-06   2.3671126184697522e-07   5.186467739891993e-05
8.998861317468653e-06   2.3671126184697522e-07   5.186467739891993e-05
8.998861317468653e-06   2.3671126184697522e-07   5.186467739891993e-05
-1.1433429856989817e-05   5.798310925201819e-06   2.114781857283539e-05
-1.1433429856989817e-05   5.798310925201819e-06   2.114781857283539e-05
-1.1433429856989817e-05   5.798310925201819e-06   2.114781857283539e-05
-1.1433429856989817e-05   5.798310925201819e-06   2.114781857283539e-05
-1.2656776843035844e-05   -1.7338053193713746e-06   5.1251691033013785e-05
-1.2656776843035844e-05   -1.7338053193713746e-06   5.1251691033013785e-05
-1.2656776843035844e-05   -1.7338053193713746e-06   5.1251691033013785e-05
-1.2656776843035844e-05   -1.7338053193713746e-06   5.1251691033013785e-05
5.266367069763067e-06   3.960847914421736e-06   1.796299257140674e-05
5.266367069763067e-06   3.960847914421736e-06   1.796299257140674e-05
5.266367069763067e-06   3.960847914421736e-06   1.796299257140674e-05
5.266367069763067e-06   3.960847914421736e-06   1.796299257140674e-05
-2.9136735810705023e-06   1.7537304948913104e-06   3.2920664107847656e-05
-2.9136735810705023e-06   1.7537304948913104e-06   3.2920664107847656e-05
-2.9136735810705023e-06   1.7537304948913104e-06   3.2920664107847656e-05
-2.9136735810705023e-06   1.7537304948913104e-06   3.2920664107847656e-05
5.266367069763067e-06   -1.7338053193713746e-06   4.7834899092738265e-05
5.266367069763067e-06   -1.7338053193713746e-06   4.7834899092738265e-05
5.266367069763067e-06   -1.7338053193713746e-06   4.7834899092738265e-05
5.266367069763067e-06   -1.7338053193713746e-06   4.7834899092738265e-05
-1.2656776843035844e-05   3.960847914421736e-06   2.137978451168237e-05
-1.2656776843035844e-05   3.960847914421736e-06   2.137978451168237e-05
-1.2656776843035844e-05   3.960847914421736e-06   2.137978451168237e-05
-1.2656776843035844e-05   3.960847914421736e-06   2.137978451168237e-05
-1.416608611329137e-05   -2.588913537036365e-06   4.997187628043645e-05
-1.416608611329137e-05   -2.588913537036365e-06   4.997187628043645e-05
-1.416608611329137e-05   -2.588913537036365e-06   4.997187628043645e-05
-1.416608611329137e-05   -2.588913537036365e-06   4.997187628043645e-05
2.032521688677836e-06   2.941548427838961e-06   1.9655919431562502e-05
2.032521688677836e-06   2.941548427838961e-06   1.9655919431562502e-05
2.032521688677836e-06   2.941548427838961e-06   1.9655919431562502e-05
2.032521688677836e-06   2.941548427838961e-06   1.9655919431562502e-05
-4.936122163135207e-06   9.701844542429894e-07   3.2453144235408985e-05
-4.936122163135207e-06   9.701844542429894e-07   3.2453144235408985e-05
-4.936122163135207e-06   9.701844542429894e-07   3.2453144235408985e-05
-4.936122163135207e-06   9.701844542429894e-07   3.2453144235408985e-05
2.032521688677836e-06   -2.588913537036365e-06   4.665359910151039e-05
2.032521688677836e-06   -2.588913537036365e-06   4.665359910151039e-05
2.032521688677836e-06   -2.588913537036365e-06   4.665359910151039e-05
2.032521688677836e-06   -2.588913537036365e-06   4.665359910151039e-05
-1.4166086113291343e-05   2.941548427838961e-06   2.2974196610487697e-05
-1.4166086113291343e-05   2.941548427838961e-06   2.2974196610487697e-05
-1.4166086113291343e-05   2.941548427838961e-06   2.2974196610487697e-05
-1.4166086113291343e-05   2.941548427838961e-06   2.2974196610487697e-05
-1.5424266426554436e-05   -4.023690746656622e-06   4.960661765281713e-05
-1.5424266426554436e-05   -4.023690746656622e-06   4.960661765281713e-05
-1.5424266426554436e-05   -4.023690746656622e-06   4.960661765281713e-05
-1.5424266426554436e-05   -4.023690746656622e-06   4.960661765281713e-05
-2.020600539683775e-06   7.72063567603884e-07   2.4389721919477526e-05
-2.020600539683775e-06   7.72063567603884e-07   2.4389721919477526e-05
-2.020600539683775e-06   7.72063567603884e-07   2.4389721919477526e-05
-2.020600539683775e-06   7.72063567603884e-07   2.4389721919477526e-05
-7.086796642441487e-06   2.404474106400961e-07   3.315235178491803e-05
-7.086796642441487e-06   2.404474106400961e-07   3.315235178491803e-05
-7.086796642441487e-06   2.404474106400961e-07   3.315235178491803e-05
-7.086796642441487e-06   2.404474106400961e-07   3.315235178491803e-05
-1.1433429856989817e-05   5.573255506518757e-06   8.363733484563051e-05
-1.1433429856989817e-05   5.573255506518757e-06   8.363733484563051e-05
-1.1433429856989817e-05   5.573255506518757e-06   8.363733484563051e-05
-1.1433429856989817e-05   5.573255506518757e-06   8.363733484563051e-05
-2.855104077356137e-05   6.655592600413995e-06   5.57573855743483e-05
-2.855104077356137e-05   6.655592600413995e-06   5.57573855743483e-05
-2.855104077356137e-05   6.655592600413995e-06   5.57573855743483e-05
-2.855104077356137e-05   6.655592600413995e-06   5.57573855743483e-05
-2.9469610779819908e-05   3.3392394600843464e-06   8.34243935178918e-05
-2.9469610779819908e-05   3.3392394600843464e-06   8.34243935178918e-05
-2.9469610779819908e-05   3.3392394600843464e-06   8.34243935178918e-05
-2.9469610779819908e-05   3.3392394600843464e-06   8.34243935178918e-05
-1.2656776843035844e-05   4.5993851610390095e-06   5.464691620267874e-05
-1.2656776843035844e-05   4.5993851610390095e-06   5.464691620267874e-05
-1.2656776843035844e-05   4.5993851610390095e-06   5.464691620267874e-05
-1.2656776843035844e-05   4.5993851610390095e-06   5.464691620267874e-05
-2.064196091200955e-05   4.8077980257547545e-06   6.783050859880593e-05
-2.064196091200955e-05   4.8077980257547545e-06   6.783050859880593e-05
-2.064196091200955e-05   4.8077980257547545e-06   6.783050859880593e-05
-2.064196091200955e-05   4.8077980257547545e-06   6.783050859880593e-05
-1.2656776843035858e-05   3.3392394600843464e-06   8.266830609731865e-05
-1.2656776843035858e-05   3.3392394600843464e-06   8.266830609731865e-05
-1.2656776843035858e-05   3.3392394600843464e-06   8.266830609731865e-05
-1.2656776843035858e-05   3.3392394600843464e-06   8.266830609731865e-05
-2.9469610779819853e-05   4.5993851610390095e-06   5.5403003623251965e-05
-2.9469610779819853e-05   4.5993851610390095e-06   5.5403003623251965e-05
-2.9469610779819853e-05   4.5993851610390095e-06   5.5403003623251965e-05
-2.9469610779819853e-05   4.5993851610390095e-06   5.5403003623251965e-05
-3.0416486679427784e-05   1.4405030524548487e-06   8.362173123232803e-05
-3.0416486679427784e-05   1.4405030524548487e-06   8.362173123232803e-05
-3.0416486679427784e-05   1.4405030524548487e-06   8.362173123232803e-05
-3.0416486679427784e-05   1.4405030524548487e-06   8.362173123232803e-05
-1.4166086113291343e-05   2.6942068673202826e-06   5.578550799984814e-05
-1.4166086113291343e-05   2.6942068673202826e-06   5.578550799984814e-05
-1.4166086113291343e-05   2.6942068673202826e-06   5.578550799984814e-05
-1.4166086113291343e-05   2.6942068673202826e-06   5.578550799984814e-05
-2.1578589123002364e-05   3.3009404292521846e-06   6.777563954554229e-05
-2.1578589123002364e-05   3.3009404292521846e-06   6.777563954554229e-05
-2.1578589123002364e-05   3.3009404292521846e-06   6.777563954554229e-05
-2.1578589123002364e-05   3.3009404292521846e-06   6.777563954554229e-05
-1.416608611329137e-05   1.4405030524548487e-06   8.286950894340886e-05
-1.416608611329137e-05   1.4405030524548487e-06   8.286950894340886e-05
-1.416608611329137e-05   1.4405030524548487e-06   8.286950894340886e-05
-1.416608611329137e-05   1.4405030524548487e-06   8.286950894340886e-05
-3.0416486679427784e-05   2.6942068673202826e-06   5.653773028876734e-05
-3.0416486679427784e-05   2.6942068673202826e-06   5.653773028876734e-05
-3.0416486679427784e-05   2.6942068673202826e-06   5.653773028876734e-05
-3.0416486679427784e-05   2.6942068673202826e-06   5.653773028876734e-05
-3.134379737540201e-05   -5.064787983290533e-07   8.527886905159614e-05
-3.134379737540201e-05   -5.064787983290533e-07   8.527886905159614e-05
-3.134379737540201e-05   -5.064787983290533e-07   8.527886905159614e-05
-3.134379737540201e-05   -5.064787983290533e-07   8.527886905159614e-05
-1.5424266426554423e-05   6.226202879837731e-07   5.806885801839628e-05
-1.5424266426554423e-05   6.226202879837731e-07   5.806885801839628e-05
-1.5424266426554423e-05   6.226202879837731e-07   5.806885801839628e-05
-1.5424266426554423e-05   6.226202879837731e-07   5.806885801839628e-05
-2.2516718232644392e-05   1.8130802402682375e-06   6.91753350571754e-05
-2.2516718232644392e-05   1.8130802402682375e-06   6.91753350571754e-05
-2.2516718232644392e-05   1.8130802402682375e-06   6.91753350571754e-05
-2.2516718232644392e-05   1.8130802402682375e-06   6.91753350571754e-05
-2.8551040773561317e-05   1.0326393696688703e-05   9.419114596028117e-05
-2.8551040773561317e-05   1.0326393696688703e-05   9.419114596028117e-05
-2.8551040773561317e-05   1.0326393696688703e-05   9.419114596028117e-05
-2.8551040773561317e-05   1.0326393696688703e-05   9.419114596028117e-05
-4.5649694762606966e-05   7.934388387174224e-06   6.425818612616286e-05
-4.5649694762606966e-05   7.934388387174224e-06   6.425818612616286e-05
-4.5649694762606966e-05   7.934388387174224e-06   6.425818612616286e-05
-4.5649694762606966e-05   7.934388387174224e-06   6.425818612616286e-05
-4.642446668069863e-05   8.261259755323012e-06   9.244739800231758e-05
-4.642446668069863e-05   8.261259755323012e-06   9.244739800231758e-05
-4.642446668069863e-05   8.261259755323012e-06   9.244739800231758e-05
-4.642446668069863e-05   8.261259755323012e-06   9.244739800231758e-05
-2.9469610779819853e-05   6.023271845759844e-06   6.553209757992372e-05
-2.9469610779819853e-05   6.023271845759844e-06   6.553209757992372e-05
-2.9469610779819853e-05   6.023271845759844e-06   6.553209757992372e-05
-2.9469610779819853e-05   6.023271845759844e-06   6.553209757992372e-05
-3.7539777809179864e-05   7.985214766729858e-06   7.78052102096082e-05
-3.7539777809179864e-05   7.985214766729858e-06   7.78052102096082e-05
-3.7539777809179864e-05   7.985214766729858e-06   7.78052102096082e-05
-3.7539777809179864e-05   7.985214766729858e-06   7.78052102096082e-05
-2.9469610779819853e-05   8.261259755323012e-06   9.379019074805522e-05
-2.9469610779819853e-05   8.261259755323012e-06   9.379019074805522e-05
-2.9469610779819853e-05   8.261259755323012e-06   9.379019074805522e-05
-2.9469610779819853e-05   8.261259755323012e-06   9.379019074805522e-05
-4.642446668069863e-05   6.023271845759844e-06   6.418930483418619e-05
-4.642446668069863e-05   6.023271845759844e-06   6.418930483418619e-05
-4.642446668069863e-05   6.023271845759844e-06   6.418930483418619e-05
-4.642446668069863e-05   6.023271845759844e-06   6.418930483418619e-05
-4.725571615939975e-05   6.206537024361532e-06   9.338862164092127e-05
-4.725571615939975e-05   6.206537024361532e-06   9.338862164092127e-05
-4.725571615939975e-05   6.206537024361532e-06   9.338862164092127e-05
-4.725571615939975e-05   6.206537024361532e-06   9.338862164092127e-05
-3.0416486679427784e-05   4.080325622969616e-06   6.659896601513623e-05
-3.0416486679427784e-05   4.080325622969616e-06   6.659896601513623e-05
-3.0416486679427784e-05   4.080325622969616e-06   6.659896601513623e-05
-3.0416486679427784e-05   4.080325622969616e-06   6.659896601513623e-05
-3.820157482560104e-05   6.451789011651353e-06   7.815123489221662e-05
-3.820157482560104e-05   6.451789011651353e-06   7.815123489221662e-05
-3.820157482560104e-05   6.451789011651353e-06   7.815123489221662e-05
-3.820157482560104e-05   6.451789011651353e-06   7.815123489221662e-05
-3.0416486679427784e-05   6.206537024361532e-06   9.466434848175555e-05
-3.0416486679427784e-05   6.206537024361532e-06   9.466434848175555e-05
-3.0416486679427784e-05   6.206537024361532e-06   9.466434848175555e-05
-3.0416486679427784e-05   6.206537024361532e-06   9.466434848175555e-05
-4.725571615939964e-05   4.080325622969616e-06   6.53232391743014e-05
-4.725571615939964e-05   4.080325622969616e-06   6.53232391743014e-05
-4.725571615939964e-05   4.080325622969616e-06   6.53232391743014e-05
-4.725571615939964e-05   4.080325622969616e-06   6.53232391743014e-05
-4.806973833927262e-05   4.237630495554021e-06   9.533936522988437e-05
-4.806973833927262e-05   4.237630495554021e-06   9.533936522988437e-05
-4.806973833927262e-05   4.237630495554021e-06   9.533936522988437e-05
-4.806973833927262e-05   4.237630495554021e-06   9.533936522988437e-05
-3.134379737540201e-05   2.2356028679519115e-06   6.866401353332861e-05
-3.134379737540201e-05   2.2356028679519115e-06   6.866401353332861e-05
-3.134379737540201e-05   2.2356028679519115e-06   6.866401353332861e-05
-3.134379737540201e-05   2.2356028679519115e-06   6.866401353332861e-05
-3.8939160346021414e-05   4.940286151928694e-06   7.97001418473076e-05
-3.8939160346021414e-05   4.940286151928694e-06   7.97001418473076e-05
-3.8939160346021414e-05   4.940286151928694e-06   7.97001418473076e-05
-3.8939160346021414e-05   4.940286151928694e-06   7.97001418473076e-05
-4.5649694762607074e-05   1.5300676500757532e-05   8.137592404907452e-05
-4.5649694762607074e-05   1.5300676500757532e-05   8.137592404907452e-05
-4.5649694762607074e-05   1.5300676500757532e-05   8.137592404907452e-05
-4.5649694762607074e-05   1.5300676500757532e-05   8.137592404907452e-05
-6.244809335392886e-05   1.0696057644971838e-05   5.0615821750065945e-05
-6.244809335392886e-05   1.0696057644971838e-05   5.0615821750065945e-05
-6.244809335392886e-05   1.0696057644971838e-05   5.0615821750065945e-05
-6.244809335392886e-05   1.0696057644971838e-05   5.0615821750065945e-05
-6.329848769501159e-05   1.3215453471869011e-05   7.896937446323551e-05
-6.329848769501159e-05   1.3215453471869011e-05   7.896937446323551e-05
-6.329848769501159e-05   1.3215453471869011e-05   7.896937446323551e-05
-6.329848769501159e-05   1.3215453471869011e-05   7.896937446323551e-05
-4.642446668069863e-05   8.684716190855441e-06   5.356444847465572e-05
-4.642446668069863e-05   8.684716190855441e-06   5.356444847465572e-05
-4.642446668069863e-05   8.684716190855441e-06   5.356444847465572e-05
-4.642446668069863e-05   8.684716190855441e-06   5.356444847465572e-05
-5.433998404435163e-05   1.1880087041287943e-05   6.483975490381819e-05
-5.433998404435163e-05   1.1880087041287943e-05   6.483975490381819e-05
-5.433998404435163e-05   1.1880087041287943e-05   6.483975490381819e-05
-5.433998404435163e-05   1.1880087041287943e-05   6.483975490381819e-05
-4.642446668069863e-05   1.3215453471869011e-05   8.168781683184391e-05
-4.642446668069863e-05   1.3215453471869011e-05   8.168781683184391e-05
-4.642446668069863e-05   1.3215453471869011e-05   8.168781683184391e-05
-4.642446668069863e-05   1.3215453471869011e-05   8.168781683184391e-05
-6.329848769501137e-05   8.684716190855875e-06   5.084600610604775e-05
-6.329848769501137e-05   8.684716190855875e-06   5.084600610604775e-05
-6.329848769501137e-05   8.684716190855875e-06   5.084600610604775e-05
-6.329848769501137e-05   8.684716190855875e-06   5.084600610604775e-05
-6.447910770773627e-05   1.1323365990371405e-05   8.160078294463906e-05
-6.447910770773627e-05   1.1323365990371405e-05   8.160078294463906e-05
-6.447910770773627e-05   1.1323365990371405e-05   8.160078294463906e-05
-6.447910770773627e-05   1.1323365990371405e-05   8.160078294463906e-05
-4.725571615939975e-05   6.898242507311081e-06   5.555020445391465e-05
-4.725571615939975e-05   6.898242507311081e-06   5.555020445391465e-05
-4.725571615939975e-05   6.898242507311081e-06   5.555020445391465e-05
-4.725571615939975e-05   6.898242507311081e-06   5.555020445391465e-05
-5.480265358100058e-05   1.0393732566180494e-05   6.603113945459396e-05
-5.480265358100058e-05   1.0393732566180494e-05   6.603113945459396e-05
-5.480265358100058e-05   1.0393732566180494e-05   6.603113945459396e-05
-5.480265358100058e-05   1.0393732566180494e-05   6.603113945459396e-05
-4.725571615939975e-05   1.1323365990371405e-05   8.425585703447386e-05
-4.725571615939975e-05   1.1323365990371405e-05   8.425585703447386e-05
-4.725571615939975e-05   1.1323365990371405e-05   8.425585703447386e-05
-4.725571615939975e-05   1.1323365990371405e-05   8.425585703447386e-05
-6.447910770773606e-05   6.898242507311081e-06   5.289513036407811e-05
-6.447910770773606e-05   6.898242507311081e-06   5.289513036407811e-05
-6.447910770773606e-05   6.898242507311081e-06   5.289513036407811e-05
-6.447910770773606e-05   6.898242507311081e-06   5.289513036407811e-05
-6.542683685368503e-05   9.305307934613823e-06   8.453825765613113e-05
-6.542683685368503e-05   9.305307934613823e-06   8.453825765613113e-05
-6.542683685368503e-05   9.305307934613823e-06   8.453825765613113e-05
-6.542683685368503e-05   9.305307934613823e-06   8.453825765613113e-05
-4.806973833927251e-05   5.08143396375782e-06   5.8144084514623806e-05
-4.806973833927251e-05   5.08143396375782e-06   5.8144084514623806e-05
-4.806973833927251e-05   5.08143396375782e-06   5.8144084514623806e-05
-4.806973833927251e-05   5.08143396375782e-06   5.8144084514623806e-05
-5.5777529918651296e-05   8.983708069731922e-06   6.864903935000551e-05
-5.5777529918651296e-05   8.983708069731922e-06   6.864903935000551e-05
-5.5777529918651296e-05   8.983708069731922e-06   6.864903935000551e-05
-5.5777529918651296e-05   8.983708069731922e-06   6.864903935000551e-05
-6.244809335392886e-05   1.8763230321076213e-05   3.5778101950533284e-05
-6.244809335392886e-05   1.8763230321076213e-05   3.5778101950533284e-05
-6.244809335392886e-05   1.8763230321076213e-05   3.5778101950533284e-05
-6.244809335392886e-05   1.8763230321076213e-05   3.5778101950533284e-05
-7.54940494127308e-05   1.2584201148883086e-05   1.0327424349214267e-05
-7.54940494127308e-05   1.2584201148883086e-05   1.0327424349214267e-05
-7.54940494127308e-05   1.2584201148883086e-05   1.0327424349214267e-05
-7.54940494127308e-05   1.2584201148883086e-05   1.0327424349214267e-05
-7.873910670525876e-05   1.76880831279716e-05   4.1900658707275454e-05
-7.873910670525876e-05   1.76880831279716e-05   4.1900658707275454e-05
-7.873910670525876e-05   1.76880831279716e-05   4.1900658707275454e-05
-7.873910670525876e-05   1.76880831279716e-05   4.1900658707275454e-05
-6.329848769501137e-05   1.1245000566779701e-05   2.0032143226912658e-05
-6.329848769501137e-05   1.1245000566779701e-05   2.0032143226912658e-05
-6.329848769501137e-05   1.1245000566779701e-05   2.0032143226912658e-05
-6.329848769501137e-05   1.1245000566779701e-05   2.0032143226912658e-05
-6.75698374753888e-05   1.4928446926795041e-05   2.4940991711531243e-05
-6.75698374753888e-05   1.4928446926795041e-05   2.4940991711531243e-05
-6.75698374753888e-05   1.4928446926795041e-05   2.4940991711531243e-05
-6.75698374753888e-05   1.4928446926795041e-05   2.4940991711531243e-05
-6.329848769501159e-05   1.76880831279716e-05   4.5766508243990766e-05
-6.329848769501159e-05   1.76880831279716e-05   4.5766508243990766e-05
-6.329848769501159e-05   1.76880831279716e-05   4.5766508243990766e-05
-6.329848769501159e-05   1.76880831279716e-05   4.5766508243990766e-05
-7.873910670525897e-05   1.1245000566779701e-05   1.6166293690196478e-05
-7.873910670525897e-05   1.1245000566779701e-05   1.6166293690196478e-05
-7.873910670525897e-05   1.1245000566779701e-05   1.6166293690196478e-05
-7.873910670525897e-05   1.1245000566779701e-05   1.6166293690196478e-05
-8.152921963061176e-05   1.6797444588182928e-05   4.9357296204671774e-05
-8.152921963061176e-05   1.6797444588182928e-05   4.9357296204671774e-05
-8.152921963061176e-05   1.6797444588182928e-05   4.9357296204671774e-05
-8.152921963061176e-05   1.6797444588182928e-05   4.9357296204671774e-05
-6.447910770773606e-05   1.032803551584676e-05   2.482208844328121e-05
-6.447910770773606e-05   1.032803551584676e-05   2.482208844328121e-05
-6.447910770773606e-05   1.032803551584676e-05   2.482208844328121e-05
-6.447910770773606e-05   1.032803551584676e-05   2.482208844328121e-05
-7.031241257279006e-05   1.4397750797476468e-05   3.2102434049395816e-05
-7.031241257279006e-05   1.4397750797476468e-05   3.2102434049395816e-05
-7.031241257279006e-05   1.4397750797476468e-05   3.2102434049395816e-05
-7.031241257279006e-05   1.4397750797476468e-05   3.2102434049395816e-05
-6.447910770773606e-05   1.6797444588182928e-05   5.3238941648073475e-05
-6.447910770773606e-05   1.6797444588182928e-05   5.3238941648073475e-05
-6.447910770773606e-05   1.6797444588182928e-05   5.3238941648073475e-05
-6.447910770773606e-05   1.6797444588182928e-05   5.3238941648073475e-05
-8.152921963061198e-05   1.032803551584676e-05   2.0940442999879943e-05
-8.152921963061198e-05   1.032803551584676e-05   2.0940442999879943e-05
-8.152921963061198e-05   1.032803551584676e-05   2.0940442999879943e-05
-8.152921963061198e-05   1.032803551584676e-05   2.0940442999879943e-05
-8.509101237385631e-05   1.4387488221446164e-05   6.28626781482497e-05
-8.509101237385631e-05   1.4387488221446164e-05   6.28626781482497e-05
-8.509101237385631e-05   1.4387488221446164e-05   6.28626781482497e-05
-8.509101237385631e-05   1.4387488221446164e-05   6.28626781482497e-05
-6.542683685368503e-05   8.23602811201099e-06   3.377992834695861e-05
-6.542683685368503e-05   8.23602811201099e-06   3.377992834695861e-05
-6.542683685368503e-05   8.23602811201099e-06   3.377992834695861e-05
-6.542683685368503e-05   8.23602811201099e-06   3.377992834695861e-05
-7.110817209660233e-05   1.339866919886773e-05   4.015123576637473e-05
-7.110817209660233e-05   1.339866919886773e-05   4.015123576637473e-05
-7.110817209660233e-05   1.339866919886773e-05   4.015123576637473e-05
-7.110817209660233e-05   1.339866919886773e-05   4.015123576637473e-05
-3.221461605801339e-05   5.798310925201819e-06   3.675206226621316e-05
-3.221461605801339e-05   5.798310925201819e-06   3.675206226621316e-05
-3.221461605801339e-05   5.798310925201819e-06   3.675206226621316e-05
-3.221461605801339e-05   5.798310925201819e-06   3.675206226621316e-05
-3.465825239849541e-05   1.084772740225521e-05   3.57089849183079e-05
-3.465825239849541e-05   1.084772740225521e-05   3.57089849183079e-05
-3.465825239849541e-05   1.084772740225521e-05   3.57089849183079e-05
-3.465825239849541e-05   1.084772740225521e-05   3.57089849183079e-05
-3.5520868714087724e-05   3.960847914421736e-06   3.963623688576991e-05
-3.5520868714087724e-05   3.960847914421736e-06   3.963623688576991e-05
-3.5520868714087724e-05   3.960847914421736e-06   3.963623688576991e-05
-3.5520868714087724e-05   3.960847914421736e-06   3.963623688576991e-05
-3.590138267812212e-05   8.495711460037008e-06   3.754950869845798e-05
-3.590138267812212e-05   8.495711460037008e-06   3.754950869845798e-05
-3.590138267812212e-05   8.495711460037008e-06   3.754950869845798e-05
-3.590138267812212e-05   8.495711460037008e-06   3.754950869845798e-05
-3.369788457350768e-05   6.811231012379161e-06   3.4887700126028705e-05
-3.369788457350768e-05   6.811231012379161e-06   3.4887700126028705e-05
-3.369788457350768e-05   6.811231012379161e-06   3.4887700126028705e-05
-3.369788457350768e-05   6.811231012379161e-06   3.4887700126028705e-05
-3.590138267812223e-05   3.960847914421736e-06   3.6915318758400095e-05
-3.590138267812223e-05   3.960847914421736e-06   3.6915318758400095e-05
-3.590138267812223e-05   3.960847914421736e-06   3.6915318758400095e-05
-3.590138267812223e-05   3.960847914421736e-06   3.6915318758400095e-05
-3.5520868714087724e-05   8.495711460037008e-06   4.0270426825827306e-05
-3.5520868714087724e-05   8.495711460037008e-06   4.0270426825827306e-05
-3.5520868714087724e-05   8.495711460037008e-06   4.0270426825827306e-05
-3.5520868714087724e-05   8.495711460037008e-06   4.0270426825827306e-05
-3.664156314918599e-05   2.941548427838527e-06   4.0980403246475196e-05
-3.664156314918599e-05   2.941548427838527e-06   4.0980403246475196e-05
-3.664156314918599e-05   2.941548427838527e-06   4.0980403246475196e-05
-3.664156314918599e-05   2.941548427838527e-06   4.0980403246475196e-05
-3.9480470703527474e-05   6.861585670257884e-06   4.3359893491592104e-05
-3.9480470703527474e-05   6.861585670257884e-06   4.3359893491592104e-05
-3.9480470703527474e-05   6.861585670257884e-06   4.3359893491592104e-05
-3.9480470703527474e-05   6.861585670257884e-06   4.3359893491592104e-05
-3.5895467499610334e-05   5.794309094401054e-06   3.802525409724307e-05
-3.5895467499610334e-05   5.794309094401054e-06   3.802525409724307e-05
-3.5895467499610334e-05   5.794309094401054e-06   3.802525409724307e-05
-3.5895467499610334e-05   5.794309094401054e-06   3.802525409724307e-05
-3.948047070352753e-05   2.941548427838527e-06   3.8628380901022715e-05
-3.948047070352753e-05   2.941548427838527e-06   3.8628380901022715e-05
-3.948047070352753e-05   2.941548427838527e-06   3.8628380901022715e-05
-3.948047070352753e-05   2.941548427838527e-06   3.8628380901022715e-05
-3.664156314918599e-05   6.861585670257884e-06   4.571191583704372e-05
-3.664156314918599e-05   6.861585670257884e-06   4.571191583704372e-05
-3.664156314918599e-05   6.861585670257884e-06   4.571191583704372e-05
-3.664156314918599e-05   6.861585670257884e-06   4.571191583704372e-05
-3.7344422378466e-05   7.720635676034503e-07   4.5198516487140366e-05
-3.7344422378466e-05   7.720635676034503e-07   4.5198516487140366e-05
-3.7344422378466e-05   7.720635676034503e-07   4.5198516487140366e-05
-3.7344422378466e-05   7.720635676034503e-07   4.5198516487140366e-05
-4.328702083046296e-05   2.8377778233256053e-06   5.386341868703477e-05
-4.328702083046296e-05   2.8377778233256053e-06   5.386341868703477e-05
-4.328702083046296e-05   2.8377778233256053e-06   5.386341868703477e-05
-4.328702083046296e-05   2.8377778233256053e-06   5.386341868703477e-05
-3.7405899856950644e-05   4.535955974910733e-06   4.304264350689553e-05
-3.7405899856950644e-05   4.535955974910733e-06   4.304264350689553e-05
-3.7405899856950644e-05   4.535955974910733e-06   4.304264350689553e-05
-3.7405899856950644e-05   4.535955974910733e-06   4.304264350689553e-05
-3.465825239849535e-05   6.655592600413995e-06   7.374187689762092e-05
-3.465825239849535e-05   6.655592600413995e-06   7.374187689762092e-05
-3.465825239849535e-05   6.655592600413995e-06   7.374187689762092e-05
-3.465825239849535e-05   6.655592600413995e-06   7.374187689762092e-05
-3.47813591215919e-05   2.8025323293382615e-06   7.122486286314828e-05
-3.47813591215919e-05   2.8025323293382615e-06   7.122486286314828e-05
-3.47813591215919e-05   2.8025323293382615e-06   7.122486286314828e-05
-3.47813591215919e-05   2.8025323293382615e-06   7.122486286314828e-05
-3.5032568146362475e-05   4.5993851610390095e-06   7.095906324376374e-05
-3.5032568146362475e-05   4.5993851610390095e-06   7.095906324376374e-05
-3.5032568146362475e-05   4.5993851610390095e-06   7.095906324376374e-05
-3.5032568146362475e-05   4.5993851610390095e-06   7.095906324376374e-05
-3.5520868714087724e-05   1.3588762727010165e-06   7.371720285630874e-05
-3.5520868714087724e-05   1.3588762727010165e-06   7.371720285630874e-05
-3.5520868714087724e-05   1.3588762727010165e-06   7.371720285630874e-05
-3.5520868714087724e-05   1.3588762727010165e-06   7.371720285630874e-05
-3.488346237613991e-05   3.4141777905984105e-06   7.142167804899098e-05
-3.488346237613991e-05   3.4141777905984105e-06   7.142167804899098e-05
-3.488346237613991e-05   3.4141777905984105e-06   7.142167804899098e-05
-3.488346237613991e-05   3.4141777905984105e-06   7.142167804899098e-05
-3.55208687140877e-05   4.599385161039443e-06   7.290336857676506e-05
-3.55208687140877e-05   4.599385161039443e-06   7.290336857676506e-05
-3.55208687140877e-05   4.599385161039443e-06   7.290336857676506e-05
-3.55208687140877e-05   4.599385161039443e-06   7.290336857676506e-05
-3.503256814636237e-05   1.3588762727010165e-06   7.177289752330557e-05
-3.503256814636237e-05   1.3588762727010165e-06   7.177289752330557e-05
-3.503256814636237e-05   1.3588762727010165e-06   7.177289752330557e-05
-3.503256814636237e-05   1.3588762727010165e-06   7.177289752330557e-05
-3.534683705282241e-05   2.6942068673202826e-06   7.197785849874907e-05
-3.534683705282241e-05   2.6942068673202826e-06   7.197785849874907e-05
-3.534683705282241e-05   2.6942068673202826e-06   7.197785849874907e-05
-3.534683705282241e-05   2.6942068673202826e-06   7.197785849874907e-05
-3.664156314918599e-05   -3.288866944907952e-07   7.594959146310802e-05
-3.664156314918599e-05   -3.288866944907952e-07   7.594959146310802e-05
-3.664156314918599e-05   -3.288866944907952e-07   7.594959146310802e-05
-3.664156314918599e-05   -3.288866944907952e-07   7.594959146310802e-05
-3.519459355990178e-05   2.210928383737827e-06   7.201408643402971e-05
-3.519459355990178e-05   2.210928383737827e-06   7.201408643402971e-05
-3.519459355990178e-05   2.210928383737827e-06   7.201408643402971e-05
-3.519459355990178e-05   2.210928383737827e-06   7.201408643402971e-05
-3.664156314918599e-05   2.6942068673202826e-06   7.379171463583502e-05
-3.664156314918599e-05   2.6942068673202826e-06   7.379171463583502e-05
-3.664156314918599e-05   2.6942068673202826e-06   7.379171463583502e-05
-3.664156314918599e-05   2.6942068673202826e-06   7.379171463583502e-05
-3.53468370528223e-05   -3.288866944907952e-07   7.41357353260209e-05
-3.53468370528223e-05   -3.288866944907952e-07   7.41357353260209e-05
-3.53468370528223e-05   -3.288866944907952e-07   7.41357353260209e-05
-3.53468370528223e-05   -3.288866944907952e-07   7.41357353260209e-05
-3.5566695316991055e-05   6.226202879837731e-07   7.409350569199296e-05
-3.5566695316991055e-05   6.226202879837731e-07   7.409350569199296e-05
-3.5566695316991055e-05   6.226202879837731e-07   7.409350569199296e-05
-3.5566695316991055e-05   6.226202879837731e-07   7.409350569199296e-05
-3.734442237846597e-05   -2.555203554533911e-06   7.896307843329362e-05
-3.734442237846597e-05   -2.555203554533911e-06   7.896307843329362e-05
-3.734442237846597e-05   -2.555203554533911e-06   7.896307843329362e-05
-3.734442237846597e-05   -2.555203554533911e-06   7.896307843329362e-05
-3.570047091274179e-05   7.886330123732521e-07   7.421685738360817e-05
-3.570047091274179e-05   7.886330123732521e-07   7.421685738360817e-05
-3.570047091274179e-05   7.886330123732521e-07   7.421685738360817e-05
-3.570047091274179e-05   7.886330123732521e-07   7.421685738360817e-05
-3.4781359121592006e-05   7.93438838717379e-06   8.136604447249928e-05
-3.4781359121592006e-05   7.93438838717379e-06   8.136604447249928e-05
-3.4781359121592006e-05   7.93438838717379e-06   8.136604447249928e-05
-3.4781359121592006e-05   7.93438838717379e-06   8.136604447249928e-05
-3.717463174994875e-05   7.721898470681998e-07   7.307993763450756e-05
-3.717463174994875e-05   7.721898470681998e-07   7.307993763450756e-05
-3.717463174994875e-05   7.721898470681998e-07   7.307993763450756e-05
-3.717463174994875e-05   7.721898470681998e-07   7.307993763450756e-05
-3.724352704102872e-05   6.023271845759844e-06   7.720072431945417e-05
-3.724352704102872e-05   6.023271845759844e-06   7.720072431945417e-05
-3.724352704102872e-05   6.023271845759844e-06   7.720072431945417e-05
-3.724352704102872e-05   6.023271845759844e-06   7.720072431945417e-05
-3.503256814636237e-05   -4.5578295587581433e-07   7.740322570932458e-05
-3.503256814636237e-05   -4.5578295587581433e-07   7.740322570932458e-05
-3.503256814636237e-05   -4.5578295587581433e-07   7.740322570932458e-05
-3.503256814636237e-05   -4.5578295587581433e-07   7.740322570932458e-05
-3.599256811927679e-05   3.452521761058546e-06   7.665824283402162e-05
-3.599256811927679e-05   3.452521761058546e-06   7.665824283402162e-05
-3.599256811927679e-05   3.452521761058546e-06   7.665824283402162e-05
-3.599256811927679e-05   3.452521761058546e-06   7.665824283402162e-05
-3.5032568146362475e-05   6.023271845759411e-06   8.108815720043539e-05
-3.5032568146362475e-05   6.023271845759411e-06   8.108815720043539e-05
-3.5032568146362475e-05   6.023271845759411e-06   8.108815720043539e-05
-3.5032568146362475e-05   6.023271845759411e-06   8.108815720043539e-05
-3.724352704102861e-05   -4.5578295587538065e-07   7.351579282834336e-05
-3.724352704102861e-05   -4.5578295587538065e-07   7.351579282834336e-05
-3.724352704102861e-05   -4.5578295587538065e-07   7.351579282834336e-05
-3.724352704102861e-05   -4.5578295587538065e-07   7.351579282834336e-05
-3.7386650389706864e-05   4.080325622969616e-06   7.843476805357782e-05
-3.7386650389706864e-05   4.080325622969616e-06   7.843476805357782e-05
-3.7386650389706864e-05   4.080325622969616e-06   7.843476805357782e-05
-3.7386650389706864e-05   4.080325622969616e-06   7.843476805357782e-05
-3.5346837052822357e-05   -1.9268846629307695e-06   7.863940533030982e-05
-3.5346837052822357e-05   -1.9268846629307695e-06   7.863940533030982e-05
-3.5346837052822357e-05   -1.9268846629307695e-06   7.863940533030982e-05
-3.5346837052822357e-05   -1.9268846629307695e-06   7.863940533030982e-05
-3.59907074135725e-05   2.232580405141498e-06   7.721684355738124e-05
-3.59907074135725e-05   2.232580405141498e-06   7.721684355738124e-05
-3.59907074135725e-05   2.232580405141498e-06   7.721684355738124e-05
-3.59907074135725e-05   2.232580405141498e-06   7.721684355738124e-05
-3.534683705282241e-05   4.080325622969616e-06   8.203909422511719e-05
-3.534683705282241e-05   4.080325622969616e-06   8.203909422511719e-05
-3.534683705282241e-05   4.080325622969616e-06   8.203909422511719e-05
-3.534683705282241e-05   4.080325622969616e-06   8.203909422511719e-05
-3.7386650389706864e-05   -1.9268846629307695e-06   7.50350791587698e-05
-3.7386650389706864e-05   -1.9268846629307695e-06   7.50350791587698e-05
-3.7386650389706864e-05   -1.9268846629307695e-06   7.50350791587698e-05
-3.7386650389706864e-05   -1.9268846629307695e-06   7.50350791587698e-05
-3.746929443354909e-05   2.2356028679519115e-06   8.062417835248909e-05
-3.746929443354909e-05   2.2356028679519115e-06   8.062417835248909e-05
-3.746929443354909e-05   2.2356028679519115e-06   8.062417835248909e-05
-3.746929443354909e-05   2.2356028679519115e-06   8.062417835248909e-05
-3.5566695316991e-05   -3.409436136462239e-06   8.084020322754015e-05
-3.5566695316991e-05   -3.409436136462239e-06   8.084020322754015e-05
-3.5566695316991e-05   -3.409436136462239e-06   8.084020322754015e-05
-3.5566695316991e-05   -3.409436136462239e-06   8.084020322754015e-05
-3.6047469321806206e-05   9.772109588806685e-07   7.900950497835785e-05
-3.6047469321806206e-05   9.772109588806685e-07   7.900950497835785e-05
-3.6047469321806206e-05   9.772109588806685e-07   7.900950497835785e-05
-3.6047469321806206e-05   9.772109588806685e-07   7.900950497835785e-05
-3.717463174994875e-05   1.0696057644971838e-05   6.618913228581026e-05
-3.717463174994875e-05   1.0696057644971838e-05   6.618913228581026e-05
-3.717463174994875e-05   1.0696057644971838e-05   6.618913228581026e-05
-3.717463174994875e-05   1.0696057644971838e-05   6.618913228581026e-05
-4.0756210456215905e-05   3.4977663296814447e-06   5.59008596528578e-05
-4.0756210456215905e-05   3.4977663296814447e-06   5.59008596528578e-05
-4.0756210456215905e-05   3.4977663296814447e-06   5.59008596528578e-05
-4.0756210456215905e-05   3.4977663296814447e-06   5.59008596528578e-05
-4.079991076903983e-05   8.684716190855441e-06   6.24947470686749e-05
-4.079991076903983e-05   8.684716190855441e-06   6.24947470686749e-05
-4.079991076903983e-05   8.684716190855441e-06   6.24947470686749e-05
-4.079991076903983e-05   8.684716190855441e-06   6.24947470686749e-05
-3.724352704102872e-05   1.8828480387732445e-06   6.0648561746571954e-05
-3.724352704102872e-05   1.8828480387732445e-06   6.0648561746571954e-05
-3.724352704102872e-05   1.8828480387732445e-06   6.0648561746571954e-05
-3.724352704102872e-05   1.8828480387732445e-06   6.0648561746571954e-05
-3.889097528653217e-05   6.3442437565168486e-06   6.0717471391765095e-05
-3.889097528653217e-05   6.3442437565168486e-06   6.0717471391765095e-05
-3.889097528653217e-05   6.3442437565168486e-06   6.0717471391765095e-05
-3.889097528653217e-05   6.3442437565168486e-06   6.0717471391765095e-05
-3.724352704102872e-05   8.684716190855875e-06   6.657586795992326e-05
-3.724352704102872e-05   8.684716190855875e-06   6.657586795992326e-05
-3.724352704102872e-05   8.684716190855875e-06   6.657586795992326e-05
-3.724352704102872e-05   8.684716190855875e-06   6.657586795992326e-05
-4.079991076903983e-05   1.8828480387732445e-06   5.656744085532294e-05
-4.079991076903983e-05   1.8828480387732445e-06   5.656744085532294e-05
-4.079991076903983e-05   1.8828480387732445e-06   5.656744085532294e-05
-4.079991076903983e-05   1.8828480387732445e-06   5.656744085532294e-05
-4.122347141732982e-05   6.898242507311081e-06   6.482379167115516e-05
-4.122347141732982e-05   6.898242507311081e-06   6.482379167115516e-05
-4.122347141732982e-05   6.898242507311081e-06   6.482379167115516e-05
-4.122347141732982e-05   6.898242507311081e-06   6.482379167115516e-05
-3.738665038970697e-05   5.016730705853512e-07   6.226703162048549e-05
-3.738665038970697e-05   5.016730705853512e-07   6.226703162048549e-05
-3.738665038970697e-05   5.016730705853512e-07   6.226703162048549e-05
-3.738665038970697e-05   5.016730705853512e-07   6.226703162048549e-05
-3.8759050882974184e-05   5.013503702314993e-06   6.184726739689008e-05
-3.8759050882974184e-05   5.013503702314993e-06   6.184726739689008e-05
-3.8759050882974184e-05   5.013503702314993e-06   6.184726739689008e-05
-3.8759050882974184e-05   5.013503702314993e-06   6.184726739689008e-05
-3.7386650389706864e-05   6.898242507311081e-06   6.866173333318912e-05
-3.7386650389706864e-05   6.898242507311081e-06   6.866173333318912e-05
-3.7386650389706864e-05   6.898242507311081e-06   6.866173333318912e-05
-3.7386650389706864e-05   6.898242507311081e-06   6.866173333318912e-05
-4.122347141732982e-05   5.016730705853512e-07   5.842908995845023e-05
-4.122347141732982e-05   5.016730705853512e-07   5.842908995845023e-05
-4.122347141732982e-05   5.016730705853512e-07   5.842908995845023e-05
-4.122347141732982e-05   5.016730705853512e-07   5.842908995845023e-05
-4.146962662088618e-05   5.08143396375782e-06   6.772286989900709e-05
-4.146962662088618e-05   5.08143396375782e-06   6.772286989900709e-05
-4.146962662088618e-05   5.08143396375782e-06   6.772286989900709e-05
-4.146962662088618e-05   5.08143396375782e-06   6.772286989900709e-05
-3.746929443354898e-05   -8.895593884734876e-07   6.46382455981166e-05
-3.746929443354898e-05   -8.895593884734876e-07   6.46382455981166e-05
-3.746929443354898e-05   -8.895593884734876e-07   6.46382455981166e-05
-3.746929443354898e-05   -8.895593884734876e-07   6.46382455981166e-05
-3.893124540044337e-05   3.827193415788244e-06   6.424477886038198e-05
-3.893124540044337e-05   3.827193415788244e-06   6.424477886038198e-05
-3.893124540044337e-05   3.827193415788244e-06   6.424477886038198e-05
-3.893124540044337e-05   3.827193415788244e-06   6.424477886038198e-05
-4.0756210456215905e-05   1.2584201148883086e-05   2.528917759910031e-05
-4.0756210456215905e-05   1.2584201148883086e-05   2.528917759910031e-05
-4.0756210456215905e-05   1.2584201148883086e-05   2.528917759910031e-05
-4.0756210456215905e-05   1.2584201148883086e-05   2.528917759910031e-05
-3.992457742286711e-05   5.726266901007106e-06   2.256047210595592e-05
-3.992457742286711e-05   5.726266901007106e-06   2.256047210595592e-05
-3.992457742286711e-05   5.726266901007106e-06   2.256047210595592e-05
-3.992457742286711e-05   5.726266901007106e-06   2.256047210595592e-05
-4.1975964211025344e-05   1.1245000566779267e-05   2.7686858674855902e-05
-4.1975964211025344e-05   1.1245000566779267e-05   2.7686858674855902e-05
-4.1975964211025344e-05   1.1245000566779267e-05   2.7686858674855902e-05
-4.1975964211025344e-05   1.1245000566779267e-05   2.7686858674855902e-05
-4.079991076903983e-05   4.588291375640444e-06   2.9720795119562646e-05
-4.079991076903983e-05   4.588291375640444e-06   2.9720795119562646e-05
-4.079991076903983e-05   4.588291375640444e-06   2.9720795119562646e-05
-4.079991076903983e-05   4.588291375640444e-06   2.9720795119562646e-05
-3.953965625513856e-05   8.839248758510387e-06   2.5069796500005233e-05
-3.953965625513856e-05   8.839248758510387e-06   2.5069796500005233e-05
-3.953965625513856e-05   8.839248758510387e-06   2.5069796500005233e-05
-3.953965625513856e-05   8.839248758510387e-06   2.5069796500005233e-05
-4.079991076903961e-05   1.1245000566779701e-05   3.1680884189537635e-05
-4.079991076903961e-05   1.1245000566779701e-05   3.1680884189537635e-05
-4.079991076903961e-05   1.1245000566779701e-05   3.1680884189537635e-05
-4.079991076903961e-05   1.1245000566779701e-05   3.1680884189537635e-05
-4.197596421102556e-05   4.588291375640877e-06   2.5726769604879612e-05
-4.197596421102556e-05   4.588291375640877e-06   2.5726769604879612e-05
-4.197596421102556e-05   4.588291375640877e-06   2.5726769604879612e-05
-4.197596421102556e-05   4.588291375640877e-06   2.5726769604879612e-05
-4.377975258302333e-05   1.032803551584676e-05   3.2859706631509916e-05
-4.377975258302333e-05   1.032803551584676e-05   3.2859706631509916e-05
-4.377975258302333e-05   1.032803551584676e-05   3.2859706631509916e-05
-4.377975258302333e-05   1.032803551584676e-05   3.2859706631509916e-05
-4.122347141732982e-05   3.842963651100317e-06   3.2490281140868434e-05
-4.122347141732982e-05   3.842963651100317e-06   3.2490281140868434e-05
-4.122347141732982e-05   3.842963651100317e-06   3.2490281140868434e-05
-4.122347141732982e-05   3.842963651100317e-06   3.2490281140868434e-05
-4.099313704232423e-05   8.16694053821284e-06   2.9512004383589613e-05
-4.099313704232423e-05   8.16694053821284e-06   2.9512004383589613e-05
-4.099313704232423e-05   8.16694053821284e-06   2.9512004383589613e-05
-4.099313704232423e-05   8.16694053821284e-06   2.9512004383589613e-05
-4.1223471417329606e-05   1.032803551584676e-05   3.6750749750357175e-05
-4.1223471417329606e-05   1.032803551584676e-05   3.6750749750357175e-05
-4.1223471417329606e-05   1.032803551584676e-05   3.6750749750357175e-05
-4.1223471417329606e-05   1.032803551584676e-05   3.6750749750357175e-05
-4.377975258302333e-05   3.842963651100317e-06   2.8599238022020525e-05
-4.377975258302333e-05   3.842963651100317e-06   2.8599238022020525e-05
-4.377975258302333e-05   3.842963651100317e-06   2.8599238022020525e-05
-4.377975258302333e-05   3.842963651100317e-06   2.8599238022020525e-05
-4.648145158969675e-05   8.23602811201099e-06   4.236633719308103e-05
-4.648145158969675e-05   8.23602811201099e-06   4.236633719308103e-05
-4.648145158969675e-05   8.23602811201099e-06   4.236633719308103e-05
-4.648145158969675e-05   8.23602811201099e-06   4.236633719308103e-05
-4.146962662088596e-05   2.3581932440557875e-06   3.7539996499170135e-05
-4.146962662088596e-05   2.3581932440557875e-06   3.7539996499170135e-05
-4.146962662088596e-05   2.3581932440557875e-06   3.7539996499170135e-05
-4.146962662088596e-05   2.3581932440557875e-06   3.7539996499170135e-05
-4.148260535796701e-05   7.378754278568583e-06   3.4549291106927664e-05
-4.148260535796701e-05   7.378754278568583e-06   3.4549291106927664e-05
-4.148260535796701e-05   7.378754278568583e-06   3.4549291106927664e-05
-4.148260535796701e-05   7.378754278568583e-06   3.4549291106927664e-05
-8.197422109230108e-05   1.0847727402254776e-05   3.053104549528016e-05
-8.197422109230108e-05   1.0847727402254776e-05   3.053104549528016e-05
-8.197422109230108e-05   1.0847727402254776e-05   3.053104549528016e-05
-8.197422109230108e-05   1.0847727402254776e-05   3.053104549528016e-05
-5.506607098383726e-05   1.5054548818809865e-05   7.79020551926531e-05
-5.506607098383726e-05   1.5054548818809865e-05   7.79020551926531e-05
-5.506607098383726e-05   1.5054548818809865e-05   7.79020551926531e-05
-5.506607098383726e-05   1.5054548818809865e-05   7.79020551926531e-05
-5.502045251194645e-05   8.495711460037008e-06   3.494216627719876e-05
-5.502045251194645e-05   8.495711460037008e-06   3.494216627719876e-05
-5.502045251194645e-05   8.495711460037008e-06   3.494216627719876e-05
-5.502045251194645e-05   8.495711460037008e-06   3.494216627719876e-05
-9.013994445878718e-05   6.237836038323072e-06   9.482937810829554e-05
-9.013994445878718e-05   6.237836038323072e-06   9.482937810829554e-05
-9.013994445878718e-05   6.237836038323072e-06   9.482937810829554e-05
-9.013994445878718e-05   6.237836038323072e-06   9.482937810829554e-05
-6.691540383732281e-05   8.953395180520598e-06   5.449247492053663e-05
-6.691540383732281e-05   8.953395180520598e-06   5.449247492053663e-05
-6.691540383732281e-05   8.953395180520598e-06   5.449247492053663e-05
-6.691540383732281e-05   8.953395180520598e-06   5.449247492053663e-05
-9.013994445878731e-05   8.495711460037008e-06   3.629689153022736e-05
-9.013994445878731e-05   8.495711460037008e-06   3.629689153022736e-05
-9.013994445878731e-05   8.495711460037008e-06   3.629689153022736e-05
-9.013994445878731e-05   8.495711460037008e-06   3.629689153022736e-05
-5.502045251194645e-05   6.237836038323072e-06   9.347465285526732e-05
-5.502045251194645e-05   6.237836038323072e-06   9.347465285526732e-05
-5.502045251194645e-05   6.237836038323072e-06   9.347465285526732e-05
-5.502045251194645e-05   6.237836038323072e-06   9.347465285526732e-05
-5.5722013237738237e-05   6.861585670257884e-06   3.9206917713249106e-05
-5.5722013237738237e-05   6.861585670257884e-06   3.9206917713249106e-05
-5.5722013237738237e-05   6.861585670257884e-06   3.9206917713249106e-05
-5.5722013237738237e-05   6.861585670257884e-06   3.9206917713249106e-05
-9.04127676428216e-05   4.525536036363749e-06   9.842647150205765e-05
-9.04127676428216e-05   4.525536036363749e-06   9.842647150205765e-05
-9.04127676428216e-05   4.525536036363749e-06   9.842647150205765e-05
-9.04127676428216e-05   4.525536036363749e-06   9.842647150205765e-05
-7.132577663906544e-05   5.644775358782132e-06   6.594327623567882e-05
-7.132577663906544e-05   5.644775358782132e-06   6.594327623567882e-05
-7.132577663906544e-05   5.644775358782132e-06   6.594327623567882e-05
-7.132577663906544e-05   5.644775358782132e-06   6.594327623567882e-05
-9.041276764282173e-05   6.861585670257884e-06   4.060854749358576e-05
-9.041276764282173e-05   6.861585670257884e-06   4.060854749358576e-05
-9.041276764282173e-05   6.861585670257884e-06   4.060854749358576e-05
-9.041276764282173e-05   6.861585670257884e-06   4.060854749358576e-05
-5.572201323773813e-05   4.525536036363749e-06   9.70248417217211e-05
-5.572201323773813e-05   4.525536036363749e-06   9.70248417217211e-05
-5.572201323773813e-05   4.525536036363749e-06   9.70248417217211e-05
-5.572201323773813e-05   4.525536036363749e-06   9.70248417217211e-05
-5.507892954863166e-05   2.8377778233256053e-06   4.667588288300264e-05
-5.507892954863166e-05   2.8377778233256053e-06   4.667588288300264e-05
-5.507892954863166e-05   2.8377778233256053e-06   4.667588288300264e-05
-5.507892954863166e-05   2.8377778233256053e-06   4.667588288300264e-05
-9.131465554263228e-05   -2.727044197508178e-06   0.00011040765275217027
-9.131465554263228e-05   -2.727044197508178e-06   0.00011040765275217027
-9.131465554263228e-05   -2.727044197508178e-06   0.00011040765275217027
-9.131465554263228e-05   -2.727044197508178e-06   0.00011040765275217027
-7.018745646285286e-05   2.7991497577675457e-06   7.187993791270592e-05
-7.018745646285286e-05   2.7991497577675457e-06   7.187993791270592e-05
-7.018745646285286e-05   2.7991497577675457e-06   7.187993791270592e-05
-7.018745646285286e-05   2.7991497577675457e-06   7.187993791270592e-05
-5.5066070983837356e-05   2.802532329338695e-06   7.088285245269847e-05
-5.5066070983837356e-05   2.802532329338695e-06   7.088285245269847e-05
-5.5066070983837356e-05   2.802532329338695e-06   7.088285245269847e-05
-5.5066070983837356e-05   2.802532329338695e-06   7.088285245269847e-05
-3.365536502470187e-05   -1.6552408252636748e-05   9.49543980354057e-05
-3.365536502470187e-05   -1.6552408252636748e-05   9.49543980354057e-05
-3.365536502470187e-05   -1.6552408252636748e-05   9.49543980354057e-05
-3.365536502470187e-05   -1.6552408252636748e-05   9.49543980354057e-05
-3.369241186609287e-05   1.3588762727010165e-06   5.9466037686505815e-05
-3.369241186609287e-05   1.3588762727010165e-06   5.9466037686505815e-05
-3.369241186609287e-05   1.3588762727010165e-06   5.9466037686505815e-05
-3.369241186609287e-05   1.3588762727010165e-06   5.9466037686505815e-05
-5.502045251194645e-05   -1.3512631429257e-05   0.00010393567671743723
-5.502045251194645e-05   -1.3512631429257e-05   0.00010393567671743723
-5.502045251194645e-05   -1.3512631429257e-05   0.00010393567671743723
-5.502045251194645e-05   -1.3512631429257e-05   0.00010393567671743723
-4.41115898832651e-05   -8.1767845088621e-06   8.255273085073166e-05
-4.41115898832651e-05   -8.1767845088621e-06   8.255273085073166e-05
-4.41115898832651e-05   -8.1767845088621e-06   8.255273085073166e-05
-4.41115898832651e-05   -8.1767845088621e-06   8.255273085073166e-05
-5.5020452511946505e-05   1.3588762727010165e-06   6.838894230767997e-05
-5.5020452511946505e-05   1.3588762727010165e-06   6.838894230767997e-05
-5.5020452511946505e-05   1.3588762727010165e-06   6.838894230767997e-05
-5.5020452511946505e-05   1.3588762727010165e-06   6.838894230767997e-05
-3.369241186609276e-05   -1.3512631429257e-05   9.501277209626242e-05
-3.369241186609276e-05   -1.3512631429257e-05   9.501277209626242e-05
-3.369241186609276e-05   -1.3512631429257e-05   9.501277209626242e-05
-3.369241186609276e-05   -1.3512631429257e-05   9.501277209626242e-05
-3.378047183504615e-05   -3.288866944907952e-07   6.134225774737665e-05
-3.378047183504615e-05   -3.288866944907952e-07   6.134225774737665e-05
-3.378047183504615e-05   -3.288866944907952e-07   6.134225774737665e-05
-3.378047183504615e-05   -3.288866944907952e-07   6.134225774737665e-05
-5.572201323773813e-05   -1.3832779347719036e-05   0.00010601382901046641
-5.572201323773813e-05   -1.3832779347719036e-05   0.00010601382901046641
-5.572201323773813e-05   -1.3832779347719036e-05   0.00010601382901046641
-5.572201323773813e-05   -1.3832779347719036e-05   0.00010601382901046641
-4.3757990085623955e-05   -7.141887033016922e-06   8.205925503478788e-05
-4.3757990085623955e-05   -7.141887033016922e-06   8.205925503478788e-05
-4.3757990085623955e-05   -7.141887033016922e-06   8.205925503478788e-05
-4.3757990085623955e-05   -7.141887033016922e-06   8.205925503478788e-05
-5.5722013237738237e-05   -3.288866944907952e-07   6.944459333931355e-05
-5.5722013237738237e-05   -3.288866944907952e-07   6.944459333931355e-05
-5.5722013237738237e-05   -3.288866944907952e-07   6.944459333931355e-05
-5.5722013237738237e-05   -3.288866944907952e-07   6.944459333931355e-05
-3.378047183504615e-05   -1.3832779347719036e-05   9.791149341852973e-05
-3.378047183504615e-05   -1.3832779347719036e-05   9.791149341852973e-05
-3.378047183504615e-05   -1.3832779347719036e-05   9.791149341852973e-05
-3.378047183504615e-05   -1.3832779347719036e-05   9.791149341852973e-05
-3.3397606697385803e-05   -2.555203554533911e-06   6.367121390706346e-05
-3.3397606697385803e-05   -2.555203554533911e-06   6.367121390706346e-05
-3.3397606697385803e-05   -2.555203554533911e-06   6.367121390706346e-05
-3.3397606697385803e-05   -2.555203554533911e-06   6.367121390706346e-05
-5.5078929548631525e-05   -1.399670383580914e-05   0.00010667165216123796
-5.5078929548631525e-05   -1.399670383580914e-05   0.00010667165216123796
-5.5078929548631525e-05   -1.399670383580914e-05   0.00010667165216123796
-5.5078929548631525e-05   -1.399670383580914e-05   0.00010667165216123796
-4.3914651164659574e-05   -8.045302437227316e-06   8.449368068213581e-05
-4.3914651164659574e-05   -8.045302437227316e-06   8.449368068213581e-05
-4.3914651164659574e-05   -8.045302437227316e-06   8.449368068213581e-05
-4.3914651164659574e-05   -8.045302437227316e-06   8.449368068213581e-05
-3.365536502470187e-05   7.721898470677661e-07   6.542228199893623e-05
-3.365536502470187e-05   7.721898470677661e-07   6.542228199893623e-05
-3.365536502470187e-05   7.721898470677661e-07   6.542228199893623e-05
-3.365536502470187e-05   7.721898470677661e-07   6.542228199893623e-05
-2.4611688251272175e-05   -1.2926173771755575e-05   7.227605845002544e-05
-2.4611688251272175e-05   -1.2926173771755575e-05   7.227605845002544e-05
-2.4611688251272175e-05   -1.2926173771755575e-05   7.227605845002544e-05
-2.4611688251272175e-05   -1.2926173771755575e-05   7.227605845002544e-05
-2.4357120806858465e-05   -4.5578295587581433e-07   5.775294274529361e-05
-2.4357120806858465e-05   -4.5578295587581433e-07   5.775294274529361e-05
-2.4357120806858465e-05   -4.5578295587581433e-07   5.775294274529361e-05
-2.4357120806858465e-05   -4.5578295587581433e-07   5.775294274529361e-05
-3.369241186609276e-05   -1.269482150126084e-05   8.065518430458234e-05
-3.369241186609276e-05   -1.269482150126084e-05   8.065518430458234e-05
-3.369241186609276e-05   -1.269482150126084e-05   8.065518430458234e-05
-3.369241186609276e-05   -1.269482150126084e-05   8.065518430458234e-05
-2.8895211086901404e-05   -6.5413343459906625e-06   6.896775737943507e-05
-2.8895211086901404e-05   -6.5413343459906625e-06   6.896775737943507e-05
-2.8895211086901404e-05   -6.5413343459906625e-06   6.896775737943507e-05
-2.8895211086901404e-05   -6.5413343459906625e-06   6.896775737943507e-05
-3.369241186609276e-05   -4.5578295587581433e-07   6.509636587252472e-05
-3.369241186609276e-05   -4.5578295587581433e-07   6.509636587252472e-05
-3.369241186609276e-05   -4.5578295587581433e-07   6.509636587252472e-05
-3.369241186609276e-05   -4.5578295587581433e-07   6.509636587252472e-05
-2.4357120806858465e-05   -1.2694821501260624e-05   7.331176117735135e-05
-2.4357120806858465e-05   -1.2694821501260624e-05   7.331176117735135e-05
-2.4357120806858465e-05   -1.2694821501260624e-05   7.331176117735135e-05
-2.4357120806858465e-05   -1.2694821501260624e-05   7.331176117735135e-05
-2.412707499661025e-05   -1.9268846629307695e-06   5.914784633190935e-05
-2.412707499661025e-05   -1.9268846629307695e-06   5.914784633190935e-05
-2.412707499661025e-05   -1.9268846629307695e-06   5.914784633190935e-05
-2.412707499661025e-05   -1.9268846629307695e-06   5.914784633190935e-05
-3.378047183504615e-05   -1.3090353695857431e-05   8.193492248239123e-05
-3.378047183504615e-05   -1.3090353695857431e-05   8.193492248239123e-05
-3.378047183504615e-05   -1.3090353695857431e-05   8.193492248239123e-05
-3.378047183504615e-05   -1.3090353695857431e-05   8.193492248239123e-05
-2.8605268797998523e-05   -6.994196297009647e-06   6.965188964800175e-05
-2.8605268797998523e-05   -6.994196297009647e-06   6.965188964800175e-05
-2.8605268797998523e-05   -6.994196297009647e-06   6.965188964800175e-05
-2.8605268797998523e-05   -6.994196297009647e-06   6.965188964800175e-05
-3.378047183504615e-05   -1.9268846629307695e-06   6.584592775166556e-05
-3.378047183504615e-05   -1.9268846629307695e-06   6.584592775166556e-05
-3.378047183504615e-05   -1.9268846629307695e-06   6.584592775166556e-05
-3.378047183504615e-05   -1.9268846629307695e-06   6.584592775166556e-05
-2.4127074996610465e-05   -1.3090353695857431e-05   7.523684106263535e-05
-2.4127074996610465e-05   -1.3090353695857431e-05   7.523684106263535e-05
-2.4127074996610465e-05   -1.3090353695857431e-05   7.523684106263535e-05
-2.4127074996610465e-05   -1.3090353695857431e-05   7.523684106263535e-05
-2.3605330626623737e-05   -3.409436136462239e-06   6.130253168368065e-05
-2.3605330626623737e-05   -3.409436136462239e-06   6.130253168368065e-05
-2.3605330626623737e-05   -3.409436136462239e-06   6.130253168368065e-05
-2.3605330626623737e-05   -3.409436136462239e-06   6.130253168368065e-05
-3.3397606697385803e-05   -1.3663605008360597e-05   8.377549312475632e-05
-3.3397606697385803e-05   -1.3663605008360597e-05   8.377549312475632e-05
-3.3397606697385803e-05   -1.3663605008360597e-05   8.377549312475632e-05
-3.3397606697385803e-05   -1.3663605008360597e-05   8.377549312475632e-05
-2.8263697699292163e-05   -7.646555821746743e-06   7.160874861596557e-05
-2.8263697699292163e-05   -7.646555821746743e-06   7.160874861596557e-05
-2.8263697699292163e-05   -7.646555821746743e-06   7.160874861596557e-05
-2.8263697699292163e-05   -7.646555821746743e-06   7.160874861596557e-05
-2.4611688251272175e-05   3.4977663296818784e-06   4.434316063516648e-05
-2.4611688251272175e-05   3.4977663296818784e-06   4.434316063516648e-05
-2.4611688251272175e-05   3.4977663296818784e-06   4.434316063516648e-05
-2.4611688251272175e-05   3.4977663296818784e-06   4.434316063516648e-05
-2.034534364259654e-05   -5.289070501874205e-06   4.618163288402563e-05
-2.034534364259654e-05   -5.289070501874205e-06   4.618163288402563e-05
-2.034534364259654e-05   -5.289070501874205e-06   4.618163288402563e-05
-2.034534364259654e-05   -5.289070501874205e-06   4.618163288402563e-05
-1.9868439858801434e-05   1.8828480387732445e-06   4.003277519704475e-05
-1.9868439858801434e-05   1.8828480387732445e-06   4.003277519704475e-05
-1.9868439858801434e-05   1.8828480387732445e-06   4.003277519704475e-05
-1.9868439858801434e-05   1.8828480387732445e-06   4.003277519704475e-05
-2.4357120806858465e-05   -6.20537940535632e-06   5.236684657695164e-05
-2.4357120806858465e-05   -6.20537940535632e-06   5.236684657695164e-05
-2.4357120806858465e-05   -6.20537940535632e-06   5.236684657695164e-05
-2.4357120806858465e-05   -6.20537940535632e-06   5.236684657695164e-05
-2.2131170592946665e-05   -1.2041625200125139e-06   4.565619942255967e-05
-2.2131170592946665e-05   -1.2041625200125139e-06   4.565619942255967e-05
-2.2131170592946665e-05   -1.2041625200125139e-06   4.565619942255967e-05
-2.2131170592946665e-05   -1.2041625200125139e-06   4.565619942255967e-05
-2.4357120806858465e-05   1.8828480387732445e-06   4.488571166352232e-05
-2.4357120806858465e-05   1.8828480387732445e-06   4.488571166352232e-05
-2.4357120806858465e-05   1.8828480387732445e-06   4.488571166352232e-05
-2.4357120806858465e-05   1.8828480387732445e-06   4.488571166352232e-05
-1.9868439858801434e-05   -6.20537940535632e-06   4.751391011047386e-05
-1.9868439858801434e-05   -6.20537940535632e-06   4.751391011047386e-05
-1.9868439858801434e-05   -6.20537940535632e-06   4.751391011047386e-05
-1.9868439858801434e-05   -6.20537940535632e-06   4.751391011047386e-05
-1.9630488084651987e-05   5.016730705853512e-07   4.193654813289087e-05
-1.9630488084651987e-05   5.016730705853512e-07   4.193654813289087e-05
-1.9630488084651987e-05   5.016730705853512e-07   4.193654813289087e-05
-1.9630488084651987e-05   5.016730705853512e-07   4.193654813289087e-05
-2.412707499661025e-05   -6.903744697304417e-06   5.387411031355493e-05
-2.412707499661025e-05   -6.903744697304417e-06   5.387411031355493e-05
-2.412707499661025e-05   -6.903744697304417e-06   5.387411031355493e-05
-2.412707499661025e-05   -6.903744697304417e-06   5.387411031355493e-05
-2.165957474935601e-05   -2.193791544179537e-06   4.6935638009587555e-05
-2.165957474935601e-05   -2.193791544179537e-06   4.6935638009587555e-05
-2.165957474935601e-05   -2.193791544179537e-06   4.6935638009587555e-05
-2.165957474935601e-05   -2.193791544179537e-06   4.6935638009587555e-05
-2.412707499661025e-05   5.016730705853512e-07   4.63797987936246e-05
-2.412707499661025e-05   5.016730705853512e-07   4.63797987936246e-05
-2.412707499661025e-05   5.016730705853512e-07   4.63797987936246e-05
-2.412707499661025e-05   5.016730705853512e-07   4.63797987936246e-05
-1.9630488084651987e-05   -6.903744697304417e-06   4.94308596528212e-05
-1.9630488084651987e-05   -6.903744697304417e-06   4.94308596528212e-05
-1.9630488084651987e-05   -6.903744697304417e-06   4.94308596528212e-05
-1.9630488084651987e-05   -6.903744697304417e-06   4.94308596528212e-05
-1.9262766452366343e-05   -8.895593884739213e-07   4.43274260813805e-05
-1.9262766452366343e-05   -8.895593884739213e-07   4.43274260813805e-05
-1.9262766452366343e-05   -8.895593884739213e-07   4.43274260813805e-05
-1.9262766452366343e-05   -8.895593884739213e-07   4.43274260813805e-05
-2.3605330626623737e-05   -7.823178347682444e-06   5.5725204414000876e-05
-2.3605330626623737e-05   -7.823178347682444e-06   5.5725204414000876e-05
-2.3605330626623737e-05   -7.823178347682444e-06   5.5725204414000876e-05
-2.3605330626623737e-05   -7.823178347682444e-06   5.5725204414000876e-05
-2.1279783199492264e-05   -3.057413544135454e-06   4.8989833153321874e-05
-2.1279783199492264e-05   -3.057413544135454e-06   4.8989833153321874e-05
-2.1279783199492264e-05   -3.057413544135454e-06   4.8989833153321874e-05
-2.1279783199492264e-05   -3.057413544135454e-06   4.8989833153321874e-05
-2.034534364259654e-05   5.72626690100754e-06   9.845431538056887e-06
-2.034534364259654e-05   5.72626690100754e-06   9.845431538056887e-06
-2.034534364259654e-05   5.72626690100754e-06   9.845431538056887e-06
-2.034534364259654e-05   5.72626690100754e-06   9.845431538056887e-06
-1.149638501559292e-05   -6.162335228583268e-07   2.078819566207757e-05
-1.149638501559292e-05   -6.162335228583268e-07   2.078819566207757e-05
-1.149638501559292e-05   -6.162335228583268e-07   2.078819566207757e-05
-1.149638501559292e-05   -6.162335228583268e-07   2.078819566207757e-05
-1.2118036235323967e-05   4.588291375640877e-06   9.923769243216658e-06
-1.2118036235323967e-05   4.588291375640877e-06   9.923769243216658e-06
-1.2118036235323967e-05   4.588291375640877e-06   9.923769243216658e-06
-1.2118036235323967e-05   4.588291375640877e-06   9.923769243216658e-06
-1.9868439858801434e-05   -8.489756544727018e-07   2.610346883374741e-05
-1.9868439858801434e-05   -8.489756544727018e-07   2.610346883374741e-05
-1.9868439858801434e-05   -8.489756544727018e-07   2.610346883374741e-05
-1.9868439858801434e-05   -8.489756544727018e-07   2.610346883374741e-05
-1.5409102098145342e-05   2.9375943348052772e-06   1.6399297239088652e-05
-1.5409102098145342e-05   2.9375943348052772e-06   1.6399297239088652e-05
-1.5409102098145342e-05   2.9375943348052772e-06   1.6399297239088652e-05
-1.5409102098145342e-05   2.9375943348052772e-06   1.6399297239088652e-05
-1.9868439858801434e-05   4.588291375640444e-06   1.3186129461283808e-05
-1.9868439858801434e-05   4.588291375640444e-06   1.3186129461283808e-05
-1.9868439858801434e-05   4.588291375640444e-06   1.3186129461283808e-05
-1.9868439858801434e-05   4.588291375640444e-06   1.3186129461283808e-05
-1.2118036235323967e-05   -8.489756544727018e-07   2.284110861567961e-05
-1.2118036235323967e-05   -8.489756544727018e-07   2.284110861567961e-05
-1.2118036235323967e-05   -8.489756544727018e-07   2.284110861567961e-05
-1.2118036235323967e-05   -8.489756544727018e-07   2.284110861567961e-05
-1.262312217660674e-05   3.842963651100317e-06   1.2991498453871885e-05
-1.262312217660674e-05   3.842963651100317e-06   1.2991498453871885e-05
-1.262312217660674e-05   3.842963651100317e-06   1.2991498453871885e-05
-1.262312217660674e-05   3.842963651100317e-06   1.2991498453871885e-05
-1.9630488084651987e-05   -1.1674377846289125e-06   2.767668249538521e-05
-1.9630488084651987e-05   -1.1674377846289125e-06   2.767668249538521e-05
-1.9630488084651987e-05   -1.1674377846289125e-06   2.767668249538521e-05
-1.9630488084651987e-05   -1.1674377846289125e-06   2.767668249538521e-05
-1.5639200245850518e-05   2.36848841871193e-06   1.890298037537713e-05
-1.5639200245850518e-05   2.36848841871193e-06   1.890298037537713e-05
-1.5639200245850518e-05   2.36848841871193e-06   1.890298037537713e-05
-1.5639200245850518e-05   2.36848841871193e-06   1.890298037537713e-05
-1.9630488084651987e-05   3.842963651100317e-06   1.599773931530951e-05
-1.9630488084651987e-05   3.842963651100317e-06   1.599773931530951e-05
-1.9630488084651987e-05   3.842963651100317e-06   1.599773931530951e-05
-1.9630488084651987e-05   3.842963651100317e-06   1.599773931530951e-05
-1.262312217660674e-05   -1.1674377846286957e-06   2.467044163394802e-05
-1.262312217660674e-05   -1.1674377846286957e-06   2.467044163394802e-05
-1.262312217660674e-05   -1.1674377846286957e-06   2.467044163394802e-05
-1.262312217660674e-05   -1.1674377846286957e-06   2.467044163394802e-05
-1.3934423467831499e-05   2.3581932440557875e-06   1.8471426257655847e-05
-1.3934423467831499e-05   2.3581932440557875e-06   1.8471426257655847e-05
-1.3934423467831499e-05   2.3581932440557875e-06   1.8471426257655847e-05
-1.3934423467831499e-05   2.3581932440557875e-06   1.8471426257655847e-05
-1.9262766452366343e-05   -1.542384649472206e-06   2.969234463466369e-05
-1.9262766452366343e-05   -1.542384649472206e-06   2.969234463466369e-05
-1.9262766452366343e-05   -1.542384649472206e-06   2.969234463466369e-05
-1.9262766452366343e-05   -1.542384649472206e-06   2.969234463466369e-05
-1.5640371532254214e-05   1.9895279995680963e-06   2.1535872178386848e-05
-1.5640371532254214e-05   1.9895279995680963e-06   2.1535872178386848e-05
-1.5640371532254214e-05   1.9895279995680963e-06   2.1535872178386848e-05
-1.5640371532254214e-05   1.9895279995680963e-06   2.1535872178386848e-05
-0.00019047597280812077   1.5054548818809865e-05   7.978252319041431e-05
-0.00019047597280812077   1.5054548818809865e-05   7.978252319041431e-05
-0.00019047597280812077   1.5054548818809865e-05   7.978252319041431e-05
-0.00019047597280812077   1.5054548818809865e-05   7.978252319041431e-05
-4.499101751032894e-05   -9.08183988439044e-05   0.00025873368008910556
-4.499101751032894e-05   -9.08183988439044e-05   0.00025873368008910556
-4.499101751032894e-05   -9.08183988439044e-05   0.00025873368008910556
-4.499101751032894e-05   -9.08183988439044e-05   0.00025873368008910556
-5.266281982163536e-05   6.237836038322855e-06   4.398039476660764e-05
-5.266281982163536e-05   6.237836038322855e-06   4.398039476660764e-05
-5.266281982163536e-05   6.237836038322855e-06   4.398039476660764e-05
-5.266281982163536e-05   6.237836038322855e-06   4.398039476660764e-05
-0.00017371810974828108   -7.024744927026206e-05   0.0002916303824961677
-0.00017371810974828108   -7.024744927026206e-05   0.0002916303824961677
-0.00017371810974828108   -7.024744927026206e-05   0.0002916303824961677
-0.00017371810974828108   -7.024744927026206e-05   0.0002916303824961677
-0.00011588179243088839   -3.4987814269021346e-05   0.0001740807392997689
-0.00011588179243088839   -3.4987814269021346e-05   0.0001740807392997689
-0.00011588179243088839   -3.4987814269021346e-05   0.0001740807392997689
-0.00011588179243088839   -3.4987814269021346e-05   0.0001740807392997689
-0.00017371810974828078   6.237836038322855e-06   8.987156595175849e-05
-0.00017371810974828078   6.237836038322855e-06   8.987156595175849e-05
-0.00017371810974828078   6.237836038322855e-06   8.987156595175849e-05
-0.00017371810974828078   6.237836038322855e-06   8.987156595175849e-05
-5.266281982163547e-05   -7.024744927026206e-05   0.00024573921131101667
-5.266281982163547e-05   -7.024744927026206e-05   0.00024573921131101667
-5.266281982163547e-05   -7.024744927026206e-05   0.00024573921131101667
-5.266281982163547e-05   -7.024744927026206e-05   0.00024573921131101667
-5.378107925724021e-05   4.525536036363532e-06   4.831621376446589e-05
-5.378107925724021e-05   4.525536036363532e-06   4.831621376446589e-05
-5.378107925724021e-05   4.525536036363532e-06   4.831621376446589e-05
-5.378107925724021e-05   4.525536036363532e-06   4.831621376446589e-05
-0.00016389185299436863   -6.028972693369545e-05   0.00027072332777504826
-0.00016389185299436863   -6.028972693369545e-05   0.00027072332777504826
-0.00016389185299436863   -6.028972693369545e-05   0.00027072332777504826
-0.00016389185299436863   -6.028972693369545e-05   0.00027072332777504826
-0.00011235876106444178   -3.311120033628592e-05   0.00016852772526672463
-0.00011235876106444178   -3.311120033628592e-05   0.00016852772526672463
-0.00011235876106444178   -3.311120033628592e-05   0.00016852772526672463
-0.00011235876106444178   -3.311120033628592e-05   0.00016852772526672463
-0.00016389185299436836   4.525536036363532e-06   8.720537154650117e-05
-0.00016389185299436836   4.525536036363532e-06   8.720537154650117e-05
-0.00016389185299436836   4.525536036363532e-06   8.720537154650117e-05
-0.00016389185299436836   4.525536036363532e-06   8.720537154650117e-05
-5.378107925724029e-05   -6.028972693369545e-05   0.00023183416999301282
-5.378107925724029e-05   -6.028972693369545e-05   0.00023183416999301282
-5.378107925724029e-05   -6.028972693369545e-05   0.00023183416999301282
-5.378107925724029e-05   -6.028972693369545e-05   0.00023183416999301282
-5.876314240568407e-05   -2.727044197508178e-06   6.0570979697862465e-05
-5.876314240568407e-05   -2.727044197508178e-06   6.0570979697862465e-05
-5.876314240568407e-05   -2.727044197508178e-06   6.0570979697862465e-05
-5.876314240568407e-05   -2.727044197508178e-06   6.0570979697862465e-05
-0.00015132045492402397   -4.709511787552194e-05   0.00024145401143523676
-0.00015132045492402397   -4.709511787552194e-05   0.00024145401143523676
-0.00015132045492402397   -4.709511787552194e-05   0.00024145401143523676
-0.00015132045492402397   -4.709511787552194e-05   0.00024145401143523676
-0.00010799661977269374   -3.0548519308139276e-05   0.00015931966037592367
-0.00010799661977269374   -3.0548519308139276e-05   0.00015931966037592367
-0.00010799661977269374   -3.0548519308139276e-05   0.00015931966037592367
-0.00010799661977269374   -3.0548519308139276e-05   0.00015931966037592367
-4.4991017510328857e-05   -1.6552408252636748e-05   4.49240617847235e-05
-4.4991017510328857e-05   -1.6552408252636748e-05   4.49240617847235e-05
-4.4991017510328857e-05   -1.6552408252636748e-05   4.49240617847235e-05
-4.4991017510328857e-05   -1.6552408252636748e-05   4.49240617847235e-05
-1.5734293018923248e-05   -2.7529699891740565e-05   8.709889428693728e-05
-1.5734293018923248e-05   -2.7529699891740565e-05   8.709889428693728e-05
-1.5734293018923248e-05   -2.7529699891740565e-05   8.709889428693728e-05
-1.5734293018923248e-05   -2.7529699891740565e-05   8.709889428693728e-05
-1.7491488082126594e-05   -1.3512631429257e-05   4.049279211157169e-05
-1.7491488082126594e-05   -1.3512631429257e-05   4.049279211157169e-05
-1.7491488082126594e-05   -1.3512631429257e-05   4.049279211157169e-05
-1.7491488082126594e-05   -1.3512631429257e-05   4.049279211157169e-05
-5.266281982163547e-05   -3.676034229126671e-05   0.0001130603048612916
-5.266281982163547e-05   -3.676034229126671e-05   0.0001130603048612916
-5.266281982163547e-05   -3.676034229126671e-05   0.0001130603048612916
-5.266281982163547e-05   -3.676034229126671e-05   0.0001130603048612916
-3.101493391116861e-05   -1.935390813818255e-05   6.653663451866294e-05
-3.101493391116861e-05   -1.935390813818255e-05   6.653663451866294e-05
-3.101493391116861e-05   -1.935390813818255e-05   6.653663451866294e-05
-3.101493391116861e-05   -1.935390813818255e-05   6.653663451866294e-05
-5.2662819821635334e-05   -1.3512631429257e-05   5.444141862877684e-05
-5.2662819821635334e-05   -1.3512631429257e-05   5.444141862877684e-05
-5.2662819821635334e-05   -1.3512631429257e-05   5.444141862877684e-05
-5.2662819821635334e-05   -1.3512631429257e-05   5.444141862877684e-05
-1.7491488082126702e-05   -3.676034229126671e-05   9.911167834408585e-05
-1.7491488082126702e-05   -3.676034229126671e-05   9.911167834408585e-05
-1.7491488082126702e-05   -3.676034229126671e-05   9.911167834408585e-05
-1.7491488082126702e-05   -3.676034229126671e-05   9.911167834408585e-05
-1.899041401535312e-05   -1.3832779347718819e-05   4.5519576221391723e-05
-1.899041401535312e-05   -1.3832779347718819e-05   4.5519576221391723e-05
-1.899041401535312e-05   -1.3832779347718819e-05   4.5519576221391723e-05
-1.899041401535312e-05   -1.3832779347718819e-05   4.5519576221391723e-05
-5.378107925724029e-05   -3.347548740075148e-05   0.0001152896431230228
-5.378107925724029e-05   -3.347548740075148e-05   0.0001152896431230228
-5.378107925724029e-05   -3.347548740075148e-05   0.0001152896431230228
-5.378107925724029e-05   -3.347548740075148e-05   0.0001152896431230228
-3.487739445220264e-05   -2.3744303134340893e-05   7.794479122144767e-05
-3.487739445220264e-05   -2.3744303134340893e-05   7.794479122144767e-05
-3.487739445220264e-05   -2.3744303134340893e-05   7.794479122144767e-05
-3.487739445220264e-05   -2.3744303134340893e-05   7.794479122144767e-05
-5.378107925724021e-05   -1.3832779347718819e-05   5.73052010532112e-05
-5.378107925724021e-05   -1.3832779347718819e-05   5.73052010532112e-05
-5.378107925724021e-05   -1.3832779347718819e-05   5.73052010532112e-05
-5.378107925724021e-05   -1.3832779347718819e-05   5.73052010532112e-05
-1.899041401535312e-05   -3.347548740075148e-05   0.00010350401829120344
-1.899041401535312e-05   -3.347548740075148e-05   0.00010350401829120344
-1.899041401535312e-05   -3.347548740075148e-05   0.00010350401829120344
-1.899041401535312e-05   -3.347548740075148e-05   0.00010350401829120344
-2.141439904668836e-05   -1.399670383580914e-05   4.972051883406225e-05
-2.141439904668836e-05   -1.399670383580914e-05   4.972051883406225e-05
-2.141439904668836e-05   -1.399670383580914e-05   4.972051883406225e-05
-2.141439904668836e-05   -1.399670383580914e-05   4.972051883406225e-05
-5.876314240568412e-05   -3.141895964475691e-05   0.00012242177791775652
-5.876314240568412e-05   -3.141895964475691e-05   0.00012242177791775652
-5.876314240568412e-05   -3.141895964475691e-05   0.00012242177791775652
-5.876314240568412e-05   -3.141895964475691e-05   0.00012242177791775652
-3.708268962478498e-05   -2.1666003238775397e-05   8.043591610600248e-05
-3.708268962478498e-05   -2.1666003238775397e-05   8.043591610600248e-05
-3.708268962478498e-05   -2.1666003238775397e-05   8.043591610600248e-05
-3.708268962478498e-05   -2.1666003238775397e-05   8.043591610600248e-05
-1.5734293018923248e-05   -1.2926173771755575e-05   2.3878365387174907e-05
-1.5734293018923248e-05   -1.2926173771755575e-05   2.3878365387174907e-05
-1.5734293018923248e-05   -1.2926173771755575e-05   2.3878365387174907e-05
-1.5734293018923248e-05   -1.2926173771755575e-05   2.3878365387174907e-05
-8.740158970490445e-06   -7.338526038482904e-06   3.8887844107860035e-05
-8.740158970490445e-06   -7.338526038482904e-06   3.8887844107860035e-05
-8.740158970490445e-06   -7.338526038482904e-06   3.8887844107860035e-05
-8.740158970490445e-06   -7.338526038482904e-06   3.8887844107860035e-05
-8.35686041674561e-06   -1.2694821501260624e-05   2.7919088383804346e-05
-8.35686041674561e-06   -1.2694821501260624e-05   2.7919088383804346e-05
-8.35686041674561e-06   -1.2694821501260624e-05   2.7919088383804346e-05
-8.35686041674561e-06   -1.2694821501260624e-05   2.7919088383804346e-05
-1.7491488082126702e-05   -9.721681394739986e-06   4.1359583762193134e-05
-1.7491488082126702e-05   -9.721681394739986e-06   4.1359583762193134e-05
-1.7491488082126702e-05   -9.721681394739986e-06   4.1359583762193134e-05
-1.7491488082126702e-05   -9.721681394739986e-06   4.1359583762193134e-05
-1.1788737746053365e-05   -1.0156670060931534e-05   3.2115993068451785e-05
-1.1788737746053365e-05   -1.0156670060931534e-05   3.2115993068451785e-05
-1.1788737746053365e-05   -1.0156670060931534e-05   3.2115993068451785e-05
-1.1788737746053365e-05   -1.0156670060931534e-05   3.2115993068451785e-05
-1.7491488082126702e-05   -1.2694821501260624e-05   2.6135204319891782e-05
-1.7491488082126702e-05   -1.2694821501260624e-05   2.6135204319891782e-05
-1.7491488082126702e-05   -1.2694821501260624e-05   2.6135204319891782e-05
-1.7491488082126702e-05   -1.2694821501260624e-05   2.6135204319891782e-05
-8.35686041674561e-06   -9.721681394739986e-06   4.314346782610559e-05
-8.35686041674561e-06   -9.721681394739986e-06   4.314346782610559e-05
-8.35686041674561e-06   -9.721681394739986e-06   4.314346782610559e-05
-8.35686041674561e-06   -9.721681394739986e-06   4.314346782610559e-05
-8.326990446589017e-06   -1.3090353695857431e-05   2.9822228617367753e-05
-8.326990446589017e-06   -1.3090353695857431e-05   2.9822228617367753e-05
-8.326990446589017e-06   -1.3090353695857431e-05   2.9822228617367753e-05
-8.326990446589017e-06   -1.3090353695857431e-05   2.9822228617367753e-05
-1.899041401535312e-05   -1.2624981475666696e-05   4.7315377899859764e-05
-1.899041401535312e-05   -1.2624981475666696e-05   4.7315377899859764e-05
-1.899041401535312e-05   -1.2624981475666696e-05   4.7315377899859764e-05
-1.899041401535312e-05   -1.2624981475666696e-05   4.7315377899859764e-05
-1.2445711741404075e-05   -1.1107643803311769e-05   3.549713817319858e-05
-1.2445711741404075e-05   -1.1107643803311769e-05   3.549713817319858e-05
-1.2445711741404075e-05   -1.1107643803311769e-05   3.549713817319858e-05
-1.2445711741404075e-05   -1.1107643803311769e-05   3.549713817319858e-05
-1.899041401535312e-05   -1.3090353695857431e-05   2.9543005285253394e-05
-1.899041401535312e-05   -1.3090353695857431e-05   2.9543005285253394e-05
-1.899041401535312e-05   -1.3090353695857431e-05   2.9543005285253394e-05
-1.899041401535312e-05   -1.3090353695857431e-05   2.9543005285253394e-05
-8.326990446589017e-06   -1.2624981475666696e-05   4.759460123197423e-05
-8.326990446589017e-06   -1.2624981475666696e-05   4.759460123197423e-05
-8.326990446589017e-06   -1.2624981475666696e-05   4.759460123197423e-05
-8.326990446589017e-06   -1.2624981475666696e-05   4.759460123197423e-05
-8.37422795572668e-06   -1.3663605008360597e-05   3.2652934545678676e-05
-8.37422795572668e-06   -1.3663605008360597e-05   3.2652934545678676e-05
-8.37422795572668e-06   -1.3663605008360597e-05   3.2652934545678676e-05
-8.37422795572668e-06   -1.3663605008360597e-05   3.2652934545678676e-05
-2.141439904668847e-05   -1.5390814042805413e-05   5.542287845128151e-05
-2.141439904668847e-05   -1.5390814042805413e-05   5.542287845128151e-05
-2.141439904668847e-05   -1.5390814042805413e-05   5.542287845128151e-05
-2.141439904668847e-05   -1.5390814042805413e-05   5.542287845128151e-05
-1.3183677837834038e-05   -1.2170491489826526e-05   3.9772816238070174e-05
-1.3183677837834038e-05   -1.2170491489826526e-05   3.9772816238070174e-05
-1.3183677837834038e-05   -1.2170491489826526e-05   3.9772816238070174e-05
-1.3183677837834038e-05   -1.2170491489826526e-05   3.9772816238070174e-05
-8.740158970490445e-06   -5.289070501874205e-06   6.408630560072212e-06
-8.740158970490445e-06   -5.289070501874205e-06   6.408630560072212e-06
-8.740158970490445e-06   -5.289070501874205e-06   6.408630560072212e-06
-8.740158970490445e-06   -5.289070501874205e-06   6.408630560072212e-06
-6.406600564623239e-06   1.6655921208850435e-06   1.4470692143506289e-05
-6.406600564623239e-06   1.6655921208850435e-06   1.4470692143506289e-05
-6.406600564623239e-06   1.6655921208850435e-06   1.4470692143506289e-05
-6.406600564623239e-06   1.6655921208850435e-06   1.4470692143506289e-05
-5.148050183939211e-06   -6.205379405356537e-06   1.1202987952148996e-05
-5.148050183939211e-06   -6.205379405356537e-06   1.1202987952148996e-05
-5.148050183939211e-06   -6.205379405356537e-06   1.1202987952148996e-05
-5.148050183939211e-06   -6.205379405356537e-06   1.1202987952148996e-05
-8.35686041674561e-06   8.426442092180779e-07   1.2322190838080956e-05
-8.35686041674561e-06   8.426442092180779e-07   1.2322190838080956e-05
-8.35686041674561e-06   8.426442092180779e-07   1.2322190838080956e-05
-8.35686041674561e-06   8.426442092180779e-07   1.2322190838080956e-05
-6.7240429454339915e-06   -2.3632094373879147e-06   1.1524340573857914e-05
-6.7240429454339915e-06   -2.3632094373879147e-06   1.1524340573857914e-05
-6.7240429454339915e-06   -2.3632094373879147e-06   1.1524340573857914e-05
-6.7240429454339915e-06   -2.3632094373879147e-06   1.1524340573857914e-05
-8.35686041674561e-06   -6.205379405356537e-06   6.974173783404311e-06
-8.35686041674561e-06   -6.205379405356537e-06   6.974173783404311e-06
-8.35686041674561e-06   -6.205379405356537e-06   6.974173783404311e-06
-8.35686041674561e-06   -6.205379405356537e-06   6.974173783404311e-06
-5.148050183939211e-06   8.426442092180779e-07   1.655100500682575e-05
-5.148050183939211e-06   8.426442092180779e-07   1.655100500682575e-05
-5.148050183939211e-06   8.426442092180779e-07   1.655100500682575e-05
-5.148050183939211e-06   8.426442092180779e-07   1.655100500682575e-05
-4.4421309790185475e-06   -6.903744697304634e-06   1.2303173512627844e-05
-4.4421309790185475e-06   -6.903744697304634e-06   1.2303173512627844e-05
-4.4421309790185475e-06   -6.903744697304634e-06   1.2303173512627844e-05
-4.4421309790185475e-06   -6.903744697304634e-06   1.2303173512627844e-05
-8.326990446589017e-06   -4.976186234037023e-07   1.4934263647571524e-05
-8.326990446589017e-06   -4.976186234037023e-07   1.4934263647571524e-05
-8.326990446589017e-06   -4.976186234037023e-07   1.4934263647571524e-05
-8.326990446589017e-06   -4.976186234037023e-07   1.4934263647571524e-05
-6.061313019532246e-06   -3.0531252723931934e-06   1.2691438591870725e-05
-6.061313019532246e-06   -3.0531252723931934e-06   1.2691438591870725e-05
-6.061313019532246e-06   -3.0531252723931934e-06   1.2691438591870725e-05
-6.061313019532246e-06   -3.0531252723931934e-06   1.2691438591870725e-05
-8.326990446589125e-06   -6.903744697304634e-06   8.459497868287119e-06
-8.326990446589125e-06   -6.903744697304634e-06   8.459497868287119e-06
-8.326990446589125e-06   -6.903744697304634e-06   8.459497868287119e-06
-8.326990446589125e-06   -6.903744697304634e-06   8.459497868287119e-06
-4.4421309790185475e-06   -4.976186234037023e-07   1.8777939291911815e-05
-4.4421309790185475e-06   -4.976186234037023e-07   1.8777939291911815e-05
-4.4421309790185475e-06   -4.976186234037023e-07   1.8777939291911815e-05
-4.4421309790185475e-06   -4.976186234037023e-07   1.8777939291911815e-05
-3.3571252788088674e-06   -7.823178347682444e-06   1.3472040456692733e-05
-3.3571252788088674e-06   -7.823178347682444e-06   1.3472040456692733e-05
-3.3571252788088674e-06   -7.823178347682444e-06   1.3472040456692733e-05
-3.3571252788088674e-06   -7.823178347682444e-06   1.3472040456692733e-05
-8.37422795572668e-06   -3.2950228499657226e-06   1.9116984952924788e-05
-8.37422795572668e-06   -3.2950228499657226e-06   1.9116984952924788e-05
-8.37422795572668e-06   -3.2950228499657226e-06   1.9116984952924788e-05
-8.37422795572668e-06   -3.2950228499657226e-06   1.9116984952924788e-05
-5.503931706553398e-06   -4.125582021447861e-06   1.4831493373859868e-05
-5.503931706553398e-06   -4.125582021447861e-06   1.4831493373859868e-05
-5.503931706553398e-06   -4.125582021447861e-06   1.4831493373859868e-05
-5.503931706553398e-06   -4.125582021447861e-06   1.4831493373859868e-05
-6.406600564623239e-06   -6.162335228583268e-07   -1.1006508833901157e-05
-6.406600564623239e-06   -6.162335228583268e-07   -1.1006508833901157e-05
-6.406600564623239e-06   -6.162335228583268e-07   -1.1006508833901157e-05
-6.406600564623239e-06   -6.162335228583268e-07   -1.1006508833901157e-05
-1.103084645465895e-06   9.52979430524206e-07   -1.2257878632764528e-06
-1.103084645465895e-06   9.52979430524206e-07   -1.2257878632764528e-06
-1.103084645465895e-06   9.52979430524206e-07   -1.2257878632764528e-06
-1.103084645465895e-06   9.52979430524206e-07   -1.2257878632764528e-06
1.3604506793134762e-07   -8.48975654472485e-07   -8.700407688814072e-06
1.3604506793134762e-07   -8.48975654472485e-07   -8.700407688814072e-06
1.3604506793134762e-07   -8.48975654472485e-07   -8.700407688814072e-06
1.3604506793134762e-07   -8.48975654472485e-07   -8.700407688814072e-06
-5.148050183939211e-06   1.662767071799849e-06   -1.4006279047931898e-06
-5.148050183939211e-06   1.662767071799849e-06   -1.4006279047931898e-06
-5.148050183939211e-06   1.662767071799849e-06   -1.4006279047931898e-06
-5.148050183939211e-06   1.662767071799849e-06   -1.4006279047931898e-06
-2.86196740929411e-06   4.2995097931865407e-07   -4.471076207047866e-06
-2.86196740929411e-06   4.2995097931865407e-07   -4.471076207047866e-06
-2.86196740929411e-06   4.2995097931865407e-07   -4.471076207047866e-06
-2.86196740929411e-06   4.2995097931865407e-07   -4.471076207047866e-06
-5.148050183939211e-06   -8.48975654472485e-07   -1.0207453324578212e-05
-5.148050183939211e-06   -8.48975654472485e-07   -1.0207453324578212e-05
-5.148050183939211e-06   -8.48975654472485e-07   -1.0207453324578212e-05
-5.148050183939211e-06   -8.48975654472485e-07   -1.0207453324578212e-05
1.3604506793134762e-07   1.662767071799849e-06   1.0641773097062532e-07
1.3604506793134762e-07   1.662767071799849e-06   1.0641773097062532e-07
1.3604506793134762e-07   1.662767071799849e-06   1.0641773097062532e-07
1.3604506793134762e-07   1.662767071799849e-06   1.0641773097062532e-07
8.011498915838806e-07   -1.1674377846286957e-06   -7.873361344396066e-06
8.011498915838806e-07   -1.1674377846286957e-06   -7.873361344396066e-06
8.011498915838806e-07   -1.1674377846286957e-06   -7.873361344396066e-06
8.011498915838806e-07   -1.1674377846286957e-06   -7.873361344396066e-06
-4.4421309790185475e-06   1.4619660493905395e-06   -7.122021938050366e-07
-4.4421309790185475e-06   1.4619660493905395e-06   -7.122021938050366e-07
-4.4421309790185475e-06   1.4619660493905395e-06   -7.122021938050366e-07
-4.4421309790185475e-06   1.4619660493905395e-06   -7.122021938050366e-07
-1.9383882320402057e-06   2.8392016910888836e-07   -4.178279243931011e-06
-1.9383882320402057e-06   2.8392016910888836e-07   -4.178279243931011e-06
-1.9383882320402057e-06   2.8392016910888836e-07   -4.178279243931011e-06
-1.9383882320402057e-06   2.8392016910888836e-07   -4.178279243931011e-06
-4.4421309790185475e-06   -1.1674377846286957e-06   -9.451003644808035e-06
-4.4421309790185475e-06   -1.1674377846286957e-06   -9.451003644808035e-06
-4.4421309790185475e-06   -1.1674377846286957e-06   -9.451003644808035e-06
-4.4421309790185475e-06   -1.1674377846286957e-06   -9.451003644808035e-06
8.011498915838806e-07   1.4619660493905395e-06   8.654401066066075e-07
8.011498915838806e-07   1.4619660493905395e-06   8.654401066066075e-07
8.011498915838806e-07   1.4619660493905395e-06   8.654401066066075e-07
8.011498915838806e-07   1.4619660493905395e-06   8.654401066066075e-07
1.6393524134173526e-06   -1.542384649472206e-06   -6.679060064172706e-06
1.6393524134173526e-06   -1.542384649472206e-06   -6.679060064172706e-06
1.6393524134173526e-06   -1.542384649472206e-06   -6.679060064172706e-06
1.6393524134173526e-06   -1.542384649472206e-06   -6.679060064172706e-06
-3.3571252788088674e-06   1.326928488772189e-06   -7.318512674266836e-08
-3.3571252788088674e-06   1.326928488772189e-06   -7.318512674266836e-08
-3.3571252788088674e-06   1.326928488772189e-06   -7.318512674266836e-08
-3.3571252788088674e-06   1.326928488772189e-06   -7.318512674266836e-08
-1.0988165005682698e-06   1.1456181616689102e-07   -3.109613086913973e-06
-1.0988165005682698e-06   1.1456181616689102e-07   -3.109613086913973e-06
-1.0988165005682698e-06   1.1456181616689102e-07   -3.109613086913973e-06
-1.0988165005682698e-06   1.1456181616689102e-07   -3.109613086913973e-06
              </DataArray>   
             <DataArray type="Float64" NumberOfComponents="3" Name="Stress" format="ascii">   
-9.855447475298769   -2.4638618688246923   -2.4638618688246923
-9.855447475298769   -2.4638618688246923   -2.4638618688246923
-9.855447475298769   -2.4638618688246923   -2.4638618688246923
-9.855447475298769   -2.4638618688246923   -2.4638618688246923
-5.704234111390282   -0.17866610435424768   -0.11356000852081749
-5.704234111390282   -0.17866610435424768   -0.11356000852081749
-5.704234111390282   -0.17866610435424768   -0.11356000852081749
-5.704234111390282   -0.17866610435424768   -0.11356000852081749
-6.150360358699506   -1.5375900896748764   -1.5375900896748764
-6.150360358699506   -1.5375900896748764   -1.5375900896748764
-6.150360358699506   -1.5375900896748764   -1.5375900896748764
-6.150360358699506   -1.5375900896748764   -1.5375900896748764
-9.49938357686187   -0.778483268557729   -0.2972065286028338
-9.49938357686187   -0.778483268557729   -0.2972065286028338
-9.49938357686187   -0.778483268557729   -0.2972065286028338
-9.49938357686187   -0.778483268557729   -0.2972065286028338
-7.450817159302204   -1.2205565011636679   -0.020461668851295925
-7.450817159302204   -1.2205565011636679   -0.020461668851295925
-7.450817159302204   -1.2205565011636679   -0.020461668851295925
-7.450817159302204   -1.2205565011636679   -0.020461668851295925
-10.315828463810863   -2.578957115952716   -2.578957115952716
-10.315828463810863   -2.578957115952716   -2.578957115952716
-10.315828463810863   -2.578957115952716   -2.578957115952716
-10.315828463810863   -2.578957115952716   -2.578957115952716
-5.527370369462094   0.06942886000854731   -0.02965909317123927
-5.527370369462094   0.06942886000854731   -0.02965909317123927
-5.527370369462094   0.06942886000854731   -0.02965909317123927
-5.527370369462094   0.06942886000854731   -0.02965909317123927
-6.169136261791575   -1.5422840654478938   -1.5422840654478938
-6.169136261791575   -1.5422840654478938   -1.5422840654478938
-6.169136261791575   -1.5422840654478938   -1.5422840654478938
-6.169136261791575   -1.5422840654478938   -1.5422840654478938
-9.820246600084163   -0.786399798910064   -0.4357045262295037
-9.820246600084163   -0.786399798910064   -0.4357045262295037
-9.820246600084163   -0.786399798910064   -0.4357045262295037
-9.820246600084163   -0.786399798910064   -0.4357045262295037
-7.7302507103187255   -1.1496891869046073   -0.41039373208359764
-7.7302507103187255   -1.1496891869046073   -0.41039373208359764
-7.7302507103187255   -1.1496891869046073   -0.41039373208359764
-7.7302507103187255   -1.1496891869046073   -0.41039373208359764
-10.63980637228474   -2.659951593071185   -2.659951593071185
-10.63980637228474   -2.659951593071185   -2.659951593071185
-10.63980637228474   -2.659951593071185   -2.659951593071185
-10.63980637228474   -2.659951593071185   -2.659951593071185
-5.512639461998616   0.16820475630562415   0.029711111763381648
-5.512639461998616   0.16820475630562415   0.029711111763381648
-5.512639461998616   0.16820475630562415   0.029711111763381648
-5.512639461998616   0.16820475630562415   0.029711111763381648
-6.167506537092322   -1.5418766342730805   -1.5418766342730805
-6.167506537092322   -1.5418766342730805   -1.5418766342730805
-6.167506537092322   -1.5418766342730805   -1.5418766342730805
-6.167506537092322   -1.5418766342730805   -1.5418766342730805
-10.39297983349118   -0.6907941708001621   -0.26064641416627105
-10.39297983349118   -0.6907941708001621   -0.26064641416627105
-10.39297983349118   -0.6907941708001621   -0.26064641416627105
-10.39297983349118   -0.6907941708001621   -0.26064641416627105
-7.938136585181812   -1.1322353831681409   -0.7419934966426036
-7.938136585181812   -1.1322353831681409   -0.7419934966426036
-7.938136585181812   -1.1322353831681409   -0.7419934966426036
-7.938136585181812   -1.1322353831681409   -0.7419934966426036
-6.273098765350309   -1.5682746913375774   -1.5682746913375774
-6.273098765350309   -1.5682746913375774   -1.5682746913375774
-6.273098765350309   -1.5682746913375774   -1.5682746913375774
-6.273098765350309   -1.5682746913375774   -1.5682746913375774
-2.615416404030255   -0.17267223326552428   -0.056241600575844125
-2.615416404030255   -0.17267223326552428   -0.056241600575844125
-2.615416404030255   -0.17267223326552428   -0.056241600575844125
-2.615416404030255   -0.17267223326552428   -0.056241600575844125
-2.7474359323086106   -0.6868589830771527   -0.6868589830771527
-2.7474359323086106   -0.6868589830771527   -0.6868589830771527
-2.7474359323086106   -0.6868589830771527   -0.6868589830771527
-2.7474359323086106   -0.6868589830771527   -0.6868589830771527
-5.712260179318727   -0.6710394010085012   -0.21363988143735574
-5.712260179318727   -0.6710394010085012   -0.21363988143735574
-5.712260179318727   -0.6710394010085012   -0.21363988143735574
-5.712260179318727   -0.6710394010085012   -0.21363988143735574
-4.212103347759176   -0.7974668276167511   0.03315315855340609
-4.212103347759176   -0.7974668276167511   0.03315315855340609
-4.212103347759176   -0.7974668276167511   0.03315315855340609
-4.212103347759176   -0.7974668276167511   0.03315315855340609
-6.1503603586995   -1.537590089674875   -1.537590089674875
-6.1503603586995   -1.537590089674875   -1.537590089674875
-6.1503603586995   -1.537590089674875   -1.537590089674875
-6.1503603586995   -1.537590089674875   -1.537590089674875
-2.4688644229111008   0.020163035605953006   -0.0010234547727096532
-2.4688644229111008   0.020163035605953006   -0.0010234547727096532
-2.4688644229111008   0.020163035605953006   -0.0010234547727096532
-2.4688644229111008   0.020163035605953006   -0.0010234547727096532
-2.6875261202698595   -0.6718815300674649   -0.6718815300674649
-2.6875261202698595   -0.6718815300674649   -0.6718815300674649
-2.6875261202698595   -0.6718815300674649   -0.6718815300674649
-2.6875261202698595   -0.6718815300674649   -0.6718815300674649
-5.699281660340522   -0.5478066669099053   -0.18748845673061543
-5.699281660340522   -0.5478066669099053   -0.18748845673061543
-5.699281660340522   -0.5478066669099053   -0.18748845673061543
-5.699281660340522   -0.5478066669099053   -0.18748845673061543
-4.154856686368251   -0.6716525871210692   -0.21738626703915648
-4.154856686368251   -0.6716525871210692   -0.21738626703915648
-4.154856686368251   -0.6716525871210692   -0.21738626703915648
-4.154856686368251   -0.6716525871210692   -0.21738626703915648
-6.169136261791575   -1.5422840654478938   -1.5422840654478938
-6.169136261791575   -1.5422840654478938   -1.5422840654478938
-6.169136261791575   -1.5422840654478938   -1.5422840654478938
-6.169136261791575   -1.5422840654478938   -1.5422840654478938
-2.3721804582391295   0.16808692905020017   0.06487832096851998
-2.3721804582391295   0.16808692905020017   0.06487832096851998
-2.3721804582391295   0.16808692905020017   0.06487832096851998
-2.3721804582391295   0.16808692905020017   0.06487832096851998
-2.6332099036539423   -0.6583024759134856   -0.6583024759134856
-2.6332099036539423   -0.6583024759134856   -0.6583024759134856
-2.6332099036539423   -0.6583024759134856   -0.6583024759134856
-2.6332099036539423   -0.6583024759134856   -0.6583024759134856
-5.6589386394193735   -0.4231034209996617   -0.11781035918182856
-5.6589386394193735   -0.4231034209996617   -0.11781035918182856
-5.6589386394193735   -0.4231034209996617   -0.11781035918182856
-5.6589386394193735   -0.4231034209996617   -0.11781035918182856
-4.176918053255306   -0.5947727333959889   -0.4845386606281315
-4.176918053255306   -0.5947727333959889   -0.4845386606281315
-4.176918053255306   -0.5947727333959889   -0.4845386606281315
-4.176918053255306   -0.5947727333959889   -0.4845386606281315
-2.8551484858466503   -0.7137871214616626   -0.7137871214616626
-2.8551484858466503   -0.7137871214616626   -0.7137871214616626
-2.8551484858466503   -0.7137871214616626   -0.7137871214616626
-2.8551484858466503   -0.7137871214616626   -0.7137871214616626
0.34303621010898083   0.02315382693423256   0.0027485764769927864
0.34303621010898083   0.02315382693423256   0.0027485764769927864
0.34303621010898083   0.02315382693423256   0.0027485764769927864
0.34303621010898083   0.02315382693423256   0.0027485764769927864
0.44348474507076574   0.11087118626769144   0.11087118626769144
0.44348474507076574   0.11087118626769144   0.11087118626769144
0.44348474507076574   0.11087118626769144   0.11087118626769144
0.44348474507076574   0.11087118626769144   0.11087118626769144
-2.582885725184429   -0.44647159364985356   -0.10449533688354412
-2.582885725184429   -0.44647159364985356   -0.10449533688354412
-2.582885725184429   -0.44647159364985356   -0.10449533688354412
-2.582885725184429   -0.44647159364985356   -0.10449533688354412
-1.1035795654978668   -0.28004246622489015   0.18838805548128426
-1.1035795654978668   -0.28004246622489015   0.18838805548128426
-1.1035795654978668   -0.28004246622489015   0.18838805548128426
-1.1035795654978668   -0.28004246622489015   0.18838805548128426
-2.7474359323086106   -0.6868589830771527   -0.6868589830771527
-2.7474359323086106   -0.6868589830771527   -0.6868589830771527
-2.7474359323086106   -0.6868589830771527   -0.6868589830771527
-2.7474359323086106   -0.6868589830771527   -0.6868589830771527
0.4511808910921135   0.1944045145921575   0.06581858804996077
0.4511808910921135   0.1944045145921575   0.06581858804996077
0.4511808910921135   0.1944045145921575   0.06581858804996077
0.4511808910921135   0.1944045145921575   0.06581858804996077
0.49703617187709814   0.12425904296927454   0.12425904296927454
0.49703617187709814   0.12425904296927454   0.12425904296927454
0.49703617187709814   0.12425904296927454   0.12425904296927454
0.49703617187709814   0.12425904296927454   0.12425904296927454
-2.49299947935186   -0.30103898530241746   -0.07009087024253638
-2.49299947935186   -0.30103898530241746   -0.07009087024253638
-2.49299947935186   -0.30103898530241746   -0.07009087024253638
-2.49299947935186   -0.30103898530241746   -0.07009087024253638
-1.0601192157329729   -0.17328993865675146   -0.06390667903721182
-1.0601192157329729   -0.17328993865675146   -0.06390667903721182
-1.0601192157329729   -0.17328993865675146   -0.06390667903721182
-1.0601192157329729   -0.17328993865675146   -0.06390667903721182
-2.6875261202698595   -0.6718815300674649   -0.6718815300674649
-2.6875261202698595   -0.6718815300674649   -0.6718815300674649
-2.6875261202698595   -0.6718815300674649   -0.6718815300674649
-2.6875261202698595   -0.6718815300674649   -0.6718815300674649
0.53786251412824   0.34140128906746725   0.11124850812678747
0.53786251412824   0.34140128906746725   0.11124850812678747
0.53786251412824   0.34140128906746725   0.11124850812678747
0.53786251412824   0.34140128906746725   0.11124850812678747
0.5695648348125466   0.14239120870313665   0.14239120870313665
0.5695648348125466   0.14239120870313665   0.14239120870313665
0.5695648348125466   0.14239120870313665   0.14239120870313665
0.5695648348125466   0.14239120870313665   0.14239120870313665
-2.3951519492830893   -0.12748484743533423   0.001169667462620358
-2.3951519492830893   -0.12748484743533423   0.001169667462620358
-2.3951519492830893   -0.12748484743533423   0.001169667462620358
-2.3951519492830893   -0.12748484743533423   0.001169667462620358
-1.0299486011082895   -0.0703791727343675   -0.3139509405281352
-1.0299486011082895   -0.0703791727343675   -0.3139509405281352
-1.0299486011082895   -0.0703791727343675   -0.3139509405281352
-1.0299486011082895   -0.0703791727343675   -0.3139509405281352
0.375395254918596   0.093848813729649   0.093848813729649
0.375395254918596   0.093848813729649   0.093848813729649
0.375395254918596   0.093848813729649   0.093848813729649
0.375395254918596   0.093848813729649   0.093848813729649
3.58037115354312   0.328322501987894   0.10955383965498329
3.58037115354312   0.328322501987894   0.10955383965498329
3.58037115354312   0.328322501987894   0.10955383965498329
3.58037115354312   0.328322501987894   0.10955383965498329
3.8859285166246904   0.9714821291561726   0.9714821291561726
3.8859285166246904   0.9714821291561726   0.9714821291561726
3.8859285166246904   0.9714821291561726   0.9714821291561726
3.8859285166246904   0.9714821291561726   0.9714821291561726
0.3380170471857297   -0.2522584128294176   -0.05333770406038671
0.3380170471857297   -0.2522584128294176   -0.05333770406038671
0.3380170471857297   -0.2522584128294176   -0.05333770406038671
0.3380170471857297   -0.2522584128294176   -0.05333770406038671
2.0427280407738224   0.2542318433139768   0.3714298745827433
2.0427280407738224   0.2542318433139768   0.3714298745827433
2.0427280407738224   0.2542318433139768   0.3714298745827433
2.0427280407738224   0.2542318433139768   0.3714298745827433
0.4434847450707673   0.11087118626769182   0.11087118626769182
0.4434847450707673   0.11087118626769182   0.11087118626769182
0.4434847450707673   0.11087118626769182   0.11087118626769182
0.4434847450707673   0.11087118626769182   0.11087118626769182
3.621060612086894   0.4489523234063045   0.1696724122170593
3.621060612086894   0.4489523234063045   0.1696724122170593
3.621060612086894   0.4489523234063045   0.1696724122170593
3.621060612086894   0.4489523234063045   0.1696724122170593
3.8676856092723084   0.9669214023180771   0.9669214023180771
3.8676856092723084   0.9669214023180771   0.9669214023180771
3.8676856092723084   0.9669214023180771   0.9669214023180771
3.8676856092723084   0.9669214023180771   0.9669214023180771
0.4252567695344255   -0.11010982216234108   -0.0002691036124773255
0.4252567695344255   -0.11010982216234108   -0.0002691036124773255
0.4252567695344255   -0.11010982216234108   -0.0002691036124773255
0.4252567695344255   -0.11010982216234108   -0.0002691036124773255
2.0260231713471675   0.3330503328368881   0.09693222662702852
2.0260231713471675   0.3330503328368881   0.09693222662702852
2.0260231713471675   0.3330503328368881   0.09693222662702852
2.0260231713471675   0.3330503328368881   0.09693222662702852
0.4970361718770986   0.12425904296927465   0.12425904296927465
0.4970361718770986   0.12425904296927465   0.12425904296927465
0.4970361718770986   0.12425904296927465   0.12425904296927465
0.4970361718770986   0.12425904296927465   0.12425904296927465
3.638028811955662   0.5746751422124883   0.21088367584043338
3.638028811955662   0.5746751422124883   0.21088367584043338
3.638028811955662   0.5746751422124883   0.21088367584043338
3.638028811955662   0.5746751422124883   0.21088367584043338
3.941053616409559   0.9852634041023898   0.9852634041023898
3.941053616409559   0.9852634041023898   0.9852634041023898
3.941053616409559   0.9852634041023898   0.9852634041023898
3.941053616409559   0.9852634041023898   0.9852634041023898
0.5400324739310474   0.07809864227076424   0.059021970728008334
0.5400324739310474   0.07809864227076424   0.059021970728008334
0.5400324739310474   0.07809864227076424   0.059021970728008334
0.5400324739310474   0.07809864227076424   0.059021970728008334
2.0559041399186686   0.4514163609396424   -0.15759768499127208
2.0559041399186686   0.4514163609396424   -0.15759768499127208
2.0559041399186686   0.4514163609396424   -0.15759768499127208
2.0559041399186686   0.4514163609396424   -0.15759768499127208
3.8808843169050493   0.9702210792262623   0.9702210792262623
3.8808843169050493   0.9702210792262623   0.9702210792262623
3.8808843169050493   0.9702210792262623   0.9702210792262623
3.8808843169050493   0.9702210792262623   0.9702210792262623
8.040753837899484   0.6124049658747226   0.20811295607220337
8.040753837899484   0.6124049658747226   0.20811295607220337
8.040753837899484   0.6124049658747226   0.20811295607220337
8.040753837899484   0.6124049658747226   0.20811295607220337
8.21697244909463   2.0542431122736575   2.0542431122736575
8.21697244909463   2.0542431122736575   2.0542431122736575
8.21697244909463   2.0542431122736575   2.0542431122736575
8.21697244909463   2.0542431122736575   2.0542431122736575
3.4537888225207625   -0.19692257105018773   -0.020811641157105265
3.4537888225207625   -0.19692257105018773   -0.020811641157105265
3.4537888225207625   -0.19692257105018773   -0.020811641157105265
3.4537888225207625   -0.19692257105018773   -0.020811641157105265
5.735914429535871   0.8112785630418801   0.6481158611381936
5.735914429535871   0.8112785630418801   0.6481158611381936
5.735914429535871   0.8112785630418801   0.6481158611381936
5.735914429535871   0.8112785630418801   0.6481158611381936
3.8859285166246873   0.9714821291561718   0.9714821291561718
3.8859285166246873   0.9714821291561718   0.9714821291561718
3.8859285166246873   0.9714821291561718   0.9714821291561718
3.8859285166246873   0.9714821291561718   0.9714821291561718
7.614027996667948   0.7150336537445687   0.37873030866946766
7.614027996667948   0.7150336537445687   0.37873030866946766
7.614027996667948   0.7150336537445687   0.37873030866946766
7.614027996667948   0.7150336537445687   0.37873030866946766
7.969603857834779   1.9924009644586949   1.9924009644586949
7.969603857834779   1.9924009644586949   1.9924009644586949
7.969603857834779   1.9924009644586949   1.9924009644586949
7.969603857834779   1.9924009644586949   1.9924009644586949
3.4643578823539896   -0.1094476929538809   0.026651862998440606
3.4643578823539896   -0.1094476929538809   0.026651862998440606
3.4643578823539896   -0.1094476929538809   0.026651862998440606
3.4643578823539896   -0.1094476929538809   0.026651862998440606
5.564005151284966   0.834206821660258   0.31087109223077813
5.564005151284966   0.834206821660258   0.31087109223077813
5.564005151284966   0.834206821660258   0.31087109223077813
5.564005151284966   0.834206821660258   0.31087109223077813
3.8676856092723084   0.9669214023180771   0.9669214023180771
3.8676856092723084   0.9669214023180771   0.9669214023180771
3.8676856092723084   0.9669214023180771   0.9669214023180771
3.8676856092723084   0.9669214023180771   0.9669214023180771
7.367166921824401   0.7169226600947017   0.25569458877092766
7.367166921824401   0.7169226600947017   0.25569458877092766
7.367166921824401   0.7169226600947017   0.25569458877092766
7.367166921824401   0.7169226600947017   0.25569458877092766
7.602459942322825   1.9006149855807062   1.9006149855807062
7.602459942322825   1.9006149855807062   1.9006149855807062
7.602459942322825   1.9006149855807062   1.9006149855807062
7.602459942322825   1.9006149855807062   1.9006149855807062
3.590937154683583   0.11117848635948413   0.1087660132154161
3.590937154683583   0.11117848635948413   0.1087660132154161
3.590937154683583   0.11117848635948413   0.1087660132154161
3.590937154683583   0.11117848635948413   0.1087660132154161
5.326117163379085   0.9039189765453812   -0.08116065073903139
5.326117163379085   0.9039189765453812   -0.08116065073903139
5.326117163379085   0.9039189765453812   -0.08116065073903139
5.326117163379085   0.9039189765453812   -0.08116065073903139
-7.8031038982871   -0.5585196331924147   0.08604213418518031
-7.8031038982871   -0.5585196331924147   0.08604213418518031
-7.8031038982871   -0.5585196331924147   0.08604213418518031
-7.8031038982871   -0.5585196331924147   0.08604213418518031
-4.965020449145455   -0.11283325068110561   -0.03147819714553196
-4.965020449145455   -0.11283325068110561   -0.03147819714553196
-4.965020449145455   -0.11283325068110561   -0.03147819714553196
-4.965020449145455   -0.11283325068110561   -0.03147819714553196
-5.000115770474646   0.20146976515303439   0.1032908335637644
-5.000115770474646   0.20146976515303439   0.1032908335637644
-5.000115770474646   0.20146976515303439   0.1032908335637644
-5.000115770474646   0.20146976515303439   0.1032908335637644
-7.920015003250862   -0.5393389718356771   -0.09298597224522565
-7.920015003250862   -0.5393389718356771   -0.09298597224522565
-7.920015003250862   -0.5393389718356771   -0.09298597224522565
-7.920015003250862   -0.5393389718356771   -0.09298597224522565
-6.16916840943543   -0.21013989784950482   -0.023530066684960715
-6.16916840943543   -0.21013989784950482   -0.023530066684960715
-6.16916840943543   -0.21013989784950482   -0.023530066684960715
-6.16916840943543   -0.21013989784950482   -0.023530066684960715
-7.863261264342827   -0.38460729186791665   0.036051042327189864
-7.863261264342827   -0.38460729186791665   0.036051042327189864
-7.863261264342827   -0.38460729186791665   0.036051042327189864
-7.863261264342827   -0.38460729186791665   0.036051042327189864
-5.06526635589959   0.03834123866838235   -0.05933356707621551
-5.06526635589959   0.03834123866838235   -0.05933356707621551
-5.06526635589959   0.03834123866838235   -0.05933356707621551
-5.06526635589959   0.03834123866838235   -0.05933356707621551
-5.007012266027271   0.28697221276043394   0.11792119806609969
-5.007012266027271   0.28697221276043394   0.11792119806609969
-5.007012266027271   0.28697221276043394   0.11792119806609969
-5.007012266027271   0.28697221276043394   0.11792119806609969
-7.969340192153231   -0.4754106940136149   -0.12284558348030317
-7.969340192153231   -0.4754106940136149   -0.12284558348030317
-7.969340192153231   -0.4754106940136149   -0.12284558348030317
-7.969340192153231   -0.4754106940136149   -0.12284558348030317
-6.343583486482669   -0.1410584264160768   -0.059711111538128026
-6.343583486482669   -0.1410584264160768   -0.059711111538128026
-6.343583486482669   -0.1410584264160768   -0.059711111538128026
-6.343583486482669   -0.1410584264160768   -0.059711111538128026
-7.827182481548076   -0.23178301237549048   0.3443152879072813
-7.827182481548076   -0.23178301237549048   0.3443152879072813
-7.827182481548076   -0.23178301237549048   0.3443152879072813
-7.827182481548076   -0.23178301237549048   0.3443152879072813
-5.089728501785448   0.10278600596928333   -0.11147377393359548
-5.089728501785448   0.10278600596928333   -0.11147377393359548
-5.089728501785448   0.10278600596928333   -0.11147377393359548
-5.089728501785448   0.10278600596928333   -0.11147377393359548
-4.916990887968972   0.49955507937413235   0.21511089118300947
-4.916990887968972   0.49955507937413235   0.21511089118300947
-4.916990887968972   0.49955507937413235   0.21511089118300947
-4.916990887968972   0.49955507937413235   0.21511089118300947
-7.751062898443567   -0.3844130277466127   -0.20139116468023793
-7.751062898443567   -0.3844130277466127   -0.20139116468023793
-7.751062898443567   -0.3844130277466127   -0.20139116468023793
-7.751062898443567   -0.3844130277466127   -0.20139116468023793
-6.102445458124826   0.056042156578637536   0.1349312654569338
-6.102445458124826   0.056042156578637536   0.1349312654569338
-6.102445458124826   0.056042156578637536   0.1349312654569338
-6.102445458124826   0.056042156578637536   0.1349312654569338
-5.08887589889909   -0.6740279595359033   -0.08956073705891186
-5.08887589889909   -0.6740279595359033   -0.08956073705891186
-5.08887589889909   -0.6740279595359033   -0.08956073705891186
-5.08887589889909   -0.6740279595359033   -0.08956073705891186
-2.342155447741086   -0.05094306016825334   0.02512833463148298
-2.342155447741086   -0.05094306016825334   0.02512833463148298
-2.342155447741086   -0.05094306016825334   0.02512833463148298
-2.342155447741086   -0.05094306016825334   0.02512833463148298
-2.377454430603719   0.045652888723420326   0.03501581850725197
-2.377454430603719   0.045652888723420326   0.03501581850725197
-2.377454430603719   0.045652888723420326   0.03501581850725197
-2.377454430603719   0.045652888723420326   0.03501581850725197
-5.190312760439876   -0.49354528486762794   -0.1526790662417207
-5.190312760439876   -0.49354528486762794   -0.1526790662417207
-5.190312760439876   -0.49354528486762794   -0.1526790662417207
-5.190312760439876   -0.49354528486762794   -0.1526790662417207
-3.7495119577328047   -0.30389511973584105   -0.08549067034947891
-3.7495119577328047   -0.30389511973584105   -0.08549067034947891
-3.7495119577328047   -0.30389511973584105   -0.08549067034947891
-3.7495119577328047   -0.30389511973584105   -0.08549067034947891
-5.185611594724953   -0.5396045102576891   -0.0831140122770613
-5.185611594724953   -0.5396045102576891   -0.0831140122770613
-5.185611594724953   -0.5396045102576891   -0.0831140122770613
-5.185611594724953   -0.5396045102576891   -0.0831140122770613
-2.3728859958044333   0.10098171462769101   0.002529166599431004
-2.3728859958044333   0.10098171462769101   0.002529166599431004
-2.3728859958044333   0.10098171462769101   0.002529166599431004
-2.3728859958044333   0.10098171462769101   0.002529166599431004
-2.3693465127095443   0.16525787290801264   0.04789909472801282
-2.3693465127095443   0.16525787290801264   0.04789909472801282
-2.3693465127095443   0.16525787290801264   0.04789909472801282
-2.3693465127095443   0.16525787290801264   0.04789909472801282
-5.193434477840431   -0.36215184086766783   -0.16506580737159815
-5.193434477840431   -0.36215184086766783   -0.16506580737159815
-5.193434477840431   -0.36215184086766783   -0.16506580737159815
-5.193434477840431   -0.36215184086766783   -0.16506580737159815
-3.7431006104348663   -0.16932277005385288   -0.04060865002791664
-3.7431006104348663   -0.16932277005385288   -0.04060865002791664
-3.7431006104348663   -0.16932277005385288   -0.04060865002791664
-3.7431006104348663   -0.16932277005385288   -0.04060865002791664
-5.173282884267781   -0.408667630353701   -0.017792050022318956
-5.173282884267781   -0.408667630353701   -0.017792050022318956
-5.173282884267781   -0.408667630353701   -0.017792050022318956
-5.173282884267781   -0.408667630353701   -0.017792050022318956
-2.37229724972603   0.22897451895021825   -0.03057123639658238
-2.37229724972603   0.22897451895021825   -0.03057123639658238
-2.37229724972603   0.22897451895021825   -0.03057123639658238
-2.37229724972603   0.22897451895021825   -0.03057123639658238
-2.330478171240988   0.28549064894166953   0.09669952234644144
-2.330478171240988   0.28549064894166953   0.09669952234644144
-2.330478171240988   0.28549064894166953   0.09669952234644144
-2.330478171240988   0.28549064894166953   0.09669952234644144
-5.1387764612489315   -0.21035110735210438   -0.18391078849057133
-5.1387764612489315   -0.21035110735210438   -0.18391078849057133
-5.1387764612489315   -0.21035110735210438   -0.18391078849057133
-5.1387764612489315   -0.21035110735210438   -0.18391078849057133
-3.7283911053670558   -0.0419929968477486   0.018760747427972624
-3.7283911053670558   -0.0419929968477486   0.018760747427972624
-3.7283911053670558   -0.0419929968477486   0.018760747427972624
-3.7283911053670558   -0.0419929968477486   0.018760747427972624
-2.470165837231823   -0.5610080270228531   -0.10485864596762352
-2.470165837231823   -0.5610080270228531   -0.10485864596762352
-2.470165837231823   -0.5610080270228531   -0.10485864596762352
-2.470165837231823   -0.5610080270228531   -0.10485864596762352
0.2606218828208386   0.059289505082197866   0.09623596432829121
0.2606218828208386   0.059289505082197866   0.09623596432829121
0.2606218828208386   0.059289505082197866   0.09623596432829121
0.2606218828208386   0.059289505082197866   0.09623596432829121
0.24811198396471584   0.14213917575931728   0.007560801013157495
0.24811198396471584   0.14213917575931728   0.007560801013157495
0.24811198396471584   0.14213917575931728   0.007560801013157495
0.24811198396471584   0.14213917575931728   0.007560801013157495
-2.481367280975726   -0.3719751038729757   -0.06692044075638795
-2.481367280975726   -0.3719751038729757   -0.06692044075638795
-2.481367280975726   -0.3719751038729757   -0.06692044075638795
-2.481367280975726   -0.3719751038729757   -0.06692044075638795
-1.1214263931627444   -0.18568955177685958   -0.03523923635988843
-1.1214263931627444   -0.18568955177685958   -0.03523923635988843
-1.1214263931627444   -0.18568955177685958   -0.03523923635988843
-1.1214263931627444   -0.18568955177685958   -0.03523923635988843
-2.498508679652043   -0.4280146873073807   -0.0965878507035664
-2.498508679652043   -0.4280146873073807   -0.0965878507035664
-2.498508679652043   -0.4280146873073807   -0.0965878507035664
-2.498508679652043   -0.4280146873073807   -0.0965878507035664
0.2748447236020949   0.207770100154786   0.07559357480458415
0.2748447236020949   0.207770100154786   0.07559357480458415
0.2748447236020949   0.207770100154786   0.07559357480458415
0.2748447236020949   0.207770100154786   0.07559357480458415
0.2666831744689397   0.2738784873662796   0.04481383928014966
0.2666831744689397   0.2738784873662796   0.04481383928014966
0.2666831744689397   0.2738784873662796   0.04481383928014966
0.2666831744689397   0.2738784873662796   0.04481383928014966
-2.474170636149574   -0.22753295430749132   -0.08343069525663363
-2.474170636149574   -0.22753295430749132   -0.08343069525663363
-2.474170636149574   -0.22753295430749132   -0.08343069525663363
-2.474170636149574   -0.22753295430749132   -0.08343069525663363
-1.1046302288777408   -0.0456320341022155   0.013395913761953364
-1.1046302288777408   -0.0456320341022155   0.013395913761953364
-1.1046302288777408   -0.0456320341022155   0.013395913761953364
-1.1046302288777408   -0.0456320341022155   0.013395913761953364
-2.480732087090064   -0.2944345947123883   -0.04933630955418614
-2.480732087090064   -0.2944345947123883   -0.04933630955418614
-2.480732087090064   -0.2944345947123883   -0.04933630955418614
-2.480732087090064   -0.2944345947123883   -0.04933630955418614
0.283557009527596   0.3510925118893427   0.05196899005036612
0.283557009527596   0.3510925118893427   0.05196899005036612
0.283557009527596   0.3510925118893427   0.05196899005036612
0.283557009527596   0.3510925118893427   0.05196899005036612
0.2720717139045538   0.4205083018368559   0.07391175063592795
0.2720717139045538   0.4205083018368559   0.07391175063592795
0.2720717139045538   0.4205083018368559   0.07391175063592795
0.2720717139045538   0.4205083018368559   0.07391175063592795
-2.442532728419089   -0.07305781556428659   -0.10502479903809664
-2.442532728419089   -0.07305781556428659   -0.10502479903809664
-2.442532728419089   -0.07305781556428659   -0.10502479903809664
-2.442532728419089   -0.07305781556428659   -0.10502479903809664
-1.0777042166509685   0.10083883762719645   0.06663758196589008
-1.0777042166509685   0.10083883762719645   0.06663758196589008
-1.0777042166509685   0.10083883762719645   0.06663758196589008
-1.0777042166509685   0.10083883762719645   0.06663758196589008
0.12164311893655244   -0.4110062857221691   -0.12836206428877245
0.12164311893655244   -0.4110062857221691   -0.12836206428877245
0.12164311893655244   -0.4110062857221691   -0.12836206428877245
0.12164311893655244   -0.4110062857221691   -0.12836206428877245
2.9504754602847956   0.2041272200394198   0.17634865840836755
2.9504754602847956   0.2041272200394198   0.17634865840836755
2.9504754602847956   0.2041272200394198   0.17634865840836755
2.9504754602847956   0.2041272200394198   0.17634865840836755
2.9462756717091816   0.2744530223598682   -0.02803915263740954
2.9462756717091816   0.2744530223598682   -0.02803915263740954
2.9462756717091816   0.2744530223598682   -0.02803915263740954
2.9462756717091816   0.2744530223598682   -0.02803915263740954
0.17212251822775299   -0.24743795192131166   0.017190600008972184
0.17212251822775299   -0.24743795192131166   0.017190600008972184
0.17212251822775299   -0.24743795192131166   0.017190600008972184
0.17212251822775299   -0.24743795192131166   0.017190600008972184
1.5286078369723883   -0.03487858123399723   0.0034954528105430177
1.5286078369723883   -0.03487858123399723   0.0034954528105430177
1.5286078369723883   -0.03487858123399723   0.0034954528105430177
1.5286078369723883   -0.03487858123399723   0.0034954528105430177
0.1389431055276394   -0.30052878619294954   -0.09561562921995623
0.1389431055276394   -0.30052878619294954   -0.09561562921995623
0.1389431055276394   -0.30052878619294954   -0.09561562921995623
0.1389431055276394   -0.30052878619294954   -0.09561562921995623
2.9966453732141916   0.3447341454363987   0.1535282318110856
2.9966453732141916   0.3447341454363987   0.1535282318110856
2.9966453732141916   0.3447341454363987   0.1535282318110856
2.9966453732141916   0.3447341454363987   0.1535282318110856
2.9686851584228813   0.4046990080192152   0.030346658406840497
2.9686851584228813   0.4046990080192152   0.030346658406840497
2.9686851584228813   0.4046990080192152   0.030346658406840497
2.9686851584228813   0.4046990080192152   0.030346658406840497
0.17744241764603114   -0.11839212587544119   -0.009119331592672524
0.17744241764603114   -0.11839212587544119   -0.009119331592672524
0.17744241764603114   -0.11839212587544119   -0.009119331592672524
0.17744241764603114   -0.11839212587544119   -0.009119331592672524
1.5481991393409624   0.0896508040102626   0.06326211018191426
1.5481991393409624   0.0896508040102626   0.06326211018191426
1.5481991393409624   0.0896508040102626   0.06326211018191426
1.5481991393409624   0.0896508040102626   0.06326211018191426
0.15335200797209164   -0.17835804576656197   -0.06960546007124804
0.15335200797209164   -0.17835804576656197   -0.06960546007124804
0.15335200797209164   -0.17835804576656197   -0.06960546007124804
0.15335200797209164   -0.17835804576656197   -0.06960546007124804
3.0052072945084483   0.47709665432195447   0.14055969253188846
3.0052072945084483   0.47709665432195447   0.14055969253188846
3.0052072945084483   0.47709665432195447   0.14055969253188846
3.0052072945084483   0.47709665432195447   0.14055969253188846
2.920358521663571   0.5550441411870528   0.06342341757692799
2.920358521663571   0.5550441411870528   0.06342341757692799
2.920358521663571   0.5550441411870528   0.06342341757692799
2.920358521663571   0.5550441411870528   0.06342341757692799
0.1751799320249825   0.041571725752460285   -0.03161058267753306
0.1751799320249825   0.041571725752460285   -0.03161058267753306
0.1751799320249825   0.041571725752460285   -0.03161058267753306
0.1751799320249825   0.041571725752460285   -0.03161058267753306
1.5702992891938246   0.23204544749803266   0.11853817639095351
1.5702992891938246   0.23204544749803266   0.11853817639095351
1.5702992891938246   0.23204544749803266   0.11853817639095351
1.5702992891938246   0.23204544749803266   0.11853817639095351
2.7188799594472552   -0.5409106051484553   -0.23659102059145876
2.7188799594472552   -0.5409106051484553   -0.23659102059145876
2.7188799594472552   -0.5409106051484553   -0.23659102059145876
2.7188799594472552   -0.5409106051484553   -0.23659102059145876
5.594494857067897   0.36947892205304145   0.17100244985151652
5.594494857067897   0.36947892205304145   0.17100244985151652
5.594494857067897   0.36947892205304145   0.17100244985151652
5.594494857067897   0.36947892205304145   0.17100244985151652
5.656885407712946   0.17669867665798045   -0.3558019878084552
5.656885407712946   0.17669867665798045   -0.3558019878084552
5.656885407712946   0.17669867665798045   -0.3558019878084552
5.656885407712946   0.17669867665798045   -0.3558019878084552
2.89495016948927   -0.11219316468210294   0.10197952330495783
2.89495016948927   -0.11219316468210294   0.10197952330495783
2.89495016948927   -0.11219316468210294   0.10197952330495783
2.89495016948927   -0.11219316468210294   0.10197952330495783
4.006852411598752   -0.06909992792361486   -0.0995668277467483
4.006852411598752   -0.06909992792361486   -0.0995668277467483
4.006852411598752   -0.06909992792361486   -0.0995668277467483
4.006852411598752   -0.06909992792361486   -0.0995668277467483
2.7944787246817424   -0.3559470295579309   -0.15662383585681647
2.7944787246817424   -0.3559470295579309   -0.15662383585681647
2.7944787246817424   -0.3559470295579309   -0.15662383585681647
2.7944787246817424   -0.3559470295579309   -0.15662383585681647
5.808544969340104   0.4716406583534455   0.10755383863186671
5.808544969340104   0.4716406583534455   0.10755383863186671
5.808544969340104   0.4716406583534455   0.10755383863186671
5.808544969340104   0.4716406583534455   0.10755383863186671
5.717894423294651   0.3200298075872309   -0.07949717523666175
5.717894423294651   0.3200298075872309   -0.07949717523666175
5.717894423294651   0.3200298075872309   -0.07949717523666175
5.717894423294651   0.3200298075872309   -0.07949717523666175
2.8825206615283356   -0.04794439869446154   0.052167580647740824
2.8825206615283356   -0.04794439869446154   0.052167580647740824
2.8825206615283356   -0.04794439869446154   0.052167580647740824
2.8825206615283356   -0.04794439869446154   0.052167580647740824
4.2151442045210175   0.10520974852171217   0.06909207640211706
4.2151442045210175   0.10520974852171217   0.06909207640211706
4.2151442045210175   0.10520974852171217   0.06909207640211706
4.2151442045210175   0.10520974852171217   0.06909207640211706
2.8020548176480946   -0.2723832383202712   -0.1257227991276312
2.8020548176480946   -0.2723832383202712   -0.1257227991276312
2.8020548176480946   -0.2723832383202712   -0.1257227991276312
2.8020548176480946   -0.2723832383202712   -0.1257227991276312
5.791487766325068   0.5375961463632238   0.07090320113943446
5.791487766325068   0.5375961463632238   0.07090320113943446
5.791487766325068   0.5375961463632238   0.07090320113943446
5.791487766325068   0.5375961463632238   0.07090320113943446
5.706844532796146   0.4881832032585225   -0.12211778040196236
5.706844532796146   0.4881832032585225   -0.12211778040196236
5.706844532796146   0.4881832032585225   -0.12211778040196236
5.706844532796146   0.4881832032585225   -0.12211778040196236
2.8224966402827194   0.1004666008644356   0.02869155099523893
2.8224966402827194   0.1004666008644356   0.02869155099523893
2.8224966402827194   0.1004666008644356   0.02869155099523893
2.8224966402827194   0.1004666008644356   0.02869155099523893
4.106332327713132   0.18385627609461352   0.050688505025446695
4.106332327713132   0.18385627609461352   0.050688505025446695
4.106332327713132   0.18385627609461352   0.050688505025446695
4.106332327713132   0.18385627609461352   0.050688505025446695
-6.144133055249769   -0.2795296772171205   0.3141522762787075
-6.144133055249769   -0.2795296772171205   0.3141522762787075
-6.144133055249769   -0.2795296772171205   0.3141522762787075
-6.144133055249769   -0.2795296772171205   0.3141522762787075
-4.07710792583102   -0.15351515252810366   -0.0817447212029156
-4.07710792583102   -0.15351515252810366   -0.0817447212029156
-4.07710792583102   -0.15351515252810366   -0.0817447212029156
-4.07710792583102   -0.15351515252810366   -0.0817447212029156
-3.9312746401561722   0.3297643939479322   0.26379049357813067
-3.9312746401561722   0.3297643939479322   0.26379049357813067
-3.9312746401561722   0.3297643939479322   0.26379049357813067
-3.9312746401561722   0.3297643939479322   0.26379049357813067
-6.172846383645529   -0.44020897896222977   -0.1282195628104035
-6.172846383645529   -0.44020897896222977   -0.1282195628104035
-6.172846383645529   -0.44020897896222977   -0.1282195628104035
-6.172846383645529   -0.44020897896222977   -0.1282195628104035
-4.8747881011593535   -0.07540232016197534   -0.008028556220468497
-4.8747881011593535   -0.07540232016197534   -0.008028556220468497
-4.8747881011593535   -0.07540232016197534   -0.008028556220468497
-4.8747881011593535   -0.07540232016197534   -0.008028556220468497
-6.002021356707612   -0.06666977457882672   0.35236636749577654
-6.002021356707612   -0.06666977457882672   0.35236636749577654
-6.002021356707612   -0.06666977457882672   0.35236636749577654
-6.002021356707612   -0.06666977457882672   0.35236636749577654
-4.075173317554408   -0.01684846089578973   -0.10909003856932512
-4.075173317554408   -0.01684846089578973   -0.10909003856932512
-4.075173317554408   -0.01684846089578973   -0.10909003856932512
-4.075173317554408   -0.01684846089578973   -0.10909003856932512
-3.9156542371888436   0.4088330577726813   0.2446872204867906
-3.9156542371888436   0.4088330577726813   0.2446872204867906
-3.9156542371888436   0.4088330577726813   0.2446872204867906
-3.9156542371888436   0.4088330577726813   0.2446872204867906
-6.0781938174903285   -0.3685824029821926   -0.17570662315591976
-6.0781938174903285   -0.3685824029821926   -0.17570662315591976
-6.0781938174903285   -0.3685824029821926   -0.17570662315591976
-6.0781938174903285   -0.3685824029821926   -0.17570662315591976
-4.885951177304972   0.017508866106873633   0.05678849497560212
-4.885951177304972   0.017508866106873633   0.05678849497560212
-4.885951177304972   0.017508866106873633   0.05678849497560212
-4.885951177304972   0.017508866106873633   0.05678849497560212
-5.919059324272203   0.007909403540961257   0.2434740364115494
-5.919059324272203   0.007909403540961257   0.2434740364115494
-5.919059324272203   0.007909403540961257   0.2434740364115494
-5.919059324272203   0.007909403540961257   0.2434740364115494
-4.06590900046076   0.0412209811957418   -0.13897451929581592
-4.06590900046076   0.0412209811957418   -0.13897451929581592
-4.06590900046076   0.0412209811957418   -0.13897451929581592
-4.06590900046076   0.0412209811957418   -0.13897451929581592
-3.9198166620589783   0.46094242815616715   0.19413987844907216
-3.9198166620589783   0.46094242815616715   0.19413987844907216
-3.9198166620589783   0.46094242815616715   0.19413987844907216
-3.9198166620589783   0.46094242815616715   0.19413987844907216
-5.9550734388602695   -0.2927184495439079   -0.22419727585245275
-5.9550734388602695   -0.2927184495439079   -0.22419727585245275
-5.9550734388602695   -0.2927184495439079   -0.22419727585245275
-5.9550734388602695   -0.2927184495439079   -0.22419727585245275
-4.7461911705831055   0.1005941178935541   0.11734106058049965
-4.7461911705831055   0.1005941178935541   0.11734106058049965
-4.7461911705831055   0.1005941178935541   0.11734106058049965
-4.7461911705831055   0.1005941178935541   0.11734106058049965
-4.089908027518282   -0.38780943290287995   0.08854905073554617
-4.089908027518282   -0.38780943290287995   0.08854905073554617
-4.089908027518282   -0.38780943290287995   0.08854905073554617
-4.089908027518282   -0.38780943290287995   0.08854905073554617
-2.0623482792705246   -0.07379223925888928   0.004102368171882226
-2.0623482792705246   -0.07379223925888928   0.004102368171882226
-2.0623482792705246   -0.07379223925888928   0.004102368171882226
-2.0623482792705246   -0.07379223925888928   0.004102368171882226
-2.0044038037650393   0.20286018209140888   0.14343931187862632
-2.0044038037650393   0.20286018209140888   0.14343931187862632
-2.0044038037650393   0.20286018209140888   0.14343931187862632
-2.0044038037650393   0.20286018209140888   0.14343931187862632
-4.155102681823896   -0.3824538990972627   -0.14313142171532273
-4.155102681823896   -0.3824538990972627   -0.14313142171532273
-4.155102681823896   -0.3824538990972627   -0.14313142171532273
-4.155102681823896   -0.3824538990972627   -0.14313142171532273
-3.0668994263303953   -0.15048710684139932   -0.06168787425158506
-3.0668994263303953   -0.15048710684139932   -0.06168787425158506
-3.0668994263303953   -0.15048710684139932   -0.06168787425158506
-3.0668994263303953   -0.15048710684139932   -0.06168787425158506
-4.077454981613004   -0.22325606650460916   0.08590924674650044
-4.077454981613004   -0.22325606650460916   0.08590924674650044
-4.077454981613004   -0.22325606650460916   0.08590924674650044
-4.077454981613004   -0.22325606650460916   0.08590924674650044
-2.0662803115624553   0.05943354191223765   -0.022516586929262394
-2.0662803115624553   0.05943354191223765   -0.022516586929262394
-2.0662803115624553   0.05943354191223765   -0.022516586929262394
-2.0662803115624553   0.05943354191223765   -0.022516586929262394
-1.9983938099786052   0.33470386077794595   0.12417203299464608
-1.9983938099786052   0.33470386077794595   0.12417203299464608
-1.9983938099786052   0.33470386077794595   0.12417203299464608
-1.9983938099786052   0.33470386077794595   0.12417203299464608
-4.1320124823384985   -0.2593189734515171   -0.16895197403728737
-4.1320124823384985   -0.2593189734515171   -0.16895197403728737
-4.1320124823384985   -0.2593189734515171   -0.16895197403728737
-4.1320124823384985   -0.2593189734515171   -0.16895197403728737
-3.0337892036814598   -0.016962840771097887   2.7169836532836555e-05
-3.0337892036814598   -0.016962840771097887   2.7169836532836555e-05
-3.0337892036814598   -0.016962840771097887   2.7169836532836555e-05
-3.0337892036814598   -0.016962840771097887   2.7169836532836555e-05
-4.052769508321829   -0.08951408414226458   0.05745800673681578
-4.052769508321829   -0.08951408414226458   0.05745800673681578
-4.052769508321829   -0.08951408414226458   0.05745800673681578
-4.052769508321829   -0.08951408414226458   0.05745800673681578
-2.0647918986322416   0.177743856831735   -0.05085840632728447
-2.0647918986322416   0.177743856831735   -0.05085840632728447
-2.0647918986322416   0.177743856831735   -0.05085840632728447
-2.0647918986322416   0.177743856831735   -0.05085840632728447
-1.9981311082979594   0.47318076932917175   0.0931032419648225
-1.9981311082979594   0.47318076932917175   0.0931032419648225
-1.9981311082979594   0.47318076932917175   0.0931032419648225
-1.9981311082979594   0.47318076932917175   0.0931032419648225
-4.112512061461665   -0.1265461355608879   -0.18184855484732446
-4.112512061461665   -0.1265461355608879   -0.18184855484732446
-4.112512061461665   -0.1265461355608879   -0.18184855484732446
-4.112512061461665   -0.1265461355608879   -0.18184855484732446
-3.036168103581454   0.10535712128735542   0.04713617592170255
-3.036168103581454   0.10535712128735542   0.04713617592170255
-3.036168103581454   0.10535712128735542   0.04713617592170255
-3.036168103581454   0.10535712128735542   0.04713617592170255
-2.13943756898521   -0.44249736839729725   -0.012638951263150672
-2.13943756898521   -0.44249736839729725   -0.012638951263150672
-2.13943756898521   -0.44249736839729725   -0.012638951263150672
-2.13943756898521   -0.44249736839729725   -0.012638951263150672
-0.06647352853061235   0.022904914586772466   0.09139586975609841
-0.06647352853061235   0.022904914586772466   0.09139586975609841
-0.06647352853061235   0.022904914586772466   0.09139586975609841
-0.06647352853061235   0.022904914586772466   0.09139586975609841
-0.07462155554118602   0.13148333801364825   0.043626043242176366
-0.07462155554118602   0.13148333801364825   0.043626043242176366
-0.07462155554118602   0.13148333801364825   0.043626043242176366
-0.07462155554118602   0.13148333801364825   0.043626043242176366
-2.141207258529473   -0.2840056666866697   -0.0537121131654635
-2.141207258529473   -0.2840056666866697   -0.0537121131654635
-2.141207258529473   -0.2840056666866697   -0.0537121131654635
-2.141207258529473   -0.2840056666866697   -0.0537121131654635
-1.1088029563015476   -0.1384236016222559   -0.03443211787261207
-1.1088029563015476   -0.1384236016222559   -0.03443211787261207
-1.1088029563015476   -0.1384236016222559   -0.03443211787261207
-1.1088029563015476   -0.1384236016222559   -0.03443211787261207
-2.1389062074799883   -0.2961177549529107   -0.030094769651800385
-2.1389062074799883   -0.2961177549529107   -0.030094769651800385
-2.1389062074799883   -0.2961177549529107   -0.030094769651800385
-2.1389062074799883   -0.2961177549529107   -0.030094769651800385
-0.06515820368692005   0.15535982918363714   0.06706631134351787
-0.06515820368692005   0.15535982918363714   0.06706631134351787
-0.06515820368692005   0.15535982918363714   0.06706631134351787
-0.06515820368692005   0.15535982918363714   0.06706631134351787
-0.06520510057396975   0.27515855192358274   0.021061300323132096
-0.06520510057396975   0.27515855192358274   0.021061300323132096
-0.06520510057396975   0.27515855192358274   0.021061300323132096
-0.06520510057396975   0.27515855192358274   0.021061300323132096
-2.1361682640598625   -0.15134624235206912   -0.07865013428160522
-2.1361682640598625   -0.15134624235206912   -0.07865013428160522
-2.1361682640598625   -0.15134624235206912   -0.07865013428160522
-2.1361682640598625   -0.15134624235206912   -0.07865013428160522
-1.0983576878365122   -0.005519880513451009   0.015413605268907678
-1.0983576878365122   -0.005519880513451009   0.015413605268907678
-1.0983576878365122   -0.005519880513451009   0.015413605268907678
-1.0983576878365122   -0.005519880513451009   0.015413605268907678
-2.1329431481111607   -0.15447956418876285   -0.0593912327014047
-2.1329431481111607   -0.15447956418876285   -0.0593912327014047
-2.1329431481111607   -0.15447956418876285   -0.0593912327014047
-2.1329431481111607   -0.15447956418876285   -0.0593912327014047
-0.05871305111111971   0.28800903917182813   0.040671060389138355
-0.05871305111111971   0.28800903917182813   0.040671060389138355
-0.05871305111111971   0.28800903917182813   0.040671060389138355
-0.05871305111111971   0.28800903917182813   0.040671060389138355
-0.06347266416771685   0.42315423716697315   -0.003024599633170366
-0.06347266416771685   0.42315423716697315   -0.003024599633170366
-0.06347266416771685   0.42315423716697315   -0.003024599633170366
-0.06347266416771685   0.42315423716697315   -0.003024599633170366
-2.1354323576805707   -0.01640580509647971   -0.10381643052259326
-2.1354323576805707   -0.01640580509647971   -0.10381643052259326
-2.1354323576805707   -0.01640580509647971   -0.10381643052259326
-2.1354323576805707   -0.01640580509647971   -0.10381643052259326
-1.0903225402298347   0.12750791932220584   0.06111709249816691
-1.0903225402298347   0.12750791932220584   0.06111709249816691
-1.0903225402298347   0.12750791932220584   0.06111709249816691
-1.0903225402298347   0.12750791932220584   0.06111709249816691
-0.20731073848563292   -0.48389733706899074   -0.10598792836324081
-0.20731073848563292   -0.48389733706899074   -0.10598792836324081
-0.20731073848563292   -0.48389733706899074   -0.10598792836324081
-0.20731073848563292   -0.48389733706899074   -0.10598792836324081
1.9225164620796413   0.13621053639216357   0.17370005532423927
1.9225164620796413   0.13621053639216357   0.17370005532423927
1.9225164620796413   0.13621053639216357   0.17370005532423927
1.9225164620796413   0.13621053639216357   0.17370005532423927
1.859740819814708   0.07304463089122754   -0.06801478751528695
1.859740819814708   0.07304463089122754   -0.06801478751528695
1.859740819814708   0.07304463089122754   -0.06801478751528695
1.859740819814708   0.07304463089122754   -0.06801478751528695
-0.1377789957737058   -0.1776930110807492   0.03701519117397538
-0.1377789957737058   -0.1776930110807492   0.03701519117397538
-0.1377789957737058   -0.1776930110807492   0.03701519117397538
-0.1377789957737058   -0.1776930110807492   0.03701519117397538
0.8471637585992717   -0.11139946310864662   -0.019326288517569692
0.8471637585992717   -0.11139946310864662   -0.019326288517569692
0.8471637585992717   -0.11139946310864662   -0.019326288517569692
0.8471637585992717   -0.11139946310864662   -0.019326288517569692
-0.20688991463468137   -0.3532708677816027   -0.13296154643004887
-0.20688991463468137   -0.3532708677816027   -0.13296154643004887
-0.20688991463468137   -0.3532708677816027   -0.13296154643004887
-0.20688991463468137   -0.3532708677816027   -0.13296154643004887
1.9422288611694605   0.2619996100858528   0.15547044006384989
1.9422288611694605   0.2619996100858528   0.15547044006384989
1.9422288611694605   0.2619996100858528   0.15547044006384989
1.9422288611694605   0.2619996100858528   0.15547044006384989
1.8891941128820184   0.20666698918933793   -0.09557545150476424
1.8891941128820184   0.20666698918933793   -0.09557545150476424
1.8891941128820184   0.20666698918933793   -0.09557545150476424
1.8891941128820184   0.20666698918933793   -0.09557545150476424
-0.134133346559267   -0.05885057884340839   0.010429201163639379
-0.134133346559267   -0.05885057884340839   0.010429201163639379
-0.134133346559267   -0.05885057884340839   0.010429201163639379
-0.134133346559267   -0.05885057884340839   0.010429201163639379
0.854093457139049   0.008732685217239855   0.030164901344365253
0.854093457139049   0.008732685217239855   0.030164901344365253
0.854093457139049   0.008732685217239855   0.030164901344365253
0.854093457139049   0.008732685217239855   0.030164901344365253
-0.20133720594788496   -0.2243435993335517   -0.16009707528930894
-0.20133720594788496   -0.2243435993335517   -0.16009707528930894
-0.20133720594788496   -0.2243435993335517   -0.16009707528930894
-0.20133720594788496   -0.2243435993335517   -0.16009707528930894
1.9709726921085184   0.3867347295173629   0.13324970429971056
1.9709726921085184   0.3867347295173629   0.13324970429971056
1.9709726921085184   0.3867347295173629   0.13324970429971056
1.9709726921085184   0.3867347295173629   0.13324970429971056
1.9071738379730405   0.3743743307808947   -0.09959146348340349
1.9071738379730405   0.3743743307808947   -0.09959146348340349
1.9071738379730405   0.3743743307808947   -0.09959146348340349
1.9071738379730405   0.3743743307808947   -0.09959146348340349
-0.1346806508284395   0.08017830968240172   -0.016088605452210882
-0.1346806508284395   0.08017830968240172   -0.016088605452210882
-0.1346806508284395   0.08017830968240172   -0.016088605452210882
-0.1346806508284395   0.08017830968240172   -0.016088605452210882
0.8830068084176544   0.14285377282244718   0.08900628482931314
0.8830068084176544   0.14285377282244718   0.08900628482931314
0.8830068084176544   0.14285377282244718   0.08900628482931314
0.8830068084176544   0.14285377282244718   0.08900628482931314
1.723318043877252   -0.4801443586787456   -0.20593714061677432
1.723318043877252   -0.4801443586787456   -0.20593714061677432
1.723318043877252   -0.4801443586787456   -0.20593714061677432
1.723318043877252   -0.4801443586787456   -0.20593714061677432
3.783742650037794   0.28104447523995857   0.19250289224826542
3.783742650037794   0.28104447523995857   0.19250289224826542
3.783742650037794   0.28104447523995857   0.19250289224826542
3.783742650037794   0.28104447523995857   0.19250289224826542
3.754104768179787   -0.015575437575343853   -0.2740864398517792
3.754104768179787   -0.015575437575343853   -0.2740864398517792
3.754104768179787   -0.015575437575343853   -0.2740864398517792
3.754104768179787   -0.015575437575343853   -0.2740864398517792
1.8763302798490573   -0.04103630670999303   0.12901345025769112
1.8763302798490573   -0.04103630670999303   0.12901345025769112
1.8763302798490573   -0.04103630670999303   0.12901345025769112
1.8763302798490573   -0.04103630670999303   0.12901345025769112
2.649251816764853   -0.09311388993115666   -0.08650585728340657
2.649251816764853   -0.09311388993115666   -0.08650585728340657
2.649251816764853   -0.09311388993115666   -0.08650585728340657
2.649251816764853   -0.09311388993115666   -0.08650585728340657
1.7246146192772451   -0.41731367603980557   -0.253287483271546
1.7246146192772451   -0.41731367603980557   -0.253287483271546
1.7246146192772451   -0.41731367603980557   -0.253287483271546
1.7246146192772451   -0.41731367603980557   -0.253287483271546
3.9167353103416755   0.3716168133445464   0.15187402003777017
3.9167353103416755   0.3716168133445464   0.15187402003777017
3.9167353103416755   0.3716168133445464   0.15187402003777017
3.9167353103416755   0.3716168133445464   0.15187402003777017
3.8449753507490994   0.0606410204882698   -0.367360012659366
3.8449753507490994   0.0606410204882698   -0.367360012659366
3.8449753507490994   0.0606410204882698   -0.367360012659366
3.8449753507490994   0.0606410204882698   -0.367360012659366
1.8895850179234142   0.017086927911758643   0.0959591349798218
1.8895850179234142   0.017086927911758643   0.0959591349798218
1.8895850179234142   0.017086927911758643   0.0959591349798218
1.8895850179234142   0.017086927911758643   0.0959591349798218
2.768130977786202   -0.010819676353968521   -0.026624395501558262
2.768130977786202   -0.010819676353968521   -0.026624395501558262
2.768130977786202   -0.010819676353968521   -0.026624395501558262
2.768130977786202   -0.010819676353968521   -0.026624395501558262
1.7436444658379275   -0.3412370778910542   -0.2754196196448142
1.7436444658379275   -0.3412370778910542   -0.2754196196448142
1.7436444658379275   -0.3412370778910542   -0.2754196196448142
1.7436444658379275   -0.3412370778910542   -0.2754196196448142
4.015007865797045   0.443056989253539   0.1003865938151233
4.015007865797045   0.443056989253539   0.1003865938151233
4.015007865797045   0.443056989253539   0.1003865938151233
4.015007865797045   0.443056989253539   0.1003865938151233
3.989329467284823   0.25904720674745507   -0.34523824659176694
3.989329467284823   0.25904720674745507   -0.34523824659176694
3.989329467284823   0.25904720674745507   -0.34523824659176694
3.989329467284823   0.25904720674745507   -0.34523824659176694
1.8953815881953706   0.14586423399629966   0.06995738441286836
1.8953815881953706   0.14586423399629966   0.06995738441286836
1.8953815881953706   0.14586423399629966   0.06995738441286836
1.8953815881953706   0.14586423399629966   0.06995738441286836
2.787552169031679   0.08344020141946518   0.03947735163465965
2.787552169031679   0.08344020141946518   0.03947735163465965
2.787552169031679   0.08344020141946518   0.03947735163465965
2.787552169031679   0.08344020141946518   0.03947735163465965
-4.400935070323538   -0.1448861854757667   0.28522725855128733
-4.400935070323538   -0.1448861854757667   0.28522725855128733
-4.400935070323538   -0.1448861854757667   0.28522725855128733
-4.400935070323538   -0.1448861854757667   0.28522725855128733
-3.074764185253258   -0.20425216996243023   -0.10799683608621102
-3.074764185253258   -0.20425216996243023   -0.10799683608621102
-3.074764185253258   -0.20425216996243023   -0.10799683608621102
-3.074764185253258   -0.20425216996243023   -0.10799683608621102
-2.8947999290143747   0.28971688152009245   0.24336328497005263
-2.8947999290143747   0.28971688152009245   0.24336328497005263
-2.8947999290143747   0.28971688152009245   0.24336328497005263
-2.8947999290143747   0.28971688152009245   0.24336328497005263
-4.401328787453715   -0.3620289789987644   -0.15791652583040203
-4.401328787453715   -0.3620289789987644   -0.15791652583040203
-4.401328787453715   -0.3620289789987644   -0.15791652583040203
-4.401328787453715   -0.3620289789987644   -0.15791652583040203
-3.5414217599419486   -0.05669901268074107   -0.006893605426649102
-3.5414217599419486   -0.05669901268074107   -0.006893605426649102
-3.5414217599419486   -0.05669901268074107   -0.006893605426649102
-3.5414217599419486   -0.05669901268074107   -0.006893605426649102
-4.237696087412219   0.026757159935147157   0.27146083544317
-4.237696087412219   0.026757159935147157   0.27146083544317
-4.237696087412219   0.026757159935147157   0.27146083544317
-4.237696087412219   0.026757159935147157   0.27146083544317
-3.045140868451445   -0.08577749680937719   -0.13284703388579777
-3.045140868451445   -0.08577749680937719   -0.13284703388579777
-3.045140868451445   -0.08577749680937719   -0.13284703388579777
-3.045140868451445   -0.08577749680937719   -0.13284703388579777
-2.867578755125894   0.34983504931351983   0.20576557595823952
-2.867578755125894   0.34983504931351983   0.20576557595823952
-2.867578755125894   0.34983504931351983   0.20576557595823952
-2.867578755125894   0.34983504931351983   0.20576557595823952
-4.297739169325754   -0.29504055143273755   -0.19977386086973298
-4.297739169325754   -0.29504055143273755   -0.19977386086973298
-4.297739169325754   -0.29504055143273755   -0.19977386086973298
-4.297739169325754   -0.29504055143273755   -0.19977386086973298
-3.5170844777495605   0.02265364840308859   0.03776955231656856
-3.5170844777495605   0.02265364840308859   0.03776955231656856
-3.5170844777495605   0.02265364840308859   0.03776955231656856
-3.5170844777495605   0.02265364840308859   0.03776955231656856
-4.1354295445793365   0.09871543209758993   0.218018279332032
-4.1354295445793365   0.09871543209758993   0.218018279332032
-4.1354295445793365   0.09871543209758993   0.218018279332032
-4.1354295445793365   0.09871543209758993   0.218018279332032
-3.0178524150355477   -0.03188496938003782   -0.16388270489644102
-3.0178524150355477   -0.03188496938003782   -0.16388270489644102
-3.0178524150355477   -0.03188496938003782   -0.16388270489644102
-3.0178524150355477   -0.03188496938003782   -0.16388270489644102
-2.8524868678544446   0.40805360627604903   0.17707643224150704
-2.8524868678544446   0.40805360627604903   0.17707643224150704
-2.8524868678544446   0.40805360627604903   0.17707643224150704
-2.8524868678544446   0.40805360627604903   0.17707643224150704
-4.158828725717944   -0.20662144451238806   -0.23927220257652945
-4.158828725717944   -0.20662144451238806   -0.23927220257652945
-4.158828725717944   -0.20662144451238806   -0.23927220257652945
-4.158828725717944   -0.20662144451238806   -0.23927220257652945
-3.3854036992875653   0.09686188285078434   0.10061209160469461
-3.3854036992875653   0.09686188285078434   0.10061209160469461
-3.3854036992875653   0.09686188285078434   0.10061209160469461
-3.3854036992875653   0.09686188285078434   0.10061209160469461
-3.040839082984539   -0.24902964381423148   0.10640614910915493
-3.040839082984539   -0.24902964381423148   0.10640614910915493
-3.040839082984539   -0.24902964381423148   0.10640614910915493
-3.040839082984539   -0.24902964381423148   0.10640614910915493
-1.759226618504649   -0.1323798462726378   -0.017413386188044368
-1.759226618504649   -0.1323798462726378   -0.017413386188044368
-1.759226618504649   -0.1323798462726378   -0.017413386188044368
-1.759226618504649   -0.1323798462726378   -0.017413386188044368
-1.6699383532753638   0.1694518866667158   0.131233178556037
-1.6699383532753638   0.1694518866667158   0.131233178556037
-1.6699383532753638   0.1694518866667158   0.131233178556037
-1.6699383532753638   0.1694518866667158   0.131233178556037
-3.0863661276427297   -0.2960700300666752   -0.12868079658495596
-3.0863661276427297   -0.2960700300666752   -0.12868079658495596
-3.0863661276427297   -0.2960700300666752   -0.12868079658495596
-3.0863661276427297   -0.2960700300666752   -0.12868079658495596
-2.3793589551810554   -0.11629942944615784   -0.04818862677778206
-2.3793589551810554   -0.11629942944615784   -0.04818862677778206
-2.3793589551810554   -0.11629942944615784   -0.04818862677778206
-2.3793589551810554   -0.11629942944615784   -0.04818862677778206
-3.0053212806995298   -0.10648054409704488   0.0869539521613995
-3.0053212806995298   -0.10648054409704488   0.0869539521613995
-3.0053212806995298   -0.10648054409704488   0.0869539521613995
-3.0053212806995298   -0.10648054409704488   0.0869539521613995
-1.7405942438293083   -0.00974864291367139   -0.04284574463329735
-1.7405942438293083   -0.00974864291367139   -0.04284574463329735
-1.7405942438293083   -0.00974864291367139   -0.04284574463329735
-1.7405942438293083   -0.00974864291367139   -0.04284574463329735
-1.6486826124266754   0.29266733775145237   0.10764971206573645
-1.6486826124266754   0.29266733775145237   0.10764971206573645
-1.6486826124266754   0.29266733775145237   0.10764971206573645
-1.6486826124266754   0.29266733775145237   0.10764971206573645
-3.0449470632973172   -0.17965678507688354   -0.15158413050847352
-3.0449470632973172   -0.17965678507688354   -0.15158413050847352
-3.0449470632973172   -0.17965678507688354   -0.15158413050847352
-3.0449470632973172   -0.17965678507688354   -0.15158413050847352
-2.3336989300557653   0.004968570677971296   0.003897099772761592
-2.3336989300557653   0.004968570677971296   0.003897099772761592
-2.3336989300557653   0.004968570677971296   0.003897099772761592
-2.3336989300557653   0.004968570677971296   0.003897099772761592
-2.9577662550944885   0.02521107657541688   0.07945204885337184
-2.9577662550944885   0.02521107657541688   0.07945204885337184
-2.9577662550944885   0.02521107657541688   0.07945204885337184
-2.9577662550944885   0.02521107657541688   0.07945204885337184
-1.722961626382499   0.10070127034616017   -0.07177929030807345
-1.722961626382499   0.10070127034616017   -0.07177929030807345
-1.722961626382499   0.10070127034616017   -0.07177929030807345
-1.722961626382499   0.10070127034616017   -0.07177929030807345
-1.628150466402922   0.4238334543445542   0.08568779962114323
-1.628150466402922   0.4238334543445542   0.08568779962114323
-1.628150466402922   0.4238334543445542   0.08568779962114323
-1.628150466402922   0.4238334543445542   0.08568779962114323
-3.0138960927556955   -0.05433469952018399   -0.16758138646849982
-3.0138960927556955   -0.05433469952018399   -0.16758138646849982
-3.0138960927556955   -0.05433469952018399   -0.16758138646849982
-3.0138960927556955   -0.05433469952018399   -0.16758138646849982
-2.3160735927409513   0.11891073485392356   0.05343382971553043
-2.3160735927409513   0.11891073485392356   0.05343382971553043
-2.3160735927409513   0.11891073485392356   0.05343382971553043
-2.3160735927409513   0.11891073485392356   0.05343382971553043
-1.796616936064057   -0.3406265874355745   0.0038817671778387797
-1.796616936064057   -0.3406265874355745   0.0038817671778387797
-1.796616936064057   -0.3406265874355745   0.0038817671778387797
-1.796616936064057   -0.3406265874355745   0.0038817671778387797
-0.45765355158847215   -0.03882264338784456   0.07334204411438898
-0.45765355158847215   -0.03882264338784456   0.07334204411438898
-0.45765355158847215   -0.03882264338784456   0.07334204411438898
-0.45765355158847215   -0.03882264338784456   0.07334204411438898
-0.4462360117723932   0.07073279514157967   0.025008949218703676
-0.4462360117723932   0.07073279514157967   0.025008949218703676
-0.4462360117723932   0.07073279514157967   0.025008949218703676
-0.4462360117723932   0.07073279514157967   0.025008949218703676
-1.7768912973586148   -0.19967441874100758   -0.03440523645250992
-1.7768912973586148   -0.19967441874100758   -0.03440523645250992
-1.7768912973586148   -0.19967441874100758   -0.03440523645250992
-1.7768912973586148   -0.19967441874100758   -0.03440523645250992
-1.1212381405791576   -0.12169522329518968   -0.03419905584091151
-1.1212381405791576   -0.12169522329518968   -0.03419905584091151
-1.1212381405791576   -0.12169522329518968   -0.03419905584091151
-1.1212381405791576   -0.12169522329518968   -0.03419905584091151
-1.7740195807295962   -0.20314160241940557   -0.016579469629019315
-1.7740195807295962   -0.20314160241940557   -0.016579469629019315
-1.7740195807295962   -0.20314160241940557   -0.016579469629019315
-1.7740195807295962   -0.20314160241940557   -0.016579469629019315
-0.43869339730496537   0.08461430991642396   0.04884050678099842
-0.43869339730496537   0.08461430991642396   0.04884050678099842
-0.43869339730496537   0.08461430991642396   0.04884050678099842
-0.43869339730496537   0.08461430991642396   0.04884050678099842
-0.42057972316378156   0.2088369802143247   0.0066774376542830804
-0.42057972316378156   0.2088369802143247   0.0066774376542830804
-0.42057972316378156   0.2088369802143247   0.0066774376542830804
-0.42057972316378156   0.2088369802143247   0.0066774376542830804
-1.7556207929903043   -0.07539377259849211   -0.058980080402462234
-1.7556207929903043   -0.07539377259849211   -0.058980080402462234
-1.7556207929903043   -0.07539377259849211   -0.058980080402462234
-1.7556207929903043   -0.07539377259849211   -0.058980080402462234
-1.0938413383353398   0.0024785069588906528   0.014860846632271517
-1.0938413383353398   0.0024785069588906528   0.014860846632271517
-1.0938413383353398   0.0024785069588906528   0.014860846632271517
-1.0938413383353398   0.0024785069588906528   0.014860846632271517
-1.7491154028365015   -0.06547918641454836   -0.03636771581739319
-1.7491154028365015   -0.06547918641454836   -0.03636771581739319
-1.7491154028365015   -0.06547918641454836   -0.03636771581739319
-1.7491154028365015   -0.06547918641454836   -0.03636771581739319
-0.4174703340690608   0.20853717327891008   0.022524190063305458
-0.4174703340690608   0.20853717327891008   0.022524190063305458
-0.4174703340690608   0.20853717327891008   0.022524190063305458
-0.4174703340690608   0.20853717327891008   0.022524190063305458
-0.3975854427919093   0.3489435612807231   -0.014916513525240566
-0.3975854427919093   0.3489435612807231   -0.014916513525240566
-0.3975854427919093   0.3489435612807231   -0.014916513525240566
-0.3975854427919093   0.3489435612807231   -0.014916513525240566
-1.736914896127536   0.05034108639078494   -0.08464198104815743
-1.736914896127536   0.05034108639078494   -0.08464198104815743
-1.736914896127536   0.05034108639078494   -0.08464198104815743
-1.736914896127536   0.05034108639078494   -0.08464198104815743
-1.0688233402192644   0.12724616437066383   0.06212458038518169
-1.0688233402192644   0.12724616437066383   0.06212458038518169
-1.0688233402192644   0.12724616437066383   0.06212458038518169
-1.0688233402192644   0.12724616437066383   0.06212458038518169
-0.5669869170774631   -0.41571636320648997   -0.09643106351192424
-0.5669869170774631   -0.41571636320648997   -0.09643106351192424
-0.5669869170774631   -0.41571636320648997   -0.09643106351192424
-0.5669869170774631   -0.41571636320648997   -0.09643106351192424
0.8275809497187926   0.06617141148651665   0.15909631383875364
0.8275809497187926   0.06617141148651665   0.15909631383875364
0.8275809497187926   0.06617141148651665   0.15909631383875364
0.8275809497187926   0.06617141148651665   0.15909631383875364
0.7709348670745036   -0.020963490559319065   -0.08805106906708325
0.7709348670745036   -0.020963490559319065   -0.08805106906708325
0.7709348670745036   -0.020963490559319065   -0.08805106906708325
0.7709348670745036   -0.020963490559319065   -0.08805106906708325
-0.47302091061385265   -0.09684654236157988   0.05866379251456582
-0.47302091061385265   -0.09684654236157988   0.05866379251456582
-0.47302091061385265   -0.09684654236157988   0.05866379251456582
-0.47302091061385265   -0.09684654236157988   0.05866379251456582
0.13437068737879226   -0.11360788461413485   -0.024306811419479546
0.13437068737879226   -0.11360788461413485   -0.024306811419479546
0.13437068737879226   -0.11360788461413485   -0.024306811419479546
0.13437068737879226   -0.11360788461413485   -0.024306811419479546
-0.5472365851373411   -0.29069982640096886   -0.11856129606348755
-0.5472365851373411   -0.29069982640096886   -0.11856129606348755
-0.5472365851373411   -0.29069982640096886   -0.11856129606348755
-0.5472365851373411   -0.29069982640096886   -0.11856129606348755
0.8575486805535624   0.18528793243563774   0.13876657533323877
0.8575486805535624   0.18528793243563774   0.13876657533323877
0.8575486805535624   0.18528793243563774   0.13876657533323877
0.8575486805535624   0.18528793243563774   0.13876657533323877
0.8185949353213297   0.10966456653686205   -0.09972335381557443
0.8185949353213297   0.10966456653686205   -0.09972335381557443
0.8185949353213297   0.10966456653686205   -0.09972335381557443
0.8185949353213297   0.10966456653686205   -0.09972335381557443
-0.4544994661596589   0.01429939321870842   0.031616309670516596
-0.4544994661596589   0.01429939321870842   0.031616309670516596
-0.4544994661596589   0.01429939321870842   0.031616309670516596
-0.4544994661596589   0.01429939321870842   0.031616309670516596
0.15967429758222346   -0.001109774106354322   0.02557018284278406
0.15967429758222346   -0.001109774106354322   0.02557018284278406
0.15967429758222346   -0.001109774106354322   0.02557018284278406
0.15967429758222346   -0.001109774106354322   0.02557018284278406
-0.5261189760936964   -0.16814159528268416   -0.14404025149827943
-0.5261189760936964   -0.16814159528268416   -0.14404025149827943
-0.5261189760936964   -0.16814159528268416   -0.14404025149827943
-0.5261189760936964   -0.16814159528268416   -0.14404025149827943
0.900963652710845   0.3028547624937296   0.11893003717511869
0.900963652710845   0.3028547624937296   0.11893003717511869
0.900963652710845   0.3028547624937296   0.11893003717511869
0.900963652710845   0.3028547624937296   0.11893003717511869
0.8569433181754436   0.2586877096828595   -0.1151655744538051
0.8569433181754436   0.2586877096828595   -0.1151655744538051
0.8569433181754436   0.2586877096828595   -0.1151655744538051
0.8569433181754436   0.2586877096828595   -0.1151655744538051
-0.4346968970482541   0.14258194471839097   0.005887831755362977
-0.4346968970482541   0.14258194471839097   0.005887831755362977
-0.4346968970482541   0.14258194471839097   0.005887831755362977
-0.4346968970482541   0.14258194471839097   0.005887831755362977
0.19892247877538669   0.1214586544284363   0.0772820782082281
0.19892247877538669   0.1214586544284363   0.0772820782082281
0.19892247877538669   0.1214586544284363   0.0772820782082281
0.19892247877538669   0.1214586544284363   0.0772820782082281
0.6605165669521054   -0.42009346460705455   -0.18996072390111154
0.6605165669521054   -0.42009346460705455   -0.18996072390111154
0.6605165669521054   -0.42009346460705455   -0.18996072390111154
0.6605165669521054   -0.42009346460705455   -0.18996072390111154
1.9729082408964276   0.1939629717797755   0.20546043053520335
1.9729082408964276   0.1939629717797755   0.20546043053520335
1.9729082408964276   0.1939629717797755   0.20546043053520335
1.9729082408964276   0.1939629717797755   0.20546043053520335
1.9536084048570872   -0.10138535638239493   -0.25000992311234826
1.9536084048570872   -0.10138535638239493   -0.25000992311234826
1.9536084048570872   -0.10138535638239493   -0.25000992311234826
1.9536084048570872   -0.10138535638239493   -0.25000992311234826
0.830223662008368   0.0341990342029557   0.15323038083995652
0.830223662008368   0.0341990342029557   0.15323038083995652
0.830223662008368   0.0341990342029557   0.15323038083995652
0.830223662008368   0.0341990342029557   0.15323038083995652
1.2837809898750865   -0.0863155959398288   -0.06727538004884182
1.2837809898750865   -0.0863155959398288   -0.06727538004884182
1.2837809898750865   -0.0863155959398288   -0.06727538004884182
1.2837809898750865   -0.0863155959398288   -0.06727538004884182
0.6787418914112741   -0.35029380169799945   -0.21968563624455784
0.6787418914112741   -0.35029380169799945   -0.21968563624455784
0.6787418914112741   -0.35029380169799945   -0.21968563624455784
0.6787418914112741   -0.35029380169799945   -0.21968563624455784
2.1177313516666088   0.29574865573099296   0.17347079882190228
2.1177313516666088   0.29574865573099296   0.17347079882190228
2.1177313516666088   0.29574865573099296   0.17347079882190228
2.1177313516666088   0.29574865573099296   0.17347079882190228
2.058930324491868   -0.028164485136189077   -0.29964323682833993
2.058930324491868   -0.028164485136189077   -0.29964323682833993
2.058930324491868   -0.028164485136189077   -0.29964323682833993
2.058930324491868   -0.028164485136189077   -0.29964323682833993
0.8580453315075358   0.08782072884616442   0.11937246480613879
0.8580453315075358   0.08782072884616442   0.11937246480613879
0.8580453315075358   0.08782072884616442   0.11937246480613879
0.8580453315075358   0.08782072884616442   0.11937246480613879
1.3905272353366327   -0.012579697252315725   -0.008424834036647219
1.3905272353366327   -0.012579697252315725   -0.008424834036647219
1.3905272353366327   -0.012579697252315725   -0.008424834036647219
1.3905272353366327   -0.012579697252315725   -0.008424834036647219
0.7078091912260951   -0.28938130497887354   -0.25460620277601986
0.7078091912260951   -0.28938130497887354   -0.25460620277601986
0.7078091912260951   -0.28938130497887354   -0.25460620277601986
0.7078091912260951   -0.28938130497887354   -0.25460620277601986
2.222321285015632   0.3621923689311856   0.12695471172314896
2.222321285015632   0.3621923689311856   0.12695471172314896
2.222321285015632   0.3621923689311856   0.12695471172314896
2.222321285015632   0.3621923689311856   0.12695471172314896
2.2204523389280584   0.1327705472691469   -0.3205817999555525
2.2204523389280584   0.1327705472691469   -0.3205817999555525
2.2204523389280584   0.1327705472691469   -0.3205817999555525
2.2204523389280584   0.1327705472691469   -0.3205817999555525
0.8865298335929246   0.19665199288638577   0.09480271943006584
0.8865298335929246   0.19665199288638577   0.09480271943006584
0.8865298335929246   0.19665199288638577   0.09480271943006584
0.8865298335929246   0.19665199288638577   0.09480271943006584
1.4431955960188452   0.06884921886634238   0.04207329775972379
1.4431955960188452   0.06884921886634238   0.04207329775972379
1.4431955960188452   0.06884921886634238   0.04207329775972379
1.4431955960188452   0.06884921886634238   0.04207329775972379
-2.6464545843785667   -0.04572714630559749   0.2563186813232612
-2.6464545843785667   -0.04572714630559749   0.2563186813232612
-2.6464545843785667   -0.04572714630559749   0.2563186813232612
-2.6464545843785667   -0.04572714630559749   0.2563186813232612
-2.0583937220330855   -0.2602800798363158   -0.12726690404233704
-2.0583937220330855   -0.2602800798363158   -0.12726690404233704
-2.0583937220330855   -0.2602800798363158   -0.12726690404233704
-2.0583937220330855   -0.2602800798363158   -0.12726690404233704
-1.8634492349980811   0.22099328567699894   0.21931524509271938
-1.8634492349980811   0.22099328567699894   0.21931524509271938
-1.8634492349980811   0.22099328567699894   0.21931524509271938
-1.8634492349980811   0.22099328567699894   0.21931524509271938
-2.6349847360612384   -0.2868105582301597   -0.1730418406749868
-2.6349847360612384   -0.2868105582301597   -0.1730418406749868
-2.6349847360612384   -0.2868105582301597   -0.1730418406749868
-2.6349847360612384   -0.2868105582301597   -0.1730418406749868
-2.212485663500164   -0.06119653096434141   -0.031641199927316385
-2.212485663500164   -0.06119653096434141   -0.031641199927316385
-2.212485663500164   -0.06119653096434141   -0.031641199927316385
-2.212485663500164   -0.06119653096434141   -0.031641199927316385
-2.4731819050502226   0.10418004489834454   0.2449817112515884
-2.4731819050502226   0.10418004489834454   0.2449817112515884
-2.4731819050502226   0.10418004489834454   0.2449817112515884
-2.4731819050502226   0.10418004489834454   0.2449817112515884
-2.014064024889745   -0.15880927633215014   -0.15395614235643235
-2.014064024889745   -0.15880927633215014   -0.15395614235643235
-2.014064024889745   -0.15880927633215014   -0.15395614235643235
-2.014064024889745   -0.15880927633215014   -0.15395614235643235
-1.8169020562213836   0.27820092598594104   0.18559641311928893
-1.8169020562213836   0.27820092598594104   0.18559641311928893
-1.8169020562213836   0.27820092598594104   0.18559641311928893
-1.8169020562213836   0.27820092598594104   0.18559641311928893
-2.514365234641699   -0.22199786486657735   -0.21635988659730435
-2.514365234641699   -0.22199786486657735   -0.21635988659730435
-2.514365234641699   -0.22199786486657735   -0.21635988659730435
-2.514365234641699   -0.22199786486657735   -0.21635988659730435
-2.1494406457374113   0.013754670674902103   0.01609651796792913
-2.1494406457374113   0.013754670674902103   0.01609651796792913
-2.1494406457374113   0.013754670674902103   0.01609651796792913
-2.1494406457374113   0.013754670674902103   0.01609651796792913
-2.3523596809221616   0.17360343487390484   0.19806658225988577
-2.3523596809221616   0.17360343487390484   0.19806658225988577
-2.3523596809221616   0.17360343487390484   0.19806658225988577
-2.3523596809221616   0.17360343487390484   0.19806658225988577
-1.9682971180733373   -0.10678988188695693   -0.1863880882675645
-1.9682971180733373   -0.10678988188695693   -0.1863880882675645
-1.9682971180733373   -0.10678988188695693   -0.1863880882675645
-1.9682971180733373   -0.10678988188695693   -0.1863880882675645
-1.7791024953580947   0.3491948923519675   0.16008325138545987
-1.7791024953580947   0.3491948923519675   0.16008325138545987
-1.7791024953580947   0.3491948923519675   0.16008325138545987
-1.7791024953580947   0.3491948923519675   0.16008325138545987
-2.3522710229461326   -0.11828593776047214   -0.25044922131503117
-2.3522710229461326   -0.11828593776047214   -0.25044922131503117
-2.3522710229461326   -0.11828593776047214   -0.25044922131503117
-2.3522710229461326   -0.11828593776047214   -0.25044922131503117
-2.0219587706648285   0.08751258607940626   0.07544336142500427
-2.0219587706648285   0.08751258607940626   0.07544336142500427
-2.0219587706648285   0.08751258607940626   0.07544336142500427
-2.0219587706648285   0.08751258607940626   0.07544336142500427
-1.9868840865018316   -0.15035701989911845   0.12035821367673502
-1.9868840865018316   -0.15035701989911845   0.12035821367673502
-1.9868840865018316   -0.15035701989911845   0.12035821367673502
-1.9868840865018316   -0.15035701989911845   0.12035821367673502
-1.4534278299658676   -0.1974130249448541   -0.03771334608542357
-1.4534278299658676   -0.1974130249448541   -0.03771334608542357
-1.4534278299658676   -0.1974130249448541   -0.03771334608542357
-1.4534278299658676   -0.1974130249448541   -0.03771334608542357
-1.3444936109812322   0.10046090572587141   0.11210136571634086
-1.3444936109812322   0.10046090572587141   0.11210136571634086
-1.3444936109812322   0.10046090572587141   0.11210136571634086
-1.3444936109812322   0.10046090572587141   0.11210136571634086
-2.015701920211658   -0.21190197298944335   -0.10905292230867544
-2.015701920211658   -0.21190197298944335   -0.10905292230867544
-2.015701920211658   -0.21190197298944335   -0.10905292230867544
-2.015701920211658   -0.21190197298944335   -0.10905292230867544
-1.6953017998434106   -0.10583852956812895   -0.04534760946231013
-1.6953017998434106   -0.10583852956812895   -0.04534760946231013
-1.6953017998434106   -0.10583852956812895   -0.04534760946231013
-1.6953017998434106   -0.10583852956812895   -0.04534760946231013
-1.9349354918508013   -0.01956024524173916   0.10243749174785707
-1.9349354918508013   -0.01956024524173916   0.10243749174785707
-1.9349354918508013   -0.01956024524173916   0.10243749174785707
-1.9349354918508013   -0.01956024524173916   0.10243749174785707
-1.4162346367843133   -0.0828554194640651   -0.06328743810912843
-1.4162346367843133   -0.0828554194640651   -0.06328743810912843
-1.4162346367843133   -0.0828554194640651   -0.06328743810912843
-1.4162346367843133   -0.0828554194640651   -0.06328743810912843
-1.3043208263001629   0.21672606449509924   0.08970388035428584
-1.3043208263001629   0.21672606449509924   0.08970388035428584
-1.3043208263001629   0.21672606449509924   0.08970388035428584
-1.3043208263001629   0.21672606449509924   0.08970388035428584
-1.9557585148375618   -0.09995980741338856   -0.13052514656224193
-1.9557585148375618   -0.09995980741338856   -0.13052514656224193
-1.9557585148375618   -0.09995980741338856   -0.13052514656224193
-1.9557585148375618   -0.09995980741338856   -0.13052514656224193
-1.6373710736704752   0.006426467410077685   0.004937259771898628
-1.6373710736704752   0.006426467410077685   0.004937259771898628
-1.6373710736704752   0.006426467410077685   0.004937259771898628
-1.6373710736704752   0.006426467410077685   0.004937259771898628
-1.8702588529163249   0.10416696185592872   0.09284639377459536
-1.8702588529163249   0.10416696185592872   0.09284639377459536
-1.8702588529163249   0.10416696185592872   0.09284639377459536
-1.8702588529163249   0.10416696185592872   0.09284639377459536
-1.3794002043395663   0.02301957910760899   -0.09198652445524932
-1.3794002043395663   0.02301957910760899   -0.09198652445524932
-1.3794002043395663   0.02301957910760899   -0.09198652445524932
-1.3794002043395663   0.02301957910760899   -0.09198652445524932
-1.2642820627766003   0.3427788098313645   0.06837213031014713
-1.2642820627766003   0.3427788098313645   0.06837213031014713
-1.2642820627766003   0.3427788098313645   0.06837213031014713
-1.2642820627766003   0.3427788098313645   0.06837213031014713
-1.9061606625656353   0.022158440406978563   -0.148171132707237
-1.9061606625656353   0.022158440406978563   -0.148171132707237
-1.9061606625656353   0.022158440406978563   -0.148171132707237
-1.9061606625656353   0.022158440406978563   -0.148171132707237
-1.5954270111583908   0.1163061457923592   0.054058518938056827
-1.5954270111583908   0.1163061457923592   0.054058518938056827
-1.5954270111583908   0.1163061457923592   0.054058518938056827
-1.5954270111583908   0.1163061457923592   0.054058518938056827
-1.4518507383791235   -0.2481488934901406   0.02090798039356017
-1.4518507383791235   -0.2481488934901406   0.02090798039356017
-1.4518507383791235   -0.2481488934901406   0.02090798039356017
-1.4518507383791235   -0.2481488934901406   0.02090798039356017
-0.8570237381813988   -0.10340200919337308   0.05349934294650481
-0.8570237381813988   -0.10340200919337308   0.05349934294650481
-0.8570237381813988   -0.10340200919337308   0.05349934294650481
-0.8570237381813988   -0.10340200919337308   0.05349934294650481
-0.8269947098372457   -0.0014233184560324408   0.006953677450996711
-0.8269947098372457   -0.0014233184560324408   0.006953677450996711
-0.8269947098372457   -0.0014233184560324408   0.006953677450996711
-0.8269947098372457   -0.0014233184560324408   0.006953677450996711
-1.412244435697885   -0.11349815824849502   -0.012693693892556715
-1.412244435697885   -0.11349815824849502   -0.012693693892556715
-1.412244435697885   -0.11349815824849502   -0.012693693892556715
-1.412244435697885   -0.11349815824849502   -0.012693693892556715
-1.1388259782292924   -0.11118165566072433   -0.03297546337015335
-1.1388259782292924   -0.11118165566072433   -0.03297546337015335
-1.1388259782292924   -0.11118165566072433   -0.03297546337015335
-1.1388259782292924   -0.11118165566072433   -0.03297546337015335
-1.4106157056506035   -0.11928991124152924   0.0012417093368704626
-1.4106157056506035   -0.11928991124152924   0.0012417093368704626
-1.4106157056506035   -0.11928991124152924   0.0012417093368704626
-1.4106157056506035   -0.11928991124152924   0.0012417093368704626
-0.8196520154410852   0.013339858980451536   0.02890397199531481
-0.8196520154410852   0.013339858980451536   0.02890397199531481
-0.8196520154410852   0.013339858980451536   0.02890397199531481
-0.8196520154410852   0.013339858980451536   0.02890397199531481
-0.7834042878308355   0.1285839977629187   -0.011307733754876662
-0.7834042878308355   0.1285839977629187   -0.011307733754876662
-0.7834042878308355   0.1285839977629187   -0.011307733754876662
-0.7834042878308355   0.1285839977629187   -0.011307733754876662
-1.372004041041965   0.004903421840177724   -0.03688955069981016
-1.372004041041965   0.004903421840177724   -0.03688955069981016
-1.372004041041965   0.004903421840177724   -0.03688955069981016
-1.372004041041965   0.004903421840177724   -0.03688955069981016
-1.092870870791154   0.005774412694315001   0.015755335786664118
-1.092870870791154   0.005774412694315001   0.015755335786664118
-1.092870870791154   0.005774412694315001   0.015755335786664118
-1.092870870791154   0.005774412694315001   0.015755335786664118
-1.3672855772502481   0.01032543720816681   -0.018719247109223472
-1.3672855772502481   0.01032543720816681   -0.018719247109223472
-1.3672855772502481   0.01032543720816681   -0.018719247109223472
-1.3672855772502481   0.01032543720816681   -0.018719247109223472
-0.7800120180826792   0.13127271593480244   0.0029648968140277426
-0.7800120180826792   0.13127271593480244   0.0029648968140277426
-0.7800120180826792   0.13127271593480244   0.0029648968140277426
-0.7800120180826792   0.13127271593480244   0.0029648968140277426
-0.7422386563284418   0.25976807161600496   -0.03218329472115175
-0.7422386563284418   0.25976807161600496   -0.03218329472115175
-0.7422386563284418   0.25976807161600496   -0.03218329472115175
-0.7422386563284418   0.25976807161600496   -0.03218329472115175
-1.3342091152203839   0.1242232503129449   -0.06270757239034414
-1.3342091152203839   0.1242232503129449   -0.06270757239034414
-1.3342091152203839   0.1242232503129449   -0.06270757239034414
-1.3342091152203839   0.1242232503129449   -0.06270757239034414
-1.0493746489981421   0.12314828374416098   0.06252867472700586
-1.0493746489981421   0.12314828374416098   0.06252867472700586
-1.0493746489981421   0.12314828374416098   0.06252867472700586
-1.0493746489981421   0.12314828374416098   0.06252867472700586
-0.9296387716231745   -0.3330728018673167   -0.07990503158844592
-0.9296387716231745   -0.3330728018673167   -0.07990503158844592
-0.9296387716231745   -0.3330728018673167   -0.07990503158844592
-0.9296387716231745   -0.3330728018673167   -0.07990503158844592
-0.2763509218012361   -0.00356155556686448   0.14035282020361975
-0.2763509218012361   -0.00356155556686448   0.14035282020361975
-0.2763509218012361   -0.00356155556686448   0.14035282020361975
-0.2763509218012361   -0.00356155556686448   0.14035282020361975
-0.31553617584342564   -0.09753607565061877   -0.10226860870111709
-0.31553617584342564   -0.09753607565061877   -0.10226860870111709
-0.31553617584342564   -0.09753607565061877   -0.10226860870111709
-0.31553617584342564   -0.09753607565061877   -0.10226860870111709
-0.8146303554237007   -0.012755241895029329   0.08010737295771161
-0.8146303554237007   -0.012755241895029329   0.08010737295771161
-0.8146303554237007   -0.012755241895029329   0.08010737295771161
-0.8146303554237007   -0.012755241895029329   0.08010737295771161
-0.5840518017127849   -0.10683969522943887   -0.023783726476084944
-0.5840518017127849   -0.10683969522943887   -0.023783726476084944
-0.5840518017127849   -0.10683969522943887   -0.023783726476084944
-0.5840518017127849   -0.10683969522943887   -0.023783726476084944
-0.8907560891744329   -0.21231803676233862   -0.10095850092864761
-0.8907560891744329   -0.21231803676233862   -0.10095850092864761
-0.8907560891744329   -0.21231803676233862   -0.10095850092864761
-0.8907560891744329   -0.21231803676233862   -0.10095850092864761
-0.22935132653124715   0.11208583477812531   0.11903372743103127
-0.22935132653124715   0.11208583477812531   0.11903372743103127
-0.22935132653124715   0.11208583477812531   0.11903372743103127
-0.22935132653124715   0.11208583477812531   0.11903372743103127
-0.25201038417397914   0.025451440481118665   -0.11511253600317337
-0.25201038417397914   0.025451440481118665   -0.11511253600317337
-0.25201038417397914   0.025451440481118665   -0.11511253600317337
-0.25201038417397914   0.025451440481118665   -0.11511253600317337
-0.7774682545332384   0.09356973176269481   0.053386698733332835
-0.7774682545332384   0.09356973176269481   0.053386698733332835
-0.7774682545332384   0.09356973176269481   0.053386698733332835
-0.7774682545332384   0.09356973176269481   0.053386698733332835
-0.5352620407673859   0.002012868032592749   0.025851146376006832
-0.5352620407673859   0.002012868032592749   0.025851146376006832
-0.5352620407673859   0.002012868032592749   0.025851146376006832
-0.5352620407673859   0.002012868032592749   0.025851146376006832
-0.8511809210533008   -0.09640128342914156   -0.12520561867515284
-0.8511809210533008   -0.09640128342914156   -0.12520561867515284
-0.8511809210533008   -0.09640128342914156   -0.12520561867515284
-0.8511809210533008   -0.09640128342914156   -0.12520561867515284
-0.16893613096503213   0.22478404236183797   0.10092612816084234
-0.16893613096503213   0.22478404236183797   0.10092612816084234
-0.16893613096503213   0.22478404236183797   0.10092612816084234
-0.16893613096503213   0.22478404236183797   0.10092612816084234
-0.198256634937487   0.16291191272793026   -0.12890259030770757
-0.198256634937487   0.16291191272793026   -0.12890259030770757
-0.198256634937487   0.16291191272793026   -0.12890259030770757
-0.198256634937487   0.16291191272793026   -0.12890259030770757
-0.7394269039811809   0.2140134684864921   0.027630070144665328
-0.7394269039811809   0.2140134684864921   0.027630070144665328
-0.7394269039811809   0.2140134684864921   0.027630070144665328
-0.7394269039811809   0.2140134684864921   0.027630070144665328
-0.4846511076512726   0.11565490524231631   0.0755525964811625
-0.4846511076512726   0.11565490524231631   0.0755525964811625
-0.4846511076512726   0.11565490524231631   0.0755525964811625
-0.4846511076512726   0.11565490524231631   0.0755525964811625
-0.4100560055064483   -0.35839066198809605   -0.17334349190121706
-0.4100560055064483   -0.35839066198809605   -0.17334349190121706
-0.4100560055064483   -0.35839066198809605   -0.17334349190121706
-0.4100560055064483   -0.35839066198809605   -0.17334349190121706
0.16591181737913857   0.10769322847466228   0.21344191865863688
0.16591181737913857   0.10769322847466228   0.21344191865863688
0.16591181737913857   0.10769322847466228   0.21344191865863688
0.16591181737913857   0.10769322847466228   0.21344191865863688
0.16750733037290055   -0.1748674765387717   -0.22938584123321304
0.16750733037290055   -0.1748674765387717   -0.22938584123321304
0.16750733037290055   -0.1748674765387717   -0.22938584123321304
0.16750733037290055   -0.1748674765387717   -0.22938584123321304
-0.21858824010455347   0.11026443890524656   0.17467055543737847
-0.21858824010455347   0.11026443890524656   0.17467055543737847
-0.21858824010455347   0.11026443890524656   0.17467055543737847
-0.21858824010455347   0.11026443890524656   0.17467055543737847
-0.07936186825178701   -0.07551051899065817   -0.041013447046104344
-0.07936186825178701   -0.07551051899065817   -0.041013447046104344
-0.07936186825178701   -0.07551051899065817   -0.041013447046104344
-0.07936186825178701   -0.07551051899065817   -0.041013447046104344
-0.37072041042322895   -0.27648418991792123   -0.19924166733283133
-0.37072041042322895   -0.27648418991792123   -0.19924166733283133
-0.37072041042322895   -0.27648418991792123   -0.19924166733283133
-0.37072041042322895   -0.27648418991792123   -0.19924166733283133
0.3304022870051642   0.22264393859798426   0.1875775267913493
0.3304022870051642   0.22264393859798426   0.1875775267913493
0.3304022870051642   0.22264393859798426   0.1875775267913493
0.3304022870051642   0.22264393859798426   0.1875775267913493
0.2887861872606061   -0.10437415208912568   -0.2723427956233205
0.2887861872606061   -0.10437415208912568   -0.2723427956233205
0.2887861872606061   -0.10437415208912568   -0.2723427956233205
0.2887861872606061   -0.10437415208912568   -0.2723427956233205
-0.1737941573853351   0.16141003676381394   0.1400100016573514
-0.1737941573853351   0.16141003676381394   0.1400100016573514
-0.1737941573853351   0.16141003676381394   0.1400100016573514
-0.1737941573853351   0.16141003676381394   0.1400100016573514
0.020718579128675904   -0.003063362219662696   0.012865089148646749
0.020718579128675904   -0.003063362219662696   0.012865089148646749
0.020718579128675904   -0.003063362219662696   0.012865089148646749
0.020718579128675904   -0.003063362219662696   0.012865089148646749
-0.3238358712668477   -0.21848975905602655   -0.23029877193037107
-0.3238358712668477   -0.21848975905602655   -0.23029877193037107
-0.3238358712668477   -0.21848975905602655   -0.23029877193037107
-0.3238358712668477   -0.21848975905602655   -0.23029877193037107
0.4495863206540027   0.2862840632425988   0.14099965601193803
0.4495863206540027   0.2862840632425988   0.14099965601193803
0.4495863206540027   0.2862840632425988   0.14099965601193803
0.4495863206540027   0.2862840632425988   0.14099965601193803
0.4584088041794557   0.03376457444959775   -0.2915133433404054
0.4584088041794557   0.03376457444959775   -0.2915133433404054
0.4584088041794557   0.03376457444959775   -0.2915133433404054
0.4584088041794557   0.03376457444959775   -0.2915133433404054
-0.13191895334787365   0.25193747929698584   0.11376025107130361
-0.13191895334787365   0.25193747929698584   0.11376025107130361
-0.13191895334787365   0.25193747929698584   0.11376025107130361
-0.13191895334787365   0.25193747929698584   0.11376025107130361
0.11030714977901152   0.0732046436656278   0.06540155957716395
0.11030714977901152   0.0732046436656278   0.06540155957716395
0.11030714977901152   0.0732046436656278   0.06540155957716395
0.11030714977901152   0.0732046436656278   0.06540155957716395
-0.88610013855801   0.04838693308490094   0.243774577088671
-0.88610013855801   0.04838693308490094   0.243774577088671
-0.88610013855801   0.04838693308490094   0.243774577088671
-0.88610013855801   0.04838693308490094   0.243774577088671
-1.0421430588426563   -0.3183644300532824   -0.14419652941331307
-1.0421430588426563   -0.3183644300532824   -0.14419652941331307
-1.0421430588426563   -0.3183644300532824   -0.14419652941331307
-1.0421430588426563   -0.3183644300532824   -0.14419652941331307
-0.8320083704602714   0.14833991611763414   0.1997341654630158
-0.8320083704602714   0.14833991611763414   0.1997341654630158
-0.8320083704602714   0.14833991611763414   0.1997341654630158
-0.8320083704602714   0.14833991611763414   0.1997341654630158
-0.8601501895586773   -0.21086028732800177   -0.18557463769259594
-0.8601501895586773   -0.21086028732800177   -0.18557463769259594
-0.8601501895586773   -0.21086028732800177   -0.18557463769259594
-0.8601501895586773   -0.21086028732800177   -0.18557463769259594
-0.8818585342839268   -0.06789477971604538   -0.06616469051553694
-0.8818585342839268   -0.06789477971604538   -0.06616469051553694
-0.8818585342839268   -0.06789477971604538   -0.06616469051553694
-0.8818585342839268   -0.06789477971604538   -0.06616469051553694
-0.6993737021657763   0.18034126589392618   0.22710624604998092
-0.6993737021657763   0.18034126589392618   0.22710624604998092
-0.6993737021657763   0.18034126589392618   0.22710624604998092
-0.6993737021657763   0.18034126589392618   0.22710624604998092
-0.9827871339099489   -0.23286391316106783   -0.1729558225066546
-0.9827871339099489   -0.23286391316106783   -0.1729558225066546
-0.9827871339099489   -0.23286391316106783   -0.1729558225066546
-0.9827871339099489   -0.23286391316106783   -0.1729558225066546
-0.7666273161371482   0.20445865321447615   0.16818478530341216
-0.7666273161371482   0.20445865321447615   0.16818478530341216
-0.7666273161371482   0.20445865321447615   0.16818478530341216
-0.7666273161371482   0.20445865321447615   0.16818478530341216
-0.7210190533334006   -0.14743883445170755   -0.23135516136354128
-0.7210190533334006   -0.14743883445170755   -0.23135516136354128
-0.7210190533334006   -0.14743883445170755   -0.23135516136354128
-0.7210190533334006   -0.14743883445170755   -0.23135516136354128
-0.7791974792019674   0.0038842491783421806   -0.013280770622459248
-0.7791974792019674   0.0038842491783421806   -0.013280770622459248
-0.7791974792019674   0.0038842491783421806   -0.013280770622459248
-0.7791974792019674   0.0038842491783421806   -0.013280770622459248
-0.5592310240205249   0.24860848727245347   0.18153766347667546
-0.5592310240205249   0.24860848727245347   0.18153766347667546
-0.5592310240205249   0.24860848727245347   0.18153766347667546
-0.5592310240205249   0.24860848727245347   0.18153766347667546
-0.9189625624031338   -0.18213588546279474   -0.20689690734924412
-0.9189625624031338   -0.18213588546279474   -0.20689690734924412
-0.9189625624031338   -0.18213588546279474   -0.20689690734924412
-0.9189625624031338   -0.18213588546279474   -0.20689690734924412
-0.7067322554377957   0.28996690847039186   0.14527624233101355
-0.7067322554377957   0.28996690847039186   0.14527624233101355
-0.7067322554377957   0.28996690847039186   0.14527624233101355
-0.7067322554377957   0.28996690847039186   0.14527624233101355
-0.5353444311898138   -0.02686330002075263   -0.2606863152735091
-0.5353444311898138   -0.02686330002075263   -0.2606863152735091
-0.5353444311898138   -0.02686330002075263   -0.2606863152735091
-0.5353444311898138   -0.02686330002075263   -0.2606863152735091
-0.6555425306412294   0.07873985864282729   0.04343635046698756
-0.6555425306412294   0.07873985864282729   0.04343635046698756
-0.6555425306412294   0.07873985864282729   0.04343635046698756
-0.6555425306412294   0.07873985864282729   0.04343635046698756
-0.9336778892223271   -0.058306158210034806   0.13807104684507088
-0.9336778892223271   -0.058306158210034806   0.13807104684507088
-0.9336778892223271   -0.058306158210034806   0.13807104684507088
-0.9336778892223271   -0.058306158210034806   0.13807104684507088
-1.1514818833630291   -0.2596361573017227   -0.056353949349497404
-1.1514818833630291   -0.2596361573017227   -0.056353949349497404
-1.1514818833630291   -0.2596361573017227   -0.056353949349497404
-1.1514818833630291   -0.2596361573017227   -0.056353949349497404
-1.025500428166236   0.026479018473002824   0.09265054295807262
-1.025500428166236   0.026479018473002824   0.09265054295807262
-1.025500428166236   0.026479018473002824   0.09265054295807262
-1.025500428166236   0.026479018473002824   0.09265054295807262
-0.9434993929378576   -0.12382176715465366   -0.08555926365262757
-0.9434993929378576   -0.12382176715465366   -0.08555926365262757
-0.9434993929378576   -0.12382176715465366   -0.08555926365262757
-0.9434993929378576   -0.12382176715465366   -0.08555926365262757
-1.0141396324613352   -0.09593150130878816   -0.04683452458640802
-1.0141396324613352   -0.09593150130878816   -0.04683452458640802
-1.0141396324613352   -0.09593150130878816   -0.04683452458640802
-1.0141396324613352   -0.09593150130878816   -0.04683452458640802
-0.8646736760286174   0.06421980921390041   0.12052774452500317
-0.8646736760286174   0.06421980921390041   0.12052774452500317
-0.8646736760286174   0.06421980921390041   0.12052774452500317
-0.8646736760286174   0.06421980921390041   0.12052774452500317
-1.096504572611102   -0.15374098543119236   -0.08215017536207671
-1.096504572611102   -0.15374098543119236   -0.08215017536207671
-1.096504572611102   -0.15374098543119236   -0.08215017536207671
-1.096504572611102   -0.15374098543119236   -0.08215017536207671
-0.9670741438629977   0.13802629684119777   0.07072100373618728
-0.9670741438629977   0.13802629684119777   0.07072100373618728
-0.9670741438629977   0.13802629684119777   0.07072100373618728
-0.9670741438629977   0.13802629684119777   0.07072100373618728
-0.8656184745872574   -0.016135871435617705   -0.10617648229702473
-0.8656184745872574   -0.016135871435617705   -0.10617648229702473
-0.8656184745872574   -0.016135871435617705   -0.10617648229702473
-0.8656184745872574   -0.016135871435617705   -0.10617648229702473
-0.944465307941702   0.00831257368133767   0.0020279857514111654
-0.944465307941702   0.00831257368133767   0.0020279857514111654
-0.944465307941702   0.00831257368133767   0.0020279857514111654
-0.944465307941702   0.00831257368133767   0.0020279857514111654
-0.7829716052144027   0.18240583537500218   0.10851615775661422
-0.7829716052144027   0.18240583537500218   0.10851615775661422
-0.7829716052144027   0.18240583537500218   0.10851615775661422
-0.7829716052144027   0.18240583537500218   0.10851615775661422
-1.0413870046757299   -0.05218140140932476   -0.11063560207696502
-1.0413870046757299   -0.05218140140932476   -0.11063560207696502
-1.0413870046757299   -0.05218140140932476   -0.11063560207696502
-1.0413870046757299   -0.05218140140932476   -0.11063560207696502
-0.9083777243778856   0.26132506846781367   0.049879069409127785
-0.9083777243778856   0.26132506846781367   0.049879069409127785
-0.9083777243778856   0.26132506846781367   0.049879069409127785
-0.9083777243778856   0.26132506846781367   0.049879069409127785
-0.7982760701328842   0.10321375760717852   -0.1256896802811996
-0.7982760701328842   0.10321375760717852   -0.1256896802811996
-0.7982760701328842   0.10321375760717852   -0.1256896802811996
-0.7982760701328842   0.10321375760717852   -0.1256896802811996
-0.8786092527990853   0.11578300010083914   0.0516944974720569
-0.8786092527990853   0.11578300010083914   0.0516944974720569
-0.8786092527990853   0.11578300010083914   0.0516944974720569
-0.8786092527990853   0.11578300010083914   0.0516944974720569
-1.1120493759391117   -0.15739376603378852   0.03856619650214073
-1.1120493759391117   -0.15739376603378852   0.03856619650214073
-1.1120493759391117   -0.15739376603378852   0.03856619650214073
-1.1120493759391117   -0.15739376603378852   0.03856619650214073
-1.2608616924546598   -0.1630546340789638   0.03418570594251166
-1.2608616924546598   -0.1630546340789638   0.03418570594251166
-1.2608616924546598   -0.1630546340789638   0.03418570594251166
-1.2608616924546598   -0.1630546340789638   0.03418570594251166
-1.2138819518844752   -0.07367218989414262   -0.011926335934265946
-1.2138819518844752   -0.07367218989414262   -0.011926335934265946
-1.2138819518844752   -0.07367218989414262   -0.011926335934265946
-1.2138819518844752   -0.07367218989414262   -0.011926335934265946
-1.0516296245623964   -0.0225501286839149   0.01103370813418917
-1.0516296245623964   -0.0225501286839149   0.01103370813418917
-1.0516296245623964   -0.0225501286839149   0.01103370813418917
-1.0516296245623964   -0.0225501286839149   0.01103370813418917
-1.161342735704726   -0.09825751599741539   -0.030991294035938727
-1.161342735704726   -0.09825751599741539   -0.030991294035938727
-1.161342735704726   -0.09825751599741539   -0.030991294035938727
-1.161342735704726   -0.09825751599741539   -0.030991294035938727
-1.0525792558332316   -0.03523274906485471   0.018968172160930004
-1.0525792558332316   -0.03523274906485471   0.018968172160930004
-1.0525792558332316   -0.03523274906485471   0.018968172160930004
-1.0525792558332316   -0.03523274906485471   0.018968172160930004
-1.2055687146753595   -0.05362596357492452   0.009593623792104135
-1.2055687146753595   -0.05362596357492452   0.009593623792104135
-1.2055687146753595   -0.05362596357492452   0.009593623792104135
-1.2055687146753595   -0.05362596357492452   0.009593623792104135
-1.152555454116483   0.05010636651883066   -0.03032341423208894
-1.152555454116483   0.05010636651883066   -0.03032341423208894
-1.152555454116483   0.05010636651883066   -0.03032341423208894
-1.152555454116483   0.05010636651883066   -0.03032341423208894
-0.9934018335252375   0.08990856893737639   -0.012799716671190078
-0.9934018335252375   0.08990856893737639   -0.012799716671190078
-0.9934018335252375   0.08990856893737639   -0.012799716671190078
-0.9934018335252375   0.08990856893737639   -0.012799716671190078
-1.0973082900745732   0.012456694487853692   0.01721292787604828
-1.0973082900745732   0.012456694487853692   0.01721292787604828
-1.0973082900745732   0.012456694487853692   0.01721292787604828
-1.0973082900745732   0.012456694487853692   0.01721292787604828
-0.9914785208706144   0.08810959926855594   -0.0013841837292695308
-0.9914785208706144   0.08810959926855594   -0.0013841837292695308
-0.9914785208706144   0.08810959926855594   -0.0013841837292695308
-0.9914785208706144   0.08810959926855594   -0.0013841837292695308
-1.1480627384455706   0.05832136451317382   -0.01607483387186974
-1.1480627384455706   0.05832136451317382   -0.01607483387186974
-1.1480627384455706   0.05832136451317382   -0.01607483387186974
-1.1480627384455706   0.05832136451317382   -0.01607483387186974
-1.093839129779917   0.17461223764232403   -0.05113262118391551
-1.093839129779917   0.17461223764232403   -0.05113262118391551
-1.093839129779917   0.17461223764232403   -0.05113262118391551
-1.093839129779917   0.17461223764232403   -0.05113262118391551
-0.9378378623071293   0.20282745129341956   -0.038924003062696055
-0.9378378623071293   0.20282745129341956   -0.038924003062696055
-0.9378378623071293   0.20282745129341956   -0.038924003062696055
-0.9378378623071293   0.20282745129341956   -0.038924003062696055
-1.0361968950757763   0.12336681095884633   0.06316608115597018
-1.0361968950757763   0.12336681095884633   0.06316608115597018
-1.0361968950757763   0.12336681095884633   0.06316608115597018
-1.0361968950757763   0.12336681095884633   0.06316608115597018
-1.2975358528153764   -0.24859754316536697   -0.06364218677469105
-1.2975358528153764   -0.24859754316536697   -0.06364218677469105
-1.2975358528153764   -0.24859754316536697   -0.06364218677469105
-1.2975358528153764   -0.24859754316536697   -0.06364218677469105
-1.3790789441307847   -0.06849657791668681   0.12080583989537896
-1.3790789441307847   -0.06849657791668681   0.12080583989537896
-1.3790789441307847   -0.06849657791668681   0.12080583989537896
-1.3790789441307847   -0.06849657791668681   0.12080583989537896
-1.400736866669883   -0.16954211486162027   -0.11772048062906079
-1.400736866669883   -0.16954211486162027   -0.11772048062906079
-1.400736866669883   -0.16954211486162027   -0.11772048062906079
-1.400736866669883   -0.16954211486162027   -0.11772048062906079
-1.161487200367565   0.07475308381701759   0.10162214793912537
-1.161487200367565   0.07475308381701759   0.10162214793912537
-1.161487200367565   0.07475308381701759   0.10162214793912537
-1.161487200367565   0.07475308381701759   0.10162214793912537
-1.3043469063256365   -0.096251389308395   -0.019441810375658036
-1.3043469063256365   -0.096251389308395   -0.019441810375658036
-1.3043469063256365   -0.096251389308395   -0.019441810375658036
-1.3043469063256365   -0.096251389308395   -0.019441810375658036
-1.2396481191637656   -0.1305551180662989   -0.08387424415857134
-1.2396481191637656   -0.1305551180662989   -0.08387424415857134
-1.2396481191637656   -0.1305551180662989   -0.08387424415857134
-1.2396481191637656   -0.1305551180662989   -0.08387424415857134
-1.3148527717335001   0.04348926316187662   0.09866861602935594
-1.3148527717335001   0.04348926316187662   0.09866861602935594
-1.3148527717335001   0.04348926316187662   0.09866861602935594
-1.3148527717335001   0.04348926316187662   0.09866861602935594
-1.3206183416169108   -0.052151035321928385   -0.13206704960611065
-1.3206183416169108   -0.052151035321928385   -0.13206704960611065
-1.3206183416169108   -0.052151035321928385   -0.13206704960611065
-1.3206183416169108   -0.052151035321928385   -0.13206704960611065
-1.1061840105760772   0.17620367721817917   0.07543649277058137
-1.1061840105760772   0.17620367721817917   0.07543649277058137
-1.1061840105760772   0.17620367721817917   0.07543649277058137
-1.1061840105760772   0.17620367721817917   0.07543649277058137
-1.231767431961373   0.01030538199075337   0.03028715580934732
-1.231767431961373   0.01030538199075337   0.03028715580934732
-1.231767431961373   0.01030538199075337   0.03028715580934732
-1.231767431961373   0.01030538199075337   0.03028715580934732
-1.1819303828136185   -0.019515309899866495   -0.10757638129909387
-1.1819303828136185   -0.019515309899866495   -0.10757638129909387
-1.1819303828136185   -0.019515309899866495   -0.10757638129909387
-1.1819303828136185   -0.019515309899866495   -0.10757638129909387
-1.2370662051618997   0.15137371601358607   0.08216888133343844
-1.2370662051618997   0.15137371601358607   0.08216888133343844
-1.2370662051618997   0.15137371601358607   0.08216888133343844
-1.2370662051618997   0.15137371601358607   0.08216888133343844
-1.2504712486125518   0.07730317162820727   -0.14487706951538776
-1.2504712486125518   0.07730317162820727   -0.14487706951538776
-1.2504712486125518   0.07730317162820727   -0.14487706951538776
-1.2504712486125518   0.07730317162820727   -0.14487706951538776
-1.0507258279492344   0.2894315419058823   0.049614583705939186
-1.0507258279492344   0.2894315419058823   0.049614583705939186
-1.0507258279492344   0.2894315419058823   0.049614583705939186
-1.0507258279492344   0.2894315419058823   0.049614583705939186
-1.1698874464103712   0.1162168315792082   0.07789581842868097
-1.1698874464103712   0.1162168315792082   0.07789581842868097
-1.1698874464103712   0.1162168315792082   0.07789581842868097
-1.1698874464103712   0.1162168315792082   0.07789581842868097
-1.4805570525449243   -0.29608765438356976   -0.1589936257084605
-1.4805570525449243   -0.29608765438356976   -0.1589936257084605
-1.4805570525449243   -0.29608765438356976   -0.1589936257084605
-1.4805570525449243   -0.29608765438356976   -0.1589936257084605
-1.6296281622429238   0.02466372461263122   0.2166106191726716
-1.6296281622429238   0.02466372461263122   0.2166106191726716
-1.6296281622429238   0.02466372461263122   0.2166106191726716
-1.6296281622429238   0.02466372461263122   0.2166106191726716
-1.6065231346900883   -0.24455561936392115   -0.21149484132292518
-1.6065231346900883   -0.24455561936392115   -0.21149484132292518
-1.6065231346900883   -0.24455561936392115   -0.21149484132292518
-1.6065231346900883   -0.24455561936392115   -0.21149484132292518
-1.2671586333518086   0.18644946122097666   0.1941791098787069
-1.2671586333518086   0.18644946122097666   0.1941791098787069
-1.2671586333518086   0.18644946122097666   0.1941791098787069
-1.2671586333518086   0.18644946122097666   0.1941791098787069
-1.4361861808271865   -0.06299839088328801   -0.010238667883865474
-1.4361861808271865   -0.06299839088328801   -0.010238667883865474
-1.4361861808271865   -0.06299839088328801   -0.010238667883865474
-1.4361861808271865   -0.06299839088328801   -0.010238667883865474
-1.4198896079629515   -0.2012793384542663   -0.1817469635017879
-1.4198896079629515   -0.2012793384542663   -0.1817469635017879
-1.4198896079629515   -0.2012793384542663   -0.1817469635017879
-1.4198896079629515   -0.2012793384542663   -0.1817469635017879
-1.4456241646795776   0.15134117571066286   0.19710321365502947
-1.4456241646795776   0.15134117571066286   0.19710321365502947
-1.4456241646795776   0.15134117571066286   0.19710321365502947
-1.4456241646795776   0.15134117571066286   0.19710321365502947
-1.4686679175169675   -0.1759580999588725   -0.25195692182444834
-1.4686679175169675   -0.1759580999588725   -0.25195692182444834
-1.4686679175169675   -0.1759580999588725   -0.25195692182444834
-1.4686679175169675   -0.1759580999588725   -0.25195692182444834
-1.2050453700701964   0.23476210756324362   0.15888466524228856
-1.2050453700701964   0.23476210756324362   0.15888466524228856
-1.2050453700701964   0.23476210756324362   0.15888466524228856
-1.2050453700701964   0.23476210756324362   0.15888466524228856
-1.342332812566322   0.008611180637178195   0.03755631179126041
-1.342332812566322   0.008611180637178195   0.03755631179126041
-1.342332812566322   0.008611180637178195   0.03755631179126041
-1.342332812566322   0.008611180637178195   0.03755631179126041
-1.3547709679817521   -0.14481964086449337   -0.2101615758877679
-1.3547709679817521   -0.14481964086449337   -0.2101615758877679
-1.3547709679817521   -0.14481964086449337   -0.2101615758877679
-1.3547709679817521   -0.14481964086449337   -0.2101615758877679
-1.3103890731331151   0.2121768949411585   0.15130230519478183
-1.3103890731331151   0.2121768949411585   0.15130230519478183
-1.3103890731331151   0.2121768949411585   0.15130230519478183
-1.3103890731331151   0.2121768949411585   0.15130230519478183
-1.2881154652664977   -0.05709726673451637   -0.2752169671675836
-1.2881154652664977   -0.05709726673451637   -0.2752169671675836
-1.2881154652664977   -0.05709726673451637   -0.2752169671675836
-1.2881154652664977   -0.05709726673451637   -0.2752169671675836
-1.1493476822891702   0.30717174252037305   0.13087219120934018
-1.1493476822891702   0.30717174252037305   0.13087219120934018
-1.1493476822891702   0.30717174252037305   0.13087219120934018
-1.1493476822891702   0.30717174252037305   0.13087219120934018
-1.2150521442130469   0.08030810962103774   0.09274767490881433
-1.2150521442130469   0.08030810962103774   0.09274767490881433
-1.2150521442130469   0.08030810962103774   0.09274767490881433
-1.2150521442130469   0.08030810962103774   0.09274767490881433
0.8944793838591766   0.14510836589693876   0.23654500763595987
0.8944793838591766   0.14510836589693876   0.23654500763595987
0.8944793838591766   0.14510836589693876   0.23654500763595987
0.8944793838591766   0.14510836589693876   0.23654500763595987
-0.024918462516330314   -0.3806589579487589   -0.15665770659918543
-0.024918462516330314   -0.3806589579487589   -0.15665770659918543
-0.024918462516330314   -0.3806589579487589   -0.15665770659918543
-0.024918462516330314   -0.3806589579487589   -0.15665770659918543
0.20001644427398088   0.07486418585537358   0.18288109439174557
0.20001644427398088   0.07486418585537358   0.18288109439174557
0.20001644427398088   0.07486418585537358   0.18288109439174557
0.20001644427398088   0.07486418585537358   0.18288109439174557
0.9346906918838277   -0.13501997055782966   -0.19584457375348832
0.9346906918838277   -0.13501997055782966   -0.19584457375348832
0.9346906918838277   -0.13501997055782966   -0.19584457375348832
0.9346906918838277   -0.13501997055782966   -0.19584457375348832
0.4561184688490723   -0.07459357287132096   -0.11235630389787295
0.4561184688490723   -0.07459357287132096   -0.11235630389787295
0.4561184688490723   -0.07459357287132096   -0.11235630389787295
0.4561184688490723   -0.07459357287132096   -0.11235630389787295
1.095576527027799   0.2600940915079133   0.21347053990062592
1.095576527027799   0.2600940915079133   0.21347053990062592
1.095576527027799   0.2600940915079133   0.21347053990062592
1.095576527027799   0.2600940915079133   0.21347053990062592
0.04894183411073344   -0.3104386512296479   -0.18718911933948532
0.04894183411073344   -0.3104386512296479   -0.18718911933948532
0.04894183411073344   -0.3104386512296479   -0.18718911933948532
0.04894183411073344   -0.3104386512296479   -0.18718911933948532
0.2826675490459587   0.1301157267085635   0.15273104205845475
0.2826675490459587   0.1301157267085635   0.15273104205845475
0.2826675490459587   0.1301157267085635   0.15273104205845475
0.2826675490459587   0.1301157267085635   0.15273104205845475
1.092006751007845   -0.07258132865835787   -0.24525803004352514
1.092006751007845   -0.07258132865835787   -0.24525803004352514
1.092006751007845   -0.07258132865835787   -0.24525803004352514
1.092006751007845   -0.07258132865835787   -0.24525803004352514
0.5979783767777385   -0.005604109363761073   -0.05252622464533064
0.5979783767777385   -0.005604109363761073   -0.05252622464533064
0.5979783767777385   -0.005604109363761073   -0.05252622464533064
0.5979783767777385   -0.005604109363761073   -0.05252622464533064
1.2547471473469987   0.3276316354632098   0.16823098753064591
1.2547471473469987   0.3276316354632098   0.16823098753064591
1.2547471473469987   0.3276316354632098   0.16823098753064591
1.2547471473469987   0.3276316354632098   0.16823098753064591
0.1295623165057268   -0.2604620736140873   -0.2222173203200541
0.1295623165057268   -0.2604620736140873   -0.2222173203200541
0.1295623165057268   -0.2604620736140873   -0.2222173203200541
0.1295623165057268   -0.2604620736140873   -0.2222173203200541
0.36291935396280184   0.23136255277892992   0.1321791635722879
0.36291935396280184   0.23136255277892992   0.1321791635722879
0.36291935396280184   0.23136255277892992   0.1321791635722879
0.36291935396280184   0.23136255277892992   0.1321791635722879
1.3007319043687287   0.06723019377063008   -0.2705614438255747
1.3007319043687287   0.06723019377063008   -0.2705614438255747
1.3007319043687287   0.06723019377063008   -0.2705614438255747
1.3007319043687287   0.06723019377063008   -0.2705614438255747
0.717557243154599   0.07156754101414121   0.004167173543670733
0.717557243154599   0.07156754101414121   0.004167173543670733
0.717557243154599   0.07156754101414121   0.004167173543670733
0.717557243154599   0.07156754101414121   0.004167173543670733
0.12222651643881345   0.0383816321451014   0.16002659808265765
0.12222651643881345   0.0383816321451014   0.16002659808265765
0.12222651643881345   0.0383816321451014   0.16002659808265765
0.12222651643881345   0.0383816321451014   0.16002659808265765
-0.8581781520386141   -0.3229415227708222   -0.07181954149716702
-0.8581781520386141   -0.3229415227708222   -0.07181954149716702
-0.8581781520386141   -0.3229415227708222   -0.07181954149716702
-0.8581781520386141   -0.3229415227708222   -0.07181954149716702
-0.7158667845369796   -0.04650430455077233   0.07339544096590105
-0.7158667845369796   -0.04650430455077233   0.07339544096590105
-0.7158667845369796   -0.04650430455077233   0.07339544096590105
-0.7158667845369796   -0.04650430455077233   0.07339544096590105
0.12932850283760172   -0.03834825416345386   -0.057346172771337994
0.12932850283760172   -0.03834825416345386   -0.057346172771337994
0.12932850283760172   -0.03834825416345386   -0.057346172771337994
0.12932850283760172   -0.03834825416345386   -0.057346172771337994
-0.33762878646418665   -0.08407909041147629   -0.05414997395408814
-0.33762878646418665   -0.08407909041147629   -0.05414997395408814
-0.33762878646418665   -0.08407909041147629   -0.05414997395408814
-0.33762878646418665   -0.08407909041147629   -0.05414997395408814
0.2072316399914539   0.15183378660719   0.14198747222727906
0.2072316399914539   0.15183378660719   0.14198747222727906
0.2072316399914539   0.15183378660719   0.14198747222727906
0.2072316399914539   0.15183378660719   0.14198747222727906
-0.7866539506080834   -0.2295703742386678   -0.09747431970172252
-0.7866539506080834   -0.2295703742386678   -0.09747431970172252
-0.7866539506080834   -0.2295703742386678   -0.09747431970172252
-0.7866539506080834   -0.2295703742386678   -0.09747431970172252
-0.6404548960589811   0.06051430430868243   0.0519108178963224
-0.6404548960589811   0.06051430430868243   0.0519108178963224
-0.6404548960589811   0.06051430430868243   0.0519108178963224
-0.6404548960589811   0.06051430430868243   0.0519108178963224
0.2232658802035475   0.06339583702496254   -0.07755741247000042
0.2232658802035475   0.06339583702496254   -0.07755741247000042
0.2232658802035475   0.06339583702496254   -0.07755741247000042
0.2232658802035475   0.06339583702496254   -0.07755741247000042
-0.2577248886191029   0.010468961962658327   -0.006450835961298151
-0.2577248886191029   0.010468961962658327   -0.006450835961298151
-0.2577248886191029   0.010468961962658327   -0.006450835961298151
-0.2577248886191029   0.010468961962658327   -0.006450835961298151
0.30442741203761126   0.2645315159115143   0.12711456781376668
0.30442741203761126   0.2645315159115143   0.12711456781376668
0.30442741203761126   0.2645315159115143   0.12711456781376668
0.30442741203761126   0.2645315159115143   0.12711456781376668
-0.7147791792333422   -0.13378412591814626   -0.12541216774865463
-0.7147791792333422   -0.13378412591814626   -0.12541216774865463
-0.7147791792333422   -0.13378412591814626   -0.12541216774865463
-0.7147791792333422   -0.13378412591814626   -0.12541216774865463
-0.5646166981993704   0.18136928744810424   0.03142859698979264
-0.5646166981993704   0.18136928744810424   0.03142859698979264
-0.5646166981993704   0.18136928744810424   0.03142859698979264
-0.5646166981993704   0.18136928744810424   0.03142859698979264
0.3061091048793062   0.1785883490468952   -0.09909787811314016
0.3061091048793062   0.1785883490468952   -0.09909787811314016
0.3061091048793062   0.1785883490468952   -0.09909787811314016
0.3061091048793062   0.1785883490468952   -0.09909787811314016
-0.1695381698475979   0.11468093740585494   0.04433595046909388
-0.1695381698475979   0.11468093740585494   0.04433595046909388
-0.1695381698475979   0.11468093740585494   0.04433595046909388
-0.1695381698475979   0.11468093740585494   0.04433595046909388
-0.7802093152036608   -0.06228722986327816   0.05737034977006364
-0.7802093152036608   -0.06228722986327816   0.05737034977006364
-0.7802093152036608   -0.06228722986327816   0.05737034977006364
-0.7802093152036608   -0.06228722986327816   0.05737034977006364
-1.67647587581461   -0.22850428571156647   0.01512438976298678
-1.67647587581461   -0.22850428571156647   0.01512438976298678
-1.67647587581461   -0.22850428571156647   0.01512438976298678
-1.67647587581461   -0.22850428571156647   0.01512438976298678
-1.6102641767656867   -0.14281307663772483   -0.031646479431447445
-1.6102641767656867   -0.14281307663772483   -0.031646479431447445
-1.6102641767656867   -0.14281307663772483   -0.031646479431447445
-1.6102641767656867   -0.14281307663772483   -0.031646479431447445
-0.7021814034762296   0.05945827412450358   0.03585976759437504
-0.7021814034762296   0.05945827412450358   0.03585976759437504
-0.7021814034762296   0.05945827412450358   0.03585976759437504
-0.7021814034762296   0.05945827412450358   0.03585976759437504
-1.1940317880577593   -0.08583244946522345   -0.03140172869065873
-1.1940317880577593   -0.08583244946522345   -0.03140172869065873
-1.1940317880577593   -0.08583244946522345   -0.03140172869065873
-1.1940317880577593   -0.08583244946522345   -0.03140172869065873
-0.7031977934533091   0.052480595231467475   0.037755496602013806
-0.7031977934533091   0.052480595231467475   0.037755496602013806
-0.7031977934533091   0.052480595231467475   0.037755496602013806
-0.7031977934533091   0.052480595231467475   0.037755496602013806
-1.6031677238654678   -0.12975533482152887   -0.009221956746548958
-1.6031677238654678   -0.12975533482152887   -0.009221956746548958
-1.6031677238654678   -0.12975533482152887   -0.009221956746548958
-1.6031677238654678   -0.12975533482152887   -0.009221956746548958
-1.531010858762072   -0.025007515872711716   -0.049771115484795805
-1.531010858762072   -0.025007515872711716   -0.049771115484795805
-1.531010858762072   -0.025007515872711716   -0.049771115484795805
-1.531010858762072   -0.025007515872711716   -0.049771115484795805
-0.6275079699408499   0.16407566793017583   0.013084084865492923
-0.6275079699408499   0.16407566793017583   0.013084084865492923
-0.6275079699408499   0.16407566793017583   0.013084084865492923
-0.6275079699408499   0.16407566793017583   0.013084084865492923
-1.1122368212695803   0.01770402716705749   0.01660867325507115
-1.1122368212695803   0.01770402716705749   0.01660867325507115
-1.1122368212695803   0.01770402716705749   0.01660867325507115
-1.1122368212695803   0.01770402716705749   0.01660867325507115
-0.6257035344120074   0.16937046515186385   0.016811465288017163
-0.6257035344120074   0.16937046515186385   0.016811465288017163
-0.6257035344120074   0.16937046515186385   0.016811465288017163
-0.6257035344120074   0.16937046515186385   0.016811465288017163
-1.527974293840896   -0.02546131264438295   -0.034134494107254845
-1.527974293840896   -0.02546131264438295   -0.034134494107254845
-1.527974293840896   -0.02546131264438295   -0.034134494107254845
-1.527974293840896   -0.02546131264438295   -0.034134494107254845
-1.454966677139013   0.09308594795514935   -0.07050270492216312
-1.454966677139013   0.09308594795514935   -0.07050270492216312
-1.454966677139013   0.09308594795514935   -0.07050270492216312
-1.454966677139013   0.09308594795514935   -0.07050270492216312
-0.5559955250784618   0.2690019681470872   -0.013098218104631854
-0.5559955250784618   0.2690019681470872   -0.013098218104631854
-0.5559955250784618   0.2690019681470872   -0.013098218104631854
-0.5559955250784618   0.2690019681470872   -0.013098218104631854
-1.0346651408246328   0.12093940245506407   0.061483885211691805
-1.0346651408246328   0.12093940245506407   0.061483885211691805
-1.0346651408246328   0.12093940245506407   0.061483885211691805
-1.0346651408246328   0.12093940245506407   0.061483885211691805
-1.6758534923110988   -0.16172187601502305   -0.048546102415987995
-1.6758534923110988   -0.16172187601502305   -0.048546102415987995
-1.6758534923110988   -0.16172187601502305   -0.048546102415987995
-1.6758534923110988   -0.16172187601502305   -0.048546102415987995
-2.484940944767537   -0.1397940464905148   0.10059424371690405
-2.484940944767537   -0.1397940464905148   0.10059424371690405
-2.484940944767537   -0.1397940464905148   0.10059424371690405
-2.484940944767537   -0.1397940464905148   0.10059424371690405
-2.4846292313075167   -0.23700076286471233   -0.1340050545295725
-2.4846292313075167   -0.23700076286471233   -0.1340050545295725
-2.4846292313075167   -0.23700076286471233   -0.1340050545295725
-2.4846292313075167   -0.23700076286471233   -0.1340050545295725
-1.5203752420909395   0.15244978637877504   0.12253533092578765
-1.5203752420909395   0.15244978637877504   0.12253533092578765
-1.5203752420909395   0.15244978637877504   0.12253533092578765
-1.5203752420909395   0.15244978637877504   0.12253533092578765
-2.0300885842563865   -0.08646745625780383   -0.013121830059405051
-2.0300885842563865   -0.08646745625780383   -0.013121830059405051
-2.0300885842563865   -0.08646745625780383   -0.013121830059405051
-2.0300885842563865   -0.08646745625780383   -0.013121830059405051
-1.5981473356840423   -0.04639870247190886   -0.06747664818902928
-1.5981473356840423   -0.04639870247190886   -0.06747664818902928
-1.5981473356840423   -0.04639870247190886   -0.06747664818902928
-1.5981473356840423   -0.04639870247190886   -0.06747664818902928
-2.4018623201627323   -0.03315745646231949   0.0759861947919849
-2.4018623201627323   -0.03315745646231949   0.0759861947919849
-2.4018623201627323   -0.03315745646231949   0.0759861947919849
-2.4018623201627323   -0.03315745646231949   0.0759861947919849
-2.3855762266246554   -0.12458005214781553   -0.14908993801081358
-2.3855762266246554   -0.12458005214781553   -0.14908993801081358
-2.3855762266246554   -0.12458005214781553   -0.14908993801081358
-2.3855762266246554   -0.12458005214781553   -0.14908993801081358
-1.447014584418631   0.24770250187714538   0.09750023848255324
-1.447014584418631   0.24770250187714538   0.09750023848255324
-1.447014584418631   0.24770250187714538   0.09750023848255324
-1.447014584418631   0.24770250187714538   0.09750023848255324
-1.9322611842035597   0.01786768232619862   0.036301349260992655
-1.9322611842035597   0.01786768232619862   0.036301349260992655
-1.9322611842035597   0.01786768232619862   0.036301349260992655
-1.9322611842035597   0.01786768232619862   0.036301349260992655
-1.522220530074553   0.059786397650320344   -0.0906133855702369
-1.522220530074553   0.059786397650320344   -0.0906133855702369
-1.522220530074553   0.059786397650320344   -0.0906133855702369
-1.522220530074553   0.059786397650320344   -0.0906133855702369
-2.3047459058724926   0.06896042717524975   0.061521186426936825
-2.3047459058724926   0.06896042717524975   0.061521186426936825
-2.3047459058724926   0.06896042717524975   0.061521186426936825
-2.3047459058724926   0.06896042717524975   0.061521186426936825
-2.2969272864544794   -0.0018200855853264253   -0.16044209524485994
-2.2969272864544794   -0.0018200855853264253   -0.16044209524485994
-2.2969272864544794   -0.0018200855853264253   -0.16044209524485994
-2.2969272864544794   -0.0018200855853264253   -0.16044209524485994
-1.3744079494951378   0.3530882033013244   0.07228867795103827
-1.3744079494951378   0.3530882033013244   0.07228867795103827
-1.3744079494951378   0.3530882033013244   0.07228867795103827
-1.3744079494951378   0.3530882033013244   0.07228867795103827
-1.8586217369095177   0.11534344397885693   0.08064826622356397
-1.8586217369095177   0.11534344397885693   0.08064826622356397
-1.8586217369095177   0.11534344397885693   0.08064826622356397
-1.8586217369095177   0.11534344397885693   0.08064826622356397
-2.5530043775888065   -0.23269752972255958   -0.14681943715739992
-2.5530043775888065   -0.23269752972255958   -0.14681943715739992
-2.5530043775888065   -0.23269752972255958   -0.14681943715739992
-2.5530043775888065   -0.23269752972255958   -0.14681943715739992
-3.4053226860607446   -0.05839594047228247   0.21681937455656602
-3.4053226860607446   -0.05839594047228247   0.21681937455656602
-3.4053226860607446   -0.05839594047228247   0.21681937455656602
-3.4053226860607446   -0.05839594047228247   0.21681937455656602
-3.3562547114526033   -0.3093073578055271   -0.19550890715289448
-3.3562547114526033   -0.3093073578055271   -0.19550890715289448
-3.3562547114526033   -0.3093073578055271   -0.19550890715289448
-3.3562547114526033   -0.3093073578055271   -0.19550890715289448
-2.3162266004022714   0.25725951270323655   0.2137478244287059
-2.3162266004022714   0.25725951270323655   0.2137478244287059
-2.3162266004022714   0.25725951270323655   0.2137478244287059
-2.3162266004022714   0.25725951270323655   0.2137478244287059
-2.7824749657911476   -0.04919456222345431   0.022576238891502454
-2.7824749657911476   -0.04919456222345431   0.022576238891502454
-2.7824749657911476   -0.04919456222345431   0.022576238891502454
-2.7824749657911476   -0.04919456222345431   0.022576238891502454
-2.4688126632376086   -0.12591813511741412   -0.16600484192732395
-2.4688126632376086   -0.12591813511741412   -0.16600484192732395
-2.4688126632376086   -0.12591813511741412   -0.16600484192732395
-2.4688126632376086   -0.12591813511741412   -0.16600484192732395
-3.199157639727344   0.07838129890501855   0.20228779476281145
-3.199157639727344   0.07838129890501855   0.20228779476281145
-3.199157639727344   0.07838129890501855   0.20228779476281145
-3.199157639727344   0.07838129890501855   0.20228779476281145
-3.2001146338540023   -0.24254302219413798   -0.2325717197608141
-3.2001146338540023   -0.24254302219413798   -0.2325717197608141
-3.2001146338540023   -0.24254302219413798   -0.2325717197608141
-3.2001146338540023   -0.24254302219413798   -0.2325717197608141
-2.2353852679320902   0.30114308897799824   0.1761417143261769
-2.2353852679320902   0.30114308897799824   0.1761417143261769
-2.2353852679320902   0.30114308897799824   0.1761417143261769
-2.2353852679320902   0.30114308897799824   0.1761417143261769
-2.6931129162501373   0.020782968360189336   0.06256397091828794
-2.6931129162501373   0.020782968360189336   0.06256397091828794
-2.6931129162501373   0.020782968360189336   0.06256397091828794
-2.6931129162501373   0.020782968360189336   0.06256397091828794
-2.3833520240777206   -0.07098829314292437   -0.1915606842810278
-2.3833520240777206   -0.07098829314292437   -0.1915606842810278
-2.3833520240777206   -0.07098829314292437   -0.1915606842810278
-2.3833520240777206   -0.07098829314292437   -0.1915606842810278
-3.0466089260019866   0.13512731163317127   0.1572864856719385
-3.0466089260019866   0.13512731163317127   0.1572864856719385
-3.0466089260019866   0.13512731163317127   0.1572864856719385
-3.0466089260019866   0.13512731163317127   0.1572864856719385
-3.008140896240519   -0.1426021106195322   -0.2592038605388371
-3.008140896240519   -0.1426021106195322   -0.2592038605388371
-3.008140896240519   -0.1426021106195322   -0.2592038605388371
-3.008140896240519   -0.1426021106195322   -0.2592038605388371
-2.1642204264210916   0.35453160204548706   0.1467405172912645
-2.1642204264210916   0.35453160204548706   0.1467405172912645
-2.1642204264210916   0.35453160204548706   0.1467405172912645
-2.1642204264210916   0.35453160204548706   0.1467405172912645
-2.5279152095317428   0.08647899774234113   0.11871283120989398
-2.5279152095317428   0.08647899774234113   0.11871283120989398
-2.5279152095317428   0.08647899774234113   0.11871283120989398
-2.5279152095317428   0.08647899774234113   0.11871283120989398
2.717974161626059   0.2466815948550627   0.2371524332775334
2.717974161626059   0.2466815948550627   0.2371524332775334
2.717974161626059   0.2466815948550627   0.2371524332775334
2.717974161626059   0.2466815948550627   0.2371524332775334
0.9971063883650866   -0.4546004071937316   -0.15617283532066106
0.9971063883650866   -0.4546004071937316   -0.15617283532066106
0.9971063883650866   -0.4546004071937316   -0.15617283532066106
0.9971063883650866   -0.4546004071937316   -0.15617283532066106
1.2335126300370796   -0.0019318827877416456   0.1707739269437
1.2335126300370796   -0.0019318827877416456   0.1707739269437
1.2335126300370796   -0.0019318827877416456   0.1707739269437
1.2335126300370796   -0.0019318827877416456   0.1707739269437
2.768609770656357   -0.06514167064373666   -0.1992850108854501
2.768609770656357   -0.06514167064373666   -0.1992850108854501
2.768609770656357   -0.06514167064373666   -0.1992850108854501
2.768609770656357   -0.06514167064373666   -0.1992850108854501
1.8106055057626618   -0.08290598558913842   -0.17546647177728814
1.8106055057626618   -0.08290598558913842   -0.17546647177728814
1.8106055057626618   -0.08290598558913842   -0.17546647177728814
1.8106055057626618   -0.08290598558913842   -0.17546647177728814
2.931680033097637   0.34477644880921954   0.20614818186794873
2.931680033097637   0.34477644880921954   0.20614818186794873
2.931680033097637   0.34477644880921954   0.20614818186794873
2.931680033097637   0.34477644880921954   0.20614818186794873
1.0819219346988291   -0.40037043513767084   -0.1887409973975931
1.0819219346988291   -0.40037043513767084   -0.1887409973975931
1.0819219346988291   -0.40037043513767084   -0.1887409973975931
1.0819219346988291   -0.40037043513767084   -0.1887409973975931
1.3273706133834495   0.051729086643376   0.14093018408966262
1.3273706133834495   0.051729086643376   0.14093018408966262
1.3273706133834495   0.051729086643376   0.14093018408966262
1.3273706133834495   0.051729086643376   0.14093018408966262
2.9389155384111323   -0.004105090465202799   -0.2513425798546491
2.9389155384111323   -0.004105090465202799   -0.2513425798546491
2.9389155384111323   -0.004105090465202799   -0.2513425798546491
2.9389155384111323   -0.004105090465202799   -0.2513425798546491
1.988152947598209   -0.01689546038788553   -0.10609165758448098
1.988152947598209   -0.01689546038788553   -0.10609165758448098
1.988152947598209   -0.01689546038788553   -0.10609165758448098
1.988152947598209   -0.01689546038788553   -0.10609165758448098
3.1038709315543693   0.410590810449076   0.15873848494724263
3.1038709315543693   0.410590810449076   0.15873848494724263
3.1038709315543693   0.410590810449076   0.15873848494724263
3.1038709315543693   0.410590810449076   0.15873848494724263
1.1746862192050087   -0.3506958153060857   -0.22006688485306297
1.1746862192050087   -0.3506958153060857   -0.22006688485306297
1.1746862192050087   -0.3506958153060857   -0.22006688485306297
1.1746862192050087   -0.3506958153060857   -0.22006688485306297
1.4210848423472233   0.16984269796422582   0.1221481391639094
1.4210848423472233   0.16984269796422582   0.1221481391639094
1.4210848423472233   0.16984269796422582   0.1221481391639094
1.4210848423472233   0.16984269796422582   0.1221481391639094
3.1624052978277377   0.1551167254662728   -0.27122748758526305
3.1624052978277377   0.1551167254662728   -0.27122748758526305
3.1624052978277377   0.1551167254662728   -0.27122748758526305
3.1624052978277377   0.1551167254662728   -0.27122748758526305
2.098478942364064   0.06326190392597947   -0.045907187631916105
2.098478942364064   0.06326190392597947   -0.045907187631916105
2.098478942364064   0.06326190392597947   -0.045907187631916105
2.098478942364064   0.06326190392597947   -0.045907187631916105
1.1845999835838965   0.1377641328075371   0.18893060077211915
1.1845999835838965   0.1377641328075371   0.18893060077211915
1.1845999835838965   0.1377641328075371   0.18893060077211915
1.1845999835838965   0.1377641328075371   0.18893060077211915
-0.5740765206201243   -0.42405157783269076   -0.08170348405956128
-0.5740765206201243   -0.42405157783269076   -0.08170348405956128
-0.5740765206201243   -0.42405157783269076   -0.08170348405956128
-0.5740765206201243   -0.42405157783269076   -0.08170348405956128
-0.4110926048417161   -0.12346465275601502   0.057492941945174035
-0.4110926048417161   -0.12346465275601502   0.057492941945174035
-0.4110926048417161   -0.12346465275601502   0.057492941945174035
-0.4110926048417161   -0.12346465275601502   0.057492941945174035
1.1949543720651439   0.0014449261985102213   -0.025394171902199697
1.1949543720651439   0.0014449261985102213   -0.025394171902199697
1.1949543720651439   0.0014449261985102213   -0.025394171902199697
1.1949543720651439   0.0014449261985102213   -0.025394171902199697
0.33303198486245755   -0.09024124374185896   -0.07498727686267194
0.33303198486245755   -0.09024124374185896   -0.07498727686267194
0.33303198486245755   -0.09024124374185896   -0.07498727686267194
0.33303198486245755   -0.09024124374185896   -0.07498727686267194
1.2809284468697586   0.23718766238426556   0.16873346593510238
1.2809284468697586   0.23718766238426556   0.16873346593510238
1.2809284468697586   0.23718766238426556   0.16873346593510238
1.2809284468697586   0.23718766238426556   0.16873346593510238
-0.4902027542681894   -0.3523434635636329   -0.10917899437958203
-0.4902027542681894   -0.3523434635636329   -0.10917899437958203
-0.4902027542681894   -0.3523434635636329   -0.10917899437958203
-0.4902027542681894   -0.3523434635636329   -0.10917899437958203
-0.3236125998906768   -0.023186220252066424   0.03641078123907909
-0.3236125998906768   -0.023186220252066424   0.03641078123907909
-0.3236125998906768   -0.023186220252066424   0.03641078123907909
-0.3236125998906768   -0.023186220252066424   0.03641078123907909
1.297704894766375   0.09153416333686118   -0.047203485689177475
1.297704894766375   0.09153416333686118   -0.047203485689177475
1.297704894766375   0.09153416333686118   -0.047203485689177475
1.297704894766375   0.09153416333686118   -0.047203485689177475
0.41763009628144293   -0.010938686215989549   -0.029852077393056602
0.41763009628144293   -0.010938686215989549   -0.029852077393056602
0.41763009628144293   -0.010938686215989549   -0.029852077393056602
0.41763009628144293   -0.010938686215989549   -0.029852077393056602
1.3871032809797885   0.3416161011809649   0.14970650753377027
1.3871032809797885   0.3416161011809649   0.14970650753377027
1.3871032809797885   0.3416161011809649   0.14970650753377027
1.3871032809797885   0.3416161011809649   0.14970650753377027
-0.4061230963602632   -0.26638026835236617   -0.13294765300855327
-0.4061230963602632   -0.26638026835236617   -0.13294765300855327
-0.4061230963602632   -0.26638026835236617   -0.13294765300855327
-0.4061230963602632   -0.26638026835236617   -0.13294765300855327
-0.23726817206464842   0.09281441776505253   0.015409742421723896
-0.23726817206464842   0.09281441776505253   0.015409742421723896
-0.23726817206464842   0.09281441776505253   0.015409742421723896
-0.23726817206464842   0.09281441776505253   0.015409742421723896
1.3889495178312075   0.19865773051221777   -0.06734351596416252
1.3889495178312075   0.19865773051221777   -0.06734351596416252
1.3889495178312075   0.19865773051221777   -0.06734351596416252
1.3889495178312075   0.19865773051221777   -0.06734351596416252
0.5217793506589586   0.08617009648961507   0.022797731562462058
0.5217793506589586   0.08617009648961507   0.022797731562462058
0.5217793506589586   0.08617009648961507   0.022797731562462058
0.5217793506589586   0.08617009648961507   0.022797731562462058
-0.4509810077786727   0.029595258671688662   0.08012724364332496
-0.4509810077786727   0.029595258671688662   0.08012724364332496
-0.4509810077786727   0.029595258671688662   0.08012724364332496
-0.4509810077786727   0.029595258671688662   0.08012724364332496
-2.113998603143663   -0.374049279418227   -0.010558031379725238
-2.113998603143663   -0.374049279418227   -0.010558031379725238
-2.113998603143663   -0.374049279418227   -0.010558031379725238
-2.113998603143663   -0.374049279418227   -0.010558031379725238
-2.010102337589442   -0.21924778677807036   -0.04974960280528195
-2.010102337589442   -0.21924778677807036   -0.04974960280528195
-2.010102337589442   -0.21924778677807036   -0.04974960280528195
-2.010102337589442   -0.21924778677807036   -0.04974960280528195
-0.3763970429700583   0.05405280959204044   0.0534532889553997
-0.3763970429700583   0.05405280959204044   0.0534532889553997
-0.3763970429700583   0.05405280959204044   0.0534532889553997
-0.3763970429700583   0.05405280959204044   0.0534532889553997
-1.2400680395454948   -0.11519268012622685   -0.046764106794474236
-1.2400680395454948   -0.11519268012622685   -0.046764106794474236
-1.2400680395454948   -0.11519268012622685   -0.046764106794474236
-1.2400680395454948   -0.11519268012622685   -0.046764106794474236
-0.3591944178193582   0.1329896354976605   0.0605295888032882
-0.3591944178193582   0.1329896354976605   0.0605295888032882
-0.3591944178193582   0.1329896354976605   0.0605295888032882
-0.3591944178193582   0.1329896354976605   0.0605295888032882
-2.022768183693663   -0.2936478336372099   -0.038678786467247185
-2.022768183693663   -0.2936478336372099   -0.038678786467247185
-2.022768183693663   -0.2936478336372099   -0.038678786467247185
-2.022768183693663   -0.2936478336372099   -0.038678786467247185
-1.9137178033212492   -0.1092284342225856   -0.06722659251791503
-1.9137178033212492   -0.1092284342225856   -0.06722659251791503
-1.9137178033212492   -0.1092284342225856   -0.06722659251791503
-1.9137178033212492   -0.1092284342225856   -0.06722659251791503
-0.291232088097144   0.1450360736561025   0.030091046298574113
-0.291232088097144   0.1450360736561025   0.030091046298574113
-0.291232088097144   0.1450360736561025   0.030091046298574113
-0.291232088097144   0.1450360736561025   0.030091046298574113
-1.142878699542125   -0.0231191699613002   -0.0007453344771492371
-1.142878699542125   -0.0231191699613002   -0.0007453344771492371
-1.142878699542125   -0.0231191699613002   -0.0007453344771492371
-1.142878699542125   -0.0231191699613002   -0.0007453344771492371
-0.2704914194792853   0.24052354471515353   0.03830691832881672
-0.2704914194792853   0.24052354471515353   0.03830691832881672
-0.2704914194792853   0.24052354471515353   0.03830691832881672
-0.2704914194792853   0.24052354471515353   0.03830691832881672
-1.9302345265226772   -0.20049195986520615   -0.05854668288243569
-1.9302345265226772   -0.20049195986520615   -0.05854668288243569
-1.9302345265226772   -0.20049195986520615   -0.05854668288243569
-1.9302345265226772   -0.20049195986520615   -0.05854668288243569
-1.824018075447331   0.0003821917857613766   -0.08817454954251452
-1.824018075447331   0.0003821917857613766   -0.08817454954251452
-1.824018075447331   0.0003821917857613766   -0.08817454954251452
-1.824018075447331   0.0003821917857613766   -0.08817454954251452
-0.2098765590804585   0.23800376415820412   0.007178460949521723
-0.2098765590804585   0.23800376415820412   0.007178460949521723
-0.2098765590804585   0.23800376415820412   0.007178460949521723
-0.2098765590804585   0.23800376415820412   0.007178460949521723
-1.053560185352577   0.0685975266173171   0.043064809426058726
-1.053560185352577   0.0685975266173171   0.043064809426058726
-1.053560185352577   0.0685975266173171   0.043064809426058726
-1.053560185352577   0.0685975266173171   0.043064809426058726
-2.0597535689301307   -0.08129320667705742   -0.03208893305321549
-2.0597535689301307   -0.08129320667705742   -0.03208893305321549
-2.0597535689301307   -0.08129320667705742   -0.03208893305321549
-2.0597535689301307   -0.08129320667705742   -0.03208893305321549
-3.6171501287768635   -0.3023825518263611   0.07088314069799148
-3.6171501287768635   -0.3023825518263611   0.07088314069799148
-3.6171501287768635   -0.3023825518263611   0.07088314069799148
-3.6171501287768635   -0.3023825518263611   0.07088314069799148
-3.565767571063322   -0.31110229171842624   -0.14983273058783675
-3.565767571063322   -0.31110229171842624   -0.14983273058783675
-3.565767571063322   -0.31110229171842624   -0.14983273058783675
-3.565767571063322   -0.31110229171842624   -0.14983273058783675
-1.901402869493335   0.1397741497193452   0.1347258011778548
-1.901402869493335   0.1397741497193452   0.1347258011778548
-1.901402869493335   0.1397741497193452   0.1347258011778548
-1.901402869493335   0.1397741497193452   0.1347258011778548
-2.766737759299633   -0.12112375163059619   -0.016250265349125492
-2.766737759299633   -0.12112375163059619   -0.016250265349125492
-2.766737759299633   -0.12112375163059619   -0.016250265349125492
-2.766737759299633   -0.12112375163059619   -0.016250265349125492
-1.9599530597467827   0.030314130490388003   -0.04856513086042705
-1.9599530597467827   0.030314130490388003   -0.04856513086042705
-1.9599530597467827   0.030314130490388003   -0.04856513086042705
-1.9599530597467827   0.030314130490388003   -0.04856513086042705
-3.507122623992447   -0.201547515672017   0.03383722872015557
-3.507122623992447   -0.201547515672017   0.03383722872015557
-3.507122623992447   -0.201547515672017   0.03383722872015557
-3.507122623992447   -0.201547515672017   0.03383722872015557
-3.439992958827365   -0.20353636357375804   -0.1657157143632294
-3.439992958827365   -0.20353636357375804   -0.1657157143632294
-3.439992958827365   -0.20353636357375804   -0.1657157143632294
-3.439992958827365   -0.20353636357375804   -0.1657157143632294
-1.8115831353543155   0.22660876930509893   0.1076095437890841
-1.8115831353543155   0.22660876930509893   0.1076095437890841
-1.8115831353543155   0.22660876930509893   0.1076095437890841
-1.8115831353543155   0.22660876930509893   0.1076095437890841
-2.6389712516320167   -0.019311789877676677   0.02983599080634819
-2.6389712516320167   -0.019311789877676677   0.02983599080634819
-2.6389712516320167   -0.019311789877676677   0.02983599080634819
-2.6389712516320167   -0.019311789877676677   0.02983599080634819
-1.8665414426773443   0.13015203152058163   -0.07072525504155164
-1.8665414426773443   0.13015203152058163   -0.07072525504155164
-1.8665414426773443   0.13015203152058163   -0.07072525504155164
-1.8665414426773443   0.13015203152058163   -0.07072525504155164
-3.3822692020149114   -0.10431417629983786   0.023680882425119065
-3.3822692020149114   -0.10431417629983786   0.023680882425119065
-3.3822692020149114   -0.10431417629983786   0.023680882425119065
-3.3822692020149114   -0.10431417629983786   0.023680882425119065
-3.3275096038464396   -0.08682769883304597   -0.17418917836951175
-3.3275096038464396   -0.08682769883304597   -0.17418917836951175
-3.3275096038464396   -0.08682769883304597   -0.17418917836951175
-3.3275096038464396   -0.08682769883304597   -0.17418917836951175
-1.7245874890092765   0.32223288153354485   0.08712769289999314
-1.7245874890092765   0.32223288153354485   0.08712769289999314
-1.7245874890092765   0.32223288153354485   0.08712769289999314
-1.7245874890092765   0.32223288153354485   0.08712769289999314
-2.5520293453830813   0.06783984068609705   0.0696325072498635
-2.5520293453830813   0.06783984068609705   0.0696325072498635
-2.5520293453830813   0.06783984068609705   0.0696325072498635
-2.5520293453830813   0.06783984068609705   0.0696325072498635
-3.6329319506687994   -0.17446947701901416   -0.1359390435690377
-3.6329319506687994   -0.17446947701901416   -0.1359390435690377
-3.6329319506687994   -0.17446947701901416   -0.1359390435690377
-3.6329319506687994   -0.17446947701901416   -0.1359390435690377
-5.174550495394094   -0.1861272471630535   0.23576783661686518
-5.174550495394094   -0.1861272471630535   0.23576783661686518
-5.174550495394094   -0.1861272471630535   0.23576783661686518
-5.174550495394094   -0.1861272471630535   0.23576783661686518
-5.072884488752342   -0.3727337389895612   -0.1795605456852107
-5.072884488752342   -0.3727337389895612   -0.1795605456852107
-5.072884488752342   -0.3727337389895612   -0.1795605456852107
-5.072884488752342   -0.3727337389895612   -0.1795605456852107
-3.367595711801842   0.2905447829523895   0.23937949104874412
-3.367595711801842   0.2905447829523895   0.23937949104874412
-3.367595711801842   0.2905447829523895   0.23937949104874412
-3.367595711801842   0.2905447829523895   0.23937949104874412
-4.120863030263947   -0.05099016316377514   0.047032611623557014
-4.120863030263947   -0.05099016316377514   0.047032611623557014
-4.120863030263947   -0.05099016316377514   0.047032611623557014
-4.120863030263947   -0.05099016316377514   0.047032611623557014
-3.514882457887044   -0.05543592913704609   -0.1510735272878121
-3.514882457887044   -0.05543592913704609   -0.1510735272878121
-3.514882457887044   -0.05543592913704609   -0.1510735272878121
-3.514882457887044   -0.05543592913704609   -0.1510735272878121
-4.923284914412053   -0.024440198645065747   0.22014378567167925
-4.923284914412053   -0.024440198645065747   0.22014378567167925
-4.923284914412053   -0.024440198645065747   0.22014378567167925
-4.923284914412053   -0.024440198645065747   0.22014378567167925
-4.883126752986087   -0.30590625878335864   -0.2113635394266111
-4.883126752986087   -0.30590625878335864   -0.2113635394266111
-4.883126752986087   -0.30590625878335864   -0.2113635394266111
-4.883126752986087   -0.30590625878335864   -0.2113635394266111
-3.261875978938692   0.33178063386755663   0.1895521876388212
-3.261875978938692   0.33178063386755663   0.1895521876388212
-3.261875978938692   0.33178063386755663   0.1895521876388212
-3.261875978938692   0.33178063386755663   0.1895521876388212
-4.021845582211936   0.021904639145359006   0.08557815255493442
-4.021845582211936   0.021904639145359006   0.08557815255493442
-4.021845582211936   0.021904639145359006   0.08557815255493442
-4.021845582211936   0.021904639145359006   0.08557815255493442
-3.4008055808595268   -0.001526961743569366   -0.1717882263542246
-3.4008055808595268   -0.001526961743569366   -0.1717882263542246
-3.4008055808595268   -0.001526961743569366   -0.1717882263542246
-3.4008055808595268   -0.001526961743569366   -0.1717882263542246
-4.741916550812649   0.02968193708035627   0.15909927557677506
-4.741916550812649   0.02968193708035627   0.15909927557677506
-4.741916550812649   0.02968193708035627   0.15909927557677506
-4.741916550812649   0.02968193708035627   0.15909927557677506
-4.67606033793481   -0.2253232661705845   -0.24069391227537426
-4.67606033793481   -0.2253232661705845   -0.24069391227537426
-4.67606033793481   -0.2253232661705845   -0.24069391227537426
-4.67606033793481   -0.2253232661705845   -0.24069391227537426
-3.1688019832601513   0.3710700535773711   0.1614511721515129
-3.1688019832601513   0.3710700535773711   0.1614511721515129
-3.1688019832601513   0.3710700535773711   0.1614511721515129
-3.1688019832601513   0.3710700535773711   0.1614511721515129
-3.813439237690662   0.08264199034014963   0.1435119721527928
-3.813439237690662   0.08264199034014963   0.1435119721527928
-3.813439237690662   0.08264199034014963   0.1435119721527928
-3.813439237690662   0.08264199034014963   0.1435119721527928
4.578255847943142   0.34166516617306475   0.24400557193526567
4.578255847943142   0.34166516617306475   0.24400557193526567
4.578255847943142   0.34166516617306475   0.24400557193526567
4.578255847943142   0.34166516617306475   0.24400557193526567
2.0219600142165164   -0.5419447513766109   -0.11150114624456214
2.0219600142165164   -0.5419447513766109   -0.11150114624456214
2.0219600142165164   -0.5419447513766109   -0.11150114624456214
2.0219600142165164   -0.5419447513766109   -0.11150114624456214
2.256668488599792   -0.09410519963016084   0.1678386262389941
2.256668488599792   -0.09410519963016084   0.1678386262389941
2.256668488599792   -0.09410519963016084   0.1678386262389941
2.256668488599792   -0.09410519963016084   0.1678386262389941
4.629978423076324   -0.011280825247089954   -0.17520087309987925
4.629978423076324   -0.011280825247089954   -0.17520087309987925
4.629978423076324   -0.011280825247089954   -0.17520087309987925
4.629978423076324   -0.011280825247089954   -0.17520087309987925
3.174099120054535   -0.09735546077156143   -0.24926732455882783
3.174099120054535   -0.09735546077156143   -0.24926732455882783
3.174099120054535   -0.09735546077156143   -0.24926732455882783
3.174099120054535   -0.09735546077156143   -0.24926732455882783
4.792163266372542   0.42026211191950447   0.2041804062145713
4.792163266372542   0.42026211191950447   0.2041804062145713
4.792163266372542   0.42026211191950447   0.2041804062145713
4.792163266372542   0.42026211191950447   0.2041804062145713
2.110032848207431   -0.5100989338929032   -0.14934584146005275
2.110032848207431   -0.5100989338929032   -0.14934584146005275
2.110032848207431   -0.5100989338929032   -0.14934584146005275
2.110032848207431   -0.5100989338929032   -0.14934584146005275
2.3489234208468655   -0.044675333994991684   0.13579832006055004
2.3489234208468655   -0.044675333994991684   0.13579832006055004
2.3489234208468655   -0.044675333994991684   0.13579832006055004
2.3489234208468655   -0.044675333994991684   0.13579832006055004
4.79049395170407   0.04326967714808472   -0.2192078374120478
4.79049395170407   0.04326967714808472   -0.2192078374120478
4.79049395170407   0.04326967714808472   -0.2192078374120478
4.79049395170407   0.04326967714808472   -0.2192078374120478
3.3751962132663547   -0.038952727368879336   -0.16937879400899655
3.3751962132663547   -0.038952727368879336   -0.16937879400899655
3.3751962132663547   -0.038952727368879336   -0.16937879400899655
3.3751962132663547   -0.038952727368879336   -0.16937879400899655
4.951770766835253   0.47901971189080594   0.15142620350115
4.951770766835253   0.47901971189080594   0.15142620350115
4.951770766835253   0.47901971189080594   0.15142620350115
4.951770766835253   0.47901971189080594   0.15142620350115
2.201282513069262   -0.46678946138411204   -0.18029209143834637
2.201282513069262   -0.46678946138411204   -0.18029209143834637
2.201282513069262   -0.46678946138411204   -0.18029209143834637
2.201282513069262   -0.46678946138411204   -0.18029209143834637
2.432433055404949   0.08717927457124625   0.11905750036239303
2.432433055404949   0.08717927457124625   0.11905750036239303
2.432433055404949   0.08717927457124625   0.11905750036239303
2.432433055404949   0.08717927457124625   0.11905750036239303
4.987749043660846   0.20278475666324713   -0.22966028785735823
4.987749043660846   0.20278475666324713   -0.22966028785735823
4.987749043660846   0.20278475666324713   -0.22966028785735823
4.987749043660846   0.20278475666324713   -0.22966028785735823
3.451324141275986   0.03949671152812151   -0.11391868739123767
3.451324141275986   0.03949671152812151   -0.11391868739123767
3.451324141275986   0.03949671152812151   -0.11391868739123767
3.451324141275986   0.03949671152812151   -0.11391868739123767
2.2369519906975923   0.19899801516633547   0.22251596961785342
2.2369519906975923   0.19899801516633547   0.22251596961785342
2.2369519906975923   0.19899801516633547   0.22251596961785342
2.2369519906975923   0.19899801516633547   0.22251596961785342
-0.2716914687155473   -0.6688672444361365   -0.06332791366103827
-0.2716914687155473   -0.6688672444361365   -0.06332791366103827
-0.2716914687155473   -0.6688672444361365   -0.06332791366103827
-0.2716914687155473   -0.6688672444361365   -0.06332791366103827
-0.0690455815746032   -0.234847527381024   0.057143513839876287
-0.0690455815746032   -0.234847527381024   0.057143513839876287
-0.0690455815746032   -0.234847527381024   0.057143513839876287
-0.0690455815746032   -0.234847527381024   0.057143513839876287
2.2185301143643903   -0.12763355719042502   0.010675112622251376
2.2185301143643903   -0.12763355719042502   0.010675112622251376
2.2185301143643903   -0.12763355719042502   0.010675112622251376
2.2185301143643903   -0.12763355719042502   0.010675112622251376
1.000837585806353   -0.1876839773327794   -0.11933079332770616
1.000837585806353   -0.1876839773327794   -0.11933079332770616
1.000837585806353   -0.1876839773327794   -0.11933079332770616
1.000837585806353   -0.1876839773327794   -0.11933079332770616
2.336158000546718   0.2741672362866341   0.19701375005684565
2.336158000546718   0.2741672362866341   0.19701375005684565
2.336158000546718   0.2741672362866341   0.19701375005684565
2.336158000546718   0.2741672362866341   0.19701375005684565
-0.1785305249647172   -0.6285053780658669   -0.09662335242585077
-0.1785305249647172   -0.6285053780658669   -0.09662335242585077
-0.1785305249647172   -0.6285053780658669   -0.09662335242585077
-0.1785305249647172   -0.6285053780658669   -0.09662335242585077
0.025056161808429366   -0.146548531049191   0.03503177533863009
0.025056161808429366   -0.146548531049191   0.03503177533863009
0.025056161808429366   -0.146548531049191   0.03503177533863009
0.025056161808429366   -0.146548531049191   0.03503177533863009
2.314764887205176   -0.061075029384139445   -0.018594652758751024
2.314764887205176   -0.061075029384139445   -0.018594652758751024
2.314764887205176   -0.061075029384139445   -0.018594652758751024
2.314764887205176   -0.061075029384139445   -0.018594652758751024
1.0827650332762375   -0.1335140970600675   -0.07745403075319623
1.0827650332762375   -0.1335140970600675   -0.07745403075319623
1.0827650332762375   -0.1335140970600675   -0.07745403075319623
1.0827650332762375   -0.1335140970600675   -0.07745403075319623
2.4387122806732124   0.3643248289129153   0.17574245628437798
2.4387122806732124   0.3643248289129153   0.17574245628437798
2.4387122806732124   0.3643248289129153   0.17574245628437798
2.4387122806732124   0.3643248289129153   0.17574245628437798
-0.09409278226655544   -0.5671499399531951   -0.1401115361322976
-0.09409278226655544   -0.5671499399531951   -0.1401115361322976
-0.09409278226655544   -0.5671499399531951   -0.1401115361322976
-0.09409278226655544   -0.5671499399531951   -0.1401115361322976
0.09889328555901922   -0.04335258056274173   0.012661160933228107
0.09889328555901922   -0.04335258056274173   0.012661160933228107
0.09889328555901922   -0.04335258056274173   0.012661160933228107
0.09889328555901922   -0.04335258056274173   0.012661160933228107
2.3869059166660906   0.023675499734562677   -0.0450744184952457
2.3869059166660906   0.023675499734562677   -0.0450744184952457
2.3869059166660906   0.023675499734562677   -0.0450744184952457
2.3869059166660906   0.023675499734562677   -0.0450744184952457
1.182588595662196   -0.052574777240114945   -0.03266424540452287
1.182588595662196   -0.052574777240114945   -0.03266424540452287
1.182588595662196   -0.052574777240114945   -0.03266424540452287
1.182588595662196   -0.052574777240114945   -0.03266424540452287
-0.0922848792408325   0.05447719124463658   0.11036059803176256
-0.0922848792408325   0.05447719124463658   0.11036059803176256
-0.0922848792408325   0.05447719124463658   0.11036059803176256
-0.0922848792408325   0.05447719124463658   0.11036059803176256
-2.547858916465228   -0.8406016072290752   -0.051245703146011345
-2.547858916465228   -0.8406016072290752   -0.051245703146011345
-2.547858916465228   -0.8406016072290752   -0.051245703146011345
-2.547858916465228   -0.8406016072290752   -0.051245703146011345
-2.3422524833912126   -0.3605090902004301   -0.05350076958567582
-2.3422524833912126   -0.3605090902004301   -0.05350076958567582
-2.3422524833912126   -0.3605090902004301   -0.05350076958567582
-2.3422524833912126   -0.3605090902004301   -0.05350076958567582
-0.08241669559508547   -0.29405006124486704   0.04949047760130798
-0.08241669559508547   -0.29405006124486704   0.04949047760130798
-0.08241669559508547   -0.29405006124486704   0.04949047760130798
-0.08241669559508547   -0.29405006124486704   0.04949047760130798
-1.272066209920594   -0.3408837311008399   -0.10674504552915444
-1.272066209920594   -0.3408837311008399   -0.10674504552915444
-1.272066209920594   -0.3408837311008399   -0.10674504552915444
-1.272066209920594   -0.3408837311008399   -0.10674504552915444
0.012209081698960678   0.1389976977500822   0.08957160507658946
0.012209081698960678   0.1389976977500822   0.08957160507658946
0.012209081698960678   0.1389976977500822   0.08957160507658946
0.012209081698960678   0.1389976977500822   0.08957160507658946
-2.4310173157397665   -0.7876959042498664   -0.07013811727900743
-2.4310173157397665   -0.7876959042498664   -0.07013811727900743
-2.4310173157397665   -0.7876959042498664   -0.07013811727900743
-2.4310173157397665   -0.7876959042498664   -0.07013811727900743
-2.225581399489551   -0.26245246923113597   -0.0730023567452115
-2.225581399489551   -0.26245246923113597   -0.0730023567452115
-2.225581399489551   -0.26245246923113597   -0.0730023567452115
-2.225581399489551   -0.26245246923113597   -0.0730023567452115
0.00529751922651979   -0.23012775053807208   0.019817781917955607
0.00529751922651979   -0.23012775053807208   0.019817781917955607
0.00529751922651979   -0.23012775053807208   0.019817781917955607
0.00529751922651979   -0.23012775053807208   0.019817781917955607
-1.1588079989049511   -0.2704641179575727   -0.059459779795498074
-1.1588079989049511   -0.2704641179575727   -0.059459779795498074
-1.1588079989049511   -0.2704641179575727   -0.059459779795498074
-1.1588079989049511   -0.2704641179575727   -0.059459779795498074
0.10784870937554483   0.23276935026327267   0.06967663186173612
0.10784870937554483   0.23276935026327267   0.06967663186173612
0.10784870937554483   0.23276935026327267   0.06967663186173612
0.10784870937554483   0.23276935026327267   0.06967663186173612
-2.3282819176963376   -0.7254988980902397   -0.12345851892002553
-2.3282819176963376   -0.7254988980902397   -0.12345851892002553
-2.3282819176963376   -0.7254988980902397   -0.12345851892002553
-2.3282819176963376   -0.7254988980902397   -0.12345851892002553
-2.143160108130413   -0.16905762425820803   -0.09484493208258472
-2.143160108130413   -0.16905762425820803   -0.09484493208258472
-2.143160108130413   -0.16905762425820803   -0.09484493208258472
-2.143160108130413   -0.16905762425820803   -0.09484493208258472
0.06296054320602482   -0.17923687362278592   -0.031118257771699707
0.06296054320602482   -0.17923687362278592   -0.031118257771699707
0.06296054320602482   -0.17923687362278592   -0.031118257771699707
0.06296054320602482   -0.17923687362278592   -0.031118257771699707
-1.0757081165045463   -0.20488403741433991   -0.02999257771073531
-1.0757081165045463   -0.20488403741433991   -0.02999257771073531
-1.0757081165045463   -0.20488403741433991   -0.02999257771073531
-1.0757081165045463   -0.20488403741433991   -0.02999257771073531
-2.384454285177434   -0.07082070169441701   -0.0040034522417174145
-2.384454285177434   -0.07082070169441701   -0.0040034522417174145
-2.384454285177434   -0.07082070169441701   -0.0040034522417174145
-2.384454285177434   -0.07082070169441701   -0.0040034522417174145
-4.833443133418121   -0.9037478428913885   -0.04151640013163098
-4.833443133418121   -0.9037478428913885   -0.04151640013163098
-4.833443133418121   -0.9037478428913885   -0.04151640013163098
-4.833443133418121   -0.9037478428913885   -0.04151640013163098
-4.612014449957807   -0.46126663462885953   -0.15986654009869697
-4.612014449957807   -0.46126663462885953   -0.15986654009869697
-4.612014449957807   -0.46126663462885953   -0.15986654009869697
-4.612014449957807   -0.46126663462885953   -0.15986654009869697
-2.2994094274270522   -0.3052992467273017   0.10550466676197687
-2.2994094274270522   -0.3052992467273017   0.10550466676197687
-2.2994094274270522   -0.3052992467273017   0.10550466676197687
-2.2994094274270522   -0.3052992467273017   0.10550466676197687
-3.501225821915569   -0.4091846598026042   -0.07531926231045472
-3.501225821915569   -0.4091846598026042   -0.07531926231045472
-3.501225821915569   -0.4091846598026042   -0.07531926231045472
-3.501225821915569   -0.4091846598026042   -0.07531926231045472
-2.25558001815405   0.038220044192973646   -0.01886757779328782
-2.25558001815405   0.038220044192973646   -0.01886757779328782
-2.25558001815405   0.038220044192973646   -0.01886757779328782
-2.25558001815405   0.038220044192973646   -0.01886757779328782
-4.65788684776166   -0.8068289140799798   -0.04366624966680501
-4.65788684776166   -0.8068289140799798   -0.04366624966680501
-4.65788684776166   -0.8068289140799798   -0.04366624966680501
-4.65788684776166   -0.8068289140799798   -0.04366624966680501
-4.445410710584041   -0.35873003290774985   -0.18525689204531143
-4.445410710584041   -0.35873003290774985   -0.18525689204531143
-4.445410710584041   -0.35873003290774985   -0.18525689204531143
-4.445410710584041   -0.35873003290774985   -0.18525689204531143
-2.1859765578189747   -0.22819986064881298   0.09076924302536152
-2.1859765578189747   -0.22819986064881298   0.09076924302536152
-2.1859765578189747   -0.22819986064881298   0.09076924302536152
-2.1859765578189747   -0.22819986064881298   0.09076924302536152
-3.3302962691816336   -0.3108215887752285   -0.0251381169137099
-3.3302962691816336   -0.3108215887752285   -0.0251381169137099
-3.3302962691816336   -0.3108215887752285   -0.0251381169137099
-3.3302962691816336   -0.3108215887752285   -0.0251381169137099
-2.1385998986566257   0.1329783696037069   -0.03352569141544276
-2.1385998986566257   0.1329783696037069   -0.03352569141544276
-2.1385998986566257   0.1329783696037069   -0.03352569141544276
-2.1385998986566257   0.1329783696037069   -0.03352569141544276
-4.500971064105517   -0.7280919575193953   -0.09369673504100759
-4.500971064105517   -0.7280919575193953   -0.09369673504100759
-4.500971064105517   -0.7280919575193953   -0.09369673504100759
-4.500971064105517   -0.7280919575193953   -0.09369673504100759
-4.309942008025761   -0.25048096828454913   -0.19108703717399292
-4.309942008025761   -0.25048096828454913   -0.19108703717399292
-4.309942008025761   -0.25048096828454913   -0.19108703717399292
-4.309942008025761   -0.25048096828454913   -0.19108703717399292
-2.12075467487129   -0.17918508275682965   0.027309692711665973
-2.12075467487129   -0.17918508275682965   0.027309692711665973
-2.12075467487129   -0.17918508275682965   0.027309692711665973
-2.12075467487129   -0.17918508275682965   0.027309692711665973
-3.2352112021300043   -0.25079813747745183   -0.00884706309025457
-3.2352112021300043   -0.25079813747745183   -0.00884706309025457
-3.2352112021300043   -0.25079813747745183   -0.00884706309025457
-3.2352112021300043   -0.25079813747745183   -0.00884706309025457
-4.70031727162306   -0.161967630451469   -0.11766730359624655
-4.70031727162306   -0.161967630451469   -0.11766730359624655
-4.70031727162306   -0.161967630451469   -0.11766730359624655
-4.70031727162306   -0.161967630451469   -0.11766730359624655
-7.086838162009002   -0.6083563638406828   0.27091819771521225
-7.086838162009002   -0.6083563638406828   0.27091819771521225
-7.086838162009002   -0.6083563638406828   0.27091819771521225
-7.086838162009002   -0.6083563638406828   0.27091819771521225
-6.840092250683663   -0.48318066253688574   -0.15675119751581068
-6.840092250683663   -0.48318066253688574   -0.15675119751581068
-6.840092250683663   -0.48318066253688574   -0.15675119751581068
-6.840092250683663   -0.48318066253688574   -0.15675119751581068
-4.413050985570982   0.1253104576587124   0.2483736895478154
-4.413050985570982   0.1253104576587124   0.2483736895478154
-4.413050985570982   0.1253104576587124   0.2483736895478154
-4.413050985570982   0.1253104576587124   0.2483736895478154
-5.502690898114759   -0.19171160150997668   0.024707169714973054
-5.502690898114759   -0.19171160150997668   0.024707169714973054
-5.502690898114759   -0.19171160150997668   0.024707169714973054
-5.502690898114759   -0.19171160150997668   0.024707169714973054
-4.516497771192533   -0.013184569429775861   -0.13036521147139202
-4.516497771192533   -0.013184569429775861   -0.13036521147139202
-4.516497771192533   -0.013184569429775861   -0.13036521147139202
-4.516497771192533   -0.013184569429775861   -0.13036521147139202
-6.719949460002053   -0.3279896303883276   0.2887717237436857
-6.719949460002053   -0.3279896303883276   0.2887717237436857
-6.719949460002053   -0.3279896303883276   0.2887717237436857
-6.719949460002053   -0.3279896303883276   0.2887717237436857
-6.575599880476831   -0.40620918492735725   -0.18667300479773147
-6.575599880476831   -0.40620918492735725   -0.18667300479773147
-6.575599880476831   -0.40620918492735725   -0.18667300479773147
-6.575599880476831   -0.40620918492735725   -0.18667300479773147
-4.248148925269369   0.20222906997720547   0.24009293164309026
-4.248148925269369   0.20222906997720547   0.24009293164309026
-4.248148925269369   0.20222906997720547   0.24009293164309026
-4.248148925269369   0.20222906997720547   0.24009293164309026
-5.345104835721889   -0.07735440103023294   0.10914863139761655
-5.345104835721889   -0.07735440103023294   0.10914863139761655
-5.345104835721889   -0.07735440103023294   0.10914863139761655
-5.345104835721889   -0.07735440103023294   0.10914863139761655
-4.355336208932806   0.04704605583468724   -0.14066047253153485
-4.355336208932806   0.04704605583468724   -0.14066047253153485
-4.355336208932806   0.04704605583468724   -0.14066047253153485
-4.355336208932806   0.04704605583468724   -0.14066047253153485
-6.465133383782622   -0.24774695775406852   0.20719725149997387
-6.465133383782622   -0.24774695775406852   0.20719725149997387
-6.465133383782622   -0.24774695775406852   0.20719725149997387
-6.465133383782622   -0.24774695775406852   0.20719725149997387
-6.302215091705884   -0.3330022568184281   -0.22549727138162895
-6.302215091705884   -0.3330022568184281   -0.22549727138162895
-6.302215091705884   -0.3330022568184281   -0.22549727138162895
-6.302215091705884   -0.3330022568184281   -0.22549727138162895
-4.125401961856005   0.29508062373121957   0.1860516016590163
-4.125401961856005   0.29508062373121957   0.1860516016590163
-4.125401961856005   0.29508062373121957   0.1860516016590163
-4.125401961856005   0.29508062373121957   0.1860516016590163
-5.051974361219208   0.02058656638657963   0.19326550323689262
-5.051974361219208   0.02058656638657963   0.19326550323689262
-5.051974361219208   0.02058656638657963   0.19326550323689262
-5.051974361219208   0.02058656638657963   0.19326550323689262
6.263633338798762   0.37442437271620377   0.22867114963726598
6.263633338798762   0.37442437271620377   0.22867114963726598
6.263633338798762   0.37442437271620377   0.22867114963726598
6.263633338798762   0.37442437271620377   0.22867114963726598
2.9890534714036985   -0.5616872305260108   0.05279894620846831
2.9890534714036985   -0.5616872305260108   0.05279894620846831
2.9890534714036985   -0.5616872305260108   0.05279894620846831
2.9890534714036985   -0.5616872305260108   0.05279894620846831
3.1554521977293586   -0.23586317453110994   0.17641360582710808
3.1554521977293586   -0.23586317453110994   0.17641360582710808
3.1554521977293586   -0.23586317453110994   0.17641360582710808
3.1554521977293586   -0.23586317453110994   0.17641360582710808
6.297534478004796   0.05028775795053275   -0.04950657947637682
6.297534478004796   0.05028775795053275   -0.04950657947637682
6.297534478004796   0.05028775795053275   -0.04950657947637682
6.297534478004796   0.05028775795053275   -0.04950657947637682
4.405555169887793   -0.12158727482011611   -0.2938362346233724
4.405555169887793   -0.12158727482011611   -0.2938362346233724
4.405555169887793   -0.12158727482011611   -0.2938362346233724
4.405555169887793   -0.12158727482011611   -0.2938362346233724
6.417032241893049   0.41735342726607594   0.1809165706493464
6.417032241893049   0.41735342726607594   0.1809165706493464
6.417032241893049   0.41735342726607594   0.1809165706493464
6.417032241893049   0.41735342726607594   0.1809165706493464
3.064736515248391   -0.574146762439368   0.061118781330525285
3.064736515248391   -0.574146762439368   0.061118781330525285
3.064736515248391   -0.574146762439368   0.061118781330525285
3.064736515248391   -0.574146762439368   0.061118781330525285
3.2188400339019827   -0.20034631504001144   0.13436611944943597
3.2188400339019827   -0.20034631504001144   0.13436611944943597
3.2188400339019827   -0.20034631504001144   0.13436611944943597
3.2188400339019827   -0.20034631504001144   0.13436611944943597
6.4089972464671625   0.09039145222584555   -0.013807772161565313
6.4089972464671625   0.09039145222584555   -0.013807772161565313
6.4089972464671625   0.09039145222584555   -0.013807772161565313
6.4089972464671625   0.09039145222584555   -0.013807772161565313
4.58840719400605   -0.09638609176229584   -0.20041784665504403
4.58840719400605   -0.09638609176229584   -0.20041784665504403
4.58840719400605   -0.09638609176229584   -0.20041784665504403
4.58840719400605   -0.09638609176229584   -0.20041784665504403
6.509990957829098   0.4561009110252635   0.12545132584869553
6.509990957829098   0.4561009110252635   0.12545132584869553
6.509990957829098   0.4561009110252635   0.12545132584869553
6.509990957829098   0.4561009110252635   0.12545132584869553
3.137871100593168   -0.5460309957863083   0.07520613365166007
3.137871100593168   -0.5460309957863083   0.07520613365166007
3.137871100593168   -0.5460309957863083   0.07520613365166007
3.137871100593168   -0.5460309957863083   0.07520613365166007
3.3119626653164165   -0.061875099142276735   0.12282681145945154
3.3119626653164165   -0.061875099142276735   0.12282681145945154
3.3119626653164165   -0.061875099142276735   0.12282681145945154
3.3119626653164165   -0.061875099142276735   0.12282681145945154
6.524669416269674   0.18168839472078013   -0.0008072993967865316
6.524669416269674   0.18168839472078013   -0.0008072993967865316
6.524669416269674   0.18168839472078013   -0.0008072993967865316
6.524669416269674   0.18168839472078013   -0.0008072993967865316
4.612125417219377   -0.04511488534707997   -0.14937536023371706
4.612125417219377   -0.04511488534707997   -0.14937536023371706
4.612125417219377   -0.04511488534707997   -0.14937536023371706
4.612125417219377   -0.04511488534707997   -0.14937536023371706
3.1538769295265188   0.07663151600316331   0.23859749029339475
3.1538769295265188   0.07663151600316331   0.23859749029339475
3.1538769295265188   0.07663151600316331   0.23859749029339475
3.1538769295265188   0.07663151600316331   0.23859749029339475
0.1734815880957427   -1.1231631857743003   0.11681749440139794
0.1734815880957427   -1.1231631857743003   0.11681749440139794
0.1734815880957427   -1.1231631857743003   0.11681749440139794
0.1734815880957427   -1.1231631857743003   0.11681749440139794
0.3909403552148927   -0.4736376578565571   0.1082443684409656
0.3909403552148927   -0.4736376578565571   0.1082443684409656
0.3909403552148927   -0.4736376578565571   0.1082443684409656
0.3909403552148927   -0.4736376578565571   0.1082443684409656
3.0725443257038205   -0.5465195766711892   0.07253064783945701
3.0725443257038205   -0.5465195766711892   0.07253064783945701
3.0725443257038205   -0.5465195766711892   0.07253064783945701
3.0725443257038205   -0.5465195766711892   0.07253064783945701
1.6423756706452428   -0.5058026080447663   -0.18897367637953055
1.6423756706452428   -0.5058026080447663   -0.18897367637953055
1.6423756706452428   -0.5058026080447663   -0.18897367637953055
1.6423756706452428   -0.5058026080447663   -0.18897367637953055
3.2296003386027605   0.11225307688785635   0.19903805877516514
3.2296003386027605   0.11225307688785635   0.19903805877516514
3.2296003386027605   0.11225307688785635   0.19903805877516514
3.2296003386027605   0.11225307688785635   0.19903805877516514
0.275332304093017   -1.0909623496385281   0.147528804613566
0.275332304093017   -1.0909623496385281   0.147528804613566
0.275332304093017   -1.0909623496385281   0.147528804613566
0.275332304093017   -1.0909623496385281   0.147528804613566
0.4785877760631033   -0.4088450462314859   0.07873237414658957
0.4785877760631033   -0.4088450462314859   0.07873237414658957
0.4785877760631033   -0.4088450462314859   0.07873237414658957
0.4785877760631033   -0.4088450462314859   0.07873237414658957
3.1474693562235885   -0.5127735716633205   0.08993998768077277
3.1474693562235885   -0.5127735716633205   0.08993998768077277
3.1474693562235885   -0.5127735716633205   0.08993998768077277
3.1474693562235885   -0.5127735716633205   0.08993998768077277
1.717214759167955   -0.48114702953712407   -0.09446841177471857
1.717214759167955   -0.48114702953712407   -0.09446841177471857
1.717214759167955   -0.48114702953712407   -0.09446841177471857
1.717214759167955   -0.48114702953712407   -0.09446841177471857
3.3001790316754422   0.17322474059750703   0.16749005267921505
3.3001790316754422   0.17322474059750703   0.16749005267921505
3.3001790316754422   0.17322474059750703   0.16749005267921505
3.3001790316754422   0.17322474059750703   0.16749005267921505
0.3657731292139236   -1.0549483298896378   0.16076242355885
0.3657731292139236   -1.0549483298896378   0.16076242355885
0.3657731292139236   -1.0549483298896378   0.16076242355885
0.3657731292139236   -1.0549483298896378   0.16076242355885
0.6129689482777703   -0.3116154694277454   0.052407704081657486
0.6129689482777703   -0.3116154694277454   0.052407704081657486
0.6129689482777703   -0.3116154694277454   0.052407704081657486
0.6129689482777703   -0.3116154694277454   0.052407704081657486
3.2295893051846787   -0.4613925517239351   0.1104774633824368
3.2295893051846787   -0.4613925517239351   0.1104774633824368
3.2295893051846787   -0.4613925517239351   0.1104774633824368
3.2295893051846787   -0.4613925517239351   0.1104774633824368
1.8476374298644174   -0.42117069490512604   0.015422440775789942
1.8476374298644174   -0.42117069490512604   0.015422440775789942
1.8476374298644174   -0.42117069490512604   0.015422440775789942
1.8476374298644174   -0.42117069490512604   0.015422440775789942
0.36194612531770537   -0.21766338274660713   0.1536403774835181
0.36194612531770537   -0.21766338274660713   0.1536403774835181
0.36194612531770537   -0.21766338274660713   0.1536403774835181
0.36194612531770537   -0.21766338274660713   0.1536403774835181
-2.666446862954146   -1.9324751183271693   0.1681422003414481
-2.666446862954146   -1.9324751183271693   0.1681422003414481
-2.666446862954146   -1.9324751183271693   0.1681422003414481
-2.666446862954146   -1.9324751183271693   0.1681422003414481
-2.322077356107246   -0.7494521904096934   0.01214049228945975
-2.322077356107246   -0.7494521904096934   0.01214049228945975
-2.322077356107246   -0.7494521904096934   0.01214049228945975
-2.322077356107246   -0.7494521904096934   0.01214049228945975
0.1938199827325353   -1.4137608019258228   0.06276565009845203
0.1938199827325353   -1.4137608019258228   0.06276565009845203
0.1938199827325353   -1.4137608019258228   0.06276565009845203
0.1938199827325353   -1.4137608019258228   0.06276565009845203
-1.1435671505477014   -1.0861405066676162   -0.22681783095717656
-1.1435671505477014   -1.0861405066676162   -0.22681783095717656
-1.1435671505477014   -1.0861405066676162   -0.22681783095717656
-1.1435671505477014   -1.0861405066676162   -0.22681783095717656
0.4537208508128244   -0.1725156748072969   0.12102486338137157
0.4537208508128244   -0.1725156748072969   0.12102486338137157
0.4537208508128244   -0.1725156748072969   0.12102486338137157
0.4537208508128244   -0.1725156748072969   0.12102486338137157
-2.522172269030801   -1.9308913623714825   0.19310509963348943
-2.522172269030801   -1.9308913623714825   0.19310509963348943
-2.522172269030801   -1.9308913623714825   0.19310509963348943
-2.522172269030801   -1.9308913623714825   0.19310509963348943
-2.1892801025408484   -0.6727678437843614   0.0011949374538771512
-2.1892801025408484   -0.6727678437843614   0.0011949374538771512
-2.1892801025408484   -0.6727678437843614   0.0011949374538771512
-2.1892801025408484   -0.6727678437843614   0.0011949374538771512
0.2861601067200839   -1.383448211555559   0.09119719275557314
0.2861601067200839   -1.383448211555559   0.09119719275557314
0.2861601067200839   -1.383448211555559   0.09119719275557314
0.2861601067200839   -1.383448211555559   0.09119719275557314
-1.0092211657704233   -1.0498176203842562   -0.08503333746292283
-1.0092211657704233   -1.0498176203842562   -0.08503333746292283
-1.0092211657704233   -1.0498176203842562   -0.08503333746292283
-1.0092211657704233   -1.0498176203842562   -0.08503333746292283
0.537618733184725   -0.11218220118781527   0.07722431471103446
0.537618733184725   -0.11218220118781527   0.07722431471103446
0.537618733184725   -0.11218220118781527   0.07722431471103446
0.537618733184725   -0.11218220118781527   0.07722431471103446
-2.386595824613855   -1.8898909497604646   0.23173943306498473
-2.386595824613855   -1.8898909497604646   0.23173943306498473
-2.386595824613855   -1.8898909497604646   0.23173943306498473
-2.386595824613855   -1.8898909497604646   0.23173943306498473
-1.9701841782908458   -0.5843645881791628   -0.023612109056713286
-1.9701841782908458   -0.5843645881791628   -0.023612109056713286
-1.9701841782908458   -0.5843645881791628   -0.023612109056713286
-1.9701841782908458   -0.5843645881791628   -0.023612109056713286
0.4303506735817834   -1.2974722810303176   0.1251731422042876
0.4303506735817834   -1.2974722810303176   0.1251731422042876
0.4303506735817834   -1.2974722810303176   0.1251731422042876
0.4303506735817834   -1.2974722810303176   0.1251731422042876
-0.8346978693589274   -0.9673485785938195   0.06382235808241835
-0.8346978693589274   -0.9673485785938195   0.06382235808241835
-0.8346978693589274   -0.9673485785938195   0.06382235808241835
-0.8346978693589274   -0.9673485785938195   0.06382235808241835
-2.3768418477823756   -0.3894882284693899   0.07318038634249446
-2.3768418477823756   -0.3894882284693899   0.07318038634249446
-2.3768418477823756   -0.3894882284693899   0.07318038634249446
-2.3768418477823756   -0.3894882284693899   0.07318038634249446
-5.947624868582959   -3.0127260377048586   -0.1451883286355088
-5.947624868582959   -3.0127260377048586   -0.1451883286355088
-5.947624868582959   -3.0127260377048586   -0.1451883286355088
-5.947624868582959   -3.0127260377048586   -0.1451883286355088
-5.378704621952583   -0.9752323383716955   -0.16486559693458477
-5.378704621952583   -0.9752323383716955   -0.16486559693458477
-5.378704621952583   -0.9752323383716955   -0.16486559693458477
-5.378704621952583   -0.9752323383716955   -0.16486559693458477
-2.669658128452244   -2.524342108960404   0.049126549115179885
-2.669658128452244   -2.524342108960404   0.049126549115179885
-2.669658128452244   -2.524342108960404   0.049126549115179885
-2.669658128452244   -2.524342108960404   0.049126549115179885
-4.088459788499481   -1.7816952691536945   -0.23791719087687513
-4.088459788499481   -1.7816952691536945   -0.23791719087687513
-4.088459788499481   -1.7816952691536945   -0.23791719087687513
-4.088459788499481   -1.7816952691536945   -0.23791719087687513
-2.2198260649467128   -0.29641213003928524   0.07035688772171952
-2.2198260649467128   -0.29641213003928524   0.07035688772171952
-2.2198260649467128   -0.29641213003928524   0.07035688772171952
-2.2198260649467128   -0.29641213003928524   0.07035688772171952
-5.815697003770454   -3.190322635605174   -0.13473720879046025
-5.815697003770454   -3.190322635605174   -0.13473720879046025
-5.815697003770454   -3.190322635605174   -0.13473720879046025
-5.815697003770454   -3.190322635605174   -0.13473720879046025
-5.202309445428562   -0.8831846708881675   -0.16782192056182452
-5.202309445428562   -0.8831846708881675   -0.16782192056182452
-5.202309445428562   -0.8831846708881675   -0.16782192056182452
-5.202309445428562   -0.8831846708881675   -0.16782192056182452
-2.5411790571635544   -2.5054580782710274   0.0743903988270268
-2.5411790571635544   -2.5054580782710274   0.0743903988270268
-2.5411790571635544   -2.5054580782710274   0.0743903988270268
-2.5411790571635544   -2.5054580782710274   0.0743903988270268
-3.903956534394789   -1.7346522806494638   -0.16849651531728793
-3.903956534394789   -1.7346522806494638   -0.16849651531728793
-3.903956534394789   -1.7346522806494638   -0.16849651531728793
-3.903956534394789   -1.7346522806494638   -0.16849651531728793
-2.094923010708838   -0.22341707438828484   0.02362962721786535
-2.094923010708838   -0.22341707438828484   0.02362962721786535
-2.094923010708838   -0.22341707438828484   0.02362962721786535
-2.094923010708838   -0.22341707438828484   0.02362962721786535
-5.648877859704713   -3.1655380425923383   -0.11831062023836814
-5.648877859704713   -3.1655380425923383   -0.11831062023836814
-5.648877859704713   -3.1655380425923383   -0.11831062023836814
-5.648877859704713   -3.1655380425923383   -0.11831062023836814
-4.927494374795937   -0.784032877519907   -0.19018958117919676
-4.927494374795937   -0.784032877519907   -0.19018958117919676
-4.927494374795937   -0.784032877519907   -0.19018958117919676
-4.927494374795937   -0.784032877519907   -0.19018958117919676
-2.2632730097796028   -2.256502533886306   0.18308167920666685
-2.2632730097796028   -2.256502533886306   0.18308167920666685
-2.2632730097796028   -2.256502533886306   0.18308167920666685
-2.2632730097796028   -2.256502533886306   0.18308167920666685
-3.6976202594979166   -1.5743943470272677   -0.09573993569204148
-3.6976202594979166   -1.5743943470272677   -0.09573993569204148
-3.6976202594979166   -1.5743943470272677   -0.09573993569204148
-3.6976202594979166   -1.5743943470272677   -0.09573993569204148
-5.3898384880864425   -0.3307804678089761   -0.03820199604881286
-5.3898384880864425   -0.3307804678089761   -0.03820199604881286
-5.3898384880864425   -0.3307804678089761   -0.03820199604881286
-5.3898384880864425   -0.3307804678089761   -0.03820199604881286
-9.527312386268518   -1.8860689537956297   0.09696761729036929
-9.527312386268518   -1.8860689537956297   0.09696761729036929
-9.527312386268518   -1.8860689537956297   0.09696761729036929
-9.527312386268518   -1.8860689537956297   0.09696761729036929
-9.149944792599195   -0.9122389716493813   -0.20247964996456413
-9.149944792599195   -0.9122389716493813   -0.20247964996456413
-9.149944792599195   -0.9122389716493813   -0.20247964996456413
-9.149944792599195   -0.9122389716493813   -0.20247964996456413
-5.265516190817562   -0.9732786617414628   0.3991228821102468
-5.265516190817562   -0.9732786617414628   0.3991228821102468
-5.265516190817562   -0.9732786617414628   0.3991228821102468
-5.265516190817562   -0.9732786617414628   0.3991228821102468
-7.035738692989157   -1.0952577268961519   0.10277612021682127
-7.035738692989157   -1.0952577268961519   0.10277612021682127
-7.035738692989157   -1.0952577268961519   0.10277612021682127
-7.035738692989157   -1.0952577268961519   0.10277612021682127
-5.165338144444561   -0.07456235131567124   0.0012968035494764218
-5.165338144444561   -0.07456235131567124   0.0012968035494764218
-5.165338144444561   -0.07456235131567124   0.0012968035494764218
-5.165338144444561   -0.07456235131567124   0.0012968035494764218
-9.286503788844714   -1.8473362319477222   0.049822629106103467
-9.286503788844714   -1.8473362319477222   0.049822629106103467
-9.286503788844714   -1.8473362319477222   0.049822629106103467
-9.286503788844714   -1.8473362319477222   0.049822629106103467
-8.94073615186679   -0.8356921868554585   -0.2569261259226848
-8.94073615186679   -0.8356921868554585   -0.2569261259226848
-8.94073615186679   -0.8356921868554585   -0.2569261259226848
-8.94073615186679   -0.8356921868554585   -0.2569261259226848
-5.083879385963783   -0.9237892800149736   0.4649329858889155
-5.083879385963783   -0.9237892800149736   0.4649329858889155
-5.083879385963783   -0.9237892800149736   0.4649329858889155
-5.083879385963783   -0.9237892800149736   0.4649329858889155
-6.924184247087151   -0.9015082263542149   0.09835119973506723
-6.924184247087151   -0.9015082263542149   0.09835119973506723
-6.924184247087151   -0.9015082263542149   0.09835119973506723
-6.924184247087151   -0.9015082263542149   0.09835119973506723
-5.003465658491077   -0.0068419952902361025   -0.04994566147228763
-5.003465658491077   -0.0068419952902361025   -0.04994566147228763
-5.003465658491077   -0.0068419952902361025   -0.04994566147228763
-5.003465658491077   -0.0068419952902361025   -0.04994566147228763
-9.034898831849539   -1.7663884240902488   0.20295671139829485
-9.034898831849539   -1.7663884240902488   0.20295671139829485
-9.034898831849539   -1.7663884240902488   0.20295671139829485
-9.034898831849539   -1.7663884240902488   0.20295671139829485
-8.506433960693647   -0.6756654071191612   -0.28664655375524634
-8.506433960693647   -0.6756654071191612   -0.28664655375524634
-8.506433960693647   -0.6756654071191612   -0.28664655375524634
-8.506433960693647   -0.6756654071191612   -0.28664655375524634
-4.801674158889847   -0.8577992563430777   0.5126778771744587
-4.801674158889847   -0.8577992563430777   0.5126778771744587
-4.801674158889847   -0.8577992563430777   0.5126778771744587
-4.801674158889847   -0.8577992563430777   0.5126778771744587
-6.506276991729734   -0.6888147075081585   0.19972324005766195
-6.506276991729734   -0.6888147075081585   0.19972324005766195
-6.506276991729734   -0.6888147075081585   0.19972324005766195
-6.506276991729734   -0.6888147075081585   0.19972324005766195
6.860249524142767   0.2214457983461784   0.09726803783034632
6.860249524142767   0.2214457983461784   0.09726803783034632
6.860249524142767   0.2214457983461784   0.09726803783034632
6.860249524142767   0.2214457983461784   0.09726803783034632
3.507936140857434   -0.18265913556023283   0.07295338381835492
3.507936140857434   -0.18265913556023283   0.07295338381835492
3.507936140857434   -0.18265913556023283   0.07295338381835492
3.507936140857434   -0.18265913556023283   0.07295338381835492
3.369264601828736   -0.4971137267809046   0.14175587304249698
3.369264601828736   -0.4971137267809046   0.14175587304249698
3.369264601828736   -0.4971137267809046   0.14175587304249698
3.369264601828736   -0.4971137267809046   0.14175587304249698
6.810243171731279   0.3839495068306875   0.053299291588223774
6.810243171731279   0.3839495068306875   0.053299291588223774
6.810243171731279   0.3839495068306875   0.053299291588223774
6.810243171731279   0.3839495068306875   0.053299291588223774
4.86311264577296   -0.06994255393080229   -0.179277473353621
4.86311264577296   -0.06994255393080229   -0.179277473353621
4.86311264577296   -0.06994255393080229   -0.179277473353621
4.86311264577296   -0.06994255393080229   -0.179277473353621
6.77171397625963   0.16995461475742357   0.07464820630324376
6.77171397625963   0.16995461475742357   0.07464820630324376
6.77171397625963   0.16995461475742357   0.07464820630324376
6.77171397625963   0.16995461475742357   0.07464820630324376
3.396356060677709   -0.29455657133031643   0.07465601183677362
3.396356060677709   -0.29455657133031643   0.07465601183677362
3.396356060677709   -0.29455657133031643   0.07465601183677362
3.396356060677709   -0.29455657133031643   0.07465601183677362
3.281102966192105   -0.5089391297869006   0.11743359804976167
3.281102966192105   -0.5089391297869006   0.11743359804976167
3.281102966192105   -0.5089391297869006   0.11743359804976167
3.281102966192105   -0.5089391297869006   0.11743359804976167
6.729459746632247   0.3669189659208223   0.09134555508356618
6.729459746632247   0.3669189659208223   0.09134555508356618
6.729459746632247   0.3669189659208223   0.09134555508356618
6.729459746632247   0.3669189659208223   0.09134555508356618
4.847378943612066   -0.09654893176934243   -0.20833341527432442
4.847378943612066   -0.09654893176934243   -0.20833341527432442
4.847378943612066   -0.09654893176934243   -0.20833341527432442
4.847378943612066   -0.09654893176934243   -0.20833341527432442
6.672361684859823   0.15031728063761274   0.022456931504609645
6.672361684859823   0.15031728063761274   0.022456931504609645
6.672361684859823   0.15031728063761274   0.022456931504609645
6.672361684859823   0.15031728063761274   0.022456931504609645
3.317773139030123   -0.31276533343810486   0.104610665891055
3.317773139030123   -0.31276533343810486   0.104610665891055
3.317773139030123   -0.31276533343810486   0.104610665891055
3.317773139030123   -0.31276533343810486   0.104610665891055
3.1879338870223237   -0.46522111794831433   0.10138066650509153
3.1879338870223237   -0.46522111794831433   0.10138066650509153
3.1879338870223237   -0.46522111794831433   0.10138066650509153
3.1879338870223237   -0.46522111794831433   0.10138066650509153
6.604791420698007   0.3699446807982105   0.13065121853320028
6.604791420698007   0.3699446807982105   0.13065121853320028
6.604791420698007   0.3699446807982105   0.13065121853320028
6.604791420698007   0.3699446807982105   0.13065121853320028
4.664067424015519   -0.09772746039316882   -0.28200162500034787
4.664067424015519   -0.09772746039316882   -0.28200162500034787
4.664067424015519   -0.09772746039316882   -0.28200162500034787
4.664067424015519   -0.09772746039316882   -0.28200162500034787
3.473781072384012   -0.4521358388489366   0.1716547447399473
3.473781072384012   -0.4521358388489366   0.1716547447399473
3.473781072384012   -0.4521358388489366   0.1716547447399473
3.473781072384012   -0.4521358388489366   0.1716547447399473
0.6869719267172097   -0.4139138187910827   0.03827349551576789
0.6869719267172097   -0.4139138187910827   0.03827349551576789
0.6869719267172097   -0.4139138187910827   0.03827349551576789
0.6869719267172097   -0.4139138187910827   0.03827349551576789
0.4479748918979234   -1.0486144109759596   0.1866259101215022
0.4479748918979234   -1.0486144109759596   0.1866259101215022
0.4479748918979234   -1.0486144109759596   0.1866259101215022
0.4479748918979234   -1.0486144109759596   0.1866259101215022
3.493378234313358   0.13219723255259686   0.13301307613210564
3.493378234313358   0.13219723255259686   0.13301307613210564
3.493378234313358   0.13219723255259686   0.13301307613210564
3.493378234313358   0.13219723255259686   0.13301307613210564
1.9944523129445042   -0.44737570659025366   -0.0074099799230923635
1.9944523129445042   -0.44737570659025366   -0.0074099799230923635
1.9944523129445042   -0.44737570659025366   -0.0074099799230923635
1.9944523129445042   -0.44737570659025366   -0.0074099799230923635
3.3746697082484864   -0.47188924504840024   0.14355692340873644
3.3746697082484864   -0.47188924504840024   0.14355692340873644
3.3746697082484864   -0.47188924504840024   0.14355692340873644
3.3746697082484864   -0.47188924504840024   0.14355692340873644
0.5367313909559123   -0.47447996038184675   0.056273954817333216
0.5367313909559123   -0.47447996038184675   0.056273954817333216
0.5367313909559123   -0.47447996038184675   0.056273954817333216
0.5367313909559123   -0.47447996038184675   0.056273954817333216
0.34113046183511486   -1.0585970488116994   0.16716149632735128
0.34113046183511486   -1.0585970488116994   0.16716149632735128
0.34113046183511486   -1.0585970488116994   0.16716149632735128
0.34113046183511486   -1.0585970488116994   0.16716149632735128
3.4120509820074916   0.10544019747583355   0.15779434986396015
3.4120509820074916   0.10544019747583355   0.15779434986396015
3.4120509820074916   0.10544019747583355   0.15779434986396015
3.4120509820074916   0.10544019747583355   0.15779434986396015
1.849534087264919   -0.4770277628744888   -0.0962376849282495
1.849534087264919   -0.4770277628744888   -0.0962376849282495
1.849534087264919   -0.4770277628744888   -0.0962376849282495
1.849534087264919   -0.4770277628744888   -0.0962376849282495
3.2872774895567365   -0.4791054379297066   0.11847252301569405
3.2872774895567365   -0.4791054379297066   0.11847252301569405
3.2872774895567365   -0.4791054379297066   0.11847252301569405
3.2872774895567365   -0.4791054379297066   0.11847252301569405
0.43337776161038477   -0.5065776060816498   0.07637855247365086
0.43337776161038477   -0.5065776060816498   0.07637855247365086
0.43337776161038477   -0.5065776060816498   0.07637855247365086
0.43337776161038477   -0.5065776060816498   0.07637855247365086
0.2215182686219997   -1.0588771127388328   0.1311256948706278
0.2215182686219997   -1.0588771127388328   0.1311256948706278
0.2215182686219997   -1.0588771127388328   0.1311256948706278
0.2215182686219997   -1.0588771127388328   0.1311256948706278
3.3197547643123664   0.10641989780990924   0.18884403719710494
3.3197547643123664   0.10641989780990924   0.18884403719710494
3.3197547643123664   0.10641989780990924   0.18884403719710494
3.3197547643123664   0.10641989780990924   0.18884403719710494
1.7606352774491365   -0.47402079464885316   -0.17196320006216612
1.7606352774491365   -0.47402079464885316   -0.17196320006216612
1.7606352774491365   -0.47402079464885316   -0.17196320006216612
1.7606352774491365   -0.47402079464885316   -0.17196320006216612
0.533983220450438   -1.2951119271969822   0.15452807258780066
0.533983220450438   -1.2951119271969822   0.15452807258780066
0.533983220450438   -1.2951119271969822   0.15452807258780066
0.533983220450438   -1.2951119271969822   0.15452807258780066
-2.024062929161641   -0.6440662638333166   0.0035895611878117017
-2.024062929161641   -0.6440662638333166   0.0035895611878117017
-2.024062929161641   -0.6440662638333166   0.0035895611878117017
-2.024062929161641   -0.6440662638333166   0.0035895611878117017
-2.456459206269736   -1.913586269455432   0.21391750145267752
-2.456459206269736   -1.913586269455432   0.21391750145267752
-2.456459206269736   -1.913586269455432   0.21391750145267752
-2.456459206269736   -1.913586269455432   0.21391750145267752
0.6143330053775076   -0.11393867371881711   0.08374074026228058
0.6143330053775076   -0.11393867371881711   0.08374074026228058
0.6143330053775076   -0.11393867371881711   0.08374074026228058
0.6143330053775076   -0.11393867371881711   0.08374074026228058
-0.8216625000011881   -0.9777555497259994   0.03648095242857452
-0.8216625000011881   -0.9777555497259994   0.03648095242857452
-0.8216625000011881   -0.9777555497259994   0.03648095242857452
-0.8216625000011881   -0.9777555497259994   0.03648095242857452
0.36862979264052986   -1.3692456411601661   0.11053164401874094
0.36862979264052986   -1.3692456411601661   0.11053164401874094
0.36862979264052986   -1.3692456411601661   0.11053164401874094
0.36862979264052986   -1.3692456411601661   0.11053164401874094
-2.2525528118064724   -0.7000761202878003   0.019939324601344413
-2.2525528118064724   -0.7000761202878003   0.019939324601344413
-2.2525528118064724   -0.7000761202878003   0.019939324601344413
-2.2525528118064724   -0.7000761202878003   0.019939324601344413
-2.6054959875940122   -1.945307440927567   0.17355714020963037
-2.6054959875940122   -1.945307440927567   0.17355714020963037
-2.6054959875940122   -1.945307440927567   0.17355714020963037
-2.6054959875940122   -1.945307440927567   0.17355714020963037
0.5142722166804209   -0.14367074191368542   0.11794396365586722
0.5142722166804209   -0.14367074191368542   0.11794396365586722
0.5142722166804209   -0.14367074191368542   0.11794396365586722
0.5142722166804209   -0.14367074191368542   0.11794396365586722
-1.0077848965743177   -1.037767790489071   -0.08798024793135895
-1.0077848965743177   -1.037767790489071   -0.08798024793135895
-1.0077848965743177   -1.037767790489071   -0.08798024793135895
-1.0077848965743177   -1.037767790489071   -0.08798024793135895
0.2548189115475656   -1.3937954582713292   0.0708021543492417
0.2548189115475656   -1.3937954582713292   0.0708021543492417
0.2548189115475656   -1.3937954582713292   0.0708021543492417
0.2548189115475656   -1.3937954582713292   0.0708021543492417
-2.3955809941656847   -0.7447210362744525   0.02254570269813709
-2.3955809941656847   -0.7447210362744525   0.02254570269813709
-2.3955809941656847   -0.7447210362744525   0.02254570269813709
-2.3955809941656847   -0.7447210362744525   0.02254570269813709
-2.766760510582811   -1.9324918845202466   0.14718630891923717
-2.766760510582811   -1.9324918845202466   0.14718630891923717
-2.766760510582811   -1.9324918845202466   0.14718630891923717
-2.766760510582811   -1.9324918845202466   0.14718630891923717
0.40288181382821314   -0.1604404799755699   0.13950678813843248
0.40288181382821314   -0.1604404799755699   0.13950678813843248
0.40288181382821314   -0.1604404799755699   0.13950678813843248
0.40288181382821314   -0.1604404799755699   0.13950678813843248
-1.1586026494131294   -1.060811592754846   -0.21192152002042852
-1.1586026494131294   -1.060811592754846   -0.21192152002042852
-1.1586026494131294   -1.060811592754846   -0.21192152002042852
-1.1586026494131294   -1.060811592754846   -0.21192152002042852
-2.3028075433871185   -2.2179707180776362   0.18377094430476182
-2.3028075433871185   -2.2179707180776362   0.18377094430476182
-2.3028075433871185   -2.2179707180776362   0.18377094430476182
-2.3028075433871185   -2.2179707180776362   0.18377094430476182
-5.112669257606376   -0.8024212258666812   -0.11934488435405495
-5.112669257606376   -0.8024212258666812   -0.11934488435405495
-5.112669257606376   -0.8024212258666812   -0.11934488435405495
-5.112669257606376   -0.8024212258666812   -0.11934488435405495
-5.867782896732322   -3.207424289358685   -0.16815958459614666
-5.867782896732322   -3.207424289358685   -0.16815958459614666
-5.867782896732322   -3.207424289358685   -0.16815958459614666
-5.867782896732322   -3.207424289358685   -0.16815958459614666
-2.139097432759938   -0.18521317807383475   0.07235327762004869
-2.139097432759938   -0.18521317807383475   0.07235327762004869
-2.139097432759938   -0.18521317807383475   0.07235327762004869
-2.139097432759938   -0.18521317807383475   0.07235327762004869
-3.818982657633822   -1.5420515806492165   -0.13523347811350322
-3.818982657633822   -1.5420515806492165   -0.13523347811350322
-3.818982657633822   -1.5420515806492165   -0.13523347811350322
-3.818982657633822   -1.5420515806492165   -0.13523347811350322
-2.606283271626608   -2.5093752219797794   0.060586127192667316
-2.606283271626608   -2.5093752219797794   0.060586127192667316
-2.606283271626608   -2.5093752219797794   0.060586127192667316
-2.606283271626608   -2.5093752219797794   0.060586127192667316
-5.388201179789162   -0.8708663673762471   -0.1068089218627885
-5.388201179789162   -0.8708663673762471   -0.1068089218627885
-5.388201179789162   -0.8708663673762471   -0.1068089218627885
-5.388201179789162   -0.8708663673762471   -0.1068089218627885
-6.04481815179441   -3.259961832518174   -0.19448927777785152
-6.04481815179441   -3.259961832518174   -0.19448927777785152
-6.04481815179441   -3.259961832518174   -0.19448927777785152
-6.04481815179441   -3.259961832518174   -0.19448927777785152
-2.276195840821843   -0.2337295914274464   0.10848002457034112
-2.276195840821843   -0.2337295914274464   0.10848002457034112
-2.276195840821843   -0.2337295914274464   0.10848002457034112
-2.276195840821843   -0.2337295914274464   0.10848002457034112
-4.035060035632179   -1.7074443162602457   -0.18921492029769255
-4.035060035632179   -1.7074443162602457   -0.18921492029769255
-4.035060035632179   -1.7074443162602457   -0.18921492029769255
-4.035060035632179   -1.7074443162602457   -0.18921492029769255
-2.758235352351542   -2.5590307016459612   0.02358357714034498
-2.758235352351542   -2.5590307016459612   0.02358357714034498
-2.758235352351542   -2.5590307016459612   0.02358357714034498
-2.758235352351542   -2.5590307016459612   0.02358357714034498
-5.562821590667358   -0.9347036727023164   -0.10976463195849306
-5.562821590667358   -0.9347036727023164   -0.10976463195849306
-5.562821590667358   -0.9347036727023164   -0.10976463195849306
-5.562821590667358   -0.9347036727023164   -0.10976463195849306
-6.19610494663135   -3.1235572322073275   -0.21935987554669345
-6.19610494663135   -3.1235572322073275   -0.21935987554669345
-6.19610494663135   -3.1235572322073275   -0.21935987554669345
-6.19610494663135   -3.1235572322073275   -0.21935987554669345
-2.450091526959414   -0.30212371739862703   0.10016305991455636
-2.450091526959414   -0.30212371739862703   0.10016305991455636
-2.450091526959414   -0.30212371739862703   0.10016305991455636
-2.450091526959414   -0.30212371739862703   0.10016305991455636
-4.233496216288392   -1.7642477053318484   -0.2403401449680428
-4.233496216288392   -1.7642477053318484   -0.2403401449680428
-4.233496216288392   -1.7642477053318484   -0.2403401449680428
-4.233496216288392   -1.7642477053318484   -0.2403401449680428
-5.018439524896331   -0.9115094952611555   0.46089204859055277
-5.018439524896331   -0.9115094952611555   0.46089204859055277
-5.018439524896331   -0.9115094952611555   0.46089204859055277
-5.018439524896331   -0.9115094952611555   0.46089204859055277
-8.861449782943751   -0.6659307559147538   -0.16003753959349837
-8.861449782943751   -0.6659307559147538   -0.16003753959349837
-8.861449782943751   -0.6659307559147538   -0.16003753959349837
-8.861449782943751   -0.6659307559147538   -0.16003753959349837
-9.408018619794232   -1.8562455121770582   0.1267910589089407
-9.408018619794232   -1.8562455121770582   0.1267910589089407
-9.408018619794232   -1.8562455121770582   0.1267910589089407
-9.408018619794232   -1.8562455121770582   0.1267910589089407
-5.169399773653373   0.07211540319165755   0.04421633824821036
-5.169399773653373   0.07211540319165755   0.04421633824821036
-5.169399773653373   0.07211540319165755   0.04421633824821036
-5.169399773653373   0.07211540319165755   0.04421633824821036
-6.775472434172234   -0.6522470475091516   0.13676326202454123
-6.775472434172234   -0.6522470475091516   0.13676326202454123
-6.775472434172234   -0.6522470475091516   0.13676326202454123
-6.775472434172234   -0.6522470475091516   0.13676326202454123
-5.306721602411305   -0.9794998341268548   0.40922243177703166
-5.306721602411305   -0.9794998341268548   0.40922243177703166
-5.306721602411305   -0.9794998341268548   0.40922243177703166
-5.306721602411305   -0.9794998341268548   0.40922243177703166
-9.246308788294852   -0.7802422721170945   -0.14066302365406802
-9.246308788294852   -0.7802422721170945   -0.14066302365406802
-9.246308788294852   -0.7802422721170945   -0.14066302365406802
-9.246308788294852   -0.7802422721170945   -0.14066302365406802
-9.64156126970146   -1.936100602161909   -0.03894174110808324
-9.64156126970146   -1.936100602161909   -0.03894174110808324
-9.64156126970146   -1.936100602161909   -0.03894174110808324
-9.64156126970146   -1.936100602161909   -0.03894174110808324
-5.333963448574747   0.018008756622418298   0.08181364917982437
-5.333963448574747   0.018008756622418298   0.08181364917982437
-5.333963448574747   0.018008756622418298   0.08181364917982437
-5.333963448574747   0.018008756622418298   0.08181364917982437
-7.184614688584521   -0.8619312839582606   0.0568963687868754
-7.184614688584521   -0.8619312839582606   0.0568963687868754
-7.184614688584521   -0.8619312839582606   0.0568963687868754
-7.184614688584521   -0.8619312839582606   0.0568963687868754
-5.491983099644373   -1.0303764915317097   0.3401006419858241
-5.491983099644373   -1.0303764915317097   0.3401006419858241
-5.491983099644373   -1.0303764915317097   0.3401006419858241
-5.491983099644373   -1.0303764915317097   0.3401006419858241
-9.435074692098079   -0.8392484274739571   -0.10336102777896827
-9.435074692098079   -0.8392484274739571   -0.10336102777896827
-9.435074692098079   -0.8392484274739571   -0.10336102777896827
-9.435074692098079   -0.8392484274739571   -0.10336102777896827
-9.846369326851807   -1.9692560478408159   8.908764772774802e-05
-9.846369326851807   -1.9692560478408159   8.908764772774802e-05
-9.846369326851807   -1.9692560478408159   8.908764772774802e-05
-9.846369326851807   -1.9692560478408159   8.908764772774802e-05
-5.564722595062718   -0.2190010430114675   0.032995693100606016
-5.564722595062718   -0.2190010430114675   0.032995693100606016
-5.564722595062718   -0.2190010430114675   0.032995693100606016
-5.564722595062718   -0.2190010430114675   0.032995693100606016
-7.274742961855614   -1.0424291885934927   0.09001160096640512
-7.274742961855614   -1.0424291885934927   0.09001160096640512
-7.274742961855614   -1.0424291885934927   0.09001160096640512
-7.274742961855614   -1.0424291885934927   0.09001160096640512
5.99405438584923   0.2735710034204578   -0.13201416627023346
5.99405438584923   0.2735710034204578   -0.13201416627023346
5.99405438584923   0.2735710034204578   -0.13201416627023346
5.99405438584923   0.2735710034204578   -0.13201416627023346
3.021258755619851   -0.05822430453990357   0.06571266012827587
3.021258755619851   -0.05822430453990357   0.06571266012827587
3.021258755619851   -0.05822430453990357   0.06571266012827587
3.021258755619851   -0.05822430453990357   0.06571266012827587
2.826828680259913   -0.44660469376984446   -0.11605721994307017
2.826828680259913   -0.44660469376984446   -0.11605721994307017
2.826828680259913   -0.44660469376984446   -0.11605721994307017
2.826828680259913   -0.44660469376984446   -0.11605721994307017
5.924033455989825   0.4338357840177165   0.07688348884114476
5.924033455989825   0.4338357840177165   0.07688348884114476
5.924033455989825   0.4338357840177165   0.07688348884114476
5.924033455989825   0.4338357840177165   0.07688348884114476
4.208699584772452   0.01027253083416102   -0.162641308542076
4.208699584772452   0.01027253083416102   -0.162641308542076
4.208699584772452   0.01027253083416102   -0.162641308542076
4.208699584772452   0.01027253083416102   -0.162641308542076
5.825241453447752   0.14970096407170663   -0.1329417039231544
5.825241453447752   0.14970096407170663   -0.1329417039231544
5.825241453447752   0.14970096407170663   -0.1329417039231544
5.825241453447752   0.14970096407170663   -0.1329417039231544
2.920070663118695   -0.16801989350711966   0.07156789408809466
2.920070663118695   -0.16801989350711966   0.07156789408809466
2.920070663118695   -0.16801989350711966   0.07156789408809466
2.920070663118695   -0.16801989350711966   0.07156789408809466
2.722233803634453   -0.47192370703813835   -0.09564186671344194
2.722233803634453   -0.47192370703813835   -0.09564186671344194
2.722233803634453   -0.47192370703813835   -0.09564186671344194
2.722233803634453   -0.47192370703813835   -0.09564186671344194
5.778547601832588   0.3981076141204466   0.11189957175918988
5.778547601832588   0.3981076141204466   0.11189957175918988
5.778547601832588   0.3981076141204466   0.11189957175918988
5.778547601832588   0.3981076141204466   0.11189957175918988
4.1505593141786115   -0.04283362661742085   -0.19488062958107
4.1505593141786115   -0.04283362661742085   -0.19488062958107
4.1505593141786115   -0.04283362661742085   -0.19488062958107
4.1505593141786115   -0.04283362661742085   -0.19488062958107
5.679068489566183   0.1175782736670159   -0.10496664911940173
5.679068489566183   0.1175782736670159   -0.10496664911940173
5.679068489566183   0.1175782736670159   -0.10496664911940173
5.679068489566183   0.1175782736670159   -0.10496664911940173
2.814087538005502   -0.19901974448006288   0.09072284258372845
2.814087538005502   -0.19901974448006288   0.09072284258372845
2.814087538005502   -0.19901974448006288   0.09072284258372845
2.814087538005502   -0.19901974448006288   0.09072284258372845
2.6207859259548023   -0.46607646235869593   -0.0654490025081289
2.6207859259548023   -0.46607646235869593   -0.0654490025081289
2.6207859259548023   -0.46607646235869593   -0.0654490025081289
2.6207859259548023   -0.46607646235869593   -0.0654490025081289
5.598273465616668   0.3729744176670101   0.14513335343760195
5.598273465616668   0.3729744176670101   0.14513335343760195
5.598273465616668   0.3729744176670101   0.14513335343760195
5.598273465616668   0.3729744176670101   0.14513335343760195
3.9435180542052044   -0.07494189459595912   -0.25643621538309935
3.9435180542052044   -0.07494189459595912   -0.25643621538309935
3.9435180542052044   -0.07494189459595912   -0.25643621538309935
3.9435180542052044   -0.07494189459595912   -0.25643621538309935
3.0355498382027535   0.05327984841949629   0.025663920083364627
3.0355498382027535   0.05327984841949629   0.025663920083364627
3.0355498382027535   0.05327984841949629   0.025663920083364627
3.0355498382027535   0.05327984841949629   0.025663920083364627
0.2999174346514161   -0.18040696344237778   -0.0060304072562791175
0.2999174346514161   -0.18040696344237778   -0.0060304072562791175
0.2999174346514161   -0.18040696344237778   -0.0060304072562791175
0.2999174346514161   -0.18040696344237778   -0.0060304072562791175
0.11672651932318348   -0.5920148855341909   -0.111395799311659
0.11672651932318348   -0.5920148855341909   -0.111395799311659
0.11672651932318348   -0.5920148855341909   -0.111395799311659
0.11672651932318348   -0.5920148855341909   -0.111395799311659
3.0395742039071845   0.35003757819141507   0.1510281263320063
3.0395742039071845   0.35003757819141507   0.1510281263320063
3.0395742039071845   0.35003757819141507   0.1510281263320063
3.0395742039071845   0.35003757819141507   0.1510281263320063
1.593143045756094   -0.08439818080030925   -0.06376778376967149
1.593143045756094   -0.08439818080030925   -0.06376778376967149
1.593143045756094   -0.08439818080030925   -0.06376778376967149
1.593143045756094   -0.08439818080030925   -0.06376778376967149
2.949627593455774   0.005925849673280248   0.045406802593106005
2.949627593455774   0.005925849673280248   0.045406802593106005
2.949627593455774   0.005925849673280248   0.045406802593106005
2.949627593455774   0.005925849673280248   0.045406802593106005
0.21002941855990137   -0.24454686823074576   0.0076506795684850165
0.21002941855990137   -0.24454686823074576   0.0076506795684850165
0.21002941855990137   -0.24454686823074576   0.0076506795684850165
0.21002941855990137   -0.24454686823074576   0.0076506795684850165
0.015880569592023802   -0.6207841650581949   -0.07715705039071409
0.015880569592023802   -0.6207841650581949   -0.07715705039071409
0.015880569592023802   -0.6207841650581949   -0.07715705039071409
0.015880569592023802   -0.6207841650581949   -0.07715705039071409
2.928833597864451   0.2987574480497824   0.16667594934862617
2.928833597864451   0.2987574480497824   0.16667594934862617
2.928833597864451   0.2987574480497824   0.16667594934862617
2.928833597864451   0.2987574480497824   0.16667594934862617
1.4773590092195426   -0.13147519218012887   -0.09029867353938714
1.4773590092195426   -0.13147519218012887   -0.09029867353938714
1.4773590092195426   -0.13147519218012887   -0.09029867353938714
1.4773590092195426   -0.13147519218012887   -0.09029867353938714
2.843907752614792   -0.026322070121225782   0.06712624127136305
2.843907752614792   -0.026322070121225782   0.06712624127136305
2.843907752614792   -0.026322070121225782   0.06712624127136305
2.843907752614792   -0.026322070121225782   0.06712624127136305
0.10029376678061559   -0.2962172949482499   0.020342065442299898
0.10029376678061559   -0.2962172949482499   0.020342065442299898
0.10029376678061559   -0.2962172949482499   0.020342065442299898
0.10029376678061559   -0.2962172949482499   0.020342065442299898
-0.09246880325522946   -0.6242590322913117   -0.0523270457414044
-0.09246880325522946   -0.6242590322913117   -0.0523270457414044
-0.09246880325522946   -0.6242590322913117   -0.0523270457414044
-0.09246880325522946   -0.6242590322913117   -0.0523270457414044
2.817116941408255   0.2658307835334578   0.18429882886698615
2.817116941408255   0.2658307835334578   0.18429882886698615
2.817116941408255   0.2658307835334578   0.18429882886698615
2.817116941408255   0.2658307835334578   0.18429882886698615
1.3862765600130496   -0.150686785974753   -0.11328024864952219
1.3862765600130496   -0.150686785974753   -0.11328024864952219
1.3862765600130496   -0.150686785974753   -0.11328024864952219
1.3862765600130496   -0.150686785974753   -0.11328024864952219
0.3034749774601616   -0.1775054383979202   0.008855781742990773
0.3034749774601616   -0.1775054383979202   0.008855781742990773
0.3034749774601616   -0.1775054383979202   0.008855781742990773
0.3034749774601616   -0.1775054383979202   0.008855781742990773
-2.3296589420016383   -0.26977318415410784   -0.07345208875220803
-2.3296589420016383   -0.26977318415410784   -0.07345208875220803
-2.3296589420016383   -0.26977318415410784   -0.07345208875220803
-2.3296589420016383   -0.26977318415410784   -0.07345208875220803
-2.5333077169270974   -0.7855252030749647   -0.1265511842136075
-2.5333077169270974   -0.7855252030749647   -0.1265511842136075
-2.5333077169270974   -0.7855252030749647   -0.1265511842136075
-2.5333077169270974   -0.7855252030749647   -0.1265511842136075
0.32579743426382146   0.25559742041888517   0.08634646943845453
0.32579743426382146   0.25559742041888517   0.08634646943845453
0.32579743426382146   0.25559742041888517   0.08634646943845453
0.32579743426382146   0.25559742041888517   0.08634646943845453
-1.0616647060132542   -0.23257150738806529   -0.06348278468343146
-1.0616647060132542   -0.23257150738806529   -0.06348278468343146
-1.0616647060132542   -0.23257150738806529   -0.06348278468343146
-1.0616647060132542   -0.23257150738806529   -0.06348278468343146
0.22775135306253064   -0.19805037955345045   0.04976386340433618
0.22775135306253064   -0.19805037955345045   0.04976386340433618
0.22775135306253064   -0.19805037955345045   0.04976386340433618
0.22775135306253064   -0.19805037955345045   0.04976386340433618
-2.42780767175197   -0.32442343912875204   -0.06015272228418514
-2.42780767175197   -0.32442343912875204   -0.06015272228418514
-2.42780767175197   -0.32442343912875204   -0.06015272228418514
-2.42780767175197   -0.32442343912875204   -0.06015272228418514
-2.6516375877932856   -0.8170978925492622   -0.0832819850483106
-2.6516375877932856   -0.8170978925492622   -0.0832819850483106
-2.6516375877932856   -0.8170978925492622   -0.0832819850483106
-2.6516375877932856   -0.8170978925492622   -0.0832819850483106
0.21514440695165013   0.20066243371353223   0.09771553763569035
0.21514440695165013   0.20066243371353223   0.09771553763569035
0.21514440695165013   0.20066243371353223   0.09771553763569035
0.21514440695165013   0.20066243371353223   0.09771553763569035
-1.1594896065732625   -0.26545214261639577   -0.07620675668821694
-1.1594896065732625   -0.26545214261639577   -0.07620675668821694
-1.1594896065732625   -0.26545214261639577   -0.07620675668821694
-1.1594896065732625   -0.26545214261639577   -0.07620675668821694
0.12299438725393975   -0.2316579382983508   0.06928581115902165
0.12299438725393975   -0.2316579382983508   0.06928581115902165
0.12299438725393975   -0.2316579382983508   0.06928581115902165
0.12299438725393975   -0.2316579382983508   0.06928581115902165
-2.557959450236016   -0.3832494026778238   -0.04873978713342409
-2.557959450236016   -0.3832494026778238   -0.04873978713342409
-2.557959450236016   -0.3832494026778238   -0.04873978713342409
-2.557959450236016   -0.3832494026778238   -0.04873978713342409
-2.783009257642859   -0.8403325004645336   -0.07406224283531393
-2.783009257642859   -0.8403325004645336   -0.07406224283531393
-2.783009257642859   -0.8403325004645336   -0.07406224283531393
-2.783009257642859   -0.8403325004645336   -0.07406224283531393
0.09546697639247934   0.15372721154292102   0.10936560866290684
0.09546697639247934   0.15372721154292102   0.10936560866290684
0.09546697639247934   0.15372721154292102   0.10936560866290684
0.09546697639247934   0.15372721154292102   0.10936560866290684
-1.2866668534048762   -0.30482722061183587   -0.10676660950643026
-1.2866668534048762   -0.30482722061183587   -0.10676660950643026
-1.2866668534048762   -0.30482722061183587   -0.10676660950643026
-1.2866668534048762   -0.30482722061183587   -0.10676660950643026
-2.295238485380352   -0.20774224375887373   0.036619253958958195
-2.295238485380352   -0.20774224375887373   0.036619253958958195
-2.295238485380352   -0.20774224375887373   0.036619253958958195
-2.295238485380352   -0.20774224375887373   0.036619253958958195
-4.893531549504904   -0.3155795525549736   -0.13000002726852883
-4.893531549504904   -0.3155795525549736   -0.13000002726852883
-4.893531549504904   -0.3155795525549736   -0.13000002726852883
-4.893531549504904   -0.3155795525549736   -0.13000002726852883
-5.125258364090299   -0.8220746999577264   -0.12579340046904858
-5.125258364090299   -0.8220746999577264   -0.12579340046904858
-5.125258364090299   -0.8220746999577264   -0.12579340046904858
-5.125258364090299   -0.8220746999577264   -0.12579340046904858
-2.307201451605853   0.19455074429985486   0.02390419501774005
-2.307201451605853   0.19455074429985486   0.02390419501774005
-2.307201451605853   0.19455074429985486   0.02390419501774005
-2.307201451605853   0.19455074429985486   0.02390419501774005
-3.6250681233014532   -0.274351200196436   -0.053718328919698216
-3.6250681233014532   -0.274351200196436   -0.053718328919698216
-3.6250681233014532   -0.274351200196436   -0.053718328919698216
-3.6250681233014532   -0.274351200196436   -0.053718328919698216
-2.3791580538619908   -0.22996797684239073   0.08863990487932112
-2.3791580538619908   -0.22996797684239073   0.08863990487932112
-2.3791580538619908   -0.22996797684239073   0.08863990487932112
-2.3791580538619908   -0.22996797684239073   0.08863990487932112
-5.038602574479997   -0.3828567914613188   -0.13173236091398421
-5.038602574479997   -0.3828567914613188   -0.13173236091398421
-5.038602574479997   -0.3828567914613188   -0.13173236091398421
-5.038602574479997   -0.3828567914613188   -0.13173236091398421
-5.289138985258548   -0.8756029865886865   -0.08794380679915359
-5.289138985258548   -0.8756029865886865   -0.08794380679915359
-5.289138985258548   -0.8756029865886865   -0.08794380679915359
-5.289138985258548   -0.8756029865886865   -0.08794380679915359
-2.4387999516733387   0.13439566120403845   0.029412641798099243
-2.4387999516733387   0.13439566120403845   0.029412641798099243
-2.4387999516733387   0.13439566120403845   0.029412641798099243
-2.4387999516733387   0.13439566120403845   0.029412641798099243
-3.7291512573134473   -0.30427843739373106   -0.0540618659240652
-3.7291512573134473   -0.30427843739373106   -0.0540618659240652
-3.7291512573134473   -0.30427843739373106   -0.0540618659240652
-3.7291512573134473   -0.30427843739373106   -0.0540618659240652
-2.509951880135011   -0.283805893387829   0.09185455408159648
-2.509951880135011   -0.283805893387829   0.09185455408159648
-2.509951880135011   -0.283805893387829   0.09185455408159648
-2.509951880135011   -0.283805893387829   0.09185455408159648
-5.208152600067788   -0.4475669752676914   -0.11104789216634658
-5.208152600067788   -0.4475669752676914   -0.11104789216634658
-5.208152600067788   -0.4475669752676914   -0.11104789216634658
-5.208152600067788   -0.4475669752676914   -0.11104789216634658
-5.474724727260956   -0.9459623691554129   -0.09439699856783064
-5.474724727260956   -0.9459623691554129   -0.09439699856783064
-5.474724727260956   -0.9459623691554129   -0.09439699856783064
-5.474724727260956   -0.9459623691554129   -0.09439699856783064
-2.58098999411601   0.060331324756839555   0.03537024957750973
-2.58098999411601   0.060331324756839555   0.03537024957750973
-2.58098999411601   0.060331324756839555   0.03537024957750973
-2.58098999411601   0.060331324756839555   0.03537024957750973
-3.9125708330188718   -0.37608750874794283   -0.08740557322366269
-3.9125708330188718   -0.37608750874794283   -0.08740557322366269
-3.9125708330188718   -0.37608750874794283   -0.08740557322366269
-3.9125708330188718   -0.37608750874794283   -0.08740557322366269
-4.726561837007658   0.2257567814364252   0.16351220122630367
-4.726561837007658   0.2257567814364252   0.16351220122630367
-4.726561837007658   0.2257567814364252   0.16351220122630367
-4.726561837007658   0.2257567814364252   0.16351220122630367
-7.330896294643152   -0.3654632017872048   -0.10010689346395396
-7.330896294643152   -0.3654632017872048   -0.10010689346395396
-7.330896294643152   -0.3654632017872048   -0.10010689346395396
-7.330896294643152   -0.3654632017872048   -0.10010689346395396
-7.513962855645257   -0.3719909181734702   0.16824781341445694
-7.513962855645257   -0.3719909181734702   0.16824781341445694
-7.513962855645257   -0.3719909181734702   0.16824781341445694
-7.513962855645257   -0.3719909181734702   0.16824781341445694
-4.913704721225819   0.15068238749775542   -0.04078227360216424
-4.913704721225819   0.15068238749775542   -0.04078227360216424
-4.913704721225819   0.15068238749775542   -0.04078227360216424
-4.913704721225819   0.15068238749775542   -0.04078227360216424
-5.8361576012653655   0.005073747234051629   0.14778568794123476
-5.8361576012653655   0.005073747234051629   0.14778568794123476
-5.8361576012653655   0.005073747234051629   0.14778568794123476
-5.8361576012653655   0.005073747234051629   0.14778568794123476
-4.861272860604638   0.1660911679600876   0.20596824904138172
-4.861272860604638   0.1660911679600876   0.20596824904138172
-4.861272860604638   0.1660911679600876   0.20596824904138172
-4.861272860604638   0.1660911679600876   0.20596824904138172
-7.563027270154276   -0.3840322525236446   -0.06503292478046063
-7.563027270154276   -0.3840322525236446   -0.06503292478046063
-7.563027270154276   -0.3840322525236446   -0.06503292478046063
-7.563027270154276   -0.3840322525236446   -0.06503292478046063
-7.7453711701998715   -0.4349176319384407   0.2285894280006543
-7.7453711701998715   -0.4349176319384407   0.2285894280006543
-7.7453711701998715   -0.4349176319384407   0.2285894280006543
-7.7453711701998715   -0.4349176319384407   0.2285894280006543
-5.083338636510186   0.10796930448473852   -0.04251435413080906
-5.083338636510186   0.10796930448473852   -0.04251435413080906
-5.083338636510186   0.10796930448473852   -0.04251435413080906
-5.083338636510186   0.10796930448473852   -0.04251435413080906
-6.133288302655003   -0.06872720865714244   0.07966075948694845
-6.133288302655003   -0.06872720865714244   0.07966075948694845
-6.133288302655003   -0.06872720865714244   0.07966075948694845
-6.133288302655003   -0.06872720865714244   0.07966075948694845
-5.035427602529734   0.1019626833722449   0.203047436883944
-5.035427602529734   0.1019626833722449   0.203047436883944
-5.035427602529734   0.1019626833722449   0.203047436883944
-5.035427602529734   0.1019626833722449   0.203047436883944
-7.802301967720295   -0.4379307743659384   -0.0530514171739615
-7.802301967720295   -0.4379307743659384   -0.0530514171739615
-7.802301967720295   -0.4379307743659384   -0.0530514171739615
-7.802301967720295   -0.4379307743659384   -0.0530514171739615
-8.073983758185223   -0.6876156722462623   0.19918371004913593
-8.073983758185223   -0.6876156722462623   0.19918371004913593
-8.073983758185223   -0.6876156722462623   0.19918371004913593
-8.073983758185223   -0.6876156722462623   0.19918371004913593
-5.278899805472   -0.021292350487419842   -0.03994240829113799
-5.278899805472   -0.021292350487419842   -0.03994240829113799
-5.278899805472   -0.021292350487419842   -0.03994240829113799
-5.278899805472   -0.021292350487419842   -0.03994240829113799
-6.262004776403272   -0.1612686058043793   0.019173610935911245
-6.262004776403272   -0.1612686058043793   0.019173610935911245
-6.262004776403272   -0.1612686058043793   0.019173610935911245
-6.262004776403272   -0.1612686058043793   0.019173610935911245
4.841550616365477   0.2577244670896496   -0.17483534246933832
4.841550616365477   0.2577244670896496   -0.17483534246933832
4.841550616365477   0.2577244670896496   -0.17483534246933832
4.841550616365477   0.2577244670896496   -0.17483534246933832
2.4036700032709732   -3.870990319287948e-05   0.06397814283158115
2.4036700032709732   -3.870990319287948e-05   0.06397814283158115
2.4036700032709732   -3.870990319287948e-05   0.06397814283158115
2.4036700032709732   -3.870990319287948e-05   0.06397814283158115
2.1944401270583307   -0.3594383546583549   -0.1598938756077169
2.1944401270583307   -0.3594383546583549   -0.1598938756077169
2.1944401270583307   -0.3594383546583549   -0.1598938756077169
2.1944401270583307   -0.3594383546583549   -0.1598938756077169
4.749175613848332   0.3926370832418249   0.08015658539077691
4.749175613848332   0.3926370832418249   0.08015658539077691
4.749175613848332   0.3926370832418249   0.08015658539077691
4.749175613848332   0.3926370832418249   0.08015658539077691
3.3638240606393373   0.029823595725093743   -0.11064169068039514
3.3638240606393373   0.029823595725093743   -0.11064169068039514
3.3638240606393373   0.029823595725093743   -0.11064169068039514
3.3638240606393373   0.029823595725093743   -0.11064169068039514
4.646857901140923   0.12938749691568807   -0.1681823918200948
4.646857901140923   0.12938749691568807   -0.1681823918200948
4.646857901140923   0.12938749691568807   -0.1681823918200948
4.646857901140923   0.12938749691568807   -0.1681823918200948
2.2923256807673043   -0.10062092733065264   0.07071646560941663
2.2923256807673043   -0.10062092733065264   0.07071646560941663
2.2923256807673043   -0.10062092733065264   0.07071646560941663
2.2923256807673043   -0.10062092733065264   0.07071646560941663
2.0897690389644414   -0.3897976075138919   -0.13884797354411055
2.0897690389644414   -0.3897976075138919   -0.13884797354411055
2.0897690389644414   -0.3897976075138919   -0.13884797354411055
2.0897690389644414   -0.3897976075138919   -0.13884797354411055
4.592537571071437   0.35102453713545023   0.10925887563443656
4.592537571071437   0.35102453713545023   0.10925887563443656
4.592537571071437   0.35102453713545023   0.10925887563443656
4.592537571071437   0.35102453713545023   0.10925887563443656
3.281065723362326   -0.024638138248892383   -0.14606359112777562
3.281065723362326   -0.024638138248892383   -0.14606359112777562
3.281065723362326   -0.024638138248892383   -0.14606359112777562
3.281065723362326   -0.024638138248892383   -0.14606359112777562
4.49245153062576   0.09206593969629895   -0.13221272915472024
4.49245153062576   0.09206593969629895   -0.13221272915472024
4.49245153062576   0.09206593969629895   -0.13221272915472024
4.49245153062576   0.09206593969629895   -0.13221272915472024
2.185920094075249   -0.1347739954095596   0.0868836899055758
2.185920094075249   -0.1347739954095596   0.0868836899055758
2.185920094075249   -0.1347739954095596   0.0868836899055758
2.185920094075249   -0.1347739954095596   0.0868836899055758
1.9940825037415428   -0.3995680088230676   -0.11338781713766136
1.9940825037415428   -0.3995680088230676   -0.11338781713766136
1.9940825037415428   -0.3995680088230676   -0.11338781713766136
1.9940825037415428   -0.3995680088230676   -0.11338781713766136
4.415950269638184   0.3139567057036291   0.13565229232300294
4.415950269638184   0.3139567057036291   0.13565229232300294
4.415950269638184   0.3139567057036291   0.13565229232300294
4.415950269638184   0.3139567057036291   0.13565229232300294
3.090948982352223   -0.062392085948107856   -0.1987207024724064
3.090948982352223   -0.062392085948107856   -0.1987207024724064
3.090948982352223   -0.062392085948107856   -0.1987207024724064
3.090948982352223   -0.062392085948107856   -0.1987207024724064
2.443736074370018   0.2520140030311005   0.012255785392510057
2.443736074370018   0.2520140030311005   0.012255785392510057
2.443736074370018   0.2520140030311005   0.012255785392510057
2.443736074370018   0.2520140030311005   0.012255785392510057
0.08869374451805827   -0.07832507515299342   -0.00932212745876242
0.08869374451805827   -0.07832507515299342   -0.00932212745876242
0.08869374451805827   -0.07832507515299342   -0.00932212745876242
0.08869374451805827   -0.07832507515299342   -0.00932212745876242
-0.06898488434446864   -0.32356850041537705   -0.10844317845005592
-0.06898488434446864   -0.32356850041537705   -0.10844317845005592
-0.06898488434446864   -0.32356850041537705   -0.10844317845005592
-0.06898488434446864   -0.32356850041537705   -0.10844317845005592
2.3960171702008153   0.35508138937344236   0.13347159607287656
2.3960171702008153   0.35508138937344236   0.13347159607287656
2.3960171702008153   0.35508138937344236   0.13347159607287656
2.3960171702008153   0.35508138937344236   0.13347159607287656
1.1959612375929904   0.050545979707841915   -0.01395497589400796
1.1959612375929904   0.050545979707841915   -0.01395497589400796
1.1959612375929904   0.050545979707841915   -0.01395497589400796
1.1959612375929904   0.050545979707841915   -0.01395497589400796
2.3406392068765434   0.18531465606989933   0.02634851275506815
2.3406392068765434   0.18531465606989933   0.02634851275506815
2.3406392068765434   0.18531465606989933   0.02634851275506815
2.3406392068765434   0.18531465606989933   0.02634851275506815
-0.012641943361418946   -0.152836789453014   0.002539815502829494
-0.012641943361418946   -0.152836789453014   0.002539815502829494
-0.012641943361418946   -0.152836789453014   0.002539815502829494
-0.012641943361418946   -0.152836789453014   0.002539815502829494
-0.1681480895402222   -0.3726970510228192   -0.09361485860995439
-0.1681480895402222   -0.3726970510228192   -0.09361485860995439
-0.1681480895402222   -0.3726970510228192   -0.09361485860995439
-0.1681480895402222   -0.3726970510228192   -0.09361485860995439
2.283702712293023   0.29325560683683005   0.14776717874805684
2.283702712293023   0.29325560683683005   0.14776717874805684
2.283702712293023   0.29325560683683005   0.14776717874805684
2.283702712293023   0.29325560683683005   0.14776717874805684
1.0750757349497642   -0.010290959618218326   -0.04856250450208649
1.0750757349497642   -0.010290959618218326   -0.04856250450208649
1.0750757349497642   -0.010290959618218326   -0.04856250450208649
1.0750757349497642   -0.010290959618218326   -0.04856250450208649
2.230377067552785   0.1338415537454301   0.04055300813828511
2.230377067552785   0.1338415537454301   0.04055300813828511
2.230377067552785   0.1338415537454301   0.04055300813828511
2.230377067552785   0.1338415537454301   0.04055300813828511
-0.11472033728624279   -0.2131808904176748   0.014007742054798239
-0.11472033728624279   -0.2131808904176748   0.014007742054798239
-0.11472033728624279   -0.2131808904176748   0.014007742054798239
-0.11472033728624279   -0.2131808904176748   0.014007742054798239
-0.2663437265667675   -0.40257240696088453   -0.07425645562970365
-0.2663437265667675   -0.40257240696088453   -0.07425645562970365
-0.2663437265667675   -0.40257240696088453   -0.07425645562970365
-0.2663437265667675   -0.40257240696088453   -0.07425645562970365
2.1768906603930014   0.2408769625379127   0.1602079947586208
2.1768906603930014   0.2408769625379127   0.1602079947586208
2.1768906603930014   0.2408769625379127   0.1602079947586208
2.1768906603930014   0.2408769625379127   0.1602079947586208
0.9853067869585814   -0.04953542919850856   -0.07418139449163923
0.9853067869585814   -0.04953542919850856   -0.07418139449163923
0.9853067869585814   -0.04953542919850856   -0.07418139449163923
0.9853067869585814   -0.04953542919850856   -0.07418139449163923
0.1682803501833923   0.2554685476469356   0.054817278067978786
0.1682803501833923   0.2554685476469356   0.054817278067978786
0.1682803501833923   0.2554685476469356   0.054817278067978786
0.1682803501833923   0.2554685476469356   0.054817278067978786
-2.1537583022557096   -0.13822941946963446   -0.07425842190130748
-2.1537583022557096   -0.13822941946963446   -0.07425842190130748
-2.1537583022557096   -0.13822941946963446   -0.07425842190130748
-2.1537583022557096   -0.13822941946963446   -0.07425842190130748
-2.276789627753718   -0.29580625384023435   -0.06808483983984923
-2.276789627753718   -0.29580625384023435   -0.06808483983984923
-2.276789627753718   -0.29580625384023435   -0.06808483983984923
-2.276789627753718   -0.29580625384023435   -0.06808483983984923
0.08842949849516059   0.29064183080454703   0.06441840452816613
0.08842949849516059   0.29064183080454703   0.06441840452816613
0.08842949849516059   0.29064183080454703   0.06441840452816613
0.08842949849516059   0.29064183080454703   0.06441840452816613
-1.0421695817705245   0.033073627146649215   0.0038051841186898805
-1.0421695817705245   0.033073627146649215   0.0038051841186898805
-1.0421695817705245   0.033073627146649215   0.0038051841186898805
-1.0421695817705245   0.033073627146649215   0.0038051841186898805
0.07149794858211243   0.20129060545699667   0.06911188031047572
0.07149794858211243   0.20129060545699667   0.06911188031047572
0.07149794858211243   0.20129060545699667   0.06911188031047572
0.07149794858211243   0.20129060545699667   0.06911188031047572
-2.2571650159734666   -0.20376196662548085   -0.06200606815334632
-2.2571650159734666   -0.20376196662548085   -0.06200606815334632
-2.2571650159734666   -0.20376196662548085   -0.06200606815334632
-2.2571650159734666   -0.20376196662548085   -0.06200606815334632
-2.383230753396285   -0.34981899587567966   -0.056316449962433686
-2.383230753396285   -0.34981899587567966   -0.056316449962433686
-2.383230753396285   -0.34981899587567966   -0.056316449962433686
-2.383230753396285   -0.34981899587567966   -0.056316449962433686
-0.013825963309888861   0.227023626762629   0.07827509475626411
-0.013825963309888861   0.227023626762629   0.07827509475626411
-0.013825963309888861   0.227023626762629   0.07827509475626411
-0.013825963309888861   0.227023626762629   0.07827509475626411
-1.1441240459624091   -0.0196430903592599   -0.02228154085990324
-1.1441240459624091   -0.0196430903592599   -0.02228154085990324
-1.1441240459624091   -0.0196430903592599   -0.02228154085990324
-1.1441240459624091   -0.0196430903592599   -0.02228154085990324
-0.02831267071745225   0.14916745629061653   0.08369772819045962
-0.02831267071745225   0.14916745629061653   0.08369772819045962
-0.02831267071745225   0.14916745629061653   0.08369772819045962
-0.02831267071745225   0.14916745629061653   0.08369772819045962
-2.3664128443110055   -0.26963162372598903   -0.052414276685709194
-2.3664128443110055   -0.26963162372598903   -0.052414276685709194
-2.3664128443110055   -0.26963162372598903   -0.052414276685709194
-2.3664128443110055   -0.26963162372598903   -0.052414276685709194
-2.4889847196348094   -0.3923908765527517   -0.03677313578816831
-2.4889847196348094   -0.3923908765527517   -0.03677313578816831
-2.4889847196348094   -0.3923908765527517   -0.03677313578816831
-2.4889847196348094   -0.3923908765527517   -0.03677313578816831
-0.11974795364883453   0.16709300427771823   0.0890569977213585
-0.11974795364883453   0.16709300427771823   0.0890569977213585
-0.11974795364883453   0.16709300427771823   0.0890569977213585
-0.11974795364883453   0.16709300427771823   0.0890569977213585
-1.2538131851200027   -0.07326653245803419   -0.05074789409125626
-1.2538131851200027   -0.07326653245803419   -0.05074789409125626
-1.2538131851200027   -0.07326653245803419   -0.05074789409125626
-1.2538131851200027   -0.07326653245803419   -0.05074789409125626
-2.030411621290963   0.3032446260267397   0.1010009374260965
-2.030411621290963   0.3032446260267397   0.1010009374260965
-2.030411621290963   0.3032446260267397   0.1010009374260965
-2.030411621290963   0.3032446260267397   0.1010009374260965
-4.319461316764452   -0.19048357040286223   -0.12197458097358191
-4.319461316764452   -0.19048357040286223   -0.12197458097358191
-4.319461316764452   -0.19048357040286223   -0.12197458097358191
-4.319461316764452   -0.19048357040286223   -0.12197458097358191
-4.415459515668291   -0.23555796824398212   -0.018381303639006363
-4.415459515668291   -0.23555796824398212   -0.018381303639006363
-4.415459515668291   -0.23555796824398212   -0.018381303639006363
-4.415459515668291   -0.23555796824398212   -0.018381303639006363
-2.1609560753927695   0.21944063396621716   -0.00416396584154613
-2.1609560753927695   0.21944063396621716   -0.00416396584154613
-2.1609560753927695   0.21944063396621716   -0.00416396584154613
-2.1609560753927695   0.21944063396621716   -0.00416396584154613
-3.208261453440648   0.03426963428710106   0.023254991559832183
-3.208261453440648   0.03426963428710106   0.023254991559832183
-3.208261453440648   0.03426963428710106   0.023254991559832183
-3.208261453440648   0.03426963428710106   0.023254991559832183
-2.131817205711494   0.24753413148449033   0.11343688504655858
-2.131817205711494   0.24753413148449033   0.11343688504655858
-2.131817205711494   0.24753413148449033   0.11343688504655858
-2.131817205711494   0.24753413148449033   0.11343688504655858
-4.440887825663447   -0.25994090607614306   -0.12113991578266989
-4.440887825663447   -0.25994090607614306   -0.12113991578266989
-4.440887825663447   -0.25994090607614306   -0.12113991578266989
-4.440887825663447   -0.25994090607614306   -0.12113991578266989
-4.5465828918270645   -0.29624465458802496   -0.016005997008737505
-4.5465828918270645   -0.29624465458802496   -0.016005997008737505
-4.5465828918270645   -0.29624465458802496   -0.016005997008737505
-4.5465828918270645   -0.29624465458802496   -0.016005997008737505
-2.2686173200020625   0.1587298806391534   0.008201840493862828
-2.2686173200020625   0.1587298806391534   0.008201840493862828
-2.2686173200020625   0.1587298806391534   0.008201840493862828
-2.2686173200020625   0.1587298806391534   0.008201840493862828
-3.300396607411393   -0.014146299611691893   0.0018237814209235426
-3.300396607411393   -0.014146299611691893   0.0018237814209235426
-3.300396607411393   -0.014146299611691893   0.0018237814209235426
-3.300396607411393   -0.014146299611691893   0.0018237814209235426
-2.236733208412839   0.19516411442695192   0.13118816465216646
-2.236733208412839   0.19516411442695192   0.13118816465216646
-2.236733208412839   0.19516411442695192   0.13118816465216646
-2.236733208412839   0.19516411442695192   0.13118816465216646
-4.571003793096622   -0.3252156780562069   -0.10913947988837794
-4.571003793096622   -0.3252156780562069   -0.10913947988837794
-4.571003793096622   -0.3252156780562069   -0.10913947988837794
-4.571003793096622   -0.3252156780562069   -0.10913947988837794
-4.667391437964691   -0.36114527798628804   0.014388679710551966
-4.667391437964691   -0.36114527798628804   0.014388679710551966
-4.667391437964691   -0.36114527798628804   0.014388679710551966
-4.667391437964691   -0.36114527798628804   0.014388679710551966
-2.382703934899019   0.0866550678301452   0.015584843507914892
-2.382703934899019   0.0866550678301452   0.015584843507914892
-2.382703934899019   0.0866550678301452   0.015584843507914892
-2.382703934899019   0.0866550678301452   0.015584843507914892
-3.4433099940334944   -0.08165284350260926   -0.02682642610627603
-3.4433099940334944   -0.08165284350260926   -0.02682642610627603
-3.4433099940334944   -0.08165284350260926   -0.02682642610627603
-3.4433099940334944   -0.08165284350260926   -0.02682642610627603
-4.165366421383037   0.31605618055312656   0.14196014497746473
-4.165366421383037   0.31605618055312656   0.14196014497746473
-4.165366421383037   0.31605618055312656   0.14196014497746473
-4.165366421383037   0.31605618055312656   0.14196014497746473
-6.373994186719581   -0.2944969148615373   -0.11346953756795952
-6.373994186719581   -0.2944969148615373   -0.11346953756795952
-6.373994186719581   -0.2944969148615373   -0.11346953756795952
-6.373994186719581   -0.2944969148615373   -0.11346953756795952
-6.463089328140257   -0.1268006782561828   0.12118700454282938
-6.463089328140257   -0.1268006782561828   0.12118700454282938
-6.463089328140257   -0.1268006782561828   0.12118700454282938
-6.463089328140257   -0.1268006782561828   0.12118700454282938
-4.351549656632623   0.12992129846832812   -0.06431127517297652
-4.351549656632623   0.12992129846832812   -0.06431127517297652
-4.351549656632623   0.12992129846832812   -0.06431127517297652
-4.351549656632623   0.12992129846832812   -0.06431127517297652
-5.102858646466461   0.0664276894159137   0.11659967047610181
-5.102858646466461   0.0664276894159137   0.11659967047610181
-5.102858646466461   0.0664276894159137   0.11659967047610181
-5.102858646466461   0.0664276894159137   0.11659967047610181
-4.267929818452533   0.3206130546766408   0.16309615951910045
-4.267929818452533   0.3206130546766408   0.16309615951910045
-4.267929818452533   0.3206130546766408   0.16309615951910045
-4.267929818452533   0.3206130546766408   0.16309615951910045
-6.541766234805043   -0.3125495029491656   -0.08644870408802507
-6.541766234805043   -0.3125495029491656   -0.08644870408802507
-6.541766234805043   -0.3125495029491656   -0.08644870408802507
-6.541766234805043   -0.3125495029491656   -0.08644870408802507
-6.625886473278549   -0.1585385989822281   0.1674939653029665
-6.625886473278549   -0.1585385989822281   0.1674939653029665
-6.625886473278549   -0.1585385989822281   0.1674939653029665
-6.625886473278549   -0.1585385989822281   0.1674939653029665
-4.476587122150387   0.09501649220954667   -0.057288295422918356
-4.476587122150387   0.09501649220954667   -0.057288295422918356
-4.476587122150387   0.09501649220954667   -0.057288295422918356
-4.476587122150387   0.09501649220954667   -0.057288295422918356
-5.325456261612755   0.032637696791421034   0.07421942564949152
-5.325456261612755   0.032637696791421034   0.07421942564949152
-5.325456261612755   0.032637696791421034   0.07421942564949152
-5.325456261612755   0.032637696791421034   0.07421942564949152
-4.3842486445881015   0.2968119088457737   0.20260867575228225
-4.3842486445881015   0.2968119088457737   0.20260867575228225
-4.3842486445881015   0.2968119088457737   0.20260867575228225
-4.3842486445881015   0.2968119088457737   0.20260867575228225
-6.713480234746459   -0.3555892995240155   -0.07342414149465715
-6.713480234746459   -0.3555892995240155   -0.07342414149465715
-6.713480234746459   -0.3555892995240155   -0.07342414149465715
-6.713480234746459   -0.3555892995240155   -0.07342414149465715
-6.846644267411901   -0.293457818401033   0.1669747140806967
-6.846644267411901   -0.293457818401033   0.1669747140806967
-6.846644267411901   -0.293457818401033   0.1669747140806967
-6.846644267411901   -0.293457818401033   0.1669747140806967
-4.610526625176151   -0.008693019699997695   -0.053739514633040164
-4.610526625176151   -0.008693019699997695   -0.053739514633040164
-4.610526625176151   -0.008693019699997695   -0.053739514633040164
-4.610526625176151   -0.008693019699997695   -0.053739514633040164
-5.392103655869014   -0.015572688574766458   0.059788358694906174
-5.392103655869014   -0.015572688574766458   0.059788358694906174
-5.392103655869014   -0.015572688574766458   0.059788358694906174
-5.392103655869014   -0.015572688574766458   0.059788358694906174
3.6549175992082232   0.2020528061258533   -0.17681187296043827
3.6549175992082232   0.2020528061258533   -0.17681187296043827
3.6549175992082232   0.2020528061258533   -0.17681187296043827
3.6549175992082232   0.2020528061258533   -0.17681187296043827
1.7404374535745235   0.037087446705516114   0.06793298988139806
1.7404374535745235   0.037087446705516114   0.06793298988139806
1.7404374535745235   0.037087446705516114   0.06793298988139806
1.7404374535745235   0.037087446705516114   0.06793298988139806
1.5437413349467368   -0.29800110352830733   -0.1676000695582891
1.5437413349467368   -0.29800110352830733   -0.1676000695582891
1.5437413349467368   -0.29800110352830733   -0.1676000695582891
1.5437413349467368   -0.29800110352830733   -0.1676000695582891
3.5744105473151135   0.3371174358271638   0.08392666944030652
3.5744105473151135   0.3371174358271638   0.08392666944030652
3.5744105473151135   0.3371174358271638   0.08392666944030652
3.5744105473151135   0.3371174358271638   0.08392666944030652
2.492633391921086   0.03379788942610501   -0.07364929130292112
2.492633391921086   0.03379788942610501   -0.07364929130292112
2.492633391921086   0.03379788942610501   -0.07364929130292112
2.492633391921086   0.03379788942610501   -0.07364929130292112
3.4744788895648653   0.08828632050849805   -0.16690050399226816
3.4744788895648653   0.08828632050849805   -0.16690050399226816
3.4744788895648653   0.08828632050849805   -0.16690050399226816
3.4744788895648653   0.08828632050849805   -0.16690050399226816
1.6416867083507962   -0.051156272555853366   0.07528196648953772
1.6416867083507962   -0.051156272555853366   0.07528196648953772
1.6416867083507962   -0.051156272555853366   0.07528196648953772
1.6416867083507962   -0.051156272555853366   0.07528196648953772
1.4517473917080457   -0.3275419533451833   -0.1427833974053397
1.4517473917080457   -0.3275419533451833   -0.1427833974053397
1.4517473917080457   -0.3275419533451833   -0.1427833974053397
1.4517473917080457   -0.3275419533451833   -0.1427833974053397
3.431397571125983   0.2949701339831824   0.11009685311616993
3.431397571125983   0.2949701339831824   0.11009685311616993
3.431397571125983   0.2949701339831824   0.11009685311616993
3.431397571125983   0.2949701339831824   0.11009685311616993
2.4095642624063753   -0.01723153622425877   -0.10404431415906806
2.4095642624063753   -0.01723153622425877   -0.10404431415906806
2.4095642624063753   -0.01723153622425877   -0.10404431415906806
2.4095642624063753   -0.01723153622425877   -0.10404431415906806
3.3338535666314772   0.05075446170493103   -0.1334074970780765
3.3338535666314772   0.05075446170493103   -0.1334074970780765
3.3338535666314772   0.05075446170493103   -0.1334074970780765
3.3338535666314772   0.05075446170493103   -0.1334074970780765
1.5468264376900716   -0.08579123957942925   0.09086111873902367
1.5468264376900716   -0.08579123957942925   0.09086111873902367
1.5468264376900716   -0.08579123957942925   0.09086111873902367
1.5468264376900716   -0.08579123957942925   0.09086111873902367
1.3687381163165075   -0.3463914216022488   -0.11887619088471027
1.3687381163165075   -0.3463914216022488   -0.11887619088471027
1.3687381163165075   -0.3463914216022488   -0.11887619088471027
1.3687381163165075   -0.3463914216022488   -0.11887619088471027
3.2702163221424385   0.24886546851421393   0.130547515128687
3.2702163221424385   0.24886546851421393   0.130547515128687
3.2702163221424385   0.24886546851421393   0.130547515128687
3.2702163221424385   0.24886546851421393   0.130547515128687
2.2475639712593205   -0.05602151808061556   -0.1486392940821933
2.2475639712593205   -0.05602151808061556   -0.1486392940821933
2.2475639712593205   -0.05602151808061556   -0.1486392940821933
2.2475639712593205   -0.05602151808061556   -0.1486392940821933
1.768551652950483   0.25719101559884705   -0.011599582132107458
1.768551652950483   0.25719101559884705   -0.011599582132107458
1.768551652950483   0.25719101559884705   -0.011599582132107458
1.768551652950483   0.25719101559884705   -0.011599582132107458
-0.11318099568435819   -0.02351146164065795   -0.00028181445590664655
-0.11318099568435819   -0.02351146164065795   -0.00028181445590664655
-0.11318099568435819   -0.02351146164065795   -0.00028181445590664655
-0.11318099568435819   -0.02351146164065795   -0.00028181445590664655
-0.25172671486534137   -0.2224061955368053   -0.10622244341220474
-0.25172671486534137   -0.2224061955368053   -0.10622244341220474
-0.25172671486534137   -0.2224061955368053   -0.10622244341220474
-0.25172671486534137   -0.2224061955368053   -0.10622244341220474
1.721679002693086   0.3061027960676043   0.11798436957752818
1.721679002693086   0.3061027960676043   0.11798436957752818
1.721679002693086   0.3061027960676043   0.11798436957752818
1.721679002693086   0.3061027960676043   0.11798436957752818
0.7693232760819727   0.07582334506329493   0.005321298621345404
0.7693232760819727   0.07582334506329493   0.005321298621345404
0.7693232760819727   0.07582334506329493   0.005321298621345404
0.7693232760819727   0.07582334506329493   0.005321298621345404
1.6747237303602882   0.18499211915584918   0.004318684825315278
1.6747237303602882   0.18499211915584918   0.004318684825315278
1.6747237303602882   0.18499211915584918   0.004318684825315278
1.6747237303602882   0.18499211915584918   0.004318684825315278
-0.20395576196528026   -0.10047983805776281   0.010705963609058396
-0.20395576196528026   -0.10047983805776281   0.010705963609058396
-0.20395576196528026   -0.10047983805776281   0.010705963609058396
-0.20395576196528026   -0.10047983805776281   0.010705963609058396
-0.3384003448436462   -0.2782576476257477   -0.08769603642816268
-0.3384003448436462   -0.2782576476257477   -0.08769603642816268
-0.3384003448436462   -0.2782576476257477   -0.08769603642816268
-0.3384003448436462   -0.2782576476257477   -0.08769603642816268
1.6195428793154398   0.23963969341066532   0.12901239387577015
1.6195428793154398   0.23963969341066532   0.12901239387577015
1.6195428793154398   0.23963969341066532   0.12901239387577015
1.6195428793154398   0.23963969341066532   0.12901239387577015
0.6627171143884457   0.010174102888101277   -0.027661557131329888
0.6627171143884457   0.010174102888101277   -0.027661557131329888
0.6627171143884457   0.010174102888101277   -0.027661557131329888
0.6627171143884457   0.010174102888101277   -0.027661557131329888
1.5741294295093553   0.1250870684847624   0.016497769771263097
1.5741294295093553   0.1250870684847624   0.016497769771263097
1.5741294295093553   0.1250870684847624   0.016497769771263097
1.5741294295093553   0.1250870684847624   0.016497769771263097
-0.29362281588105943   -0.1643409435433199   0.022274904302343107
-0.29362281588105943   -0.1643409435433199   0.022274904302343107
-0.29362281588105943   -0.1643409435433199   0.022274904302343107
-0.29362281588105943   -0.1643409435433199   0.022274904302343107
-0.42397114420855586   -0.3253940058159883   -0.07028504240932708
-0.42397114420855586   -0.3253940058159883   -0.07028504240932708
-0.42397114420855586   -0.3253940058159883   -0.07028504240932708
-0.42397114420855586   -0.3253940058159883   -0.07028504240932708
1.5252459339793443   0.17797350826204814   0.1392979675651737
1.5252459339793443   0.17797350826204814   0.1392979675651737
1.5252459339793443   0.17797350826204814   0.1392979675651737
1.5252459339793443   0.17797350826204814   0.1392979675651737
0.5806243011618112   -0.039868808114999404   -0.055233359495579504
0.5806243011618112   -0.039868808114999404   -0.055233359495579504
0.5806243011618112   -0.039868808114999404   -0.055233359495579504
0.5806243011618112   -0.039868808114999404   -0.055233359495579504
-0.0382531382861649   0.3082437499028482   0.042602260991561273
-0.0382531382861649   0.3082437499028482   0.042602260991561273
-0.0382531382861649   0.3082437499028482   0.042602260991561273
-0.0382531382861649   0.3082437499028482   0.042602260991561273
-1.9271729750266153   -0.0821780211390839   -0.0639401323285525
-1.9271729750266153   -0.0821780211390839   -0.0639401323285525
-1.9271729750266153   -0.0821780211390839   -0.0639401323285525
-1.9271729750266153   -0.0821780211390839   -0.0639401323285525
-2.0164912981187424   -0.15318524672902456   -0.049796186525789
-2.0164912981187424   -0.15318524672902456   -0.049796186525789
-2.0164912981187424   -0.15318524672902456   -0.049796186525789
-2.0164912981187424   -0.15318524672902456   -0.049796186525789
-0.12629993322290714   0.24725714908220628   0.05124812018095487
-0.12629993322290714   0.24725714908220628   0.05124812018095487
-0.12629993322290714   0.24725714908220628   0.05124812018095487
-0.12629993322290714   0.24725714908220628   0.05124812018095487
-1.024630317793263   0.08063231479781344   0.020127989803629925
-1.024630317793263   0.08063231479781344   0.020127989803629925
-1.024630317793263   0.08063231479781344   0.020127989803629925
-1.024630317793263   0.08063231479781344   0.020127989803629925
-0.12452670445459992   0.24720099327491765   0.06017041982977962
-0.12452670445459992   0.24720099327491765   0.06017041982977962
-0.12452670445459992   0.24720099327491765   0.06017041982977962
-0.12452670445459992   0.24720099327491765   0.06017041982977962
-2.0165791102549977   -0.1514436742896843   -0.051976819646407296
-2.0165791102549977   -0.1514436742896843   -0.051976819646407296
-2.0165791102549977   -0.1514436742896843   -0.051976819646407296
-2.0165791102549977   -0.1514436742896843   -0.051976819646407296
-2.105262629583781   -0.21363892182652583   -0.03360098191561817
-2.105262629583781   -0.21363892182652583   -0.03360098191561817
-2.105262629583781   -0.21363892182652583   -0.03360098191561817
-2.105262629583781   -0.21363892182652583   -0.03360098191561817
-0.2166414593749346   0.17881329295914594   0.06402745033050927
-0.2166414593749346   0.17881329295914594   0.06402745033050927
-0.2166414593749346   0.17881329295914594   0.06402745033050927
-0.2166414593749346   0.17881329295914594   0.06402745033050927
-1.1143141356370458   0.021102254494547834   -0.00668103588808687
-1.1143141356370458   0.021102254494547834   -0.00668103588808687
-1.1143141356370458   0.021102254494547834   -0.00668103588808687
-1.1143141356370458   0.021102254494547834   -0.00668103588808687
-0.21308795668403524   0.18636488373781443   0.0742433730063376
-0.21308795668403524   0.18636488373781443   0.0742433730063376
-0.21308795668403524   0.18636488373781443   0.0742433730063376
-0.21308795668403524   0.18636488373781443   0.0742433730063376
-2.108301067280925   -0.22067544761145952   -0.04175664461640513
-2.108301067280925   -0.22067544761145952   -0.04175664461640513
-2.108301067280925   -0.22067544761145952   -0.04175664461640513
-2.108301067280925   -0.22067544761145952   -0.04175664461640513
-2.1930235389696793   -0.26889117760957937   -0.01758832639416201
-2.1930235389696793   -0.26889117760957937   -0.01758832639416201
-2.1930235389696793   -0.26889117760957937   -0.01758832639416201
-2.1930235389696793   -0.26889117760957937   -0.01758832639416201
-0.30732723385450955   0.11261524510717102   0.07492525843775283
-0.30732723385450955   0.11261524510717102   0.07492525843775283
-0.30732723385450955   0.11261524510717102   0.07492525843775283
-0.30732723385450955   0.11261524510717102   0.07492525843775283
-1.2080803358379668   -0.03894458374123791   -0.036516526586655725
-1.2080803358379668   -0.03894458374123791   -0.036516526586655725
-1.2080803358379668   -0.03894458374123791   -0.036516526586655725
-1.2080803358379668   -0.03894458374123791   -0.036516526586655725
-1.8082929571510682   0.35483450408045925   0.09344743182964102
-1.8082929571510682   0.35483450408045925   0.09344743182964102
-1.8082929571510682   0.35483450408045925   0.09344743182964102
-1.8082929571510682   0.35483450408045925   0.09344743182964102
-3.698033763491162   -0.1419923224735803   -0.11559386801891028
-3.698033763491162   -0.1419923224735803   -0.11559386801891028
-3.698033763491162   -0.1419923224735803   -0.11559386801891028
-3.698033763491162   -0.1419923224735803   -0.11559386801891028
-3.7469166966487744   -0.09457550592775976   0.011715955944574225
-3.7469166966487744   -0.09457550592775976   0.011715955944574225
-3.7469166966487744   -0.09457550592775976   0.011715955944574225
-3.7469166966487744   -0.09457550592775976   0.011715955944574225
-1.9434902743521216   0.1773263946201049   -0.015302709041815993
-1.9434902743521216   0.1773263946201049   -0.015302709041815993
-1.9434902743521216   0.1773263946201049   -0.015302709041815993
-1.9434902743521216   0.1773263946201049   -0.015302709041815993
-2.7810885329383255   0.07752942681239106   0.03414239024206589
-2.7810885329383255   0.07752942681239106   0.03414239024206589
-2.7810885329383255   0.07752942681239106   0.03414239024206589
-2.7810885329383255   0.07752942681239106   0.03414239024206589
-1.8947044653587763   0.29559524604194015   0.11035748450307589
-1.8947044653587763   0.29559524604194015   0.11035748450307589
-1.8947044653587763   0.29559524604194015   0.11035748450307589
-1.8947044653587763   0.29559524604194015   0.11035748450307589
-3.7952097397625186   -0.21235159146999394   -0.11197317408191301
-3.7952097397625186   -0.21235159146999394   -0.11197317408191301
-3.7952097397625186   -0.21235159146999394   -0.11197317408191301
-3.7952097397625186   -0.21235159146999394   -0.11197317408191301
-3.850262604334442   -0.15567175248585707   0.017838959201189802
-3.850262604334442   -0.15567175248585707   0.017838959201189802
-3.850262604334442   -0.15567175248585707   0.017838959201189802
-3.850262604334442   -0.15567175248585707   0.017838959201189802
-2.0334811788436045   0.113946540387453   -0.0022791904287012
-2.0334811788436045   0.113946540387453   -0.0022791904287012
-2.0334811788436045   0.113946540387453   -0.0022791904287012
-2.0334811788436045   0.113946540387453   -0.0022791904287012
-2.8572045631519956   0.02427229562365829   0.00915473654486662
-2.8572045631519956   0.02427229562365829   0.00915473654486662
-2.8572045631519956   0.02427229562365829   0.00915473654486662
-2.8572045631519956   0.02427229562365829   0.00915473654486662
-1.9826808338552604   0.2395088539581966   0.12616022094227694
-1.9826808338552604   0.2395088539581966   0.12616022094227694
-1.9826808338552604   0.2395088539581966   0.12616022094227694
-1.9826808338552604   0.2395088539581966   0.12616022094227694
-3.8984319662085203   -0.2786030829423348   -0.1000765197127246
-3.8984319662085203   -0.2786030829423348   -0.1000765197127246
-3.8984319662085203   -0.2786030829423348   -0.1000765197127246
-3.8984319662085203   -0.2786030829423348   -0.1000765197127246
-3.9440826312567827   -0.2213333984633583   0.037021208398161365
-3.9440826312567827   -0.2213333984633583   0.037021208398161365
-3.9440826312567827   -0.2213333984633583   0.037021208398161365
-3.9440826312567827   -0.2213333984633583   0.037021208398161365
-2.1259799819352154   0.0415796826613008   0.007158598507290365
-2.1259799819352154   0.0415796826613008   0.007158598507290365
-2.1259799819352154   0.0415796826613008   0.007158598507290365
-2.1259799819352154   0.0415796826613008   0.007158598507290365
-2.9724195322300626   -0.04220383774172509   -0.022447714338144104
-2.9724195322300626   -0.04220383774172509   -0.022447714338144104
-2.9724195322300626   -0.04220383774172509   -0.022447714338144104
-2.9724195322300626   -0.04220383774172509   -0.022447714338144104
-3.556404409754112   0.3181892197364168   0.13237135845634196
-3.556404409754112   0.3181892197364168   0.13237135845634196
-3.556404409754112   0.3181892197364168   0.13237135845634196
-3.556404409754112   0.3181892197364168   0.13237135845634196
-5.378851795152864   -0.24775945059993232   -0.1282682676856839
-5.378851795152864   -0.24775945059993232   -0.1282682676856839
-5.378851795152864   -0.24775945059993232   -0.1282682676856839
-5.378851795152864   -0.24775945059993232   -0.1282682676856839
-5.439784350093171   -0.050426065253396324   0.12218659967894907
-5.439784350093171   -0.050426065253396324   0.12218659967894907
-5.439784350093171   -0.050426065253396324   0.12218659967894907
-5.439784350093171   -0.050426065253396324   0.12218659967894907
-3.727806649203379   0.08820055659202575   -0.07550986934823237
-3.727806649203379   0.08820055659202575   -0.07550986934823237
-3.727806649203379   0.08820055659202575   -0.07550986934823237
-3.727806649203379   0.08820055659202575   -0.07550986934823237
-4.325722346523885   0.07219757709921237   0.10546234461965953
-4.325722346523885   0.07219757709921237   0.10546234461965953
-4.325722346523885   0.07219757709921237   0.10546234461965953
-4.325722346523885   0.07219757709921237   0.10546234461965953
-3.6359055086705103   0.3169597175641411   0.15523667234397565
-3.6359055086705103   0.3169597175641411   0.15523667234397565
-3.6359055086705103   0.3169597175641411   0.15523667234397565
-3.6359055086705103   0.3169597175641411   0.15523667234397565
-5.530093728998485   -0.27759346459795   -0.10219289550300584
-5.530093728998485   -0.27759346459795   -0.10219289550300584
-5.530093728998485   -0.27759346459795   -0.10219289550300584
-5.530093728998485   -0.27759346459795   -0.10219289550300584
-5.574977512997661   -0.08262514448194613   0.15289391196689228
-5.574977512997661   -0.08262514448194613   0.15289391196689228
-5.574977512997661   -0.08262514448194613   0.15289391196689228
-5.574977512997661   -0.08262514448194613   0.15289391196689228
-3.8249601192305063   0.05344380326376619   -0.06476417102875862
-3.8249601192305063   0.05344380326376619   -0.06476417102875862
-3.8249601192305063   0.05344380326376619   -0.06476417102875862
-3.8249601192305063   0.05344380326376619   -0.06476417102875862
-4.513515922598534   0.036184398501021287   0.06356616461470543
-4.513515922598534   0.036184398501021287   0.06356616461470543
-4.513515922598534   0.036184398501021287   0.06356616461470543
-4.513515922598534   0.036184398501021287   0.06356616461470543
-3.72746894240101   0.2929374087670866   0.1831981076154049
-3.72746894240101   0.2929374087670866   0.1831981076154049
-3.72746894240101   0.2929374087670866   0.1831981076154049
-3.72746894240101   0.2929374087670866   0.1831981076154049
-5.669884927208675   -0.319534987366758   -0.08473331620333449
-5.669884927208675   -0.319534987366758   -0.08473331620333449
-5.669884927208675   -0.319534987366758   -0.08473331620333449
-5.669884927208675   -0.319534987366758   -0.08473331620333449
-5.753379243493163   -0.1964300594839914   0.15042790476400358
-5.753379243493163   -0.1964300594839914   0.15042790476400358
-5.753379243493163   -0.1964300594839914   0.15042790476400358
-5.753379243493163   -0.1964300594839914   0.15042790476400358
-3.9274507633708713   -0.04249432339909254   -0.058658527236546326
-3.9274507633708713   -0.04249432339909254   -0.058658527236546326
-3.9274507633708713   -0.04249432339909254   -0.058658527236546326
-3.9274507633708713   -0.04249432339909254   -0.058658527236546326
-4.563327190987073   -0.008355688320119237   0.04934666628603829
-4.563327190987073   -0.008355688320119237   0.04934666628603829
-4.563327190987073   -0.008355688320119237   0.04934666628603829
-4.563327190987073   -0.008355688320119237   0.04934666628603829
2.496182281668174   0.14043887518444187   -0.17105469581762417
2.496182281668174   0.14043887518444187   -0.17105469581762417
2.496182281668174   0.14043887518444187   -0.17105469581762417
2.496182281668174   0.14043887518444187   -0.17105469581762417
1.066345699363433   0.07025076695009141   0.07383276317048622
1.066345699363433   0.07025076695009141   0.07383276317048622
1.066345699363433   0.07025076695009141   0.07383276317048622
1.066345699363433   0.07025076695009141   0.07383276317048622
0.8897168788923788   -0.24847120273403248   -0.15932285494294057
0.8897168788923788   -0.24847120273403248   -0.15932285494294057
0.8897168788923788   -0.24847120273403248   -0.15932285494294057
0.8897168788923788   -0.24847120273403248   -0.15932285494294057
2.43642369593295   0.2850517821157821   0.08965550910302855
2.43642369593295   0.2850517821157821   0.08965550910302855
2.43642369593295   0.2850517821157821   0.08965550910302855
2.43642369593295   0.2850517821157821   0.08965550910302855
1.6309133124092936   0.036283369782960095   -0.04460027847830536
1.6309133124092936   0.036283369782960095   -0.04460027847830536
1.6309133124092936   0.036283369782960095   -0.04460027847830536
1.6309133124092936   0.036283369782960095   -0.04460027847830536
2.337833959813113   0.04114042213554048   -0.15938181151593245
2.337833959813113   0.04114042213554048   -0.15938181151593245
2.337833959813113   0.04114042213554048   -0.15938181151593245
2.337833959813113   0.04114042213554048   -0.15938181151593245
0.9864578736750242   -0.006408584090962122   0.08231950032723359
0.9864578736750242   -0.006408584090962122   0.08231950032723359
0.9864578736750242   -0.006408584090962122   0.08231950032723359
0.9864578736750242   -0.006408584090962122   0.08231950032723359
0.8143642980988761   -0.2775480660993576   -0.13546087426954562
0.8143642980988761   -0.2775480660993576   -0.13546087426954562
0.8143642980988761   -0.2775480660993576   -0.13546087426954562
0.8143642980988761   -0.2775480660993576   -0.13546087426954562
2.312524727409802   0.2438187957382526   0.11530341803711378
2.312524727409802   0.2438187957382526   0.11530341803711378
2.312524727409802   0.2438187957382526   0.11530341803711378
2.312524727409802   0.2438187957382526   0.11530341803711378
1.5524766769162515   -0.011540179477247059   -0.07318004983591259
1.5524766769162515   -0.011540179477247059   -0.07318004983591259
1.5524766769162515   -0.011540179477247059   -0.07318004983591259
1.5524766769162515   -0.011540179477247059   -0.07318004983591259
2.2156120957641847   0.003921232830887578   -0.12936217728362837
2.2156120957641847   0.003921232830887578   -0.12936217728362837
2.2156120957641847   0.003921232830887578   -0.12936217728362837
2.2156120957641847   0.003921232830887578   -0.12936217728362837
0.9085748058102067   -0.04035262712628146   0.09839622531403894
0.9085748058102067   -0.04035262712628146   0.09839622531403894
0.9085748058102067   -0.04035262712628146   0.09839622531403894
0.9085748058102067   -0.04035262712628146   0.09839622531403894
0.7469336336338175   -0.30447126150470416   -0.11285344645728211
0.7469336336338175   -0.30447126150470416   -0.11285344645728211
0.7469336336338175   -0.30447126150470416   -0.11285344645728211
0.7469336336338175   -0.30447126150470416   -0.11285344645728211
2.16801976421812   0.1892580522583327   0.13140685987892176
2.16801976421812   0.1892580522583327   0.13140685987892176
2.16801976421812   0.1892580522583327   0.13140685987892176
2.16801976421812   0.1892580522583327   0.13140685987892176
1.4213450691112586   -0.05097903820190902   -0.1121579662235651
1.4213450691112586   -0.05097903820190902   -0.1121579662235651
1.4213450691112586   -0.05097903820190902   -0.1121579662235651
1.4213450691112586   -0.05097903820190902   -0.1121579662235651
1.0727014121027973   0.2074115013095256   -0.031549407492144466
1.0727014121027973   0.2074115013095256   -0.031549407492144466
1.0727014121027973   0.2074115013095256   -0.031549407492144466
1.0727014121027973   0.2074115013095256   -0.031549407492144466
-0.332009665651459   0.019252612311114234   0.01045360928676439
-0.332009665651459   0.019252612311114234   0.01045360928676439
-0.332009665651459   0.019252612311114234   0.01045360928676439
-0.332009665651459   0.019252612311114234   0.01045360928676439
-0.4527521903709367   -0.17195736320179578   -0.09788523370544992
-0.4527521903709367   -0.17195736320179578   -0.09788523370544992
-0.4527521903709367   -0.17195736320179578   -0.09788523370544992
-0.4527521903709367   -0.17195736320179578   -0.09788523370544992
1.0421769901278493   0.24963135880587198   0.1048751396945256
1.0421769901278493   0.24963135880587198   0.1048751396945256
1.0421769901278493   0.24963135880587198   0.1048751396945256
1.0421769901278493   0.24963135880587198   0.1048751396945256
0.3252107990416124   0.07241234252575639   0.012404682830030007
0.3252107990416124   0.07241234252575639   0.012404682830030007
0.3252107990416124   0.07241234252575639   0.012404682830030007
0.3252107990416124   0.07241234252575639   0.012404682830030007
0.9945691007375342   0.13364779339229155   -0.017180741843484153
0.9945691007375342   0.13364779339229155   -0.017180741843484153
0.9945691007375342   0.13364779339229155   -0.017180741843484153
0.9945691007375342   0.13364779339229155   -0.017180741843484153
-0.405826518091211   -0.05665601489878673   0.021441779390169707
-0.405826518091211   -0.05665601489878673   0.021441779390169707
-0.405826518091211   -0.05665601489878673   0.021441779390169707
-0.405826518091211   -0.05665601489878673   0.021441779390169707
-0.5228634964477968   -0.23045831630449423   -0.0790712789367912
-0.5228634964477968   -0.23045831630449423   -0.0790712789367912
-0.5228634964477968   -0.23045831630449423   -0.0790712789367912
-0.5228634964477968   -0.23045831630449423   -0.0790712789367912
0.9562277846840586   0.1822944110081535   0.11401408154886361
0.9562277846840586   0.1822944110081535   0.11401408154886361
0.9562277846840586   0.1822944110081535   0.11401408154886361
0.9562277846840586   0.1822944110081535   0.11401408154886361
0.23891076134157385   0.006483307435470292   -0.019269122527113894
0.23891076134157385   0.006483307435470292   -0.019269122527113894
0.23891076134157385   0.006483307435470292   -0.019269122527113894
0.23891076134157385   0.006483307435470292   -0.019269122527113894
0.9101241840499861   0.07092631121645707   -0.005135821829817672
0.9101241840499861   0.07092631121645707   -0.005135821829817672
0.9101241840499861   0.07092631121645707   -0.005135821829817672
0.9101241840499861   0.07092631121645707   -0.005135821829817672
-0.4785113242891702   -0.12084164498822456   0.03307291054007942
-0.4785113242891702   -0.12084164498822456   0.03307291054007942
-0.4785113242891702   -0.12084164498822456   0.03307291054007942
-0.4785113242891702   -0.12084164498822456   0.03307291054007942
-0.5920648949028138   -0.2856847037355069   -0.0616822635404436
-0.5920648949028138   -0.2856847037355069   -0.0616822635404436
-0.5920648949028138   -0.2856847037355069   -0.0616822635404436
-0.5920648949028138   -0.2856847037355069   -0.0616822635404436
0.8786642218869218   0.11736966612409713   0.12395856717945769
0.8786642218869218   0.11736966612409713   0.12395856717945769
0.8786642218869218   0.11736966612409713   0.12395856717945769
0.8786642218869218   0.11736966612409713   0.12395856717945769
0.16937528333142227   -0.04850265895871778   -0.04732598266379987
0.16937528333142227   -0.04850265895871778   -0.04732598266379987
0.16937528333142227   -0.04850265895871778   -0.04732598266379987
0.16937528333142227   -0.04850265895871778   -0.04732598266379987
-0.28019510070641984   0.2648011578793788   0.023977888443688367
-0.28019510070641984   0.2648011578793788   0.023977888443688367
-0.28019510070641984   0.2648011578793788   0.023977888443688367
-0.28019510070641984   0.2648011578793788   0.023977888443688367
-1.7098652283987483   -0.04181564053050307   -0.05184387194354735
-1.7098652283987483   -0.04181564053050307   -0.05184387194354735
-1.7098652283987483   -0.04181564053050307   -0.05184387194354735
-1.7098652283987483   -0.04181564053050307   -0.05184387194354735
-1.7789442306641092   -0.10113863571653336   -0.03808650637154112
-1.7789442306641092   -0.10113863571653336   -0.03808650637154112
-1.7789442306641092   -0.10113863571653336   -0.03808650637154112
-1.7789442306641092   -0.10113863571653336   -0.03808650637154112
-0.3525896537717486   0.19040249740684254   0.04056758868185213
-0.3525896537717486   0.19040249740684254   0.04056758868185213
-0.3525896537717486   0.19040249740684254   0.04056758868185213
-0.3525896537717486   0.19040249740684254   0.04056758868185213
-1.0279085286351122   0.07690838640574837   0.020210316008684073
-1.0279085286351122   0.07690838640574837   0.020210316008684073
-1.0279085286351122   0.07690838640574837   0.020210316008684073
-1.0279085286351122   0.07690838640574837   0.020210316008684073
-0.3503539135149134   0.20052207205182357   0.04162671532104752
-0.3503539135149134   0.20052207205182357   0.04162671532104752
-0.3503539135149134   0.20052207205182357   0.04162671532104752
-0.3503539135149134   0.20052207205182357   0.04162671532104752
-1.781351821031631   -0.11143006047220094   -0.03983303345348277
-1.781351821031631   -0.11143006047220094   -0.03983303345348277
-1.781351821031631   -0.11143006047220094   -0.03983303345348277
-1.781351821031631   -0.11143006047220094   -0.03983303345348277
-1.8497633567409248   -0.1648766285388387   -0.021300259793423572
-1.8497633567409248   -0.1648766285388387   -0.021300259793423572
-1.8497633567409248   -0.1648766285388387   -0.021300259793423572
-1.8497633567409248   -0.1648766285388387   -0.021300259793423572
-0.42615204026862424   0.12109983976676472   0.05292784588779735
-0.42615204026862424   0.12109983976676472   0.05292784588779735
-0.42615204026862424   0.12109983976676472   0.05292784588779735
-0.42615204026862424   0.12109983976676472   0.05292784588779735
-1.1007278542422951   0.014928965484696022   -0.007058763496198384
-1.1007278542422951   0.014928965484696022   -0.007058763496198384
-1.1007278542422951   0.014928965484696022   -0.007058763496198384
-1.1007278542422951   0.014928965484696022   -0.007058763496198384
-0.4223962662896965   0.13618179384994578   0.05662476169927038
-0.4223962662896965   0.13618179384994578   0.05662476169927038
-0.4223962662896965   0.13618179384994578   0.05662476169927038
-0.4223962662896965   0.13618179384994578   0.05662476169927038
-1.854614380655137   -0.18105383255730156   -0.029378175346021204
-1.854614380655137   -0.18105383255730156   -0.029378175346021204
-1.854614380655137   -0.18105383255730156   -0.029378175346021204
-1.854614380655137   -0.18105383255730156   -0.029378175346021204
-1.9194207833889947   -0.22578918349002228   -0.005003335013728606
-1.9194207833889947   -0.22578918349002228   -0.005003335013728606
-1.9194207833889947   -0.22578918349002228   -0.005003335013728606
-1.9194207833889947   -0.22578918349002228   -0.005003335013728606
-0.49906569565748127   0.053748886405528495   0.06388014254516783
-0.49906569565748127   0.053748886405528495   0.06388014254516783
-0.49906569565748127   0.053748886405528495   0.06388014254516783
-0.49906569565748127   0.053748886405528495   0.06388014254516783
-1.1765193039297765   -0.047130808458733076   -0.03660045810588773
-1.1765193039297765   -0.047130808458733076   -0.03660045810588773
-1.1765193039297765   -0.047130808458733076   -0.03660045810588773
-1.1765193039297765   -0.047130808458733076   -0.03660045810588773
-1.6127416758007656   0.31381376564285735   0.07814448487300421
-1.6127416758007656   0.31381376564285735   0.07814448487300421
-1.6127416758007656   0.31381376564285735   0.07814448487300421
-1.6127416758007656   0.31381376564285735   0.07814448487300421
-3.0621621880218823   -0.1024140069880094   -0.10590981780021191
-3.0621621880218823   -0.1024140069880094   -0.10590981780021191
-3.0621621880218823   -0.1024140069880094   -0.10590981780021191
-3.0621621880218823   -0.1024140069880094   -0.10590981780021191
-3.088207264795779   -0.04333591918467372   0.026102712377947673
-3.088207264795779   -0.04333591918467372   0.026102712377947673
-3.088207264795779   -0.04333591918467372   0.026102712377947673
-3.088207264795779   -0.04333591918467372   0.026102712377947673
-1.73088965372206   0.12394447627020921   -0.02289673364806799
-1.73088965372206   0.12394447627020921   -0.02289673364806799
-1.73088965372206   0.12394447627020921   -0.02289673364806799
-1.73088965372206   0.12394447627020921   -0.02289673364806799
-2.359528897073442   0.0737484068359715   0.029427620737715376
-2.359528897073442   0.0737484068359715   0.029427620737715376
-2.359528897073442   0.0737484068359715   0.029427620737715376
-2.359528897073442   0.0737484068359715   0.029427620737715376
-1.6815789112290433   0.2519079167254457   0.09569353836180963
-1.6815789112290433   0.2519079167254457   0.09569353836180963
-1.6815789112290433   0.2519079167254457   0.09569353836180963
-1.6815789112290433   0.2519079167254457   0.09569353836180963
-3.1396329784344337   -0.1734143307855257   -0.10094744421449142
-3.1396329784344337   -0.1734143307855257   -0.10094744421449142
-3.1396329784344337   -0.1734143307855257   -0.10094744421449142
-3.1396329784344337   -0.1734143307855257   -0.10094744421449142
-3.1716457050900413   -0.10644639223622698   0.033920672699335824
-3.1716457050900413   -0.10644639223622698   0.033920672699335824
-3.1716457050900413   -0.10644639223622698   0.033920672699335824
-3.1716457050900413   -0.10644639223622698   0.033920672699335824
-1.802456640156017   0.06010389981347308   -0.009747205221225907
-1.802456640156017   0.06010389981347308   -0.009747205221225907
-1.802456640156017   0.06010389981347308   -0.009747205221225907
-1.802456640156017   0.06010389981347308   -0.009747205221225907
-2.421031707492555   0.017434750912784236   0.0020573794070995743
-2.421031707492555   0.017434750912784236   0.0020573794070995743
-2.421031707492555   0.017434750912784236   0.0020573794070995743
-2.421031707492555   0.017434750912784236   0.0020573794070995743
-1.7513818454705286   0.1933069822931271   0.11242368572659303
-1.7513818454705286   0.1933069822931271   0.11242368572659303
-1.7513818454705286   0.1933069822931271   0.11242368572659303
-1.7513818454705286   0.1933069822931271   0.11242368572659303
-3.2228840247506914   -0.23981299969104242   -0.08890431814912875
-3.2228840247506914   -0.23981299969104242   -0.08890431814912875
-3.2228840247506914   -0.23981299969104242   -0.08890431814912875
-3.2228840247506914   -0.23981299969104242   -0.08890431814912875
-3.246015789254921   -0.17357680421958943   0.051411971422544306
-3.246015789254921   -0.17357680421958943   0.051411971422544306
-3.246015789254921   -0.17357680421958943   0.051411971422544306
-3.246015789254921   -0.17357680421958943   0.051411971422544306
-1.8752595995186396   -0.010575122120619562   0.0005885229686138638
-1.8752595995186396   -0.010575122120619562   0.0005885229686138638
-1.8752595995186396   -0.010575122120619562   0.0005885229686138638
-1.8752595995186396   -0.010575122120619562   0.0005885229686138638
-2.5127907941912095   -0.04767861167190246   -0.029611455404858877
-2.5127907941912095   -0.04767861167190246   -0.029611455404858877
-2.5127907941912095   -0.04767861167190246   -0.029611455404858877
-2.5127907941912095   -0.04767861167190246   -0.029611455404858877
-2.937753828087538   0.29071449277247474   0.12300348211102552
-2.937753828087538   0.29071449277247474   0.12300348211102552
-2.937753828087538   0.29071449277247474   0.12300348211102552
-2.937753828087538   0.29071449277247474   0.12300348211102552
-4.331206479357411   -0.19891873469276866   -0.13840062621564722
-4.331206479357411   -0.19891873469276866   -0.13840062621564722
-4.331206479357411   -0.19891873469276866   -0.13840062621564722
-4.331206479357411   -0.19891873469276866   -0.13840062621564722
-4.373771086519748   -0.0014900043431427257   0.12200176329229537
-4.373771086519748   -0.0014900043431427257   0.12200176329229537
-4.373771086519748   -0.0014900043431427257   0.12200176329229537
-4.373771086519748   -0.0014900043431427257   0.12200176329229537
-3.093186379532756   0.04125256184425863   -0.08338134233593303
-3.093186379532756   0.04125256184425863   -0.08338134233593303
-3.093186379532756   0.04125256184425863   -0.08338134233593303
-3.093186379532756   0.04125256184425863   -0.08338134233593303
-3.5220785981170417   0.06807602349877184   0.0887521983191992
-3.5220785981170417   0.06807602349877184   0.0887521983191992
-3.5220785981170417   0.06807602349877184   0.0887521983191992
-3.5220785981170417   0.06807602349877184   0.0887521983191992
-3.0001776503530024   0.27784275276095927   0.14507211264618086
-3.0001776503530024   0.27784275276095927   0.14507211264618086
-3.0001776503530024   0.27784275276095927   0.14507211264618086
-3.0001776503530024   0.27784275276095927   0.14507211264618086
-4.468572763324282   -0.2398731428846509   -0.11362348218883145
-4.468572763324282   -0.2398731428846509   -0.11362348218883145
-4.468572763324282   -0.2398731428846509   -0.11362348218883145
-4.468572763324282   -0.2398731428846509   -0.11362348218883145
-4.491525705882957   -0.03615479109688535   0.15380844382031097
-4.491525705882957   -0.03615479109688535   0.15380844382031097
-4.491525705882957   -0.03615479109688535   0.15380844382031097
-4.491525705882957   -0.03615479109688535   0.15380844382031097
-3.170116168121606   0.006235984416691709   -0.07111401911148324
-3.170116168121606   0.006235984416691709   -0.07111401911148324
-3.170116168121606   0.006235984416691709   -0.07111401911148324
-3.170116168121606   0.006235984416691709   -0.07111401911148324
-3.680140409489268   0.028160163381084846   0.0459293582966665
-3.680140409489268   0.028160163381084846   0.0459293582966665
-3.680140409489268   0.028160163381084846   0.0459293582966665
-3.680140409489268   0.028160163381084846   0.0459293582966665
-3.072734192582663   0.25104015949923897   0.17099168350076158
-3.072734192582663   0.25104015949923897   0.17099168350076158
-3.072734192582663   0.25104015949923897   0.17099168350076158
-3.072734192582663   0.25104015949923897   0.17099168350076158
-4.590208589818538   -0.2822598745760776   -0.09350089237839837
-4.590208589818538   -0.2822598745760776   -0.09350089237839837
-4.590208589818538   -0.2822598745760776   -0.09350089237839837
-4.590208589818538   -0.2822598745760776   -0.09350089237839837
-4.649061303264249   -0.14418442158195643   0.15450152174251117
-4.649061303264249   -0.14418442158195643   0.15450152174251117
-4.649061303264249   -0.14418442158195643   0.15450152174251117
-4.649061303264249   -0.14418442158195643   0.15450152174251117
-3.250547490184582   -0.08195743845644099   -0.06286589898898662
-3.250547490184582   -0.08195743845644099   -0.06286589898898662
-3.250547490184582   -0.08195743845644099   -0.06286589898898662
-3.250547490184582   -0.08195743845644099   -0.06286589898898662
-3.725897485811529   -0.01719184128907225   0.02536590698427768
-3.725897485811529   -0.01719184128907225   0.02536590698427768
-3.725897485811529   -0.01719184128907225   0.02536590698427768
-3.725897485811529   -0.01719184128907225   0.02536590698427768
1.3589201242376838   0.08065415308230012   -0.166724731042721
1.3589201242376838   0.08065415308230012   -0.166724731042721
1.3589201242376838   0.08065415308230012   -0.166724731042721
1.3589201242376838   0.08065415308230012   -0.166724731042721
0.39078301059271037   0.10087666173522765   0.08010565453208086
0.39078301059271037   0.10087666173522765   0.08010565453208086
0.39078301059271037   0.10087666173522765   0.08010565453208086
0.39078301059271037   0.10087666173522765   0.08010565453208086
0.23537149736987217   -0.20247104743863342   -0.14690644010597093
0.23537149736987217   -0.20247104743863342   -0.14690644010597093
0.23537149736987217   -0.20247104743863342   -0.14690644010597093
0.23537149736987217   -0.20247104743863342   -0.14690644010597093
1.3204730906201179   0.23430771521113836   0.09639893812662359
1.3204730906201179   0.23430771521113836   0.09639893812662359
1.3204730906201179   0.23430771521113836   0.09639893812662359
1.3204730906201179   0.23430771521113836   0.09639893812662359
0.7779315643346886   0.03898313846790816   -0.018133796736411828
0.7779315643346886   0.03898313846790816   -0.018133796736411828
0.7779315643346886   0.03898313846790816   -0.018133796736411828
0.7779315643346886   0.03898313846790816   -0.018133796736411828
1.2225549150906494   -0.006191600612689335   -0.15269262369690512
1.2225549150906494   -0.006191600612689335   -0.15269262369690512
1.2225549150906494   -0.006191600612689335   -0.15269262369690512
1.2225549150906494   -0.006191600612689335   -0.15269262369690512
0.3302313735495155   0.03496996903534673   0.08995192431826765
0.3302313735495155   0.03496996903534673   0.08995192431826765
0.3302313735495155   0.03496996903534673   0.08995192431826765
0.3302313735495155   0.03496996903534673   0.08995192431826765
0.1766516536933583   -0.23134219581527615   -0.12462846601396317
0.1766516536933583   -0.23134219581527615   -0.12462846601396317
0.1766516536933583   -0.23134219581527615   -0.12462846601396317
0.1766516536933583   -0.23134219581527615   -0.12462846601396317
1.214935915557978   0.19444863205133334   0.12363851018933444
1.214935915557978   0.19444863205133334   0.12363851018933444
1.214935915557978   0.19444863205133334   0.12363851018933444
1.214935915557978   0.19444863205133334   0.12363851018933444
0.7038225959936677   -0.006031170267815494   -0.047463390981437
0.7038225959936677   -0.006031170267815494   -0.047463390981437
0.7038225959936677   -0.006031170267815494   -0.047463390981437
0.7038225959936677   -0.006031170267815494   -0.047463390981437
1.1176328921310716   -0.043254874919762376   -0.12517309997410772
1.1176328921310716   -0.043254874919762376   -0.12517309997410772
1.1176328921310716   -0.043254874919762376   -0.12517309997410772
1.1176328921310716   -0.043254874919762376   -0.12517309997410772
0.26987547595430755   0.0022821099898624325   0.1078663394856503
0.26987547595430755   0.0022821099898624325   0.1078663394856503
0.26987547595430755   0.0022821099898624325   0.1078663394856503
0.26987547595430755   0.0022821099898624325   0.1078663394856503
0.12410648652652174   -0.2665534977908957   -0.10373761267562166
0.12410648652652174   -0.2665534977908957   -0.10373761267562166
0.12410648652652174   -0.2665534977908957   -0.10373761267562166
0.12410648652652174   -0.2665534977908957   -0.10373761267562166
1.0843615670228908   0.13042303059749227   0.13710582661635984
1.0843615670228908   0.13042303059749227   0.13710582661635984
1.0843615670228908   0.13042303059749227   0.13710582661635984
1.0843615670228908   0.13042303059749227   0.13710582661635984
0.6024025459673472   -0.046284758774187626   -0.08314068078669715
0.6024025459673472   -0.046284758774187626   -0.08314068078669715
0.6024025459673472   -0.046284758774187626   -0.08314068078669715
0.6024025459673472   -0.046284758774187626   -0.08314068078669715
0.37456207856911966   0.14870980877312306   -0.04883215262377012
0.37456207856911966   0.14870980877312306   -0.04883215262377012
0.37456207856911966   0.14870980877312306   -0.04883215262377012
0.37456207856911966   0.14870980877312306   -0.04883215262377012
-0.5632189822813718   0.049027740572636785   0.019742030972151707
-0.5632189822813718   0.049027740572636785   0.019742030972151707
-0.5632189822813718   0.049027740572636785   0.019742030972151707
-0.5632189822813718   0.049027740572636785   0.019742030972151707
-0.6632832732599119   -0.12954796744790692   -0.0855612281867304
-0.6632832732599119   -0.12954796744790692   -0.0855612281867304
-0.6632832732599119   -0.12954796744790692   -0.0855612281867304
-0.6632832732599119   -0.12954796744790692   -0.0855612281867304
0.3603506045283483   0.18472850606301028   0.09078954218476805
0.3603506045283483   0.18472850606301028   0.09078954218476805
0.3603506045283483   0.18472850606301028   0.09078954218476805
0.3603506045283483   0.18472850606301028   0.09078954218476805
-0.1261168112583847   0.06058380527981447   0.015094336702170516
-0.1261168112583847   0.06058380527981447   0.015094336702170516
-0.1261168112583847   0.06058380527981447   0.015094336702170516
-0.1261168112583847   0.06058380527981447   0.015094336702170516
0.31319959854639257   0.07567788018191662   -0.035914861843916984
0.31319959854639257   0.07567788018191662   -0.035914861843916984
0.31319959854639257   0.07567788018191662   -0.035914861843916984
0.31319959854639257   0.07567788018191662   -0.035914861843916984
-0.6187227653094148   -0.023087839598272097   0.030781183716119473
-0.6187227653094148   -0.023087839598272097   0.030781183716119473
-0.6187227653094148   -0.023087839598272097   0.030781183716119473
-0.6187227653094148   -0.023087839598272097   0.030781183716119473
-0.715827535808867   -0.18829678503635483   -0.06688657818087514
-0.715827535808867   -0.18829678503635483   -0.06688657818087514
-0.715827535808867   -0.18829678503635483   -0.06688657818087514
-0.715827535808867   -0.18829678503635483   -0.06688657818087514
0.2914058434507195   0.11883955205510882   0.09896073490246356
0.2914058434507195   0.11883955205510882   0.09896073490246356
0.2914058434507195   0.11883955205510882   0.09896073490246356
0.2914058434507195   0.11883955205510882   0.09896073490246356
-0.1909570813253772   -0.0026299541067406687   -0.015179365645165031
-0.1909570813253772   -0.0026299541067406687   -0.015179365645165031
-0.1909570813253772   -0.0026299541067406687   -0.015179365645165031
-0.1909570813253772   -0.0026299541067406687   -0.015179365645165031
0.24566138099323526   0.012661590745204308   -0.023583616075058968
0.24566138099323526   0.012661590745204308   -0.023583616075058968
0.24566138099323526   0.012661590745204308   -0.023583616075058968
0.24566138099323526   0.012661590745204308   -0.023583616075058968
-0.673433607171265   -0.08546935754635249   0.04225563751714141
-0.673433607171265   -0.08546935754635249   0.04225563751714141
-0.673433607171265   -0.08546935754635249   0.04225563751714141
-0.673433607171265   -0.08546935754635249   0.04225563751714141
-0.7679804023900345   -0.2467515493579952   -0.05000288595404756
-0.7679804023900345   -0.2467515493579952   -0.05000288595404756
-0.7679804023900345   -0.2467515493579952   -0.05000288595404756
-0.7679804023900345   -0.2467515493579952   -0.05000288595404756
0.23104452966205682   0.05396281415160961   0.11043629105955227
0.23104452966205682   0.05396281415160961   0.11043629105955227
0.23104452966205682   0.05396281415160961   0.11043629105955227
0.23104452966205682   0.05396281415160961   0.11043629105955227
-0.24722565336036273   -0.0594445476975931   -0.04382695964610757
-0.24722565336036273   -0.0594445476975931   -0.04382695964610757
-0.24722565336036273   -0.0594445476975931   -0.04382695964610757
-0.24722565336036273   -0.0594445476975931   -0.04382695964610757
-0.534544596352369   0.20503800042120238   0.007103700768600799
-0.534544596352369   0.20503800042120238   0.007103700768600799
-0.534544596352369   0.20503800042120238   0.007103700768600799
-0.534544596352369   0.20503800042120238   0.007103700768600799
-1.5049706105684564   -0.016982311090675162   -0.0411256529663709
-1.5049706105684564   -0.016982311090675162   -0.0411256529663709
-1.5049706105684564   -0.016982311090675162   -0.0411256529663709
-1.5049706105684564   -0.016982311090675162   -0.0411256529663709
-1.5522330377048603   -0.06253183151654573   -0.02446067200197749
-1.5522330377048603   -0.06253183151654573   -0.02446067200197749
-1.5522330377048603   -0.06253183151654573   -0.02446067200197749
-1.5522330377048603   -0.06253183151654573   -0.02446067200197749
-0.5901866128173308   0.12152595818985601   0.02884814838840455
-0.5901866128173308   0.12152595818985601   0.02884814838840455
-0.5901866128173308   0.12152595818985601   0.02884814838840455
-0.5901866128173308   0.12152595818985601   0.02884814838840455
-1.0430309065422232   0.06051383606356356   0.015719168560455743
-1.0430309065422232   0.06051383606356356   0.015719168560455743
-1.0430309065422232   0.06051383606356356   0.015719168560455743
-1.0430309065422232   0.06051383606356356   0.015719168560455743
-0.587305705588596   0.14025124820957582   0.024527394512365963
-0.587305705588596   0.14025124820957582   0.024527394512365963
-0.587305705588596   0.14025124820957582   0.024527394512365963
-0.587305705588596   0.14025124820957582   0.024527394512365963
-1.5573762507116278   -0.08351942731429968   -0.029189141238076866
-1.5573762507116278   -0.08351942731429968   -0.029189141238076866
-1.5573762507116278   -0.08351942731429968   -0.029189141238076866
-1.5573762507116278   -0.08351942731429968   -0.029189141238076866
-1.6045359264179828   -0.1266659115915928   -0.007517024754631493
-1.6045359264179828   -0.1266659115915928   -0.007517024754631493
-1.6045359264179828   -0.1266659115915928   -0.007517024754631493
-1.6045359264179828   -0.1266659115915928   -0.007517024754631493
-0.6456597639373898   0.054703453524988566   0.04095204261517584
-0.6456597639373898   0.054703453524988566   0.04095204261517584
-0.6456597639373898   0.054703453524988566   0.04095204261517584
-0.6456597639373898   0.054703453524988566   0.04095204261517584
-1.097615305950594   -0.00036203627448511133   -0.011445036189290464
-1.097615305950594   -0.00036203627448511133   -0.011445036189290464
-1.097615305950594   -0.00036203627448511133   -0.011445036189290464
-1.097615305950594   -0.00036203627448511133   -0.011445036189290464
-0.6417986860064451   0.07531426550051556   0.03964662029437248
-0.6417986860064451   0.07531426550051556   0.03964662029437248
-0.6417986860064451   0.07531426550051556   0.03964662029437248
-0.6417986860064451   0.07531426550051556   0.03964662029437248
-1.611615667445497   -0.1504953866636943   -0.01908625482013141
-1.611615667445497   -0.1504953866636943   -0.01908625482013141
-1.611615667445497   -0.1504953866636943   -0.01908625482013141
-1.611615667445497   -0.1504953866636943   -0.01908625482013141
-1.6558581245264419   -0.18861339520733023   0.008861163349712084
-1.6558581245264419   -0.18861339520733023   0.008861163349712084
-1.6558581245264419   -0.18861339520733023   0.008861163349712084
-1.6558581245264419   -0.18861339520733023   0.008861163349712084
-0.7001546910626837   -0.009692642436179622   0.05206676376089147
-0.7001546910626837   -0.009692642436179622   0.05206676376089147
-0.7001546910626837   -0.009692642436179622   0.05206676376089147
-0.7001546910626837   -0.009692642436179622   0.05206676376089147
-1.1550273255534473   -0.06139591354879284   -0.04092780913856026
-1.1550273255534473   -0.06139591354879284   -0.04092780913856026
-1.1550273255534473   -0.06139591354879284   -0.04092780913856026
-1.1550273255534473   -0.06139591354879284   -0.04092780913856026
-1.428806493058188   0.25831801688635936   0.06439460660793717
-1.428806493058188   0.25831801688635936   0.06439460660793717
-1.428806493058188   0.25831801688635936   0.06439460660793717
-1.428806493058188   0.25831801688635936   0.06439460660793717
-2.4252199250683253   -0.07087854171131325   -0.09421850834543175
-2.4252199250683253   -0.07087854171131325   -0.09421850834543175
-2.4252199250683253   -0.07087854171131325   -0.09421850834543175
-2.4252199250683253   -0.07087854171131325   -0.09421850834543175
-2.429930215620738   -0.003208764337904957   0.04037762521003935
-2.429930215620738   -0.003208764337904957   0.04037762521003935
-2.429930215620738   -0.003208764337904957   0.04037762521003935
-2.429930215620738   -0.003208764337904957   0.04037762521003935
-1.528354412051458   0.062338813161077256   -0.029938188412620734
-1.528354412051458   0.062338813161077256   -0.029938188412620734
-1.528354412051458   0.062338813161077256   -0.029938188412620734
-1.528354412051458   0.062338813161077256   -0.029938188412620734
-1.9432438832372796   0.06156896181560023   0.020823085542597153
-1.9432438832372796   0.06156896181560023   0.020823085542597153
-1.9432438832372796   0.06156896181560023   0.020823085542597153
-1.9432438832372796   0.06156896181560023   0.020823085542597153
-1.4794202920591955   0.19519328356196308   0.08187794114783714
-1.4794202920591955   0.19519328356196308   0.08187794114783714
-1.4794202920591955   0.19519328356196308   0.08187794114783714
-1.4794202920591955   0.19519328356196308   0.08187794114783714
-2.4832196972954383   -0.14041859642122873   -0.0888599510801699
-2.4832196972954383   -0.14041859642122873   -0.0888599510801699
-2.4832196972954383   -0.14041859642122873   -0.0888599510801699
-2.4832196972954383   -0.14041859642122873   -0.0888599510801699
-2.4942938791121114   -0.06640985267925503   0.04952127127122791
-2.4942938791121114   -0.06640985267925503   0.04952127127122791
-2.4942938791121114   -0.06640985267925503   0.04952127127122791
-2.4942938791121114   -0.06640985267925503   0.04952127127122791
-1.580932251305641   0.0008599125912277517   -0.01702447337577405
-1.580932251305641   0.0008599125912277517   -0.01702447337577405
-1.580932251305641   0.0008599125912277517   -0.01702447337577405
-1.580932251305641   0.0008599125912277517   -0.01702447337577405
-1.9897413714286127   0.0047740911947092846   -0.007675037248235039
-1.9897413714286127   0.0047740911947092846   -0.007675037248235039
-1.9897413714286127   0.0047740911947092846   -0.007675037248235039
-1.9897413714286127   0.0047740911947092846   -0.007675037248235039
-1.530693672335983   0.13617633436206145   0.09885199970168218
-1.530693672335983   0.13617633436206145   0.09885199970168218
-1.530693672335983   0.13617633436206145   0.09885199970168218
-1.530693672335983   0.13617633436206145   0.09885199970168218
-2.5472441491219864   -0.20443796549031062   -0.07720196596712102
-2.5472441491219864   -0.20443796549031062   -0.07720196596712102
-2.5472441491219864   -0.20443796549031062   -0.07720196596712102
-2.5472441491219864   -0.20443796549031062   -0.07720196596712102
-2.549950199221201   -0.13218951799568612   0.06720714329584213
-2.549950199221201   -0.13218951799568612   0.06720714329584213
-2.549950199221201   -0.13218951799568612   0.06720714329584213
-2.549950199221201   -0.13218951799568612   0.06720714329584213
-1.634154039463443   -0.06478079554306071   -0.006451010999593901
-1.634154039463443   -0.06478079554306071   -0.006451010999593901
-1.634154039463443   -0.06478079554306071   -0.006451010999593901
-1.634154039463443   -0.06478079554306071   -0.006451010999593901
-2.058575593220924   -0.05692563509135273   -0.038662870736312985
-2.058575593220924   -0.05692563509135273   -0.038662870736312985
-2.058575593220924   -0.05692563509135273   -0.038662870736312985
-2.058575593220924   -0.05692563509135273   -0.038662870736312985
-2.3185538757234285   0.2541154588422645   0.11411773782553511
-2.3185538757234285   0.2541154588422645   0.11411773782553511
-2.3185538757234285   0.2541154588422645   0.11411773782553511
-2.3185538757234285   0.2541154588422645   0.11411773782553511
-3.2580805533005646   -0.14937929623334523   -0.1438130182985686
-3.2580805533005646   -0.14937929623334523   -0.1438130182985686
-3.2580805533005646   -0.14937929623334523   -0.1438130182985686
-3.2580805533005646   -0.14937929623334523   -0.1438130182985686
-3.282253019455724   0.04411485923695402   0.1199967845506349
-3.282253019455724   0.04411485923695402   0.1199967845506349
-3.282253019455724   0.04411485923695402   0.1199967845506349
-3.282253019455724   0.04411485923695402   0.1199967845506349
-2.456633892680151   -0.008353275749521605   -0.08799624867543857
-2.456633892680151   -0.008353275749521605   -0.08799624867543857
-2.456633892680151   -0.008353275749521605   -0.08799624867543857
-2.456633892680151   -0.008353275749521605   -0.08799624867543857
-2.707501026722872   0.06151226517636832   0.06513539526261361
-2.707501026722872   0.06151226517636832   0.06513539526261361
-2.707501026722872   0.06151226517636832   0.06513539526261361
-2.707501026722872   0.06151226517636832   0.06513539526261361
-2.3642299520369754   0.23071179297398203   0.13495838581690328
-2.3642299520369754   0.23071179297398203   0.13495838581690328
-2.3642299520369754   0.23071179297398203   0.13495838581690328
-2.3642299520369754   0.23071179297398203   0.13495838581690328
-3.379282732417235   -0.19957598180487002   -0.12146093921509635
-3.379282732417235   -0.19957598180487002   -0.12146093921509635
-3.379282732417235   -0.19957598180487002   -0.12146093921509635
-3.379282732417235   -0.19957598180487002   -0.12146093921509635
-3.3823848879632226   0.008669571419532618   0.15332263574421412
-3.3823848879632226   0.008669571419532618   0.15332263574421412
-3.3823848879632226   0.008669571419532618   0.15332263574421412
-3.3823848879632226   0.008669571419532618   0.15332263574421412
-2.5145636838370167   -0.0426604799402861   -0.07557712509229778
-2.5145636838370167   -0.0426604799402861   -0.07557712509229778
-2.5145636838370167   -0.0426604799402861   -0.07557712509229778
-2.5145636838370167   -0.0426604799402861   -0.07557712509229778
-2.8350388520576892   0.019526346746277956   0.022904256336603507
-2.8350388520576892   0.019526346746277956   0.022904256336603507
-2.8350388520576892   0.019526346746277956   0.022904256336603507
-2.8350388520576892   0.019526346746277956   0.022904256336603507
-2.418207650755402   0.2029575031561266   0.16058505721936378
-2.418207650755402   0.2029575031561266   0.16058505721936378
-2.418207650755402   0.2029575031561266   0.16058505721936378
-2.418207650755402   0.2029575031561266   0.16058505721936378
-3.483137280281329   -0.24134477091337203   -0.10042498351341508
-3.483137280281329   -0.24134477091337203   -0.10042498351341508
-3.483137280281329   -0.24134477091337203   -0.10042498351341508
-3.483137280281329   -0.24134477091337203   -0.10042498351341508
-3.520949093841808   -0.09177498233714199   0.1584479852647346
-3.520949093841808   -0.09177498233714199   0.1584479852647346
-3.520949093841808   -0.09177498233714199   0.1584479852647346
-3.520949093841808   -0.09177498233714199   0.1584479852647346
-2.574309589861837   -0.12087655573835643   -0.06590277216470034
-2.574309589861837   -0.12087655573835643   -0.06590277216470034
-2.574309589861837   -0.12087655573835643   -0.06590277216470034
-2.574309589861837   -0.12087655573835643   -0.06590277216470034
-2.877282286025455   -0.02498774467152942   -0.002360695366198623
-2.877282286025455   -0.02498774467152942   -0.002360695366198623
-2.877282286025455   -0.02498774467152942   -0.002360695366198623
-2.877282286025455   -0.02498774467152942   -0.002360695366198623
0.2252257796689147   0.018585074190503457   -0.16579505226774438
0.2252257796689147   0.018585074190503457   -0.16579505226774438
0.2252257796689147   0.018585074190503457   -0.16579505226774438
0.2252257796689147   0.018585074190503457   -0.16579505226774438
-0.28159326483512126   0.1247886219448982   0.08507537864355479
-0.28159326483512126   0.1247886219448982   0.08507537864355479
-0.28159326483512126   0.1247886219448982   0.08507537864355479
-0.28159326483512126   0.1247886219448982   0.08507537864355479
-0.4166778080842699   -0.15907772965118278   -0.13337738748059458
-0.4166778080842699   -0.15907772965118278   -0.13337738748059458
-0.4166778080842699   -0.15907772965118278   -0.13337738748059458
-0.4166778080842699   -0.15907772965118278   -0.13337738748059458
0.20475502944753732   0.17396653603407092   0.10461767083214155
0.20475502944753732   0.17396653603407092   0.10461767083214155
0.20475502944753732   0.17396653603407092   0.10461767083214155
0.20475502944753732   0.17396653603407092   0.10461767083214155
-0.07192375066416756   0.03814919546059853   0.014516862940039761
-0.07192375066416756   0.03814919546059853   0.014516862940039761
-0.07192375066416756   0.03814919546059853   0.014516862940039761
-0.07192375066416756   0.03814919546059853   0.014516862940039761
0.10801323956290032   -0.057074159280853604   -0.14805058327611886
0.10801323956290032   -0.057074159280853604   -0.14805058327611886
0.10801323956290032   -0.057074159280853604   -0.14805058327611886
0.10801323956290032   -0.057074159280853604   -0.14805058327611886
-0.32569218959064766   0.066206794272727   0.09626618106360696
-0.32569218959064766   0.066206794272727   0.09626618106360696
-0.32569218959064766   0.066206794272727   0.09626618106360696
-0.32569218959064766   0.066206794272727   0.09626618106360696
-0.4610987625892817   -0.18807044266593445   -0.11292218524974494
-0.4610987625892817   -0.18807044266593445   -0.11292218524974494
-0.4610987625892817   -0.18807044266593445   -0.11292218524974494
-0.4610987625892817   -0.18807044266593445   -0.11292218524974494
0.11308858434263323   0.1345264649411831   0.14331463782406922
0.11308858434263323   0.1345264649411831   0.14331463782406922
0.11308858434263323   0.1345264649411831   0.14331463782406922
0.11308858434263323   0.1345264649411831   0.14331463782406922
-0.1445561509263616   -0.005265753199859113   -0.019053715348317006
-0.1445561509263616   -0.005265753199859113   -0.019053715348317006
-0.1445561509263616   -0.005265753199859113   -0.019053715348317006
-0.1445561509263616   -0.005265753199859113   -0.019053715348317006
0.014156696986801314   -0.09483215041962526   -0.12198618359428196
0.014156696986801314   -0.09483215041962526   -0.12198618359428196
0.014156696986801314   -0.09483215041962526   -0.12198618359428196
0.014156696986801314   -0.09483215041962526   -0.12198618359428196
-0.37013719415972274   0.03331785376860025   0.12049736046351099
-0.37013719415972274   0.03331785376860025   0.12049736046351099
-0.37013719415972274   0.03331785376860025   0.12049736046351099
-0.37013719415972274   0.03331785376860025   0.12049736046351099
-0.5017951625887571   -0.23293158613783366   -0.09351052744849916
-0.5017951625887571   -0.23293158613783366   -0.09351052744849916
-0.5017951625887571   -0.23293158613783366   -0.09351052744849916
-0.5017951625887571   -0.23293158613783366   -0.09351052744849916
-0.014205181412308593   0.051655147117892035   0.16323392218581917
-0.014205181412308593   0.051655147117892035   0.16323392218581917
-0.014205181412308593   0.051655147117892035   0.16323392218581917
-0.014205181412308593   0.051655147117892035   0.16323392218581917
-0.22190461855378538   -0.049103779635278025   -0.05763758822817834
-0.22190461855378538   -0.049103779635278025   -0.05763758822817834
-0.22190461855378538   -0.049103779635278025   -0.05763758822817834
-0.22190461855378538   -0.049103779635278025   -0.05763758822817834
-0.3207687246972974   0.08030560512544652   -0.06631890384787423
-0.3207687246972974   0.08030560512544652   -0.06631890384787423
-0.3207687246972974   0.08030560512544652   -0.06631890384787423
-0.3207687246972974   0.08030560512544652   -0.06631890384787423
-0.7968332618329176   0.033456508570001486   0.022349451724344715
-0.7968332618329176   0.033456508570001486   0.022349451724344715
-0.7968332618329176   0.033456508570001486   0.022349451724344715
-0.7968332618329176   0.033456508570001486   0.022349451724344715
-0.8663553289559242   -0.09261327746484888   -0.06921344197025513
-0.8663553289559242   -0.09261327746484888   -0.06921344197025513
-0.8663553289559242   -0.09261327746484888   -0.06921344197025513
-0.8663553289559242   -0.09261327746484888   -0.06921344197025513
-0.32948561982018176   0.0774722007759169   0.06603362341274642
-0.32948561982018176   0.0774722007759169   0.06603362341274642
-0.32948561982018176   0.0774722007759169   0.06603362341274642
-0.32948561982018176   0.0774722007759169   0.06603362341274642
-0.5771166089001311   0.023073539382143793   0.012180885166552254
-0.5771166089001311   0.023073539382143793   0.012180885166552254
-0.5771166089001311   0.023073539382143793   0.012180885166552254
-0.5771166089001311   0.023073539382143793   0.012180885166552254
-0.36703750169721494   0.0102018827847032   -0.05445546798120407
-0.36703750169721494   0.0102018827847032   -0.05445546798120407
-0.36703750169721494   0.0102018827847032   -0.05445546798120407
-0.36703750169721494   0.0102018827847032   -0.05445546798120407
-0.8335031962035465   -0.03004270859829164   0.03247665292506849
-0.8335031962035465   -0.03004270859829164   0.03247665292506849
-0.8335031962035465   -0.03004270859829164   0.03247665292506849
-0.8335031962035465   -0.03004270859829164   0.03247665292506849
-0.9008990975080823   -0.1496050896645168   -0.050957532736862945
-0.9008990975080823   -0.1496050896645168   -0.050957532736862945
-0.9008990975080823   -0.1496050896645168   -0.050957532736862945
-0.9008990975080823   -0.1496050896645168   -0.050957532736862945
-0.38310878709784024   0.014513122361583919   0.07444412717993981
-0.38310878709784024   0.014513122361583919   0.07444412717993981
-0.38310878709784024   0.014513122361583919   0.07444412717993981
-0.38310878709784024   0.014513122361583919   0.07444412717993981
-0.6207638122028509   -0.03402157359551446   -0.016427126513905443
-0.6207638122028509   -0.03402157359551446   -0.016427126513905443
-0.6207638122028509   -0.03402157359551446   -0.016427126513905443
-0.6207638122028509   -0.03402157359551446   -0.016427126513905443
-0.4192777470398033   -0.05122235254762165   -0.040665197620666005
-0.4192777470398033   -0.05122235254762165   -0.040665197620666005
-0.4192777470398033   -0.05122235254762165   -0.040665197620666005
-0.4192777470398033   -0.05122235254762165   -0.040665197620666005
-0.869769439929737   -0.08890891711892834   0.043994582609275225
-0.869769439929737   -0.08890891711892834   0.043994582609275225
-0.869769439929737   -0.08890891711892834   0.043994582609275225
-0.869769439929737   -0.08890891711892834   0.043994582609275225
-0.9356708284520986   -0.20842406534279465   -0.034782748298313744
-0.9356708284520986   -0.20842406534279465   -0.034782748298313744
-0.9356708284520986   -0.20842406534279465   -0.034782748298313744
-0.9356708284520986   -0.20842406534279465   -0.034782748298313744
-0.42792932688730123   -0.04949024853610877   0.0923773134570535
-0.42792932688730123   -0.04949024853610877   0.0923773134570535
-0.42792932688730123   -0.04949024853610877   0.0923773134570535
-0.42792932688730123   -0.04949024853610877   0.0923773134570535
-0.6644786463179155   -0.09070089899839273   -0.04557670267200378
-0.6644786463179155   -0.09070089899839273   -0.04557670267200378
-0.6644786463179155   -0.09070089899839273   -0.04557670267200378
-0.6644786463179155   -0.09070089899839273   -0.04557670267200378
-0.7825446096213754   0.1343148866353543   -0.007065665283304726
-0.7825446096213754   0.1343148866353543   -0.007065665283304726
-0.7825446096213754   0.1343148866353543   -0.007065665283304726
-0.7825446096213754   0.1343148866353543   -0.007065665283304726
-1.3081178079186802   -0.04442651363634062   -0.03673071704817545
-1.3081178079186802   -0.04442651363634062   -0.03673071704817545
-1.3081178079186802   -0.04442651363634062   -0.03673071704817545
-1.3081178079186802   -0.04442651363634062   -0.03673071704817545
-1.32171973494833   -0.032048019832152996   -0.007488619590641177
-1.32171973494833   -0.032048019832152996   -0.007488619590641177
-1.32171973494833   -0.032048019832152996   -0.007488619590641177
-1.32171973494833   -0.032048019832152996   -0.007488619590641177
-0.8306879290732433   0.006352552846677906   0.010157727131614856
-0.8306879290732433   0.006352552846677906   0.010157727131614856
-0.8306879290732433   0.006352552846677906   0.010157727131614856
-0.8306879290732433   0.006352552846677906   0.010157727131614856
-1.0585762995418961   0.015054775373308071   0.003942286916161705
-1.0585762995418961   0.015054775373308071   0.003942286916161705
-1.0585762995418961   0.015054775373308071   0.003942286916161705
-1.0585762995418961   0.015054775373308071   0.003942286916161705
-0.8175063845839747   0.07231331220314446   0.010104690221490797
-0.8175063845839747   0.07231331220314446   0.010104690221490797
-0.8175063845839747   0.07231331220314446   0.010104690221490797
-0.8175063845839747   0.07231331220314446   0.010104690221490797
-1.3394129469173979   -0.10252044666841878   -0.02548225259971402
-1.3394129469173979   -0.10252044666841878   -0.02548225259971402
-1.3394129469173979   -0.10252044666841878   -0.02548225259971402
-1.3394129469173979   -0.10252044666841878   -0.02548225259971402
-1.3540866880798643   -0.09326855049616081   0.00951894665190358
-1.3540866880798643   -0.09326855049616081   0.00951894665190358
-1.3540866880798643   -0.09326855049616081   0.00951894665190358
-1.3540866880798643   -0.09326855049616081   0.00951894665190358
-0.867357567526597   -0.053807744061724894   0.020952771567771748
-0.867357567526597   -0.053807744061724894   0.020952771567771748
-0.867357567526597   -0.053807744061724894   0.020952771567771748
-0.867357567526597   -0.053807744061724894   0.020952771567771748
-1.0936964030394623   -0.04062123921092653   -0.022337938163837008
-1.0936964030394623   -0.04062123921092653   -0.022337938163837008
-1.0936964030394623   -0.04062123921092653   -0.022337938163837008
-1.0936964030394623   -0.04062123921092653   -0.022337938163837008
-0.8537402955169803   0.009952680164051125   0.025278707390079057
-0.8537402955169803   0.009952680164051125   0.025278707390079057
-0.8537402955169803   0.009952680164051125   0.025278707390079057
-0.8537402955169803   0.009952680164051125   0.025278707390079057
-1.373139697774821   -0.16246471240727914   -0.016549939911775648
-1.373139697774821   -0.16246471240727914   -0.016549939911775648
-1.373139697774821   -0.16246471240727914   -0.016549939911775648
-1.373139697774821   -0.16246471240727914   -0.016549939911775648
-1.3856204113832706   -0.1520382963619423   0.025804214452665057
-1.3856204113832706   -0.1520382963619423   0.025804214452665057
-1.3856204113832706   -0.1520382963619423   0.025804214452665057
-1.3856204113832706   -0.1520382963619423   0.025804214452665057
-0.9025333465870722   -0.11061915751464227   0.033099753198665385
-0.9025333465870722   -0.11061915751464227   0.033099753198665385
-0.9025333465870722   -0.11061915751464227   0.033099753198665385
-0.9025333465870722   -0.11061915751464227   0.033099753198665385
-1.131489330727061   -0.0966657174837375   -0.05088974718953689
-1.131489330727061   -0.0966657174837375   -0.05088974718953689
-1.131489330727061   -0.0966657174837375   -0.05088974718953689
-1.131489330727061   -0.0966657174837375   -0.05088974718953689
-1.2420198252195074   0.19539309707484126   0.053939585736522994
-1.2420198252195074   0.19539309707484126   0.053939585736522994
-1.2420198252195074   0.19539309707484126   0.053939585736522994
-1.2420198252195074   0.19539309707484126   0.053939585736522994
-1.7984948502453357   -0.07351195585459419   -0.08255708579115044
-1.7984948502453357   -0.07351195585459419   -0.08255708579115044
-1.7984948502453357   -0.07351195585459419   -0.08255708579115044
-1.7984948502453357   -0.07351195585459419   -0.08255708579115044
-1.773997302447478   0.030456476738122684   0.05629301986862641
-1.773997302447478   0.030456476738122684   0.05629301986862641
-1.773997302447478   0.030456476738122684   0.05629301986862641
-1.773997302447478   0.030456476738122684   0.05629301986862641
-1.3265816702197355   -0.0269234408322519   -0.03692287494756909
-1.3265816702197355   -0.0269234408322519   -0.03692287494756909
-1.3265816702197355   -0.0269234408322519   -0.03692287494756909
-1.3265816702197355   -0.0269234408322519   -0.03692287494756909
-1.530075740349693   0.03161426941997375   0.007114771107317744
-1.530075740349693   0.03161426941997375   0.007114771107317744
-1.530075740349693   0.03161426941997375   0.007114771107317744
-1.530075740349693   0.03161426941997375   0.007114771107317744
-1.2728506390650232   0.13365747786636373   0.07115136212737673
-1.2728506390650232   0.13365747786636373   0.07115136212737673
-1.2728506390650232   0.13365747786636373   0.07115136212737673
-1.2728506390650232   0.13365747786636373   0.07115136212737673
-1.8343133421881228   -0.1367094505464203   -0.07812125155008491
-1.8343133421881228   -0.1367094505464203   -0.07812125155008491
-1.8343133421881228   -0.1367094505464203   -0.07812125155008491
-1.8343133421881228   -0.1367094505464203   -0.07812125155008491
-1.8174211187014089   -0.02974611398770277   0.06643426112534119
-1.8174211187014089   -0.02974611398770277   0.06643426112534119
-1.8174211187014089   -0.02974611398770277   0.06643426112534119
-1.8174211187014089   -0.02974611398770277   0.06643426112534119
-1.358672883380472   -0.08154202482387479   -0.025138555523420036
-1.358672883380472   -0.08154202482387479   -0.025138555523420036
-1.358672883380472   -0.08154202482387479   -0.025138555523420036
-1.358672883380472   -0.08154202482387479   -0.025138555523420036
-1.5596010288632753   -0.02205292222558841   -0.021376740379206643
-1.5596010288632753   -0.02205292222558841   -0.021376740379206643
-1.5596010288632753   -0.02205292222558841   -0.021376740379206643
-1.5596010288632753   -0.02205292222558841   -0.021376740379206643
-1.304322182143009   0.07716783855576054   0.0879050872842579
-1.304322182143009   0.07716783855576054   0.0879050872842579
-1.304322182143009   0.07716783855576054   0.0879050872842579
-1.304322182143009   0.07716783855576054   0.0879050872842579
-1.8769716092424382   -0.1936557666709099   -0.06740853889662929
-1.8769716092424382   -0.1936557666709099   -0.06740853889662929
-1.8769716092424382   -0.1936557666709099   -0.06740853889662929
-1.8769716092424382   -0.1936557666709099   -0.06740853889662929
-1.8527342389811763   -0.09030115772379493   0.08452737761434562
-1.8527342389811763   -0.09030115772379493   0.08452737761434562
-1.8527342389811763   -0.09030115772379493   0.08452737761434562
-1.8527342389811763   -0.09030115772379493   0.08452737761434562
-1.3908663490851827   -0.13738453560538402   -0.015079234813469004
-1.3908663490851827   -0.13738453560538402   -0.015079234813469004
-1.3908663490851827   -0.13738453560538402   -0.015079234813469004
-1.3908663490851827   -0.13738453560538402   -0.015079234813469004
-1.6039397275904943   -0.07665386503112337   -0.05052428943218948
-1.6039397275904943   -0.07665386503112337   -0.05052428943218948
-1.6039397275904943   -0.07665386503112337   -0.05052428943218948
-1.6039397275904943   -0.07665386503112337   -0.05052428943218948
-1.7036454346021648   0.21158828206670477   0.10658975450340466
-1.7036454346021648   0.21158828206670477   0.10658975450340466
-1.7036454346021648   0.21158828206670477   0.10658975450340466
-1.7036454346021648   0.21158828206670477   0.10658975450340466
-2.185995969998404   -0.10881722758700973   -0.13875463050360154
-2.185995969998404   -0.10881722758700973   -0.13875463050360154
-2.185995969998404   -0.10881722758700973   -0.13875463050360154
-2.185995969998404   -0.10881722758700973   -0.13875463050360154
-2.1875042152515234   0.08657034498215932   0.11749217755433819
-2.1875042152515234   0.08657034498215932   0.11749217755433819
-2.1875042152515234   0.08657034498215932   0.11749217755433819
-2.1875042152515234   0.08657034498215932   0.11749217755433819
-1.8209197265573855   -0.06293579505014602   -0.08492682889267232
-1.8209197265573855   -0.06293579505014602   -0.08492682889267232
-1.8209197265573855   -0.06293579505014602   -0.08492682889267232
-1.8209197265573855   -0.06293579505014602   -0.08492682889267232
-1.8948510653318678   0.050733475152968   0.036143200955209565
-1.8948510653318678   0.050733475152968   0.036143200955209565
-1.8948510653318678   0.050733475152968   0.036143200955209565
-1.8948510653318678   0.050733475152968   0.036143200955209565
-1.7302634296918198   0.17966986555020026   0.12574899483483962
-1.7302634296918198   0.17966986555020026   0.12574899483483962
-1.7302634296918198   0.17966986555020026   0.12574899483483962
-1.7302634296918198   0.17966986555020026   0.12574899483483962
-2.284980679626749   -0.16285548312783654   -0.12046431621176155
-2.284980679626749   -0.16285548312783654   -0.12046431621176155
-2.284980679626749   -0.16285548312783654   -0.12046431621176155
-2.284980679626749   -0.16285548312783654   -0.12046431621176155
-2.266508104641764   0.052362393184810785   0.15148166133793398
-2.266508104641764   0.052362393184810785   0.15148166133793398
-2.266508104641764   0.052362393184810785   0.15148166133793398
-2.266508104641764   0.052362393184810785   0.15148166133793398
-1.8585189667834539   -0.0943171724272926   -0.07448392084532557
-1.8585189667834539   -0.0943171724272926   -0.07448392084532557
-1.8585189667834539   -0.0943171724272926   -0.07448392084532557
-1.8585189667834539   -0.0943171724272926   -0.07448392084532557
-1.9886717606104514   0.009076258871667575   -0.0032286828741309587
-1.9886717606104514   0.009076258871667575   -0.0032286828741309587
-1.9886717606104514   0.009076258871667575   -0.0032286828741309587
-1.9886717606104514   0.009076258871667575   -0.0032286828741309587
-1.7640369038096684   0.1527351211690876   0.15087410042722219
-1.7640369038096684   0.1527351211690876   0.15087410042722219
-1.7640369038096684   0.1527351211690876   0.15087410042722219
-1.7640369038096684   0.1527351211690876   0.15087410042722219
-2.3679664686076007   -0.20166620140361546   -0.10178156390279308
-2.3679664686076007   -0.20166620140361546   -0.10178156390279308
-2.3679664686076007   -0.20166620140361546   -0.10178156390279308
-2.3679664686076007   -0.20166620140361546   -0.10178156390279308
-2.383518127035579   -0.037483487996362086   0.16027110371913617
-2.383518127035579   -0.037483487996362086   0.16027110371913617
-2.383518127035579   -0.037483487996362086   0.16027110371913617
-2.383518127035579   -0.037483487996362086   0.16027110371913617
-1.8962559444392206   -0.15904004566488933   -0.06434226173478123
-1.8962559444392206   -0.15904004566488933   -0.06434226173478123
-1.8962559444392206   -0.15904004566488933   -0.06434226173478123
-1.8962559444392206   -0.15904004566488933   -0.06434226173478123
-2.0250360186998564   -0.032083011481687074   -0.0312907303483632
-2.0250360186998564   -0.032083011481687074   -0.0312907303483632
-2.0250360186998564   -0.032083011481687074   -0.0312907303483632
-2.0250360186998564   -0.032083011481687074   -0.0312907303483632
-0.9593691613466899   -0.06289763332586473   -0.17558000119869105
-0.9593691613466899   -0.06289763332586473   -0.17558000119869105
-0.9593691613466899   -0.06289763332586473   -0.17558000119869105
-0.9593691613466899   -0.06289763332586473   -0.17558000119869105
-0.9379459810512838   0.13523670924975156   0.07917609988092927
-0.9379459810512838   0.13523670924975156   0.07917609988092927
-0.9379459810512838   0.13523670924975156   0.07917609988092927
-0.9379459810512838   0.13523670924975156   0.07917609988092927
-1.0534538986763877   -0.12234341485403966   -0.1187231554844861
-1.0534538986763877   -0.12234341485403966   -0.1187231554844861
-1.0534538986763877   -0.12234341485403966   -0.1187231554844861
-1.0534538986763877   -0.12234341485403966   -0.1187231554844861
-0.9783825736023253   0.0686488964892609   0.11948388445339306
-0.9783825736023253   0.0686488964892609   0.11948388445339306
-0.9783825736023253   0.0686488964892609   0.11948388445339306
-0.9783825736023253   0.0686488964892609   0.11948388445339306
-0.933036643355612   0.022303332544886173   0.08076411782839132
-0.933036643355612   0.022303332544886173   0.08076411782839132
-0.933036643355612   0.022303332544886173   0.08076411782839132
-0.933036643355612   0.022303332544886173   0.08076411782839132
-1.071709137560554   -0.13162486608639234   -0.14687517276208317
-1.071709137560554   -0.13162486608639234   -0.14687517276208317
-1.071709137560554   -0.13162486608639234   -0.14687517276208317
-1.071709137560554   -0.13162486608639234   -0.14687517276208317
-0.9718458193892621   0.06621186305051291   0.10076196304658988
-0.9718458193892621   0.06621186305051291   0.10076196304658988
-0.9718458193892621   0.06621186305051291   0.10076196304658988
-0.9718458193892621   0.06621186305051291   0.10076196304658988
-1.087893296625787   -0.154391581934292   -0.10029371558482471
-1.087893296625787   -0.154391581934292   -0.10029371558482471
-1.087893296625787   -0.154391581934292   -0.10029371558482471
-1.087893296625787   -0.154391581934292   -0.10029371558482471
-1.0680080638141416   0.02489209900096312   0.22155418647746672
-1.0680080638141416   0.02489209900096312   0.22155418647746672
-1.0680080638141416   0.02489209900096312   0.22155418647746672
-1.0680080638141416   0.02489209900096312   0.22155418647746672
-1.0159917961116063   -0.032807898102837796   0.032057568739668224
-1.0159917961116063   -0.032807898102837796   0.032057568739668224
-1.0159917961116063   -0.032807898102837796   0.032057568739668224
-1.0159917961116063   -0.032807898102837796   0.032057568739668224
-1.1750554261352175   -0.17460280828716807   -0.11418771783977431
-1.1750554261352175   -0.17460280828716807   -0.11418771783977431
-1.1750554261352175   -0.17460280828716807   -0.11418771783977431
-1.1750554261352175   -0.17460280828716807   -0.11418771783977431
-1.0084004891633869   0.017548770495164567   0.12522996929771912
-1.0084004891633869   0.017548770495164567   0.12522996929771912
-1.0084004891633869   0.017548770495164567   0.12522996929771912
-1.0084004891633869   0.017548770495164567   0.12522996929771912
-1.116021662704844   -0.2171078691433727   -0.07876467782790783
-1.116021662704844   -0.2171078691433727   -0.07876467782790783
-1.116021662704844   -0.2171078691433727   -0.07876467782790783
-1.116021662704844   -0.2171078691433727   -0.07876467782790783
-1.2074751972916344   -0.11969869570645397   0.20743615675879132
-1.2074751972916344   -0.11969869570645397   0.20743615675879132
-1.2074751972916344   -0.11969869570645397   0.20743615675879132
-1.2074751972916344   -0.11969869570645397   0.20743615675879132
-1.087155833577749   -0.09802706687635146   -0.04481727125387724
-1.087155833577749   -0.09802706687635146   -0.04481727125387724
-1.087155833577749   -0.09802706687635146   -0.04481727125387724
-1.087155833577749   -0.09802706687635146   -0.04481727125387724
-1.0051457204712106   -0.03082754258026532   -0.09075834538869601
-1.0051457204712106   -0.03082754258026532   -0.09075834538869601
-1.0051457204712106   -0.03082754258026532   -0.09075834538869601
-1.0051457204712106   -0.03082754258026532   -0.09075834538869601
-1.010108290748019   -0.12375485069691615   -0.0052242873379257475
-1.010108290748019   -0.12375485069691615   -0.0052242873379257475
-1.010108290748019   -0.12375485069691615   -0.0052242873379257475
-1.010108290748019   -0.12375485069691615   -0.0052242873379257475
-1.0168053643705282   -0.0821517988709762   -0.0447666302713729
-1.0168053643705282   -0.0821517988709762   -0.0447666302713729
-1.0168053643705282   -0.0821517988709762   -0.0447666302713729
-1.0168053643705282   -0.0821517988709762   -0.0447666302713729
-1.0396633849100156   -0.16991606563824774   -0.0021979358684169493
-1.0396633849100156   -0.16991606563824774   -0.0021979358684169493
-1.0396633849100156   -0.16991606563824774   -0.0021979358684169493
-1.0396633849100156   -0.16991606563824774   -0.0021979358684169493
-1.0092453430020434   -0.10605932906979797   -0.004157459716621511
-1.0092453430020434   -0.10605932906979797   -0.004157459716621511
-1.0092453430020434   -0.10605932906979797   -0.004157459716621511
-1.0092453430020434   -0.10605932906979797   -0.004157459716621511
-1.0396212439583665   -0.09345192340328487   -0.07845137334513902
-1.0396212439583665   -0.09345192340328487   -0.07845137334513902
-1.0396212439583665   -0.09345192340328487   -0.07845137334513902
-1.0396212439583665   -0.09345192340328487   -0.07845137334513902
-1.0233300996537276   -0.1650985354374827   0.005556429879120068
-1.0233300996537276   -0.1650985354374827   0.005556429879120068
-1.0233300996537276   -0.1650985354374827   0.005556429879120068
-1.0233300996537276   -0.1650985354374827   0.005556429879120068
-1.0332861294858047   -0.13615151036910617   -0.028701694085546063
-1.0332861294858047   -0.13615151036910617   -0.028701694085546063
-1.0332861294858047   -0.13615151036910617   -0.028701694085546063
-1.0332861294858047   -0.13615151036910617   -0.028701694085546063
-1.0764565798965566   -0.22008262683999497   0.022580912967029382
-1.0764565798965566   -0.22008262683999497   0.022580912967029382
-1.0764565798965566   -0.22008262683999497   0.022580912967029382
-1.0764565798965566   -0.22008262683999497   0.022580912967029382
-1.0317288646722664   -0.14958197216809918   -0.02902736246713187
-1.0317288646722664   -0.14958197216809918   -0.02902736246713187
-1.0317288646722664   -0.14958197216809918   -0.02902736246713187
-1.0317288646722664   -0.14958197216809918   -0.02902736246713187
-1.0788104626669317   -0.15114188644432555   -0.058129241280515796
-1.0788104626669317   -0.15114188644432555   -0.058129241280515796
-1.0788104626669317   -0.15114188644432555   -0.058129241280515796
-1.0788104626669317   -0.15114188644432555   -0.058129241280515796
-1.0392312113600302   -0.21339121540937875   0.018812601583584027
-1.0392312113600302   -0.21339121540937875   0.018812601583584027
-1.0392312113600302   -0.21339121540937875   0.018812601583584027
-1.0392312113600302   -0.21339121540937875   0.018812601583584027
-1.0479998615873438   -0.19453516857002076   -0.012776752012463855
-1.0479998615873438   -0.19453516857002076   -0.012776752012463855
-1.0479998615873438   -0.19453516857002076   -0.012776752012463855
-1.0479998615873438   -0.19453516857002076   -0.012776752012463855
-1.1045279335567484   -0.28408218962568393   0.04567828839487713
-1.1045279335567484   -0.28408218962568393   0.04567828839487713
-1.1045279335567484   -0.28408218962568393   0.04567828839487713
-1.1045279335567484   -0.28408218962568393   0.04567828839487713
-1.0629662012587646   -0.2024315003581349   -0.060782871782725005
-1.0629662012587646   -0.2024315003581349   -0.060782871782725005
-1.0629662012587646   -0.2024315003581349   -0.060782871782725005
-1.0629662012587646   -0.2024315003581349   -0.060782871782725005
-0.9826894052306302   0.024690306851096522   -0.016575017298978444
-0.9826894052306302   0.024690306851096522   -0.016575017298978444
-0.9826894052306302   0.024690306851096522   -0.016575017298978444
-0.9826894052306302   0.024690306851096522   -0.016575017298978444
-1.1045107537633305   -0.20959821110034754   -0.05274516509855751
-1.1045107537633305   -0.20959821110034754   -0.05274516509855751
-1.1045107537633305   -0.20959821110034754   -0.05274516509855751
-1.1045107537633305   -0.20959821110034754   -0.05274516509855751
-1.058814033485172   -0.0384386930717415   0.014327601951446466
-1.058814033485172   -0.0384386930717415   0.014327601951446466
-1.058814033485172   -0.0384386930717415   0.014327601951446466
-1.058814033485172   -0.0384386930717415   0.014327601951446466
-1.0436213974634565   -0.22818554672114882   -0.0328130478858598
-1.0436213974634565   -0.22818554672114882   -0.0328130478858598
-1.0436213974634565   -0.22818554672114882   -0.0328130478858598
-1.0436213974634565   -0.22818554672114882   -0.0328130478858598
-1.0466819749257925   -0.11643527191455066   -0.024026213836745185
-1.0466819749257925   -0.11643527191455066   -0.024026213836745185
-1.0466819749257925   -0.11643527191455066   -0.024026213836745185
-1.0466819749257925   -0.11643527191455066   -0.024026213836745185
-0.9972339686243901   -0.029000408810182315   -6.104160147801796e-05
-0.9972339686243901   -0.029000408810182315   -6.104160147801796e-05
-0.9972339686243901   -0.029000408810182315   -6.104160147801796e-05
-0.9972339686243901   -0.029000408810182315   -6.104160147801796e-05
-1.1110744762500804   -0.2434968449085498   -0.041916460036302415
-1.1110744762500804   -0.2434968449085498   -0.041916460036302415
-1.1110744762500804   -0.2434968449085498   -0.041916460036302415
-1.1110744762500804   -0.2434968449085498   -0.041916460036302415
-1.0704975507964798   -0.09256803316419279   0.030291309325315173
-1.0704975507964798   -0.09256803316419279   0.030291309325315173
-1.0704975507964798   -0.09256803316419279   0.030291309325315173
-1.0704975507964798   -0.09256803316419279   0.030291309325315173
-1.0590418426230748   -0.27088796542813165   -0.022743804712879397
-1.0590418426230748   -0.27088796542813165   -0.022743804712879397
-1.0590418426230748   -0.27088796542813165   -0.022743804712879397
-1.0590418426230748   -0.27088796542813165   -0.022743804712879397
-1.0591500675794707   -0.15771752985479887   -0.04534770902204559
-1.0591500675794707   -0.15771752985479887   -0.04534770902204559
-1.0591500675794707   -0.15771752985479887   -0.04534770902204559
-1.0591500675794707   -0.15771752985479887   -0.04534770902204559
-1.0139051347862353   -0.08408121501547339   0.01613298405866772
-1.0139051347862353   -0.08408121501547339   0.01613298405866772
-1.0139051347862353   -0.08408121501547339   0.01613298405866772
-1.0139051347862353   -0.08408121501547339   0.01613298405866772
-1.1221940826959067   -0.2859346076394372   -0.034824775696575105
-1.1221940826959067   -0.2859346076394372   -0.034824775696575105
-1.1221940826959067   -0.2859346076394372   -0.034824775696575105
-1.1221940826959067   -0.2859346076394372   -0.034824775696575105
-1.079912674052798   -0.14353884602573272   0.045880638108938956
-1.079912674052798   -0.14353884602573272   0.045880638108938956
-1.079912674052798   -0.14353884602573272   0.045880638108938956
-1.079912674052798   -0.14353884602573272   0.045880638108938956
-1.0703610737799436   -0.3119857114391402   -0.007132270106350626
-1.0703610737799436   -0.3119857114391402   -0.007132270106350626
-1.0703610737799436   -0.3119857114391402   -0.007132270106350626
-1.0703610737799436   -0.3119857114391402   -0.007132270106350626
-1.0740834249833293   -0.20091804836379729   -0.06878216751727158
-1.0740834249833293   -0.20091804836379729   -0.06878216751727158
-1.0740834249833293   -0.20091804836379729   -0.06878216751727158
-1.0740834249833293   -0.20091804836379729   -0.06878216751727158
-1.0199143709662963   0.10903605393058083   0.05160248385568529
-1.0199143709662963   0.10903605393058083   0.05160248385568529
-1.0199143709662963   0.10903605393058083   0.05160248385568529
-1.0199143709662963   0.10903605393058083   0.05160248385568529
-1.1991416210143613   -0.15548533514694884   -0.0732189903703073
-1.1991416210143613   -0.15548533514694884   -0.0732189903703073
-1.1991416210143613   -0.15548533514694884   -0.0732189903703073
-1.1991416210143613   -0.15548533514694884   -0.0732189903703073
-1.1335911542847956   0.03342129818606787   0.07181030420909
-1.1335911542847956   0.03342129818606787   0.07181030420909
-1.1335911542847956   0.03342129818606787   0.07181030420909
-1.1335911542847956   0.03342129818606787   0.07181030420909
-1.0979461204647196   -0.1752157748327233   -0.04455575118531087
-1.0979461204647196   -0.1752157748327233   -0.04455575118531087
-1.0979461204647196   -0.1752157748327233   -0.04455575118531087
-1.0979461204647196   -0.1752157748327233   -0.04455575118531087
-1.112658275650984   -0.04586102655241098   -0.014357348658205212
-1.112658275650984   -0.04586102655241098   -0.014357348658205212
-1.112658275650984   -0.04586102655241098   -0.014357348658205212
-1.112658275650984   -0.04586102655241098   -0.014357348658205212
-1.0298014907571613   0.05333957879478374   0.06761204372497377
-1.0298014907571613   0.05333957879478374   0.06761204372497377
-1.0298014907571613   0.05333957879478374   0.06761204372497377
-1.0298014907571613   0.05333957879478374   0.06761204372497377
-1.2095179644461898   -0.2029162358952648   -0.07148621251654842
-1.2095179644461898   -0.2029162358952648   -0.07148621251654842
-1.2095179644461898   -0.2029162358952648   -0.07148621251654842
-1.2095179644461898   -0.2029162358952648   -0.07148621251654842
-1.15422038735778   -0.019349967301665494   0.08136923606493462
-1.15422038735778   -0.019349967301665494   0.08136923606493462
-1.15422038735778   -0.019349967301665494   0.08136923606493462
-1.15422038735778   -0.019349967301665494   0.08136923606493462
-1.1080482422282891   -0.21451528062306174   -0.03551490037484695
-1.1080482422282891   -0.21451528062306174   -0.03551490037484695
-1.1080482422282891   -0.21451528062306174   -0.03551490037484695
-1.1080482422282891   -0.21451528062306174   -0.03551490037484695
-1.1228621717254443   -0.0905594260890413   -0.03934573259733357
-1.1228621717254443   -0.0905594260890413   -0.03934573259733357
-1.1228621717254443   -0.0905594260890413   -0.03934573259733357
-1.1228621717254443   -0.0905594260890413   -0.03934573259733357
-1.0406604497314638   0.0037249410898762547   0.08318384039632687
-1.0406604497314638   0.0037249410898762547   0.08318384039632687
-1.0406604497314638   0.0037249410898762547   0.08318384039632687
-1.0406604497314638   0.0037249410898762547   0.08318384039632687
-1.2283552728665614   -0.24433728202656196   -0.06431787675407552
-1.2283552728665614   -0.24433728202656196   -0.06431787675407552
-1.2283552728665614   -0.24433728202656196   -0.06431787675407552
-1.2283552728665614   -0.24433728202656196   -0.06431787675407552
-1.16773339333998   -0.06990421455212562   0.09918941470762033
-1.16773339333998   -0.06990421455212562   0.09918941470762033
-1.16773339333998   -0.06990421455212562   0.09918941470762033
-1.16773339333998   -0.06990421455212562   0.09918941470762033
-1.116638249500292   -0.2539661646872615   -0.02731992046701702
-1.116638249500292   -0.2539661646872615   -0.02731992046701702
-1.116638249500292   -0.2539661646872615   -0.02731992046701702
-1.116638249500292   -0.2539661646872615   -0.02731992046701702
-1.1409759961442627   -0.13258948072813373   -0.06351927583044242
-1.1409759961442627   -0.13258948072813373   -0.06351927583044242
-1.1409759961442627   -0.13258948072813373   -0.06351927583044242
-1.1409759961442627   -0.13258948072813373   -0.06351927583044242
-1.1015627376948371   0.15638196932541415   0.10280812175495097
-1.1015627376948371   0.15638196932541415   0.10280812175495097
-1.1015627376948371   0.15638196932541415   0.10280812175495097
-1.1015627376948371   0.15638196932541415   0.10280812175495097
-1.1697695310972076   -0.09317045245917413   -0.10634949769116842
-1.1697695310972076   -0.09317045245917413   -0.10634949769116842
-1.1697695310972076   -0.09317045245917413   -0.10634949769116842
-1.1697695310972076   -0.09317045245917413   -0.10634949769116842
-1.1425660065652044   0.11256174611135453   0.11420715692271054
-1.1425660065652044   0.11256174611135453   0.11420715692271054
-1.1425660065652044   0.11256174611135453   0.11420715692271054
-1.1425660065652044   0.11256174611135453   0.11420715692271054
-1.1919430145174248   -0.12153791393871508   -0.06498978482927326
-1.1919430145174248   -0.12153791393871508   -0.06498978482927326
-1.1919430145174248   -0.12153791393871508   -0.06498978482927326
-1.1919430145174248   -0.12153791393871508   -0.06498978482927326
-1.1125507006493534   0.028385142589201162   0.0037227142661390433
-1.1125507006493534   0.028385142589201162   0.0037227142661390433
-1.1125507006493534   0.028385142589201162   0.0037227142661390433
-1.1125507006493534   0.028385142589201162   0.0037227142661390433
-1.1067314100051653   0.12066108233124023   0.11886924146203871
-1.1067314100051653   0.12066108233124023   0.11886924146203871
-1.1067314100051653   0.12066108233124023   0.11886924146203871
-1.1067314100051653   0.12066108233124023   0.11886924146203871
-1.2340802545092044   -0.13593989359032096   -0.0948624430955845
-1.2340802545092044   -0.13593989359032096   -0.0948624430955845
-1.2340802545092044   -0.13593989359032096   -0.0948624430955845
-1.2340802545092044   -0.13593989359032096   -0.0948624430955845
-1.1929115752668396   0.08313042739817994   0.1471466867654228
-1.1929115752668396   0.08313042739817994   0.1471466867654228
-1.1929115752668396   0.08313042739817994   0.1471466867654228
-1.1929115752668396   0.08313042739817994   0.1471466867654228
-1.2074279071010707   -0.14461114673725994   -0.059407183215924
-1.2074279071010707   -0.14461114673725994   -0.059407183215924
-1.2074279071010707   -0.14461114673725994   -0.059407183215924
-1.2074279071010707   -0.14461114673725994   -0.059407183215924
-1.1666910078496269   -0.007332511575294187   -0.025593636183960933
-1.1666910078496269   -0.007332511575294187   -0.025593636183960933
-1.1666910078496269   -0.007332511575294187   -0.025593636183960933
-1.1666910078496269   -0.007332511575294187   -0.025593636183960933
-1.1187490619603355   0.09700730988040712   0.14236858587005463
-1.1187490619603355   0.09700730988040712   0.14236858587005463
-1.1187490619603355   0.09700730988040712   0.14236858587005463
-1.1187490619603355   0.09700730988040712   0.14236858587005463
-1.2898484565149881   -0.1667460653269054   -0.08766122675023394
-1.2898484565149881   -0.1667460653269054   -0.08766122675023394
-1.2898484565149881   -0.1667460653269054   -0.08766122675023394
-1.2898484565149881   -0.1667460653269054   -0.08766122675023394
-1.2823543761900866   0.008066186775187778   0.1572873322164704
-1.2823543761900866   0.008066186775187778   0.1572873322164704
-1.2823543761900866   0.008066186775187778   0.1572873322164704
-1.2823543761900866   0.008066186775187778   0.1572873322164704
-1.2215011751258233   -0.18789508997761362   -0.05165861879613856
-1.2215011751258233   -0.18789508997761362   -0.05165861879613856
-1.2215011751258233   -0.18789508997761362   -0.05165861879613856
-1.2215011751258233   -0.18789508997761362   -0.05165861879613856
-1.1924071049251963   -0.04009337349689873   -0.052153492976751675
-1.1924071049251963   -0.04009337349689873   -0.052153492976751675
-1.1924071049251963   -0.04009337349689873   -0.052153492976751675
-1.1924071049251963   -0.04009337349689873   -0.052153492976751675
-2.408627922857963   -0.21957697086135397   -0.22421035886785765
-2.408627922857963   -0.21957697086135397   -0.22421035886785765
-2.408627922857963   -0.21957697086135397   -0.22421035886785765
-2.408627922857963   -0.21957697086135397   -0.22421035886785765
-1.5212763121925141   0.1324016381532473   0.05306584509715466
-1.5212763121925141   0.1324016381532473   0.05306584509715466
-1.5212763121925141   0.1324016381532473   0.05306584509715466
-1.5212763121925141   0.1324016381532473   0.05306584509715466
-1.5967135099422376   -0.0987906429362943   -0.0993828763344706
-1.5967135099422376   -0.0987906429362943   -0.0993828763344706
-1.5967135099422376   -0.0987906429362943   -0.0993828763344706
-1.5967135099422376   -0.0987906429362943   -0.0993828763344706
-2.5572730203475524   -0.2843636969573686   0.2528007361379944
-2.5572730203475524   -0.2843636969573686   0.2528007361379944
-2.5572730203475524   -0.2843636969573686   0.2528007361379944
-2.5572730203475524   -0.2843636969573686   0.2528007361379944
-1.8587283543369049   -0.06948917749943118   0.2443770487960845
-1.8587283543369049   -0.06948917749943118   0.2443770487960845
-1.8587283543369049   -0.06948917749943118   0.2443770487960845
-1.8587283543369049   -0.06948917749943118   0.2443770487960845
-2.648121027493215   -0.32196347540760795   -0.16383952114006176
-2.648121027493215   -0.32196347540760795   -0.16383952114006176
-2.648121027493215   -0.32196347540760795   -0.16383952114006176
-2.648121027493215   -0.32196347540760795   -0.16383952114006176
-1.5696590207504368   -0.12498438243991394   0.06208330912815248
-1.5696590207504368   -0.12498438243991394   0.06208330912815248
-1.5696590207504368   -0.12498438243991394   0.06208330912815248
-1.5696590207504368   -0.12498438243991394   0.06208330912815248
-1.6199056304803696   -0.14397575623346093   -0.07088752302842583
-1.6199056304803696   -0.14397575623346093   -0.07088752302842583
-1.6199056304803696   -0.14397575623346093   -0.07088752302842583
-1.6199056304803696   -0.14397575623346093   -0.07088752302842583
-2.6367987466108547   -0.3978370848434002   0.0072499732483831125
-2.6367987466108547   -0.3978370848434002   0.0072499732483831125
-2.6367987466108547   -0.3978370848434002   0.0072499732483831125
-2.6367987466108547   -0.3978370848434002   0.0072499732483831125
-2.0553162639006297   -0.2400940792847245   0.05611015420933551
-2.0553162639006297   -0.2400940792847245   0.05611015420933551
-2.0553162639006297   -0.2400940792847245   0.05611015420933551
-2.0553162639006297   -0.2400940792847245   0.05611015420933551
-2.657686524261309   -0.3636330252945148   -0.13139297455275523
-2.657686524261309   -0.3636330252945148   -0.13139297455275523
-2.657686524261309   -0.3636330252945148   -0.13139297455275523
-2.657686524261309   -0.3636330252945148   -0.13139297455275523
-1.6184725926089414   -0.19763455556137227   -0.010063534343390301
-1.6184725926089414   -0.19763455556137227   -0.010063534343390301
-1.6184725926089414   -0.19763455556137227   -0.010063534343390301
-1.6184725926089414   -0.19763455556137227   -0.010063534343390301
-1.619784833187118   -0.25391581766512594   -0.05133981713908462
-1.619784833187118   -0.25391581766512594   -0.05133981713908462
-1.619784833187118   -0.25391581766512594   -0.05133981713908462
-1.619784833187118   -0.25391581766512594   -0.05133981713908462
-2.697609551630566   -0.6084183840747227   0.0413943852043599
-2.697609551630566   -0.6084183840747227   0.0413943852043599
-2.697609551630566   -0.6084183840747227   0.0413943852043599
-2.697609551630566   -0.6084183840747227   0.0413943852043599
-2.051619567279434   -0.33035210390980274   0.0037793570063125864
-2.051619567279434   -0.33035210390980274   0.0037793570063125864
-2.051619567279434   -0.33035210390980274   0.0037793570063125864
-2.051619567279434   -0.33035210390980274   0.0037793570063125864
-1.6429026711691301   -0.27816810970006134   -0.14449620193260215
-1.6429026711691301   -0.27816810970006134   -0.14449620193260215
-1.6429026711691301   -0.27816810970006134   -0.14449620193260215
-1.6429026711691301   -0.27816810970006134   -0.14449620193260215
-1.1235499298746503   -0.7202051993334477   -0.13531029904448863
-1.1235499298746503   -0.7202051993334477   -0.13531029904448863
-1.1235499298746503   -0.7202051993334477   -0.13531029904448863
-1.1235499298746503   -0.7202051993334477   -0.13531029904448863
-0.9872156899370036   -0.16058947799711437   -0.00801269263576228
-0.9872156899370036   -0.16058947799711437   -0.00801269263576228
-0.9872156899370036   -0.16058947799711437   -0.00801269263576228
-0.9872156899370036   -0.16058947799711437   -0.00801269263576228
-1.7444116427486953   -0.7655188622152692   -0.1711453210877849
-1.7444116427486953   -0.7655188622152692   -0.1711453210877849
-1.7444116427486953   -0.7655188622152692   -0.1711453210877849
-1.7444116427486953   -0.7655188622152692   -0.1711453210877849
-1.35844221792887   -0.5109797245158658   -0.03944139664647199
-1.35844221792887   -0.5109797245158658   -0.03944139664647199
-1.35844221792887   -0.5109797245158658   -0.03944139664647199
-1.35844221792887   -0.5109797245158658   -0.03944139664647199
-1.6411028532001573   -0.3114903493622197   -0.10862988619813509
-1.6411028532001573   -0.3114903493622197   -0.10862988619813509
-1.6411028532001573   -0.3114903493622197   -0.10862988619813509
-1.6411028532001573   -0.3114903493622197   -0.10862988619813509
-1.0972062399386315   -0.6212997513032548   -0.09725516933777667
-1.0972062399386315   -0.6212997513032548   -0.09725516933777667
-1.0972062399386315   -0.6212997513032548   -0.09725516933777667
-1.0972062399386315   -0.6212997513032548   -0.09725516933777667
-0.9972263189677644   -0.20832643606966728   0.0021316058898755725
-0.9972263189677644   -0.20832643606966728   0.0021316058898755725
-0.9972263189677644   -0.20832643606966728   0.0021316058898755725
-0.9972263189677644   -0.20832643606966728   0.0021316058898755725
-1.7494965456350506   -0.761608779728767   -0.10120907530654087
-1.7494965456350506   -0.761608779728767   -0.10120907530654087
-1.7494965456350506   -0.761608779728767   -0.10120907530654087
-1.7494965456350506   -0.761608779728767   -0.10120907530654087
-1.3425289049166944   -0.4789991412593786   -0.04188978620830388
-1.3425289049166944   -0.4789991412593786   -0.04188978620830388
-1.3425289049166944   -0.4789991412593786   -0.04188978620830388
-1.3425289049166944   -0.4789991412593786   -0.04188978620830388
-1.664899744148526   -0.35854517650360723   -0.08128867109906249
-1.664899744148526   -0.35854517650360723   -0.08128867109906249
-1.664899744148526   -0.35854517650360723   -0.08128867109906249
-1.664899744148526   -0.35854517650360723   -0.08128867109906249
-1.095552024534875   -0.6251189433754105   -0.07270441463993414
-1.095552024534875   -0.6251189433754105   -0.07270441463993414
-1.095552024534875   -0.6251189433754105   -0.07270441463993414
-1.095552024534875   -0.6251189433754105   -0.07270441463993414
-0.9954400699444215   -0.2680733958254975   0.01663439378348235
-0.9954400699444215   -0.2680733958254975   0.01663439378348235
-0.9954400699444215   -0.2680733958254975   0.01663439378348235
-0.9954400699444215   -0.2680733958254975   0.01663439378348235
-1.7438565689355041   -0.7750007458747763   -0.15061356767138362
-1.7438565689355041   -0.7750007458747763   -0.15061356767138362
-1.7438565689355041   -0.7750007458747763   -0.15061356767138362
-1.7438565689355041   -0.7750007458747763   -0.15061356767138362
-1.3614213264253152   -0.5155025189367045   -0.07768097339054203
-1.3614213264253152   -0.5155025189367045   -0.07768097339054203
-1.3614213264253152   -0.5155025189367045   -0.07768097339054203
-1.3614213264253152   -0.5155025189367045   -0.07768097339054203
-0.9906627797703256   -0.17874627737775833   -0.012333470478554908
-0.9906627797703256   -0.17874627737775833   -0.012333470478554908
-0.9906627797703256   -0.17874627737775833   -0.012333470478554908
-0.9906627797703256   -0.17874627737775833   -0.012333470478554908
-0.8254779478833285   -0.5498945647413953   -0.09494128712023411
-0.8254779478833285   -0.5498945647413953   -0.09494128712023411
-0.8254779478833285   -0.5498945647413953   -0.09494128712023411
-0.8254779478833285   -0.5498945647413953   -0.09494128712023411
-0.7111244736426351   -0.14745125599029418   0.03836148194759188
-0.7111244736426351   -0.14745125599029418   0.03836148194759188
-0.7111244736426351   -0.14745125599029418   0.03836148194759188
-0.7111244736426351   -0.14745125599029418   0.03836148194759188
-1.0943899291472923   -0.5991967563766727   -0.10527661030766258
-1.0943899291472923   -0.5991967563766727   -0.10527661030766258
-1.0943899291472923   -0.5991967563766727   -0.10527661030766258
-1.0943899291472923   -0.5991967563766727   -0.10527661030766258
-0.9013495636795273   -0.37417063720638244   -0.043904812394706054
-0.9013495636795273   -0.37417063720638244   -0.043904812394706054
-0.9013495636795273   -0.37417063720638244   -0.043904812394706054
-0.9013495636795273   -0.37417063720638244   -0.043904812394706054
-0.9954548677765623   -0.21162436931061263   0.0018263094799268599
-0.9954548677765623   -0.21162436931061263   0.0018263094799268599
-0.9954548677765623   -0.21162436931061263   0.0018263094799268599
-0.9954548677765623   -0.21162436931061263   0.0018263094799268599
-0.8159391966768396   -0.5409033047198237   -0.09226008449390118
-0.8159391966768396   -0.5409033047198237   -0.09226008449390118
-0.8159391966768396   -0.5409033047198237   -0.09226008449390118
-0.8159391966768396   -0.5409033047198237   -0.09226008449390118
-0.7101994226060547   -0.186644933903447   0.0496289328935236
-0.7101994226060547   -0.186644933903447   0.0496289328935236
-0.7101994226060547   -0.186644933903447   0.0496289328935236
-0.7101994226060547   -0.186644933903447   0.0496289328935236
-1.0966556645581638   -0.6087137117756297   -0.09462784635615835
-1.0966556645581638   -0.6087137117756297   -0.09462784635615835
-1.0966556645581638   -0.6087137117756297   -0.09462784635615835
-1.0966556645581638   -0.6087137117756297   -0.09462784635615835
-0.8987323184307189   -0.3890711919490645   -0.05694486528773846
-0.8987323184307189   -0.3890711919490645   -0.05694486528773846
-0.8987323184307189   -0.3890711919490645   -0.05694486528773846
-0.8987323184307189   -0.3890711919490645   -0.05694486528773846
-1.002539766875194   -0.2513260027328064   0.01856393301586601
-1.002539766875194   -0.2513260027328064   0.01856393301586601
-1.002539766875194   -0.2513260027328064   0.01856393301586601
-1.002539766875194   -0.2513260027328064   0.01856393301586601
-0.8075312044834912   -0.5472485271407321   -0.07642638325634284
-0.8075312044834912   -0.5472485271407321   -0.07642638325634284
-0.8075312044834912   -0.5472485271407321   -0.07642638325634284
-0.8075312044834912   -0.5472485271407321   -0.07642638325634284
-0.7005026408958874   -0.22421612916957878   0.06185720835740043
-0.7005026408958874   -0.22421612916957878   0.06185720835740043
-0.7005026408958874   -0.22421612916957878   0.06185720835740043
-0.7005026408958874   -0.22421612916957878   0.06185720835740043
-1.0821831447051542   -0.6167896048723098   -0.06836477097337006
-1.0821831447051542   -0.6167896048723098   -0.06836477097337006
-1.0821831447051542   -0.6167896048723098   -0.06836477097337006
-1.0821831447051542   -0.6167896048723098   -0.06836477097337006
-0.8947280177991989   -0.4085070885204194   -0.06581977602573372
-0.8947280177991989   -0.4085070885204194   -0.06581977602573372
-0.8947280177991989   -0.4085070885204194   -0.06581977602573372
-0.8947280177991989   -0.4085070885204194   -0.06581977602573372
-0.6880499152888432   -0.025135278088009957   0.06743958919880749
-0.6880499152888432   -0.025135278088009957   0.06743958919880749
-0.6880499152888432   -0.025135278088009957   0.06743958919880749
-0.6880499152888432   -0.025135278088009957   0.06743958919880749
-0.6450283676769222   -0.2899512594415537   -0.05632445351564641
-0.6450283676769222   -0.2899512594415537   -0.05632445351564641
-0.6450283676769222   -0.2899512594415537   -0.05632445351564641
-0.6450283676769222   -0.2899512594415537   -0.05632445351564641
-0.5550323310158569   -0.04206445809805405   0.07828704303917254
-0.5550323310158569   -0.04206445809805405   0.07828704303917254
-0.5550323310158569   -0.04206445809805405   0.07828704303917254
-0.5550323310158569   -0.04206445809805405   0.07828704303917254
-0.7646403047509034   -0.33656173669881106   -0.04010719288523282
-0.7646403047509034   -0.33656173669881106   -0.04010719288523282
-0.7646403047509034   -0.33656173669881106   -0.04010719288523282
-0.7646403047509034   -0.33656173669881106   -0.04010719288523282
-0.6654460759719713   -0.17191746891860754   -0.023752272039295756
-0.6654460759719713   -0.17191746891860754   -0.023752272039295756
-0.6654460759719713   -0.17191746891860754   -0.023752272039295756
-0.6654460759719713   -0.17191746891860754   -0.023752272039295756
-0.6874843532343533   -0.06865842129153882   0.07776924929024519
-0.6874843532343533   -0.06865842129153882   0.07776924929024519
-0.6874843532343533   -0.06865842129153882   0.07776924929024519
-0.6874843532343533   -0.06865842129153882   0.07776924929024519
-0.6383834237202303   -0.3161629146931497   -0.06436996388759886
-0.6383834237202303   -0.3161629146931497   -0.06436996388759886
-0.6383834237202303   -0.3161629146931497   -0.06436996388759886
-0.6383834237202303   -0.3161629146931497   -0.06436996388759886
-0.5547147988148049   -0.0799313315704576   0.08407140147468964
-0.5547147988148049   -0.0799313315704576   0.08407140147468964
-0.5547147988148049   -0.0799313315704576   0.08407140147468964
-0.5547147988148049   -0.0799313315704576   0.08407140147468964
-0.7631812357679345   -0.35699769620930527   -0.04492737061001686
-0.7631812357679345   -0.35699769620930527   -0.04492737061001686
-0.7631812357679345   -0.35699769620930527   -0.04492737061001686
-0.7631812357679345   -0.35699769620930527   -0.04492737061001686
-0.6614941609796232   -0.2024261070575447   -0.040214870806695883
-0.6614941609796232   -0.2024261070575447   -0.040214870806695883
-0.6614941609796232   -0.2024261070575447   -0.040214870806695883
-0.6614941609796232   -0.2024261070575447   -0.040214870806695883
-0.6861629387078392   -0.10533496345647629   0.08850138193763057
-0.6861629387078392   -0.10533496345647629   0.08850138193763057
-0.6861629387078392   -0.10533496345647629   0.08850138193763057
-0.6861629387078392   -0.10533496345647629   0.08850138193763057
-0.6354795118906266   -0.335340480339013   -0.06434301513586327
-0.6354795118906266   -0.335340480339013   -0.06434301513586327
-0.6354795118906266   -0.335340480339013   -0.06434301513586327
-0.6354795118906266   -0.335340480339013   -0.06434301513586327
-0.5487497385769815   -0.11544827198685184   0.09738103211178215
-0.5487497385769815   -0.11544827198685184   0.09738103211178215
-0.5487497385769815   -0.11544827198685184   0.09738103211178215
-0.5487497385769815   -0.11544827198685184   0.09738103211178215
-0.7497193919735331   -0.3775236340618342   -0.030919042138572217
-0.7497193919735331   -0.3775236340618342   -0.030919042138572217
-0.7497193919735331   -0.3775236340618342   -0.030919042138572217
-0.7497193919735331   -0.3775236340618342   -0.030919042138572217
-0.65821406319698   -0.22846984549148186   -0.0515111477652626
-0.65821406319698   -0.22846984549148186   -0.0515111477652626
-0.65821406319698   -0.22846984549148186   -0.0515111477652626
-0.65821406319698   -0.22846984549148186   -0.0515111477652626
-0.5398147628281834   0.0750407191584795   0.10475159212801395
-0.5398147628281834   0.0750407191584795   0.10475159212801395
-0.5398147628281834   0.0750407191584795   0.10475159212801395
-0.5398147628281834   0.0750407191584795   0.10475159212801395
-0.35110445179262695   -0.09451421242230276   -0.034269566834433565
-0.35110445179262695   -0.09451421242230276   -0.034269566834433565
-0.35110445179262695   -0.09451421242230276   -0.034269566834433565
-0.35110445179262695   -0.09451421242230276   -0.034269566834433565
-0.30435404357998   0.08963684924527418   0.10329506015316675
-0.30435404357998   0.08963684924527418   0.10329506015316675
-0.30435404357998   0.08963684924527418   0.10329506015316675
-0.30435404357998   0.08963684924527418   0.10329506015316675
-0.5951283142027365   -0.14658595005065045   -0.017671380942628625
-0.5951283142027365   -0.14658595005065045   -0.017671380942628625
-0.5951283142027365   -0.14658595005065045   -0.017671380942628625
-0.5951283142027365   -0.14658595005065045   -0.017671380942628625
-0.4417671330033552   -0.009090875459603104   -0.019356842669607084
-0.4417671330033552   -0.009090875459603104   -0.019356842669607084
-0.4417671330033552   -0.009090875459603104   -0.019356842669607084
-0.4417671330033552   -0.009090875459603104   -0.019356842669607084
-0.5300716995927655   0.046699545352822155   0.11432619670375346
-0.5300716995927655   0.046699545352822155   0.11432619670375346
-0.5300716995927655   0.046699545352822155   0.11432619670375346
-0.5300716995927655   0.046699545352822155   0.11432619670375346
-0.36996215442681174   -0.10420014239506943   -0.030908502440648074
-0.36996215442681174   -0.10420014239506943   -0.030908502440648074
-0.36996215442681174   -0.10420014239506943   -0.030908502440648074
-0.36996215442681174   -0.10420014239506943   -0.030908502440648074
-0.31695554792817315   0.07136964284191827   0.13002440550706962
-0.31695554792817315   0.07136964284191827   0.13002440550706962
-0.31695554792817315   0.07136964284191827   0.13002440550706962
-0.31695554792817315   0.07136964284191827   0.13002440550706962
-0.5912973435257018   -0.15587707395015762   -0.02289557970009512
-0.5912973435257018   -0.15587707395015762   -0.02289557970009512
-0.5912973435257018   -0.15587707395015762   -0.02289557970009512
-0.5912973435257018   -0.15587707395015762   -0.02289557970009512
-0.4537519943844693   -0.02907067004520489   -0.026742467089293263
-0.4537519943844693   -0.02907067004520489   -0.026742467089293263
-0.4537519943844693   -0.02907067004520489   -0.026742467089293263
-0.4537519943844693   -0.02907067004520489   -0.026742467089293263
-0.5231096515644215   0.03047258520373708   0.13169322095241193
-0.5231096515644215   0.03047258520373708   0.13169322095241193
-0.5231096515644215   0.03047258520373708   0.13169322095241193
-0.5231096515644215   0.03047258520373708   0.13169322095241193
-0.3898103018389066   -0.11964707826142432   -0.04323264294325457
-0.3898103018389066   -0.11964707826142432   -0.04323264294325457
-0.3898103018389066   -0.11964707826142432   -0.04323264294325457
-0.3898103018389066   -0.11964707826142432   -0.04323264294325457
-0.363050608370445   0.021183602418230127   0.13528427642770177
-0.363050608370445   0.021183602418230127   0.13528427642770177
-0.363050608370445   0.021183602418230127   0.13528427642770177
-0.363050608370445   0.021183602418230127   0.13528427642770177
-0.5817704624105194   -0.16386479155893263   -0.01930606748382654
-0.5817704624105194   -0.16386479155893263   -0.01930606748382654
-0.5817704624105194   -0.16386479155893263   -0.01930606748382654
-0.5817704624105194   -0.16386479155893263   -0.01930606748382654
-0.45910140577104913   -0.04332960847890631   -0.039064848562368026
-0.45910140577104913   -0.04332960847890631   -0.039064848562368026
-0.45910140577104913   -0.04332960847890631   -0.039064848562368026
-0.45910140577104913   -0.04332960847890631   -0.039064848562368026
-5.642974530752214   -0.7958797290504331   -0.46664277236154794
-5.642974530752214   -0.7958797290504331   -0.46664277236154794
-5.642974530752214   -0.7958797290504331   -0.46664277236154794
-5.642974530752214   -0.7958797290504331   -0.46664277236154794
-1.9532538507701547   -3.034016260553643   -0.3660240155855858
-1.9532538507701547   -3.034016260553643   -0.3660240155855858
-1.9532538507701547   -3.034016260553643   -0.3660240155855858
-1.9532538507701547   -3.034016260553643   -0.3660240155855858
-1.5150165733387717   -0.12594277264142367   0.0026489107089692487
-1.5150165733387717   -0.12594277264142367   0.0026489107089692487
-1.5150165733387717   -0.12594277264142367   0.0026489107089692487
-1.5150165733387717   -0.12594277264142367   0.0026489107089692487
-6.014692454959398   -3.574509378686116   -1.917840366729103
-6.014692454959398   -3.574509378686116   -1.917840366729103
-6.014692454959398   -3.574509378686116   -1.917840366729103
-6.014692454959398   -3.574509378686116   -1.917840366729103
-3.6871657020084276   -1.7794160503577294   -0.2591388307136992
-3.6871657020084276   -1.7794160503577294   -0.2591388307136992
-3.6871657020084276   -1.7794160503577294   -0.2591388307136992
-3.6871657020084276   -1.7794160503577294   -0.2591388307136992
-5.242828367800448   -0.9988673129997122   -0.6341619966207971
-5.242828367800448   -0.9988673129997122   -0.6341619966207971
-5.242828367800448   -0.9988673129997122   -0.6341619966207971
-5.242828367800448   -0.9988673129997122   -0.6341619966207971
-2.107714144051787   -2.522418321881897   -0.5643633936156187
-2.107714144051787   -2.522418321881897   -0.5643633936156187
-2.107714144051787   -2.522418321881897   -0.5643633936156187
-2.107714144051787   -2.522418321881897   -0.5643633936156187
-1.544148197867856   -0.1690838538603676   0.05836557942057815
-1.544148197867856   -0.1690838538603676   0.05836557942057815
-1.544148197867856   -0.1690838538603676   0.05836557942057815
-1.544148197867856   -0.1690838538603676   0.05836557942057815
-5.6274325086628085   -3.1841490357319326   -1.7623163088789482
-5.6274325086628085   -3.1841490357319326   -1.7623163088789482
-5.6274325086628085   -3.1841490357319326   -1.7623163088789482
-5.6274325086628085   -3.1841490357319326   -1.7623163088789482
-3.472050409069305   -1.603128768563629   0.1416414138356174
-3.472050409069305   -1.603128768563629   0.1416414138356174
-3.472050409069305   -1.603128768563629   0.1416414138356174
-3.472050409069305   -1.603128768563629   0.1416414138356174
-4.922745865774441   -0.950902441133015   -0.47212968903607266
-4.922745865774441   -0.950902441133015   -0.47212968903607266
-4.922745865774441   -0.950902441133015   -0.47212968903607266
-4.922745865774441   -0.950902441133015   -0.47212968903607266
-2.0498975736905662   -2.2033931813936336   -0.43607197215969595
-2.0498975736905662   -2.2033931813936336   -0.43607197215969595
-2.0498975736905662   -2.2033931813936336   -0.43607197215969595
-2.0498975736905662   -2.2033931813936336   -0.43607197215969595
-1.7711125488395125   -0.4495945660966978   -0.0909835276965692
-1.7711125488395125   -0.4495945660966978   -0.0909835276965692
-1.7711125488395125   -0.4495945660966978   -0.0909835276965692
-1.7711125488395125   -0.4495945660966978   -0.0909835276965692
-5.128407592576885   -2.6704267271830453   -1.559766863951986
-5.128407592576885   -2.6704267271830453   -1.559766863951986
-5.128407592576885   -2.6704267271830453   -1.559766863951986
-5.128407592576885   -2.6704267271830453   -1.559766863951986
-3.215271145724694   -1.388786776435618   0.5939527456483117
-3.215271145724694   -1.388786776435618   0.5939527456483117
-3.215271145724694   -1.388786776435618   0.5939527456483117
-3.215271145724694   -1.388786776435618   0.5939527456483117
-1.4529376543927328   -0.7822604527321606   -0.11619884151997037
-1.4529376543927328   -0.7822604527321606   -0.11619884151997037
-1.4529376543927328   -0.7822604527321606   -0.11619884151997037
-1.4529376543927328   -0.7822604527321606   -0.11619884151997037
-0.6673115995057286   -0.9454866115896704   -0.16466892376133307
-0.6673115995057286   -0.9454866115896704   -0.16466892376133307
-0.6673115995057286   -0.9454866115896704   -0.16466892376133307
-0.6673115995057286   -0.9454866115896704   -0.16466892376133307
-0.591389775985437   -0.4975550732552624   0.015651756948990708
-0.591389775985437   -0.4975550732552624   0.015651756948990708
-0.591389775985437   -0.4975550732552624   0.015651756948990708
-0.591389775985437   -0.4975550732552624   0.015651756948990708
-1.7695330233257804   -1.3944995949012504   -0.0013765169662325882
-1.7695330233257804   -1.3944995949012504   -0.0013765169662325882
-1.7695330233257804   -1.3944995949012504   -0.0013765169662325882
-1.7695330233257804   -1.3944995949012504   -0.0013765169662325882
-0.9525012985080603   -0.6774954406951389   0.3036020965851964
-0.9525012985080603   -0.6774954406951389   0.3036020965851964
-0.9525012985080603   -0.6774954406951389   0.3036020965851964
-0.9525012985080603   -0.6774954406951389   0.3036020965851964
-1.650785189858575   -0.7274932469383193   -0.07464369759315603
-1.650785189858575   -0.7274932469383193   -0.07464369759315603
-1.650785189858575   -0.7274932469383193   -0.07464369759315603
-1.650785189858575   -0.7274932469383193   -0.07464369759315603
-0.7595883281900278   -1.2140121399555794   -0.10888393737363061
-0.7595883281900278   -1.2140121399555794   -0.10888393737363061
-0.7595883281900278   -1.2140121399555794   -0.10888393737363061
-0.7595883281900278   -1.2140121399555794   -0.10888393737363061
-0.6374268036577265   -0.5157925860793509   0.015802150963185033
-0.6374268036577265   -0.5157925860793509   0.015802150963185033
-0.6374268036577265   -0.5157925860793509   0.015802150963185033
-0.6374268036577265   -0.5157925860793509   0.015802150963185033
-1.853808712719375   -1.3749351714371805   -0.2840856772601925
-1.853808712719375   -1.3749351714371805   -0.2840856772601925
-1.853808712719375   -1.3749351714371805   -0.2840856772601925
-1.853808712719375   -1.3749351714371805   -0.2840856772601925
-1.1331929666646237   -0.8706375630850507   0.13982404474860693
-1.1331929666646237   -0.8706375630850507   0.13982404474860693
-1.1331929666646237   -0.8706375630850507   0.13982404474860693
-1.1331929666646237   -0.8706375630850507   0.13982404474860693
-1.7017577589359338   -0.759643686069721   -0.1391223937104581
-1.7017577589359338   -0.759643686069721   -0.1391223937104581
-1.7017577589359338   -0.759643686069721   -0.1391223937104581
-1.7017577589359338   -0.759643686069721   -0.1391223937104581
-0.7847960542263538   -1.1264023682319984   -0.11043431972730361
-0.7847960542263538   -1.1264023682319984   -0.11043431972730361
-0.7847960542263538   -1.1264023682319984   -0.11043431972730361
-0.7847960542263538   -1.1264023682319984   -0.11043431972730361
-0.7079963643601105   -0.5330623856368756   0.023218028942726246
-0.7079963643601105   -0.5330623856368756   0.023218028942726246
-0.7079963643601105   -0.5330623856368756   0.023218028942726246
-0.7079963643601105   -0.5330623856368756   0.023218028942726246
-1.979599472059144   -1.3347324952806106   -0.24828021461080613
-1.979599472059144   -1.3347324952806106   -0.24828021461080613
-1.979599472059144   -1.3347324952806106   -0.24828021461080613
-1.979599472059144   -1.3347324952806106   -0.24828021461080613
-1.1838586501938335   -0.8202817962571076   0.14818912719501423
-1.1838586501938335   -0.8202817962571076   0.14818912719501423
-1.1838586501938335   -0.8202817962571076   0.14818912719501423
-1.1838586501938335   -0.8202817962571076   0.14818912719501423
-0.5315255446349065   -0.4653007323892023   0.03407547139230918
-0.5315255446349065   -0.4653007323892023   0.03407547139230918
-0.5315255446349065   -0.4653007323892023   0.03407547139230918
-0.5315255446349065   -0.4653007323892023   0.03407547139230918
-0.32092801847209945   -0.2878728418255883   -0.08003475621051098
-0.32092801847209945   -0.2878728418255883   -0.08003475621051098
-0.32092801847209945   -0.2878728418255883   -0.08003475621051098
-0.32092801847209945   -0.2878728418255883   -0.08003475621051098
-0.31253523118237997   -0.41483881342552575   0.034658406483129525
-0.31253523118237997   -0.41483881342552575   0.034658406483129525
-0.31253523118237997   -0.41483881342552575   0.034658406483129525
-0.31253523118237997   -0.41483881342552575   0.034658406483129525
-0.5825748099750382   -0.39933686893083475   -0.03849161732342754
-0.5825748099750382   -0.39933686893083475   -0.03849161732342754
-0.5825748099750382   -0.39933686893083475   -0.03849161732342754
-0.5825748099750382   -0.39933686893083475   -0.03849161732342754
-0.3694200004328459   -0.33093040419205605   0.15193679309437774
-0.3694200004328459   -0.33093040419205605   0.15193679309437774
-0.3694200004328459   -0.33093040419205605   0.15193679309437774
-0.3694200004328459   -0.33093040419205605   0.15193679309437774
-0.5813482973532829   -0.4682269104878578   0.03653098734237194
-0.5813482973532829   -0.4682269104878578   0.03653098734237194
-0.5813482973532829   -0.4682269104878578   0.03653098734237194
-0.5813482973532829   -0.4682269104878578   0.03653098734237194
-0.3185391476234988   -0.35072617568786624   -0.0594738134601242
-0.3185391476234988   -0.35072617568786624   -0.0594738134601242
-0.3185391476234988   -0.35072617568786624   -0.0594738134601242
-0.3185391476234988   -0.35072617568786624   -0.0594738134601242
-0.3149899756558918   -0.42732595895113856   0.030645228864025417
-0.3149899756558918   -0.42732595895113856   0.030645228864025417
-0.3149899756558918   -0.42732595895113856   0.030645228864025417
-0.3149899756558918   -0.42732595895113856   0.030645228864025417
-0.6169904683455137   -0.4668723509512423   0.06906359239614004
-0.6169904683455137   -0.4668723509512423   0.06906359239614004
-0.6169904683455137   -0.4668723509512423   0.06906359239614004
-0.6169904683455137   -0.4668723509512423   0.06906359239614004
-0.39994259489337775   -0.36838649268670093   0.12974172962848862
-0.39994259489337775   -0.36838649268670093   0.12974172962848862
-0.39994259489337775   -0.36838649268670093   0.12974172962848862
-0.39994259489337775   -0.36838649268670093   0.12974172962848862
-0.6246505825523934   -0.4855074933509532   0.04939816376145366
-0.6246505825523934   -0.4855074933509532   0.04939816376145366
-0.6246505825523934   -0.4855074933509532   0.04939816376145366
-0.6246505825523934   -0.4855074933509532   0.04939816376145366
-0.33375070136023266   -0.435111656462648   -0.055372702146169545
-0.33375070136023266   -0.435111656462648   -0.055372702146169545
-0.33375070136023266   -0.435111656462648   -0.055372702146169545
-0.33375070136023266   -0.435111656462648   -0.055372702146169545
-0.3166980731267676   -0.44143921528471747   0.0429021053862048
-0.3166980731267676   -0.44143921528471747   0.0429021053862048
-0.3166980731267676   -0.44143921528471747   0.0429021053862048
-0.3166980731267676   -0.44143921528471747   0.0429021053862048
-0.718851290203378   -0.5767950771951359   0.012676091284664626
-0.718851290203378   -0.5767950771951359   0.012676091284664626
-0.718851290203378   -0.5767950771951359   0.012676091284664626
-0.718851290203378   -0.5767950771951359   0.012676091284664626
-0.4447131125279432   -0.4208188011540994   0.06274365256789963
-0.4447131125279432   -0.4208188011540994   0.06274365256789963
-0.4447131125279432   -0.4208188011540994   0.06274365256789963
-0.4447131125279432   -0.4208188011540994   0.06274365256789963
-0.26637040979384663   -0.184982240075647   0.08986268543081172
-0.26637040979384663   -0.184982240075647   0.08986268543081172
-0.26637040979384663   -0.184982240075647   0.08986268543081172
-0.26637040979384663   -0.184982240075647   0.08986268543081172
-0.18348069355913965   0.006888517274097346   -0.017758005175607286
-0.18348069355913965   0.006888517274097346   -0.017758005175607286
-0.18348069355913965   0.006888517274097346   -0.017758005175607286
-0.18348069355913965   0.006888517274097346   -0.017758005175607286
-0.17436112391262776   -0.1992964713843864   0.05593995284864593
-0.17436112391262776   -0.1992964713843864   0.05593995284864593
-0.17436112391262776   -0.1992964713843864   0.05593995284864593
-0.17436112391262776   -0.1992964713843864   0.05593995284864593
-0.2445623200571402   -0.027607335961496598   -0.012708515354700797
-0.2445623200571402   -0.027607335961496598   -0.012708515354700797
-0.2445623200571402   -0.027607335961496598   -0.012708515354700797
-0.2445623200571402   -0.027607335961496598   -0.012708515354700797
-0.20100423074544485   -0.09816124051402486   0.044592163565710496
-0.20100423074544485   -0.09816124051402486   0.044592163565710496
-0.20100423074544485   -0.09816124051402486   0.044592163565710496
-0.20100423074544485   -0.09816124051402486   0.044592163565710496
-0.2618056723782671   -0.21106657852634148   0.0845339656045098
-0.2618056723782671   -0.21106657852634148   0.0845339656045098
-0.2618056723782671   -0.21106657852634148   0.0845339656045098
-0.2618056723782671   -0.21106657852634148   0.0845339656045098
-0.15233136013584933   -0.01105081736388992   -0.022156882287958316
-0.15233136013584933   -0.01105081736388992   -0.022156882287958316
-0.15233136013584933   -0.01105081736388992   -0.022156882287958316
-0.15233136013584933   -0.01105081736388992   -0.022156882287958316
-0.15880163832320665   -0.21685469517945352   0.05140803709454473
-0.15880163832320665   -0.21685469517945352   0.05140803709454473
-0.15880163832320665   -0.21685469517945352   0.05140803709454473
-0.15880163832320665   -0.21685469517945352   0.05140803709454473
-0.24508852066501458   -0.0604458351682276   0.013272380035500467
-0.24508852066501458   -0.0604458351682276   0.013272380035500467
-0.24508852066501458   -0.0604458351682276   0.013272380035500467
-0.24508852066501458   -0.0604458351682276   0.013272380035500467
-0.18319535571722229   -0.11225226134719296   0.053951275024894274
-0.18319535571722229   -0.11225226134719296   0.053951275024894274
-0.18319535571722229   -0.11225226134719296   0.053951275024894274
-0.18319535571722229   -0.11225226134719296   0.053951275024894274
-0.2620727028941969   -0.22850782397357092   0.09641345769494797
-0.2620727028941969   -0.22850782397357092   0.09641345769494797
-0.2620727028941969   -0.22850782397357092   0.09641345769494797
-0.2620727028941969   -0.22850782397357092   0.09641345769494797
-0.1429552115013501   -0.049930461781433344   -0.03628406219419276
-0.1429552115013501   -0.049930461781433344   -0.03628406219419276
-0.1429552115013501   -0.049930461781433344   -0.03628406219419276
-0.1429552115013501   -0.049930461781433344   -0.03628406219419276
-0.13100042930292013   -0.236324847510522   0.056355927947376025
-0.13100042930292013   -0.236324847510522   0.056355927947376025
-0.13100042930292013   -0.236324847510522   0.056355927947376025
-0.13100042930292013   -0.236324847510522   0.056355927947376025
-0.26189221717330097   -0.1421076300957717   0.01759979996459214
-0.26189221717330097   -0.1421076300957717   0.01759979996459214
-0.26189221717330097   -0.1421076300957717   0.01759979996459214
-0.26189221717330097   -0.1421076300957717   0.01759979996459214
-0.1746683893567283   -0.14216230928298937   0.04762669897665385
-0.1746683893567283   -0.14216230928298937   0.04762669897665385
-0.1746683893567283   -0.14216230928298937   0.04762669897665385
-0.1746683893567283   -0.14216230928298937   0.04762669897665385
-0.1699986446400535   -0.03344248857176431   0.08998324526568519
-0.1699986446400535   -0.03344248857176431   0.08998324526568519
-0.1699986446400535   -0.03344248857176431   0.08998324526568519
-0.1699986446400535   -0.03344248857176431   0.08998324526568519
-0.027353102096599823   0.021135742362166726   -0.0018147755117416805
-0.027353102096599823   0.021135742362166726   -0.0018147755117416805
-0.027353102096599823   0.021135742362166726   -0.0018147755117416805
-0.027353102096599823   0.021135742362166726   -0.0018147755117416805
0.012841237965780442   -0.01038883407090994   0.05534464678752647
0.012841237965780442   -0.01038883407090994   0.05534464678752647
0.012841237965780442   -0.01038883407090994   0.05534464678752647
0.012841237965780442   -0.01038883407090994   0.05534464678752647
-0.14392848405793937   0.016693289556573454   -0.007886608818872006
-0.14392848405793937   0.016693289556573454   -0.007886608818872006
-0.14392848405793937   0.016693289556573454   -0.007886608818872006
-0.14392848405793937   0.016693289556573454   -0.007886608818872006
-0.08364524763949502   -0.006010838974710666   -0.007247010807647872
-0.08364524763949502   -0.006010838974710666   -0.007247010807647872
-0.08364524763949502   -0.006010838974710666   -0.007247010807647872
-0.08364524763949502   -0.006010838974710666   -0.007247010807647872
-0.13340166334678133   -0.032015155693524394   0.093455939987016
-0.13340166334678133   -0.032015155693524394   0.093455939987016
-0.13340166334678133   -0.032015155693524394   0.093455939987016
-0.13340166334678133   -0.032015155693524394   0.093455939987016
0.007453251966197661   0.043458445890763156   -0.025442563172060534
0.007453251966197661   0.043458445890763156   -0.025442563172060534
0.007453251966197661   0.043458445890763156   -0.025442563172060534
0.007453251966197661   0.043458445890763156   -0.025442563172060534
0.03377100981834194   -0.012654849545671313   0.06814718897826191
0.03377100981834194   -0.012654849545671313   0.06814718897826191
0.03377100981834194   -0.012654849545671313   0.06814718897826191
0.03377100981834194   -0.012654849545671313   0.06814718897826191
-0.1252655651153216   0.0139727231379927   -0.011739015183476252
-0.1252655651153216   0.0139727231379927   -0.011739015183476252
-0.1252655651153216   0.0139727231379927   -0.011739015183476252
-0.1252655651153216   0.0139727231379927   -0.011739015183476252
-0.0531823605792059   -0.0007729207854397617   0.009143052723099392
-0.0531823605792059   -0.0007729207854397617   0.009143052723099392
-0.0531823605792059   -0.0007729207854397617   0.009143052723099392
-0.0531823605792059   -0.0007729207854397617   0.009143052723099392
-0.11279631467217428   -0.03556813350448027   0.10014809367473335
-0.11279631467217428   -0.03556813350448027   0.10014809367473335
-0.11279631467217428   -0.03556813350448027   0.10014809367473335
-0.11279631467217428   -0.03556813350448027   0.10014809367473335
0.0260393295579116   0.04162357727951863   -0.02478963914907977
0.0260393295579116   0.04162357727951863   -0.02478963914907977
0.0260393295579116   0.04162357727951863   -0.02478963914907977
0.0260393295579116   0.04162357727951863   -0.02478963914907977
0.05571778908210892   -0.019318176651036505   0.0659387555630257
0.05571778908210892   -0.019318176651036505   0.0659387555630257
0.05571778908210892   -0.019318176651036505   0.0659387555630257
0.05571778908210892   -0.019318176651036505   0.0659387555630257
-0.09449484246292969   0.01597075888919022   -0.013411744252383955
-0.09449484246292969   0.01597075888919022   -0.013411744252383955
-0.09449484246292969   0.01597075888919022   -0.013411744252383955
-0.09449484246292969   0.01597075888919022   -0.013411744252383955
-0.02574505365052382   0.0028704516524803896   0.02388681492531069
-0.02574505365052382   0.0028704516524803896   0.02388681492531069
-0.02574505365052382   0.0028704516524803896   0.02388681492531069
-0.02574505365052382   0.0028704516524803896   0.02388681492531069
              </DataArray>   
             <DataArray type="Float64" NumberOfComponents="3" Name="Displacements" format="ascii">   
0.0   0.0   0.0
-0.015671206232807208   -0.010254713927734457   -0.005248011246098861
0.0   0.0   0.0
0.0   0.0   0.0
-0.015671206232807208   -0.010254713927734457   -0.005248011246098861
-0.009974892029708958   -0.00921065804120304   -0.0038554281531332194
0.0   0.0   0.0
-0.009779724951995666   -0.009674432801655945   -0.003229385729912908
0.0   0.0   0.0
0.0   0.0   0.0
-0.009779724951995666   -0.009674432801655945   -0.003229385729912908
0.0   0.0   0.0
0.0   0.0   0.0
-0.009779724951995666   -0.009674432801655945   -0.003229385729912908
-0.016403260808179793   -0.01092620109056253   -0.004212459514366773
-0.015671206232807208   -0.010254713927734457   -0.005248011246098861
0.0   0.0   0.0
-0.009779724951995666   -0.009674432801655945   -0.003229385729912908
-0.015671206232807208   -0.010254713927734457   -0.005248011246098861
0.0   0.0   0.0
0.0   0.0   0.0
-0.016403260808179793   -0.01092620109056253   -0.004212459514366773
0.0   0.0   0.0
0.0   0.0   0.0
-0.016403260808179793   -0.01092620109056253   -0.004212459514366773
-0.009779724951995666   -0.009674432801655945   -0.003229385729912908
0.0   0.0   0.0
-0.009809580628290477   -0.009911841299235623   -0.0026039857247777674
0.0   0.0   0.0
0.0   0.0   0.0
-0.009809580628290477   -0.009911841299235623   -0.0026039857247777674
0.0   0.0   0.0
0.0   0.0   0.0
-0.009809580628290477   -0.009911841299235623   -0.0026039857247777674
-0.016918420026601152   -0.011252608535651881   -0.0032197476453624495
-0.016403260808179793   -0.01092620109056253   -0.004212459514366773
0.0   0.0   0.0
-0.009809580628290477   -0.009911841299235623   -0.0026039857247777674
-0.016403260808179793   -0.01092620109056253   -0.004212459514366773
0.0   0.0   0.0
0.0   0.0   0.0
-0.016918420026601152   -0.011252608535651881   -0.0032197476453624495
0.0   0.0   0.0
0.0   0.0   0.0
-0.016918420026601152   -0.011252608535651881   -0.0032197476453624495
-0.009809580628290477   -0.009911841299235623   -0.0026039857247777674
0.0   0.0   0.0
-0.009806989193256328   -0.009972487051842532   -0.0019569904050475086
0.0   0.0   0.0
0.0   0.0   0.0
-0.009806989193256328   -0.009972487051842532   -0.0019569904050475086
0.0   0.0   0.0
0.0   0.0   0.0
-0.009806989193256328   -0.009972487051842532   -0.0019569904050475086
-0.018025957096286037   -0.011498915757211431   -0.002067740350490837
-0.016918420026601152   -0.011252608535651881   -0.0032197476453624495
0.0   0.0   0.0
-0.009806989193256328   -0.009972487051842532   -0.0019569904050475086
-0.016918420026601152   -0.011252608535651881   -0.0032197476453624495
0.0   0.0   0.0
0.0   0.0   0.0
-0.009974892029708958   -0.00921065804120304   -0.0038554281531332194
0.0   0.0   0.0
0.0   0.0   0.0
-0.009974892029708958   -0.00921065804120304   -0.0038554281531332194
-0.0045399887584133955   -0.008827273552522089   -0.002931542251852959
0.0   0.0   0.0
-0.004368714379996017   -0.009129407418819145   -0.002636267736609548
0.0   0.0   0.0
0.0   0.0   0.0
-0.004368714379996017   -0.009129407418819145   -0.002636267736609548
0.0   0.0   0.0
0.0   0.0   0.0
-0.004368714379996017   -0.009129407418819145   -0.002636267736609548
-0.009779724951995666   -0.009674432801655945   -0.003229385729912908
-0.009974892029708958   -0.00921065804120304   -0.0038554281531332194
0.0   0.0   0.0
-0.004368714379996017   -0.009129407418819145   -0.002636267736609548
-0.009974892029708958   -0.00921065804120304   -0.0038554281531332194
0.0   0.0   0.0
0.0   0.0   0.0
-0.009779724951995666   -0.009674432801655945   -0.003229385729912908
0.0   0.0   0.0
0.0   0.0   0.0
-0.009779724951995666   -0.009674432801655945   -0.003229385729912908
-0.004368714379996017   -0.009129407418819145   -0.002636267736609548
0.0   0.0   0.0
-0.004273451427990936   -0.009244476610361785   -0.002348448641975673
0.0   0.0   0.0
0.0   0.0   0.0
-0.004273451427990936   -0.009244476610361785   -0.002348448641975673
0.0   0.0   0.0
0.0   0.0   0.0
-0.004273451427990936   -0.009244476610361785   -0.002348448641975673
-0.009809580628290477   -0.009911841299235623   -0.0026039857247777674
-0.009779724951995666   -0.009674432801655945   -0.003229385729912908
0.0   0.0   0.0
-0.004273451427990936   -0.009244476610361785   -0.002348448641975673
-0.009779724951995666   -0.009674432801655945   -0.003229385729912908
0.0   0.0   0.0
0.0   0.0   0.0
-0.009809580628290477   -0.009911841299235623   -0.0026039857247777674
0.0   0.0   0.0
0.0   0.0   0.0
-0.009809580628290477   -0.009911841299235623   -0.0026039857247777674
-0.004273451427990936   -0.009244476610361785   -0.002348448641975673
0.0   0.0   0.0
-0.004187082885668811   -0.00919625414153803   -0.0020506294271309703
0.0   0.0   0.0
0.0   0.0   0.0
-0.004187082885668811   -0.00919625414153803   -0.0020506294271309703
0.0   0.0   0.0
0.0   0.0   0.0
-0.004187082885668811   -0.00919625414153803   -0.0020506294271309703
-0.009806989193256328   -0.009972487051842532   -0.0019569904050475086
-0.009809580628290477   -0.009911841299235623   -0.0026039857247777674
0.0   0.0   0.0
-0.004187082885668811   -0.00919625414153803   -0.0020506294271309703
-0.009809580628290477   -0.009911841299235623   -0.0026039857247777674
0.0   0.0   0.0
0.0   0.0   0.0
-0.0045399887584133955   -0.008827273552522089   -0.002931542251852959
0.0   0.0   0.0
0.0   0.0   0.0
-0.0045399887584133955   -0.008827273552522089   -0.002931542251852959
0.0005969182498705582   -0.00887604012183265   -0.002342193397563604
0.0   0.0   0.0
0.0007051877571796643   -0.009032936091507758   -0.0023837066077707003
0.0   0.0   0.0
0.0   0.0   0.0
0.0007051877571796643   -0.009032936091507758   -0.0023837066077707003
0.0   0.0   0.0
0.0   0.0   0.0
0.0007051877571796643   -0.009032936091507758   -0.0023837066077707003
-0.004368714379996017   -0.009129407418819145   -0.002636267736609548
-0.0045399887584133955   -0.008827273552522089   -0.002931542251852959
0.0   0.0   0.0
0.0007051877571796643   -0.009032936091507758   -0.0023837066077707003
-0.0045399887584133955   -0.008827273552522089   -0.002931542251852959
0.0   0.0   0.0
0.0   0.0   0.0
-0.004368714379996017   -0.009129407418819145   -0.002636267736609548
0.0   0.0   0.0
0.0   0.0   0.0
-0.004368714379996017   -0.009129407418819145   -0.002636267736609548
0.0007051877571796643   -0.009032936091507758   -0.0023837066077707003
0.0   0.0   0.0
0.0007903402026314284   -0.009020187828082851   -0.0024209848722506143
0.0   0.0   0.0
0.0   0.0   0.0
0.0007903402026314284   -0.009020187828082851   -0.0024209848722506143
0.0   0.0   0.0
0.0   0.0   0.0
0.0007903402026314284   -0.009020187828082851   -0.0024209848722506143
-0.004273451427990936   -0.009244476610361785   -0.002348448641975673
-0.004368714379996017   -0.009129407418819145   -0.002636267736609548
0.0   0.0   0.0
0.0007903402026314284   -0.009020187828082851   -0.0024209848722506143
-0.004368714379996017   -0.009129407418819145   -0.002636267736609548
0.0   0.0   0.0
0.0   0.0   0.0
-0.004273451427990936   -0.009244476610361785   -0.002348448641975673
0.0   0.0   0.0
0.0   0.0   0.0
-0.004273451427990936   -0.009244476610361785   -0.002348448641975673
0.0007903402026314284   -0.009020187828082851   -0.0024209848722506143
0.0   0.0   0.0
0.0009056684652496326   -0.008823839008398003   -0.0024590321352143093
0.0   0.0   0.0
0.0   0.0   0.0
0.0009056684652496326   -0.008823839008398003   -0.0024590321352143093
0.0   0.0   0.0
0.0   0.0   0.0
0.0009056684652496326   -0.008823839008398003   -0.0024590321352143093
-0.004187082885668811   -0.00919625414153803   -0.0020506294271309703
-0.004273451427990936   -0.009244476610361785   -0.002348448641975673
0.0   0.0   0.0
0.0009056684652496326   -0.008823839008398003   -0.0024590321352143093
-0.004273451427990936   -0.009244476610361785   -0.002348448641975673
0.0   0.0   0.0
0.0   0.0   0.0
0.0005969182498705582   -0.00887604012183265   -0.002342193397563604
0.0   0.0   0.0
0.0   0.0   0.0
0.0005969182498705582   -0.00887604012183265   -0.002342193397563604
0.006171017465043356   -0.00931031131969667   -0.0020499315088818642
0.0   0.0   0.0
0.006179038277318403   -0.009360703881035482   -0.002445800113976811
0.0   0.0   0.0
0.0   0.0   0.0
0.006179038277318403   -0.009360703881035482   -0.002445800113976811
0.0   0.0   0.0
0.0   0.0   0.0
0.006179038277318403   -0.009360703881035482   -0.002445800113976811
0.0007051877571796643   -0.009032936091507758   -0.0023837066077707003
0.0005969182498705582   -0.00887604012183265   -0.002342193397563604
0.0   0.0   0.0
0.006179038277318403   -0.009360703881035482   -0.002445800113976811
0.0005969182498705582   -0.00887604012183265   -0.002342193397563604
0.0   0.0   0.0
0.0   0.0   0.0
0.0007051877571796643   -0.009032936091507758   -0.0023837066077707003
0.0   0.0   0.0
0.0   0.0   0.0
0.0007051877571796643   -0.009032936091507758   -0.0023837066077707003
0.006179038277318403   -0.009360703881035482   -0.002445800113976811
0.0   0.0   0.0
0.006150030120751012   -0.009227015413256063   -0.0028252642923523
0.0   0.0   0.0
0.0   0.0   0.0
0.006150030120751012   -0.009227015413256063   -0.0028252642923523
0.0   0.0   0.0
0.0   0.0   0.0
0.006150030120751012   -0.009227015413256063   -0.0028252642923523
0.0007903402026314284   -0.009020187828082851   -0.0024209848722506143
0.0007051877571796643   -0.009032936091507758   -0.0023837066077707003
0.0   0.0   0.0
0.006150030120751012   -0.009227015413256063   -0.0028252642923523
0.0007051877571796643   -0.009032936091507758   -0.0023837066077707003
0.0   0.0   0.0
0.0   0.0   0.0
0.0007903402026314284   -0.009020187828082851   -0.0024209848722506143
0.0   0.0   0.0
0.0   0.0   0.0
0.0007903402026314284   -0.009020187828082851   -0.0024209848722506143
0.006150030120751012   -0.009227015413256063   -0.0028252642923523
0.0   0.0   0.0
0.006266693029626498   -0.008868056937720668   -0.0031972649490031816
0.0   0.0   0.0
0.0   0.0   0.0
0.006266693029626498   -0.008868056937720668   -0.0031972649490031816
0.0   0.0   0.0
0.0   0.0   0.0
0.006266693029626498   -0.008868056937720668   -0.0031972649490031816
0.0009056684652496326   -0.008823839008398003   -0.0024590321352143093
0.0007903402026314284   -0.009020187828082851   -0.0024209848722506143
0.0   0.0   0.0
0.006266693029626498   -0.008868056937720668   -0.0031972649490031816
0.0007903402026314284   -0.009020187828082851   -0.0024209848722506143
0.0   0.0   0.0
0.0   0.0   0.0
0.006171017465043356   -0.00931031131969667   -0.0020499315088818642
0.0   0.0   0.0
0.0   0.0   0.0
0.006171017465043356   -0.00931031131969667   -0.0020499315088818642
0.013916343204081473   -0.010409995128445381   -0.001932220478300043
0.0   0.0   0.0
0.013065857251210523   -0.010297295408232921   -0.002828874662447652
0.0   0.0   0.0
0.0   0.0   0.0
0.013065857251210523   -0.010297295408232921   -0.002828874662447652
0.0   0.0   0.0
0.0   0.0   0.0
0.013065857251210523   -0.010297295408232921   -0.002828874662447652
0.006179038277318403   -0.009360703881035482   -0.002445800113976811
0.006171017465043356   -0.00931031131969667   -0.0020499315088818642
0.0   0.0   0.0
0.013065857251210523   -0.010297295408232921   -0.002828874662447652
0.006171017465043356   -0.00931031131969667   -0.0020499315088818642
0.0   0.0   0.0
0.0   0.0   0.0
0.006179038277318403   -0.009360703881035482   -0.002445800113976811
0.0   0.0   0.0
0.0   0.0   0.0
0.006179038277318403   -0.009360703881035482   -0.002445800113976811
0.013065857251210523   -0.010297295408232921   -0.002828874662447652
0.0   0.0   0.0
0.012672514968288499   -0.010083181111515108   -0.0035868734972020915
0.0   0.0   0.0
0.0   0.0   0.0
0.012672514968288499   -0.010083181111515108   -0.0035868734972020915
0.0   0.0   0.0
0.0   0.0   0.0
0.012672514968288499   -0.010083181111515108   -0.0035868734972020915
0.006150030120751012   -0.009227015413256063   -0.0028252642923523
0.006179038277318403   -0.009360703881035482   -0.002445800113976811
0.0   0.0   0.0
0.012672514968288499   -0.010083181111515108   -0.0035868734972020915
0.006179038277318403   -0.009360703881035482   -0.002445800113976811
0.0   0.0   0.0
0.0   0.0   0.0
0.006150030120751012   -0.009227015413256063   -0.0028252642923523
0.0   0.0   0.0
0.0   0.0   0.0
0.006150030120751012   -0.009227015413256063   -0.0028252642923523
0.012672514968288499   -0.010083181111515108   -0.0035868734972020915
0.0   0.0   0.0
0.012088717222774813   -0.009534589249261637   -0.004388477341497083
0.0   0.0   0.0
0.0   0.0   0.0
0.012088717222774813   -0.009534589249261637   -0.004388477341497083
0.0   0.0   0.0
0.0   0.0   0.0
0.012088717222774813   -0.009534589249261637   -0.004388477341497083
0.006266693029626498   -0.008868056937720668   -0.0031972649490031816
0.006150030120751012   -0.009227015413256063   -0.0028252642923523
0.0   0.0   0.0
0.012088717222774813   -0.009534589249261637   -0.004388477341497083
0.006150030120751012   -0.009227015413256063   -0.0028252642923523
0.0   0.0   0.0
-0.015671206232807208   -0.010254713927734457   -0.005248011246098861
-0.029290655700096375   -0.028664520750838855   -0.0070694678638380925
-0.009974892029708958   -0.00921065804120304   -0.0038554281531332194
-0.016403260808179793   -0.01092620109056253   -0.004212459514366773
-0.029290655700096375   -0.028664520750838855   -0.0070694678638380925
-0.01869601952013323   -0.027724803635739464   -0.005816929643520747
-0.009974892029708958   -0.00921065804120304   -0.0038554281531332194
-0.018721541012451527   -0.028199710872902423   -0.0052373698420956705
-0.016403260808179793   -0.01092620109056253   -0.004212459514366773
-0.009779724951995666   -0.009674432801655945   -0.003229385729912908
-0.018721541012451527   -0.028199710872902423   -0.0052373698420956705
-0.009974892029708958   -0.00921065804120304   -0.0038554281531332194
-0.016403260808179793   -0.01092620109056253   -0.004212459514366773
-0.018721541012451527   -0.028199710872902423   -0.0052373698420956705
-0.030172783801880675   -0.029326842911697695   -0.006127839581875733
-0.029290655700096375   -0.028664520750838855   -0.0070694678638380925
-0.016403260808179793   -0.01092620109056253   -0.004212459514366773
-0.018721541012451527   -0.028199710872902423   -0.0052373698420956705
-0.029290655700096375   -0.028664520750838855   -0.0070694678638380925
-0.009974892029708958   -0.00921065804120304   -0.0038554281531332194
-0.016403260808179793   -0.01092620109056253   -0.004212459514366773
-0.030172783801880675   -0.029326842911697695   -0.006127839581875733
-0.009779724951995666   -0.009674432801655945   -0.003229385729912908
-0.016918420026601152   -0.011252608535651881   -0.0032197476453624495
-0.030172783801880675   -0.029326842911697695   -0.006127839581875733
-0.018721541012451527   -0.028199710872902423   -0.0052373698420956705
-0.009779724951995666   -0.009674432801655945   -0.003229385729912908
-0.018798963928984093   -0.02848890452586026   -0.004680213507366564
-0.016918420026601152   -0.011252608535651881   -0.0032197476453624495
-0.009809580628290477   -0.009911841299235623   -0.0026039857247777674
-0.018798963928984093   -0.02848890452586026   -0.004680213507366564
-0.009779724951995666   -0.009674432801655945   -0.003229385729912908
-0.016918420026601152   -0.011252608535651881   -0.0032197476453624495
-0.018798963928984093   -0.02848890452586026   -0.004680213507366564
-0.030787128395248588   -0.029700593353895337   -0.005205516499571218
-0.030172783801880675   -0.029326842911697695   -0.006127839581875733
-0.016918420026601152   -0.011252608535651881   -0.0032197476453624495
-0.018798963928984093   -0.02848890452586026   -0.004680213507366564
-0.030172783801880675   -0.029326842911697695   -0.006127839581875733
-0.009779724951995666   -0.009674432801655945   -0.003229385729912908
-0.016918420026601152   -0.011252608535651881   -0.0032197476453624495
-0.030787128395248588   -0.029700593353895337   -0.005205516499571218
-0.009809580628290477   -0.009911841299235623   -0.0026039857247777674
-0.018025957096286037   -0.011498915757211431   -0.002067740350490837
-0.030787128395248588   -0.029700593353895337   -0.005205516499571218
-0.018798963928984093   -0.02848890452586026   -0.004680213507366564
-0.009809580628290477   -0.009911841299235623   -0.0026039857247777674
-0.018746784391278255   -0.02863845580809966   -0.004158473386501054
-0.018025957096286037   -0.011498915757211431   -0.002067740350490837
-0.009806989193256328   -0.009972487051842532   -0.0019569904050475086
-0.018746784391278255   -0.02863845580809966   -0.004158473386501054
-0.009809580628290477   -0.009911841299235623   -0.0026039857247777674
-0.018025957096286037   -0.011498915757211431   -0.002067740350490837
-0.018746784391278255   -0.02863845580809966   -0.004158473386501054
-0.03151341656617685   -0.02991698349524964   -0.004365879267205023
-0.030787128395248588   -0.029700593353895337   -0.005205516499571218
-0.018025957096286037   -0.011498915757211431   -0.002067740350490837
-0.018746784391278255   -0.02863845580809966   -0.004158473386501054
-0.030787128395248588   -0.029700593353895337   -0.005205516499571218
-0.009809580628290477   -0.009911841299235623   -0.0026039857247777674
-0.009974892029708958   -0.00921065804120304   -0.0038554281531332194
-0.01869601952013323   -0.027724803635739464   -0.005816929643520747
-0.0045399887584133955   -0.008827273552522089   -0.002931542251852959
-0.009779724951995666   -0.009674432801655945   -0.003229385729912908
-0.01869601952013323   -0.027724803635739464   -0.005816929643520747
-0.00866895077720091   -0.02728756438225501   -0.004961587075899474
-0.0045399887584133955   -0.008827273552522089   -0.002931542251852959
-0.008597668747575272   -0.027590113967811938   -0.004664915676480539
-0.009779724951995666   -0.009674432801655945   -0.003229385729912908
-0.004368714379996017   -0.009129407418819145   -0.002636267736609548
-0.008597668747575272   -0.027590113967811938   -0.004664915676480539
-0.0045399887584133955   -0.008827273552522089   -0.002931542251852959
-0.009779724951995666   -0.009674432801655945   -0.003229385729912908
-0.008597668747575272   -0.027590113967811938   -0.004664915676480539
-0.018721541012451527   -0.028199710872902423   -0.0052373698420956705
-0.01869601952013323   -0.027724803635739464   -0.005816929643520747
-0.009779724951995666   -0.009674432801655945   -0.003229385729912908
-0.008597668747575272   -0.027590113967811938   -0.004664915676480539
-0.01869601952013323   -0.027724803635739464   -0.005816929643520747
-0.0045399887584133955   -0.008827273552522089   -0.002931542251852959
-0.009779724951995666   -0.009674432801655945   -0.003229385729912908
-0.018721541012451527   -0.028199710872902423   -0.0052373698420956705
-0.004368714379996017   -0.009129407418819145   -0.002636267736609548
-0.009809580628290477   -0.009911841299235623   -0.0026039857247777674
-0.018721541012451527   -0.028199710872902423   -0.0052373698420956705
-0.008597668747575272   -0.027590113967811938   -0.004664915676480539
-0.004368714379996017   -0.009129407418819145   -0.002636267736609548
-0.00853489649201347   -0.027736733271964777   -0.004395828501666181
-0.009809580628290477   -0.009911841299235623   -0.0026039857247777674
-0.004273451427990936   -0.009244476610361785   -0.002348448641975673
-0.00853489649201347   -0.027736733271964777   -0.004395828501666181
-0.004368714379996017   -0.009129407418819145   -0.002636267736609548
-0.009809580628290477   -0.009911841299235623   -0.0026039857247777674
-0.00853489649201347   -0.027736733271964777   -0.004395828501666181
-0.018798963928984093   -0.02848890452586026   -0.004680213507366564
-0.018721541012451527   -0.028199710872902423   -0.0052373698420956705
-0.009809580628290477   -0.009911841299235623   -0.0026039857247777674
-0.00853489649201347   -0.027736733271964777   -0.004395828501666181
-0.018721541012451527   -0.028199710872902423   -0.0052373698420956705
-0.004368714379996017   -0.009129407418819145   -0.002636267736609548
-0.009809580628290477   -0.009911841299235623   -0.0026039857247777674
-0.018798963928984093   -0.02848890452586026   -0.004680213507366564
-0.004273451427990936   -0.009244476610361785   -0.002348448641975673
-0.009806989193256328   -0.009972487051842532   -0.0019569904050475086
-0.018798963928984093   -0.02848890452586026   -0.004680213507366564
-0.00853489649201347   -0.027736733271964777   -0.004395828501666181
-0.004273451427990936   -0.009244476610361785   -0.002348448641975673
-0.008439585015525025   -0.027732957918422136   -0.004161380144917901
-0.009806989193256328   -0.009972487051842532   -0.0019569904050475086
-0.004187082885668811   -0.00919625414153803   -0.0020506294271309703
-0.008439585015525025   -0.027732957918422136   -0.004161380144917901
-0.004273451427990936   -0.009244476610361785   -0.002348448641975673
-0.009806989193256328   -0.009972487051842532   -0.0019569904050475086
-0.008439585015525025   -0.027732957918422136   -0.004161380144917901
-0.018746784391278255   -0.02863845580809966   -0.004158473386501054
-0.018798963928984093   -0.02848890452586026   -0.004680213507366564
-0.009806989193256328   -0.009972487051842532   -0.0019569904050475086
-0.008439585015525025   -0.027732957918422136   -0.004161380144917901
-0.018798963928984093   -0.02848890452586026   -0.004680213507366564
-0.004273451427990936   -0.009244476610361785   -0.002348448641975673
-0.0045399887584133955   -0.008827273552522089   -0.002931542251852959
-0.00866895077720091   -0.02728756438225501   -0.004961587075899474
0.0005969182498705582   -0.00887604012183265   -0.002342193397563604
-0.004368714379996017   -0.009129407418819145   -0.002636267736609548
-0.00866895077720091   -0.02728756438225501   -0.004961587075899474
0.0010024249441086168   -0.027300372224319632   -0.00442009564703705
0.0005969182498705582   -0.00887604012183265   -0.002342193397563604
0.0010906506345828816   -0.027444160850702275   -0.004401100542945364
-0.004368714379996017   -0.009129407418819145   -0.002636267736609548
0.0007051877571796643   -0.009032936091507758   -0.0023837066077707003
0.0010906506345828816   -0.027444160850702275   -0.004401100542945364
0.0005969182498705582   -0.00887604012183265   -0.002342193397563604
-0.004368714379996017   -0.009129407418819145   -0.002636267736609548
0.0010906506345828816   -0.027444160850702275   -0.004401100542945364
-0.008597668747575272   -0.027590113967811938   -0.004664915676480539
-0.00866895077720091   -0.02728756438225501   -0.004961587075899474
-0.004368714379996017   -0.009129407418819145   -0.002636267736609548
0.0010906506345828816   -0.027444160850702275   -0.004401100542945364
-0.00866895077720091   -0.02728756438225501   -0.004961587075899474
0.0005969182498705582   -0.00887604012183265   -0.002342193397563604
-0.004368714379996017   -0.009129407418819145   -0.002636267736609548
-0.008597668747575272   -0.027590113967811938   -0.004664915676480539
0.0007051877571796643   -0.009032936091507758   -0.0023837066077707003
-0.004273451427990936   -0.009244476610361785   -0.002348448641975673
-0.008597668747575272   -0.027590113967811938   -0.004664915676480539
0.0010906506345828816   -0.027444160850702275   -0.004401100542945364
0.0007051877571796643   -0.009032936091507758   -0.0023837066077707003
0.00114889975941527   -0.027435686651497905   -0.00441342644986338
-0.004273451427990936   -0.009244476610361785   -0.002348448641975673
0.0007903402026314284   -0.009020187828082851   -0.0024209848722506143
0.00114889975941527   -0.027435686651497905   -0.00441342644986338
0.0007051877571796643   -0.009032936091507758   -0.0023837066077707003
-0.004273451427990936   -0.009244476610361785   -0.002348448641975673
0.00114889975941527   -0.027435686651497905   -0.00441342644986338
-0.00853489649201347   -0.027736733271964777   -0.004395828501666181
-0.008597668747575272   -0.027590113967811938   -0.004664915676480539
-0.004273451427990936   -0.009244476610361785   -0.002348448641975673
0.00114889975941527   -0.027435686651497905   -0.00441342644986338
-0.008597668747575272   -0.027590113967811938   -0.004664915676480539
0.0007051877571796643   -0.009032936091507758   -0.0023837066077707003
-0.004273451427990936   -0.009244476610361785   -0.002348448641975673
-0.00853489649201347   -0.027736733271964777   -0.004395828501666181
0.0007903402026314284   -0.009020187828082851   -0.0024209848722506143
-0.004187082885668811   -0.00919625414153803   -0.0020506294271309703
-0.00853489649201347   -0.027736733271964777   -0.004395828501666181
0.00114889975941527   -0.027435686651497905   -0.00441342644986338
0.0007903402026314284   -0.009020187828082851   -0.0024209848722506143
0.001211653806963409   -0.027270286162315614   -0.0044575730424623325
-0.004187082885668811   -0.00919625414153803   -0.0020506294271309703
0.0009056684652496326   -0.008823839008398003   -0.0024590321352143093
0.001211653806963409   -0.027270286162315614   -0.0044575730424623325
0.0007903402026314284   -0.009020187828082851   -0.0024209848722506143
-0.004187082885668811   -0.00919625414153803   -0.0020506294271309703
0.001211653806963409   -0.027270286162315614   -0.0044575730424623325
-0.008439585015525025   -0.027732957918422136   -0.004161380144917901
-0.00853489649201347   -0.027736733271964777   -0.004395828501666181
-0.004187082885668811   -0.00919625414153803   -0.0020506294271309703
0.001211653806963409   -0.027270286162315614   -0.0044575730424623325
-0.00853489649201347   -0.027736733271964777   -0.004395828501666181
0.0007903402026314284   -0.009020187828082851   -0.0024209848722506143
0.0005969182498705582   -0.00887604012183265   -0.002342193397563604
0.0010024249441086168   -0.027300372224319632   -0.00442009564703705
0.006171017465043356   -0.00931031131969667   -0.0020499315088818642
0.0007051877571796643   -0.009032936091507758   -0.0023837066077707003
0.0010024249441086168   -0.027300372224319632   -0.00442009564703705
0.011249427861854741   -0.027746913853682758   -0.004166372915060945
0.006171017465043356   -0.00931031131969667   -0.0020499315088818642
0.011297400287503387   -0.027746599623389896   -0.004434083090359223
0.0007051877571796643   -0.009032936091507758   -0.0023837066077707003
0.006179038277318403   -0.009360703881035482   -0.002445800113976811
0.011297400287503387   -0.027746599623389896   -0.004434083090359223
0.006171017465043356   -0.00931031131969667   -0.0020499315088818642
0.0007051877571796643   -0.009032936091507758   -0.0023837066077707003
0.011297400287503387   -0.027746599623389896   -0.004434083090359223
0.0010906506345828816   -0.027444160850702275   -0.004401100542945364
0.0010024249441086168   -0.027300372224319632   -0.00442009564703705
0.0007051877571796643   -0.009032936091507758   -0.0023837066077707003
0.011297400287503387   -0.027746599623389896   -0.004434083090359223
0.0010024249441086168   -0.027300372224319632   -0.00442009564703705
0.006171017465043356   -0.00931031131969667   -0.0020499315088818642
0.0007051877571796643   -0.009032936091507758   -0.0023837066077707003
0.0010906506345828816   -0.027444160850702275   -0.004401100542945364
0.006179038277318403   -0.009360703881035482   -0.002445800113976811
0.0007903402026314284   -0.009020187828082851   -0.0024209848722506143
0.0010906506345828816   -0.027444160850702275   -0.004401100542945364
0.011297400287503387   -0.027746599623389896   -0.004434083090359223
0.006179038277318403   -0.009360703881035482   -0.002445800113976811
0.011241330518520767   -0.027596877545228767   -0.004737232484893401
0.0007903402026314284   -0.009020187828082851   -0.0024209848722506143
0.006150030120751012   -0.009227015413256063   -0.0028252642923523
0.011241330518520767   -0.027596877545228767   -0.004737232484893401
0.006179038277318403   -0.009360703881035482   -0.002445800113976811
0.0007903402026314284   -0.009020187828082851   -0.0024209848722506143
0.011241330518520767   -0.027596877545228767   -0.004737232484893401
0.00114889975941527   -0.027435686651497905   -0.00441342644986338
0.0010906506345828816   -0.027444160850702275   -0.004401100542945364
0.0007903402026314284   -0.009020187828082851   -0.0024209848722506143
0.011241330518520767   -0.027596877545228767   -0.004737232484893401
0.0010906506345828816   -0.027444160850702275   -0.004401100542945364
0.006179038277318403   -0.009360703881035482   -0.002445800113976811
0.0007903402026314284   -0.009020187828082851   -0.0024209848722506143
0.00114889975941527   -0.027435686651497905   -0.00441342644986338
0.006150030120751012   -0.009227015413256063   -0.0028252642923523
0.0009056684652496326   -0.008823839008398003   -0.0024590321352143093
0.00114889975941527   -0.027435686651497905   -0.00441342644986338
0.011241330518520767   -0.027596877545228767   -0.004737232484893401
0.006150030120751012   -0.009227015413256063   -0.0028252642923523
0.011207797287419404   -0.027256655926397273   -0.005064618290096104
0.0009056684652496326   -0.008823839008398003   -0.0024590321352143093
0.006266693029626498   -0.008868056937720668   -0.0031972649490031816
0.011207797287419404   -0.027256655926397273   -0.005064618290096104
0.006150030120751012   -0.009227015413256063   -0.0028252642923523
0.0009056684652496326   -0.008823839008398003   -0.0024590321352143093
0.011207797287419404   -0.027256655926397273   -0.005064618290096104
0.001211653806963409   -0.027270286162315614   -0.0044575730424623325
0.00114889975941527   -0.027435686651497905   -0.00441342644986338
0.0009056684652496326   -0.008823839008398003   -0.0024590321352143093
0.011207797287419404   -0.027256655926397273   -0.005064618290096104
0.00114889975941527   -0.027435686651497905   -0.00441342644986338
0.006150030120751012   -0.009227015413256063   -0.0028252642923523
0.006171017465043356   -0.00931031131969667   -0.0020499315088818642
0.011249427861854741   -0.027746913853682758   -0.004166372915060945
0.013916343204081473   -0.010409995128445381   -0.001932220478300043
0.006179038277318403   -0.009360703881035482   -0.002445800113976811
0.011249427861854741   -0.027746913853682758   -0.004166372915060945
0.02360962691907615   -0.028577607004916863   -0.004095927756999537
0.013916343204081473   -0.010409995128445381   -0.001932220478300043
0.023123641827081622   -0.02850092376110115   -0.004697690010222547
0.006179038277318403   -0.009360703881035482   -0.002445800113976811
0.013065857251210523   -0.010297295408232921   -0.002828874662447652
0.023123641827081622   -0.02850092376110115   -0.004697690010222547
0.013916343204081473   -0.010409995128445381   -0.001932220478300043
0.006179038277318403   -0.009360703881035482   -0.002445800113976811
0.023123641827081622   -0.02850092376110115   -0.004697690010222547
0.011297400287503387   -0.027746599623389896   -0.004434083090359223
0.011249427861854741   -0.027746913853682758   -0.004166372915060945
0.006179038277318403   -0.009360703881035482   -0.002445800113976811
0.023123641827081622   -0.02850092376110115   -0.004697690010222547
0.011249427861854741   -0.027746913853682758   -0.004166372915060945
0.013916343204081473   -0.010409995128445381   -0.001932220478300043
0.006179038277318403   -0.009360703881035482   -0.002445800113976811
0.011297400287503387   -0.027746599623389896   -0.004434083090359223
0.013065857251210523   -0.010297295408232921   -0.002828874662447652
0.006150030120751012   -0.009227015413256063   -0.0028252642923523
0.011297400287503387   -0.027746599623389896   -0.004434083090359223
0.023123641827081622   -0.02850092376110115   -0.004697690010222547
0.013065857251210523   -0.010297295408232921   -0.002828874662447652
0.022689808072218782   -0.02826989738317542   -0.005374064148565798
0.006150030120751012   -0.009227015413256063   -0.0028252642923523
0.012672514968288499   -0.010083181111515108   -0.0035868734972020915
0.022689808072218782   -0.02826989738317542   -0.005374064148565798
0.013065857251210523   -0.010297295408232921   -0.002828874662447652
0.006150030120751012   -0.009227015413256063   -0.0028252642923523
0.022689808072218782   -0.02826989738317542   -0.005374064148565798
0.011241330518520767   -0.027596877545228767   -0.004737232484893401
0.011297400287503387   -0.027746599623389896   -0.004434083090359223
0.006150030120751012   -0.009227015413256063   -0.0028252642923523
0.022689808072218782   -0.02826989738317542   -0.005374064148565798
0.011297400287503387   -0.027746599623389896   -0.004434083090359223
0.013065857251210523   -0.010297295408232921   -0.002828874662447652
0.006150030120751012   -0.009227015413256063   -0.0028252642923523
0.011241330518520767   -0.027596877545228767   -0.004737232484893401
0.012672514968288499   -0.010083181111515108   -0.0035868734972020915
0.006266693029626498   -0.008868056937720668   -0.0031972649490031816
0.011241330518520767   -0.027596877545228767   -0.004737232484893401
0.022689808072218782   -0.02826989738317542   -0.005374064148565798
0.012672514968288499   -0.010083181111515108   -0.0035868734972020915
0.02204212967546887   -0.0277546464253985   -0.006077782394383362
0.006266693029626498   -0.008868056937720668   -0.0031972649490031816
0.012088717222774813   -0.009534589249261637   -0.004388477341497083
0.02204212967546887   -0.0277546464253985   -0.006077782394383362
0.012672514968288499   -0.010083181111515108   -0.0035868734972020915
0.006266693029626498   -0.008868056937720668   -0.0031972649490031816
0.02204212967546887   -0.0277546464253985   -0.006077782394383362
0.011207797287419404   -0.027256655926397273   -0.005064618290096104
0.011241330518520767   -0.027596877545228767   -0.004737232484893401
0.006266693029626498   -0.008868056937720668   -0.0031972649490031816
0.02204212967546887   -0.0277546464253985   -0.006077782394383362
0.011241330518520767   -0.027596877545228767   -0.004737232484893401
0.012672514968288499   -0.010083181111515108   -0.0035868734972020915
-0.029290655700096375   -0.028664520750838855   -0.0070694678638380925
-0.04015824858889865   -0.05380962895869918   -0.008049183829693099
-0.01869601952013323   -0.027724803635739464   -0.005816929643520747
-0.030172783801880675   -0.029326842911697695   -0.006127839581875733
-0.04015824858889865   -0.05380962895869918   -0.008049183829693099
-0.02581625971639616   -0.053090630325965595   -0.007031772618300019
-0.01869601952013323   -0.027724803635739464   -0.005816929643520747
-0.025876992633761395   -0.05350107951809066   -0.006581607780568034
-0.030172783801880675   -0.029326842911697695   -0.006127839581875733
-0.018721541012451527   -0.028199710872902423   -0.0052373698420956705
-0.025876992633761395   -0.05350107951809066   -0.006581607780568034
-0.01869601952013323   -0.027724803635739464   -0.005816929643520747
-0.030172783801880675   -0.029326842911697695   -0.006127839581875733
-0.025876992633761395   -0.05350107951809066   -0.006581607780568034
-0.04087801467695312   -0.05437034193186694   -0.007345773046588771
-0.04015824858889865   -0.05380962895869918   -0.008049183829693099
-0.030172783801880675   -0.029326842911697695   -0.006127839581875733
-0.025876992633761395   -0.05350107951809066   -0.006581607780568034
-0.04015824858889865   -0.05380962895869918   -0.008049183829693099
-0.01869601952013323   -0.027724803635739464   -0.005816929643520747
-0.030172783801880675   -0.029326842911697695   -0.006127839581875733
-0.04087801467695312   -0.05437034193186694   -0.007345773046588771
-0.018721541012451527   -0.028199710872902423   -0.0052373698420956705
-0.030787128395248588   -0.029700593353895337   -0.005205516499571218
-0.04087801467695312   -0.05437034193186694   -0.007345773046588771
-0.025876992633761395   -0.05350107951809066   -0.006581607780568034
-0.018721541012451527   -0.028199710872902423   -0.0052373698420956705
-0.025948006849197413   -0.053786401651221574   -0.006163872611474563
-0.030787128395248588   -0.029700593353895337   -0.005205516499571218
-0.018798963928984093   -0.02848890452586026   -0.004680213507366564
-0.025948006849197413   -0.053786401651221574   -0.006163872611474563
-0.018721541012451527   -0.028199710872902423   -0.0052373698420956705
-0.030787128395248588   -0.029700593353895337   -0.005205516499571218
-0.025948006849197413   -0.053786401651221574   -0.006163872611474563
-0.04133365845224984   -0.05472159354360361   -0.006689914023656741
-0.04087801467695312   -0.05437034193186694   -0.007345773046588771
-0.030787128395248588   -0.029700593353895337   -0.005205516499571218
-0.025948006849197413   -0.053786401651221574   -0.006163872611474563
-0.04087801467695312   -0.05437034193186694   -0.007345773046588771
-0.018721541012451527   -0.028199710872902423   -0.0052373698420956705
-0.030787128395248588   -0.029700593353895337   -0.005205516499571218
-0.04133365845224984   -0.05472159354360361   -0.006689914023656741
-0.018798963928984093   -0.02848890452586026   -0.004680213507366564
-0.03151341656617685   -0.02991698349524964   -0.004365879267205023
-0.04133365845224984   -0.05472159354360361   -0.006689914023656741
-0.025948006849197413   -0.053786401651221574   -0.006163872611474563
-0.018798963928984093   -0.02848890452586026   -0.004680213507366564
-0.025903733372515052   -0.05397363546728121   -0.00577166820360814
-0.03151341656617685   -0.02991698349524964   -0.004365879267205023
-0.018746784391278255   -0.02863845580809966   -0.004158473386501054
-0.025903733372515052   -0.05397363546728121   -0.00577166820360814
-0.018798963928984093   -0.02848890452586026   -0.004680213507366564
-0.03151341656617685   -0.02991698349524964   -0.004365879267205023
-0.025903733372515052   -0.05397363546728121   -0.00577166820360814
-0.04185209199688531   -0.054973425954982946   -0.006086050006089968
-0.04133365845224984   -0.05472159354360361   -0.006689914023656741
-0.03151341656617685   -0.02991698349524964   -0.004365879267205023
-0.025903733372515052   -0.05397363546728121   -0.00577166820360814
-0.04133365845224984   -0.05472159354360361   -0.006689914023656741
-0.018798963928984093   -0.02848890452586026   -0.004680213507366564
-0.01869601952013323   -0.027724803635739464   -0.005816929643520747
-0.02581625971639616   -0.053090630325965595   -0.007031772618300019
-0.00866895077720091   -0.02728756438225501   -0.004961587075899474
-0.018721541012451527   -0.028199710872902423   -0.0052373698420956705
-0.02581625971639616   -0.053090630325965595   -0.007031772618300019
-0.01228805025609335   -0.052732478089611345   -0.006324748160179348
-0.00866895077720091   -0.02728756438225501   -0.004961587075899474
-0.012261385536548854   -0.05299522129730206   -0.006070725503007519
-0.018721541012451527   -0.028199710872902423   -0.0052373698420956705
-0.008597668747575272   -0.027590113967811938   -0.004664915676480539
-0.012261385536548854   -0.05299522129730206   -0.006070725503007519
-0.00866895077720091   -0.02728756438225501   -0.004961587075899474
-0.018721541012451527   -0.028199710872902423   -0.0052373698420956705
-0.012261385536548854   -0.05299522129730206   -0.006070725503007519
-0.025876992633761395   -0.05350107951809066   -0.006581607780568034
-0.02581625971639616   -0.053090630325965595   -0.007031772618300019
-0.018721541012451527   -0.028199710872902423   -0.0052373698420956705
-0.012261385536548854   -0.05299522129730206   -0.006070725503007519
-0.02581625971639616   -0.053090630325965595   -0.007031772618300019
-0.00866895077720091   -0.02728756438225501   -0.004961587075899474
-0.018721541012451527   -0.028199710872902423   -0.0052373698420956705
-0.025876992633761395   -0.05350107951809066   -0.006581607780568034
-0.008597668747575272   -0.027590113967811938   -0.004664915676480539
-0.018798963928984093   -0.02848890452586026   -0.004680213507366564
-0.025876992633761395   -0.05350107951809066   -0.006581607780568034
-0.012261385536548854   -0.05299522129730206   -0.006070725503007519
-0.008597668747575272   -0.027590113967811938   -0.004664915676480539
-0.012227774563980129   -0.053149432833740684   -0.005847608443525316
-0.018798963928984093   -0.02848890452586026   -0.004680213507366564
-0.00853489649201347   -0.027736733271964777   -0.004395828501666181
-0.012227774563980129   -0.053149432833740684   -0.005847608443525316
-0.008597668747575272   -0.027590113967811938   -0.004664915676480539
-0.018798963928984093   -0.02848890452586026   -0.004680213507366564
-0.012227774563980129   -0.053149432833740684   -0.005847608443525316
-0.025948006849197413   -0.053786401651221574   -0.006163872611474563
-0.025876992633761395   -0.05350107951809066   -0.006581607780568034
-0.018798963928984093   -0.02848890452586026   -0.004680213507366564
-0.012227774563980129   -0.053149432833740684   -0.005847608443525316
-0.025876992633761395   -0.05350107951809066   -0.006581607780568034
-0.008597668747575272   -0.027590113967811938   -0.004664915676480539
-0.018798963928984093   -0.02848890452586026   -0.004680213507366564
-0.025948006849197413   -0.053786401651221574   -0.006163872611474563
-0.00853489649201347   -0.027736733271964777   -0.004395828501666181
-0.018746784391278255   -0.02863845580809966   -0.004158473386501054
-0.025948006849197413   -0.053786401651221574   -0.006163872611474563
-0.012227774563980129   -0.053149432833740684   -0.005847608443525316
-0.00853489649201347   -0.027736733271964777   -0.004395828501666181
-0.012169952348664172   -0.05319731816583149   -0.005655293247981843
-0.018746784391278255   -0.02863845580809966   -0.004158473386501054
-0.008439585015525025   -0.027732957918422136   -0.004161380144917901
-0.012169952348664172   -0.05319731816583149   -0.005655293247981843
-0.00853489649201347   -0.027736733271964777   -0.004395828501666181
-0.018746784391278255   -0.02863845580809966   -0.004158473386501054
-0.012169952348664172   -0.05319731816583149   -0.005655293247981843
-0.025903733372515052   -0.05397363546728121   -0.00577166820360814
-0.025948006849197413   -0.053786401651221574   -0.006163872611474563
-0.018746784391278255   -0.02863845580809966   -0.004158473386501054
-0.012169952348664172   -0.05319731816583149   -0.005655293247981843
-0.025948006849197413   -0.053786401651221574   -0.006163872611474563
-0.00853489649201347   -0.027736733271964777   -0.004395828501666181
-0.00866895077720091   -0.02728756438225501   -0.004961587075899474
-0.01228805025609335   -0.052732478089611345   -0.006324748160179348
0.0010024249441086168   -0.027300372224319632   -0.00442009564703705
-0.008597668747575272   -0.027590113967811938   -0.004664915676480539
-0.01228805025609335   -0.052732478089611345   -0.006324748160179348
0.0008445915776789584   -0.05271348115002653   -0.005885630842821013
0.0010024249441086168   -0.027300372224319632   -0.00442009564703705
0.0008969343239956887   -0.05283093344466709   -0.005826673485609666
-0.008597668747575272   -0.027590113967811938   -0.004664915676480539
0.0010906506345828816   -0.027444160850702275   -0.004401100542945364
0.0008969343239956887   -0.05283093344466709   -0.005826673485609666
0.0010024249441086168   -0.027300372224319632   -0.00442009564703705
-0.008597668747575272   -0.027590113967811938   -0.004664915676480539
0.0008969343239956887   -0.05283093344466709   -0.005826673485609666
-0.012261385536548854   -0.05299522129730206   -0.006070725503007519
-0.01228805025609335   -0.052732478089611345   -0.006324748160179348
-0.008597668747575272   -0.027590113967811938   -0.004664915676480539
0.0008969343239956887   -0.05283093344466709   -0.005826673485609666
-0.01228805025609335   -0.052732478089611345   -0.006324748160179348
0.0010024249441086168   -0.027300372224319632   -0.00442009564703705
-0.008597668747575272   -0.027590113967811938   -0.004664915676480539
-0.012261385536548854   -0.05299522129730206   -0.006070725503007519
0.0010906506345828816   -0.027444160850702275   -0.004401100542945364
-0.00853489649201347   -0.027736733271964777   -0.004395828501666181
-0.012261385536548854   -0.05299522129730206   -0.006070725503007519
0.0008969343239956887   -0.05283093344466709   -0.005826673485609666
0.0010906506345828816   -0.027444160850702275   -0.004401100542945364
0.0009290250756284978   -0.052840297741179314   -0.0057978007021914245
-0.00853489649201347   -0.027736733271964777   -0.004395828501666181
0.00114889975941527   -0.027435686651497905   -0.00441342644986338
0.0009290250756284978   -0.052840297741179314   -0.0057978007021914245
0.0010906506345828816   -0.027444160850702275   -0.004401100542945364
-0.00853489649201347   -0.027736733271964777   -0.004395828501666181
0.0009290250756284978   -0.052840297741179314   -0.0057978007021914245
-0.012227774563980129   -0.053149432833740684   -0.005847608443525316
-0.012261385536548854   -0.05299522129730206   -0.006070725503007519
-0.00853489649201347   -0.027736733271964777   -0.004395828501666181
0.0009290250756284978   -0.052840297741179314   -0.0057978007021914245
-0.012261385536548854   -0.05299522129730206   -0.006070725503007519
0.0010906506345828816   -0.027444160850702275   -0.004401100542945364
-0.00853489649201347   -0.027736733271964777   -0.004395828501666181
-0.012227774563980129   -0.053149432833740684   -0.005847608443525316
0.00114889975941527   -0.027435686651497905   -0.00441342644986338
-0.008439585015525025   -0.027732957918422136   -0.004161380144917901
-0.012227774563980129   -0.053149432833740684   -0.005847608443525316
0.0009290250756284978   -0.052840297741179314   -0.0057978007021914245
0.00114889975941527   -0.027435686651497905   -0.00441342644986338
0.0009510555884572648   -0.052739957085395986   -0.005800856142252086
-0.008439585015525025   -0.027732957918422136   -0.004161380144917901
0.001211653806963409   -0.027270286162315614   -0.0044575730424623325
0.0009510555884572648   -0.052739957085395986   -0.005800856142252086
0.00114889975941527   -0.027435686651497905   -0.00441342644986338
-0.008439585015525025   -0.027732957918422136   -0.004161380144917901
0.0009510555884572648   -0.052739957085395986   -0.005800856142252086
-0.012169952348664172   -0.05319731816583149   -0.005655293247981843
-0.012227774563980129   -0.053149432833740684   -0.005847608443525316
-0.008439585015525025   -0.027732957918422136   -0.004161380144917901
0.0009510555884572648   -0.052739957085395986   -0.005800856142252086
-0.012227774563980129   -0.053149432833740684   -0.005847608443525316
0.00114889975941527   -0.027435686651497905   -0.00441342644986338
0.0010024249441086168   -0.027300372224319632   -0.00442009564703705
0.0008445915776789584   -0.05271348115002653   -0.005885630842821013
0.011249427861854741   -0.027746913853682758   -0.004166372915060945
0.0010906506345828816   -0.027444160850702275   -0.004401100542945364
0.0008445915776789584   -0.05271348115002653   -0.005885630842821013
0.014536591013332404   -0.05301351588545616   -0.005706800123571023
0.011249427861854741   -0.027746913853682758   -0.004166372915060945
0.01458138412343893   -0.05299793724342413   -0.00584699172802928
0.0010906506345828816   -0.027444160850702275   -0.004401100542945364
0.011297400287503387   -0.027746599623389896   -0.004434083090359223
0.01458138412343893   -0.05299793724342413   -0.00584699172802928
0.011249427861854741   -0.027746913853682758   -0.004166372915060945
0.0010906506345828816   -0.027444160850702275   -0.004401100542945364
0.01458138412343893   -0.05299793724342413   -0.00584699172802928
0.0008969343239956887   -0.05283093344466709   -0.005826673485609666
0.0008445915776789584   -0.05271348115002653   -0.005885630842821013
0.0010906506345828816   -0.027444160850702275   -0.004401100542945364
0.01458138412343893   -0.05299793724342413   -0.00584699172802928
0.0008445915776789584   -0.05271348115002653   -0.005885630842821013
0.011249427861854741   -0.027746913853682758   -0.004166372915060945
0.0010906506345828816   -0.027444160850702275   -0.004401100542945364
0.0008969343239956887   -0.05283093344466709   -0.005826673485609666
0.011297400287503387   -0.027746599623389896   -0.004434083090359223
0.00114889975941527   -0.027435686651497905   -0.00441342644986338
0.0008969343239956887   -0.05283093344466709   -0.005826673485609666
0.01458138412343893   -0.05299793724342413   -0.00584699172802928
0.011297400287503387   -0.027746599623389896   -0.004434083090359223
0.014539874344218827   -0.05287645648651248   -0.006015057248752021
0.00114889975941527   -0.027435686651497905   -0.00441342644986338
0.011241330518520767   -0.027596877545228767   -0.004737232484893401
0.014539874344218827   -0.05287645648651248   -0.006015057248752021
0.011297400287503387   -0.027746599623389896   -0.004434083090359223
0.00114889975941527   -0.027435686651497905   -0.00441342644986338
0.014539874344218827   -0.05287645648651248   -0.006015057248752021
0.0009290250756284978   -0.052840297741179314   -0.0057978007021914245
0.0008969343239956887   -0.05283093344466709   -0.005826673485609666
0.00114889975941527   -0.027435686651497905   -0.00441342644986338
0.014539874344218827   -0.05287645648651248   -0.006015057248752021
0.0008969343239956887   -0.05283093344466709   -0.005826673485609666
0.011297400287503387   -0.027746599623389896   -0.004434083090359223
0.00114889975941527   -0.027435686651497905   -0.00441342644986338
0.0009290250756284978   -0.052840297741179314   -0.0057978007021914245
0.011241330518520767   -0.027596877545228767   -0.004737232484893401
0.001211653806963409   -0.027270286162315614   -0.0044575730424623325
0.0009290250756284978   -0.052840297741179314   -0.0057978007021914245
0.014539874344218827   -0.05287645648651248   -0.006015057248752021
0.011241330518520767   -0.027596877545228767   -0.004737232484893401
0.014480265952637673   -0.052622997197475284   -0.006214286801181623
0.001211653806963409   -0.027270286162315614   -0.0044575730424623325
0.011207797287419404   -0.027256655926397273   -0.005064618290096104
0.014480265952637673   -0.052622997197475284   -0.006214286801181623
0.011241330518520767   -0.027596877545228767   -0.004737232484893401
0.001211653806963409   -0.027270286162315614   -0.0044575730424623325
0.014480265952637673   -0.052622997197475284   -0.006214286801181623
0.0009510555884572648   -0.052739957085395986   -0.005800856142252086
0.0009290250756284978   -0.052840297741179314   -0.0057978007021914245
0.001211653806963409   -0.027270286162315614   -0.0044575730424623325
0.014480265952637673   -0.052622997197475284   -0.006214286801181623
0.0009290250756284978   -0.052840297741179314   -0.0057978007021914245
0.011241330518520767   -0.027596877545228767   -0.004737232484893401
0.011249427861854741   -0.027746913853682758   -0.004166372915060945
0.014536591013332404   -0.05301351588545616   -0.005706800123571023
0.02360962691907615   -0.028577607004916863   -0.004095927756999537
0.011297400287503387   -0.027746599623389896   -0.004434083090359223
0.014536591013332404   -0.05301351588545616   -0.005706800123571023
0.030127353379394445   -0.053558609136216496   -0.0057072857516324285
0.02360962691907615   -0.028577607004916863   -0.004095927756999537
0.029858689784087313   -0.05346659984349269   -0.006072688892272762
0.011297400287503387   -0.027746599623389896   -0.004434083090359223
0.023123641827081622   -0.02850092376110115   -0.004697690010222547
0.029858689784087313   -0.05346659984349269   -0.006072688892272762
0.02360962691907615   -0.028577607004916863   -0.004095927756999537
0.011297400287503387   -0.027746599623389896   -0.004434083090359223
0.029858689784087313   -0.05346659984349269   -0.006072688892272762
0.01458138412343893   -0.05299793724342413   -0.00584699172802928
0.014536591013332404   -0.05301351588545616   -0.005706800123571023
0.011297400287503387   -0.027746599623389896   -0.004434083090359223
0.029858689784087313   -0.05346659984349269   -0.006072688892272762
0.014536591013332404   -0.05301351588545616   -0.005706800123571023
0.02360962691907615   -0.028577607004916863   -0.004095927756999537
0.011297400287503387   -0.027746599623389896   -0.004434083090359223
0.01458138412343893   -0.05299793724342413   -0.00584699172802928
0.023123641827081622   -0.02850092376110115   -0.004697690010222547
0.011241330518520767   -0.027596877545228767   -0.004737232484893401
0.01458138412343893   -0.05299793724342413   -0.00584699172802928
0.029858689784087313   -0.05346659984349269   -0.006072688892272762
0.023123641827081622   -0.02850092376110115   -0.004697690010222547
0.029591432010705212   -0.05327930656001307   -0.006488352263709438
0.011241330518520767   -0.027596877545228767   -0.004737232484893401
0.022689808072218782   -0.02826989738317542   -0.005374064148565798
0.029591432010705212   -0.05327930656001307   -0.006488352263709438
0.023123641827081622   -0.02850092376110115   -0.004697690010222547
0.011241330518520767   -0.027596877545228767   -0.004737232484893401
0.029591432010705212   -0.05327930656001307   -0.006488352263709438
0.014539874344218827   -0.05287645648651248   -0.006015057248752021
0.01458138412343893   -0.05299793724342413   -0.00584699172802928
0.011241330518520767   -0.027596877545228767   -0.004737232484893401
0.029591432010705212   -0.05327930656001307   -0.006488352263709438
0.01458138412343893   -0.05299793724342413   -0.00584699172802928
0.023123641827081622   -0.02850092376110115   -0.004697690010222547
0.011241330518520767   -0.027596877545228767   -0.004737232484893401
0.014539874344218827   -0.05287645648651248   -0.006015057248752021
0.022689808072218782   -0.02826989738317542   -0.005374064148565798
0.011207797287419404   -0.027256655926397273   -0.005064618290096104
0.014539874344218827   -0.05287645648651248   -0.006015057248752021
0.029591432010705212   -0.05327930656001307   -0.006488352263709438
0.022689808072218782   -0.02826989738317542   -0.005374064148565798
0.029120871151182098   -0.05288505044184845   -0.006954327750867856
0.011207797287419404   -0.027256655926397273   -0.005064618290096104
0.02204212967546887   -0.0277546464253985   -0.006077782394383362
0.029120871151182098   -0.05288505044184845   -0.006954327750867856
0.022689808072218782   -0.02826989738317542   -0.005374064148565798
0.011207797287419404   -0.027256655926397273   -0.005064618290096104
0.029120871151182098   -0.05288505044184845   -0.006954327750867856
0.014480265952637673   -0.052622997197475284   -0.006214286801181623
0.014539874344218827   -0.05287645648651248   -0.006015057248752021
0.011207797287419404   -0.027256655926397273   -0.005064618290096104
0.029120871151182098   -0.05288505044184845   -0.006954327750867856
0.014539874344218827   -0.05287645648651248   -0.006015057248752021
0.022689808072218782   -0.02826989738317542   -0.005374064148565798
-0.04015824858889865   -0.05380962895869918   -0.008049183829693099
-0.04798334273189979   -0.08365619684324577   -0.008580269036474736
-0.02581625971639616   -0.053090630325965595   -0.007031772618300019
-0.04087801467695312   -0.05437034193186694   -0.007345773046588771
-0.04798334273189979   -0.08365619684324577   -0.008580269036474736
-0.031138369935554328   -0.0831979282556428   -0.0077493930703539165
-0.02581625971639616   -0.053090630325965595   -0.007031772618300019
-0.03117984769085045   -0.08355153234937401   -0.007426774439637234
-0.04087801467695312   -0.05437034193186694   -0.007345773046588771
-0.025876992633761395   -0.05350107951809066   -0.006581607780568034
-0.03117984769085045   -0.08355153234937401   -0.007426774439637234
-0.02581625971639616   -0.053090630325965595   -0.007031772618300019
-0.04087801467695312   -0.05437034193186694   -0.007345773046588771
-0.03117984769085045   -0.08355153234937401   -0.007426774439637234
-0.048470487621278   -0.08413438049459458   -0.008112215427840994
-0.04798334273189979   -0.08365619684324577   -0.008580269036474736
-0.04087801467695312   -0.05437034193186694   -0.007345773046588771
-0.03117984769085045   -0.08355153234937401   -0.007426774439637234
-0.04798334273189979   -0.08365619684324577   -0.008580269036474736
-0.02581625971639616   -0.053090630325965595   -0.007031772618300019
-0.04087801467695312   -0.05437034193186694   -0.007345773046588771
-0.048470487621278   -0.08413438049459458   -0.008112215427840994
-0.025876992633761395   -0.05350107951809066   -0.006581607780568034
-0.04133365845224984   -0.05472159354360361   -0.006689914023656741
-0.048470487621278   -0.08413438049459458   -0.008112215427840994
-0.03117984769085045   -0.08355153234937401   -0.007426774439637234
-0.025876992633761395   -0.05350107951809066   -0.006581607780568034
-0.03121072571877382   -0.08383153769998804   -0.007136234605028067
-0.04133365845224984   -0.05472159354360361   -0.006689914023656741
-0.025948006849197413   -0.053786401651221574   -0.006163872611474563
-0.03121072571877382   -0.08383153769998804   -0.007136234605028067
-0.025876992633761395   -0.05350107951809066   -0.006581607780568034
-0.04133365845224984   -0.05472159354360361   -0.006689914023656741
-0.03121072571877382   -0.08383153769998804   -0.007136234605028067
-0.048751991114555956   -0.08447231019603718   -0.007688904424730296
-0.048470487621278   -0.08413438049459458   -0.008112215427840994
-0.04133365845224984   -0.05472159354360361   -0.006689914023656741
-0.03121072571877382   -0.08383153769998804   -0.007136234605028067
-0.048470487621278   -0.08413438049459458   -0.008112215427840994
-0.025876992633761395   -0.05350107951809066   -0.006581607780568034
-0.04133365845224984   -0.05472159354360361   -0.006689914023656741
-0.048751991114555956   -0.08447231019603718   -0.007688904424730296
-0.025948006849197413   -0.053786401651221574   -0.006163872611474563
-0.04185209199688531   -0.054973425954982946   -0.006086050006089968
-0.048751991114555956   -0.08447231019603718   -0.007688904424730296
-0.03121072571877382   -0.08383153769998804   -0.007136234605028067
-0.025948006849197413   -0.053786401651221574   -0.006163872611474563
-0.03115022255194607   -0.08406112911947201   -0.006873534503740272
-0.04185209199688531   -0.054973425954982946   -0.006086050006089968
-0.025903733372515052   -0.05397363546728121   -0.00577166820360814
-0.03115022255194607   -0.08406112911947201   -0.006873534503740272
-0.025948006849197413   -0.053786401651221574   -0.006163872611474563
-0.04185209199688531   -0.054973425954982946   -0.006086050006089968
-0.03115022255194607   -0.08406112911947201   -0.006873534503740272
-0.04904228633663825   -0.0847745553468358   -0.007315631261320674
-0.048751991114555956   -0.08447231019603718   -0.007688904424730296
-0.04185209199688531   -0.054973425954982946   -0.006086050006089968
-0.03115022255194607   -0.08406112911947201   -0.006873534503740272
-0.048751991114555956   -0.08447231019603718   -0.007688904424730296
-0.025948006849197413   -0.053786401651221574   -0.006163872611474563
-0.02581625971639616   -0.053090630325965595   -0.007031772618300019
-0.031138369935554328   -0.0831979282556428   -0.0077493930703539165
-0.01228805025609335   -0.052732478089611345   -0.006324748160179348
-0.025876992633761395   -0.05350107951809066   -0.006581607780568034
-0.031138369935554328   -0.0831979282556428   -0.0077493930703539165
-0.015343294022899905   -0.08296158745564361   -0.007173936162846321
-0.01228805025609335   -0.052732478089611345   -0.006324748160179348
-0.015318055795064598   -0.08318375211462611   -0.006961387336717102
-0.025876992633761395   -0.05350107951809066   -0.006581607780568034
-0.012261385536548854   -0.05299522129730206   -0.006070725503007519
-0.015318055795064598   -0.08318375211462611   -0.006961387336717102
-0.01228805025609335   -0.052732478089611345   -0.006324748160179348
-0.025876992633761395   -0.05350107951809066   -0.006581607780568034
-0.015318055795064598   -0.08318375211462611   -0.006961387336717102
-0.03117984769085045   -0.08355153234937401   -0.007426774439637234
-0.031138369935554328   -0.0831979282556428   -0.0077493930703539165
-0.025876992633761395   -0.05350107951809066   -0.006581607780568034
-0.015318055795064598   -0.08318375211462611   -0.006961387336717102
-0.031138369935554328   -0.0831979282556428   -0.0077493930703539165
-0.01228805025609335   -0.052732478089611345   -0.006324748160179348
-0.025876992633761395   -0.05350107951809066   -0.006581607780568034
-0.03117984769085045   -0.08355153234937401   -0.007426774439637234
-0.012261385536548854   -0.05299522129730206   -0.006070725503007519
-0.025948006849197413   -0.053786401651221574   -0.006163872611474563
-0.03117984769085045   -0.08355153234937401   -0.007426774439637234
-0.015318055795064598   -0.08318375211462611   -0.006961387336717102
-0.012261385536548854   -0.05299522129730206   -0.006070725503007519
-0.015282096158308951   -0.08334427679502238   -0.006780455161973111
-0.025948006849197413   -0.053786401651221574   -0.006163872611474563
-0.012227774563980129   -0.053149432833740684   -0.005847608443525316
-0.015282096158308951   -0.08334427679502238   -0.006780455161973111
-0.012261385536548854   -0.05299522129730206   -0.006070725503007519
-0.025948006849197413   -0.053786401651221574   -0.006163872611474563
-0.015282096158308951   -0.08334427679502238   -0.006780455161973111
-0.03121072571877382   -0.08383153769998804   -0.007136234605028067
-0.03117984769085045   -0.08355153234937401   -0.007426774439637234
-0.025948006849197413   -0.053786401651221574   -0.006163872611474563
-0.015282096158308951   -0.08334427679502238   -0.006780455161973111
-0.03117984769085045   -0.08355153234937401   -0.007426774439637234
-0.012261385536548854   -0.05299522129730206   -0.006070725503007519
-0.025948006849197413   -0.053786401651221574   -0.006163872611474563
-0.03121072571877382   -0.08383153769998804   -0.007136234605028067
-0.012227774563980129   -0.053149432833740684   -0.005847608443525316
-0.025903733372515052   -0.05397363546728121   -0.00577166820360814
-0.03121072571877382   -0.08383153769998804   -0.007136234605028067
-0.015282096158308951   -0.08334427679502238   -0.006780455161973111
-0.012227774563980129   -0.053149432833740684   -0.005847608443525316
-0.015226586124628945   -0.08344420954739641   -0.006631649048369346
-0.025903733372515052   -0.05397363546728121   -0.00577166820360814
-0.012169952348664172   -0.05319731816583149   -0.005655293247981843
-0.015226586124628945   -0.08344420954739641   -0.006631649048369346
-0.012227774563980129   -0.053149432833740684   -0.005847608443525316
-0.025903733372515052   -0.05397363546728121   -0.00577166820360814
-0.015226586124628945   -0.08344420954739641   -0.006631649048369346
-0.03115022255194607   -0.08406112911947201   -0.006873534503740272
-0.03121072571877382   -0.08383153769998804   -0.007136234605028067
-0.025903733372515052   -0.05397363546728121   -0.00577166820360814
-0.015226586124628945   -0.08344420954739641   -0.006631649048369346
-0.03121072571877382   -0.08383153769998804   -0.007136234605028067
-0.012227774563980129   -0.053149432833740684   -0.005847608443525316
-0.01228805025609335   -0.052732478089611345   -0.006324748160179348
-0.015343294022899905   -0.08296158745564361   -0.007173936162846321
0.0008445915776789584   -0.05271348115002653   -0.005885630842821013
-0.012261385536548854   -0.05299522129730206   -0.006070725503007519
-0.015343294022899905   -0.08296158745564361   -0.007173936162846321
2.3818730092773924e-05   -0.08292126272973516   -0.0068379946529788654
0.0008445915776789584   -0.05271348115002653   -0.005885630842821013
7.470047126697863e-05   -0.08301140064322553   -0.006736323697083899
-0.012261385536548854   -0.05299522129730206   -0.006070725503007519
0.0008969343239956887   -0.05283093344466709   -0.005826673485609666
7.470047126697863e-05   -0.08301140064322553   -0.006736323697083899
0.0008445915776789584   -0.05271348115002653   -0.005885630842821013
-0.012261385536548854   -0.05299522129730206   -0.006070725503007519
7.470047126697863e-05   -0.08301140064322553   -0.006736323697083899
-0.015318055795064598   -0.08318375211462611   -0.006961387336717102
-0.015343294022899905   -0.08296158745564361   -0.007173936162846321
-0.012261385536548854   -0.05299522129730206   -0.006070725503007519
7.470047126697863e-05   -0.08301140064322553   -0.006736323697083899
-0.015343294022899905   -0.08296158745564361   -0.007173936162846321
0.0008445915776789584   -0.05271348115002653   -0.005885630842821013
-0.012261385536548854   -0.05299522129730206   -0.006070725503007519
-0.015318055795064598   -0.08318375211462611   -0.006961387336717102
0.0008969343239956887   -0.05283093344466709   -0.005826673485609666
-0.012227774563980129   -0.053149432833740684   -0.005847608443525316
-0.015318055795064598   -0.08318375211462611   -0.006961387336717102
7.470047126697863e-05   -0.08301140064322553   -0.006736323697083899
0.0008969343239956887   -0.05283093344466709   -0.005826673485609666
0.0001097978552442149   -0.08303947848893044   -0.006665854719310809
-0.012227774563980129   -0.053149432833740684   -0.005847608443525316
0.0009290250756284978   -0.052840297741179314   -0.0057978007021914245
0.0001097978552442149   -0.08303947848893044   -0.006665854719310809
0.0008969343239956887   -0.05283093344466709   -0.005826673485609666
-0.012227774563980129   -0.053149432833740684   -0.005847608443525316
0.0001097978552442149   -0.08303947848893044   -0.006665854719310809
-0.015282096158308951   -0.08334427679502238   -0.006780455161973111
-0.015318055795064598   -0.08318375211462611   -0.006961387336717102
-0.012227774563980129   -0.053149432833740684   -0.005847608443525316
0.0001097978552442149   -0.08303947848893044   -0.006665854719310809
-0.015318055795064598   -0.08318375211462611   -0.006961387336717102
0.0008969343239956887   -0.05283093344466709   -0.005826673485609666
-0.012227774563980129   -0.053149432833740684   -0.005847608443525316
-0.015282096158308951   -0.08334427679502238   -0.006780455161973111
0.0009290250756284978   -0.052840297741179314   -0.0057978007021914245
-0.012169952348664172   -0.05319731816583149   -0.005655293247981843
-0.015282096158308951   -0.08334427679502238   -0.006780455161973111
0.0001097978552442149   -0.08303947848893044   -0.006665854719310809
0.0009290250756284978   -0.052840297741179314   -0.0057978007021914245
0.00013057705074877527   -0.08300464863380003   -0.006627980265705782
-0.012169952348664172   -0.05319731816583149   -0.005655293247981843
0.0009510555884572648   -0.052739957085395986   -0.005800856142252086
0.00013057705074877527   -0.08300464863380003   -0.006627980265705782
0.0009290250756284978   -0.052840297741179314   -0.0057978007021914245
-0.012169952348664172   -0.05319731816583149   -0.005655293247981843
0.00013057705074877527   -0.08300464863380003   -0.006627980265705782
-0.015226586124628945   -0.08344420954739641   -0.006631649048369346
-0.015282096158308951   -0.08334427679502238   -0.006780455161973111
-0.012169952348664172   -0.05319731816583149   -0.005655293247981843
0.00013057705074877527   -0.08300464863380003   -0.006627980265705782
-0.015282096158308951   -0.08334427679502238   -0.006780455161973111
0.0009290250756284978   -0.052840297741179314   -0.0057978007021914245
0.0008445915776789584   -0.05271348115002653   -0.005885630842821013
2.3818730092773924e-05   -0.08292126272973516   -0.0068379946529788654
0.014536591013332404   -0.05301351588545616   -0.005706800123571023
0.0008969343239956887   -0.05283093344466709   -0.005826673485609666
2.3818730092773924e-05   -0.08292126272973516   -0.0068379946529788654
0.01591914826537081   -0.0830603058829772   -0.00674006745439284
0.014536591013332404   -0.05301351588545616   -0.005706800123571023
0.015981980906124064   -0.08302621525673265   -0.0067516423415555655
0.0008969343239956887   -0.05283093344466709   -0.005826673485609666
0.01458138412343893   -0.05299793724342413   -0.00584699172802928
0.015981980906124064   -0.08302621525673265   -0.0067516423415555655
0.014536591013332404   -0.05301351588545616   -0.005706800123571023
0.0008969343239956887   -0.05283093344466709   -0.005826673485609666
0.015981980906124064   -0.08302621525673265   -0.0067516423415555655
7.470047126697863e-05   -0.08301140064322553   -0.006736323697083899
2.3818730092773924e-05   -0.08292126272973516   -0.0068379946529788654
0.0008969343239956887   -0.05283093344466709   -0.005826673485609666
0.015981980906124064   -0.08302621525673265   -0.0067516423415555655
2.3818730092773924e-05   -0.08292126272973516   -0.0068379946529788654
0.014536591013332404   -0.05301351588545616   -0.005706800123571023
0.0008969343239956887   -0.05283093344466709   -0.005826673485609666
7.470047126697863e-05   -0.08301140064322553   -0.006736323697083899
0.01458138412343893   -0.05299793724342413   -0.00584699172802928
0.0009290250756284978   -0.052840297741179314   -0.0057978007021914245
7.470047126697863e-05   -0.08301140064322553   -0.006736323697083899
0.015981980906124064   -0.08302621525673265   -0.0067516423415555655
0.01458138412343893   -0.05299793724342413   -0.00584699172802928
0.015982642352658886   -0.08293466291523799   -0.0067927499665641645
0.0009290250756284978   -0.052840297741179314   -0.0057978007021914245
0.014539874344218827   -0.05287645648651248   -0.006015057248752021
0.015982642352658886   -0.08293466291523799   -0.0067927499665641645
0.01458138412343893   -0.05299793724342413   -0.00584699172802928
0.0009290250756284978   -0.052840297741179314   -0.0057978007021914245
0.015982642352658886   -0.08293466291523799   -0.0067927499665641645
0.0001097978552442149   -0.08303947848893044   -0.006665854719310809
7.470047126697863e-05   -0.08301140064322553   -0.006736323697083899
0.0009290250756284978   -0.052840297741179314   -0.0057978007021914245
0.015982642352658886   -0.08293466291523799   -0.0067927499665641645
7.470047126697863e-05   -0.08301140064322553   -0.006736323697083899
0.01458138412343893   -0.05299793724342413   -0.00584699172802928
0.0009290250756284978   -0.052840297741179314   -0.0057978007021914245
0.0001097978552442149   -0.08303947848893044   -0.006665854719310809
0.014539874344218827   -0.05287645648651248   -0.006015057248752021
0.0009510555884572648   -0.052739957085395986   -0.005800856142252086
0.0001097978552442149   -0.08303947848893044   -0.006665854719310809
0.015982642352658886   -0.08293466291523799   -0.0067927499665641645
0.014539874344218827   -0.05287645648651248   -0.006015057248752021
0.01594358554827307   -0.0827625881131884   -0.00686450123032494
0.0009510555884572648   -0.052739957085395986   -0.005800856142252086
0.014480265952637673   -0.052622997197475284   -0.006214286801181623
0.01594358554827307   -0.0827625881131884   -0.00686450123032494
0.014539874344218827   -0.05287645648651248   -0.006015057248752021
0.0009510555884572648   -0.052739957085395986   -0.005800856142252086
0.01594358554827307   -0.0827625881131884   -0.00686450123032494
0.00013057705074877527   -0.08300464863380003   -0.006627980265705782
0.0001097978552442149   -0.08303947848893044   -0.006665854719310809
0.0009510555884572648   -0.052739957085395986   -0.005800856142252086
0.01594358554827307   -0.0827625881131884   -0.00686450123032494
0.0001097978552442149   -0.08303947848893044   -0.006665854719310809
0.014539874344218827   -0.05287645648651248   -0.006015057248752021
0.014536591013332404   -0.05301351588545616   -0.005706800123571023
0.01591914826537081   -0.0830603058829772   -0.00674006745439284
0.030127353379394445   -0.053558609136216496   -0.0057072857516324285
0.01458138412343893   -0.05299793724342413   -0.00584699172802928
0.01591914826537081   -0.0830603058829772   -0.00674006745439284
0.03347191797379981   -0.08331653637326684   -0.0068274657805117295
0.030127353379394445   -0.053558609136216496   -0.0057072857516324285
0.03343446268294956   -0.08319846802107898   -0.006961690640346852
0.01458138412343893   -0.05299793724342413   -0.00584699172802928
0.029858689784087313   -0.05346659984349269   -0.006072688892272762
0.03343446268294956   -0.08319846802107898   -0.006961690640346852
0.030127353379394445   -0.053558609136216496   -0.0057072857516324285
0.01458138412343893   -0.05299793724342413   -0.00584699172802928
0.03343446268294956   -0.08319846802107898   -0.006961690640346852
0.015981980906124064   -0.08302621525673265   -0.0067516423415555655
0.01591914826537081   -0.0830603058829772   -0.00674006745439284
0.01458138412343893   -0.05299793724342413   -0.00584699172802928
0.03343446268294956   -0.08319846802107898   -0.006961690640346852
0.01591914826537081   -0.0830603058829772   -0.00674006745439284
0.030127353379394445   -0.053558609136216496   -0.0057072857516324285
0.01458138412343893   -0.05299793724342413   -0.00584699172802928
0.015981980906124064   -0.08302621525673265   -0.0067516423415555655
0.029858689784087313   -0.05346659984349269   -0.006072688892272762
0.014539874344218827   -0.05287645648651248   -0.006015057248752021
0.015981980906124064   -0.08302621525673265   -0.0067516423415555655
0.03343446268294956   -0.08319846802107898   -0.006961690640346852
0.029858689784087313   -0.05346659984349269   -0.006072688892272762
0.03334495121368184   -0.08304879312416015   -0.007143802067118123
0.014539874344218827   -0.05287645648651248   -0.006015057248752021
0.029591432010705212   -0.05327930656001307   -0.006488352263709438
0.03334495121368184   -0.08304879312416015   -0.007143802067118123
0.029858689784087313   -0.05346659984349269   -0.006072688892272762
0.014539874344218827   -0.05287645648651248   -0.006015057248752021
0.03334495121368184   -0.08304879312416015   -0.007143802067118123
0.015982642352658886   -0.08293466291523799   -0.0067927499665641645
0.015981980906124064   -0.08302621525673265   -0.0067516423415555655
0.014539874344218827   -0.05287645648651248   -0.006015057248752021
0.03334495121368184   -0.08304879312416015   -0.007143802067118123
0.015981980906124064   -0.08302621525673265   -0.0067516423415555655
0.029858689784087313   -0.05346659984349269   -0.006072688892272762
0.014539874344218827   -0.05287645648651248   -0.006015057248752021
0.015982642352658886   -0.08293466291523799   -0.0067927499665641645
0.029591432010705212   -0.05327930656001307   -0.006488352263709438
0.014480265952637673   -0.052622997197475284   -0.006214286801181623
0.015982642352658886   -0.08293466291523799   -0.0067927499665641645
0.03334495121368184   -0.08304879312416015   -0.007143802067118123
0.029591432010705212   -0.05327930656001307   -0.006488352263709438
0.033110296220908844   -0.08276217947472714   -0.007373453432881501
0.014480265952637673   -0.052622997197475284   -0.006214286801181623
0.029120871151182098   -0.05288505044184845   -0.006954327750867856
0.033110296220908844   -0.08276217947472714   -0.007373453432881501
0.029591432010705212   -0.05327930656001307   -0.006488352263709438
0.014480265952637673   -0.052622997197475284   -0.006214286801181623
0.033110296220908844   -0.08276217947472714   -0.007373453432881501
0.01594358554827307   -0.0827625881131884   -0.00686450123032494
0.015982642352658886   -0.08293466291523799   -0.0067927499665641645
0.014480265952637673   -0.052622997197475284   -0.006214286801181623
0.033110296220908844   -0.08276217947472714   -0.007373453432881501
0.015982642352658886   -0.08293466291523799   -0.0067927499665641645
0.029591432010705212   -0.05327930656001307   -0.006488352263709438
-0.04798334273189979   -0.08365619684324577   -0.008580269036474736
-0.052733471515260394   -0.11617389480051564   -0.008733031604407563
-0.031138369935554328   -0.0831979282556428   -0.0077493930703539165
-0.048470487621278   -0.08413438049459458   -0.008112215427840994
-0.052733471515260394   -0.11617389480051564   -0.008733031604407563
-0.034638165563217506   -0.11598641913403637   -0.008070019245978412
-0.031138369935554328   -0.0831979282556428   -0.0077493930703539165
-0.03462774688016499   -0.11628851910648953   -0.007871863853557008
-0.048470487621278   -0.08413438049459458   -0.008112215427840994
-0.03117984769085045   -0.08355153234937401   -0.007426774439637234
-0.03462774688016499   -0.11628851910648953   -0.007871863853557008
-0.031138369935554328   -0.0831979282556428   -0.0077493930703539165
-0.048470487621278   -0.08413438049459458   -0.008112215427840994
-0.03462774688016499   -0.11628851910648953   -0.007871863853557008
-0.052963445671243045   -0.11657982096915782   -0.008490795315724822
-0.052733471515260394   -0.11617389480051564   -0.008733031604407563
-0.048470487621278   -0.08413438049459458   -0.008112215427840994
-0.03462774688016499   -0.11628851910648953   -0.007871863853557008
-0.052733471515260394   -0.11617389480051564   -0.008733031604407563
-0.031138369935554328   -0.0831979282556428   -0.0077493930703539165
-0.048470487621278   -0.08413438049459458   -0.008112215427840994
-0.052963445671243045   -0.11657982096915782   -0.008490795315724822
-0.03117984769085045   -0.08355153234937401   -0.007426774439637234
-0.048751991114555956   -0.08447231019603718   -0.007688904424730296
-0.052963445671243045   -0.11657982096915782   -0.008490795315724822
-0.03462774688016499   -0.11628851910648953   -0.007871863853557008
-0.03117984769085045   -0.08355153234937401   -0.007426774439637234
-0.03458468600860144   -0.11656683875314508   -0.007706599708746674
-0.048751991114555956   -0.08447231019603718   -0.007688904424730296
-0.03121072571877382   -0.08383153769998804   -0.007136234605028067
-0.03458468600860144   -0.11656683875314508   -0.007706599708746674
-0.03117984769085045   -0.08355153234937401   -0.007426774439637234
-0.048751991114555956   -0.08447231019603718   -0.007688904424730296
-0.03458468600860144   -0.11656683875314508   -0.007706599708746674
-0.05303943578655052   -0.11691045765001563   -0.008295911491635099
-0.052963445671243045   -0.11657982096915782   -0.008490795315724822
-0.048751991114555956   -0.08447231019603718   -0.007688904424730296
-0.03458468600860144   -0.11656683875314508   -0.007706599708746674
-0.052963445671243045   -0.11657982096915782   -0.008490795315724822
-0.03117984769085045   -0.08355153234937401   -0.007426774439637234
-0.048751991114555956   -0.08447231019603718   -0.007688904424730296
-0.05303943578655052   -0.11691045765001563   -0.008295911491635099
-0.03121072571877382   -0.08383153769998804   -0.007136234605028067
-0.04904228633663825   -0.0847745553468358   -0.007315631261320674
-0.05303943578655052   -0.11691045765001563   -0.008295911491635099
-0.03458468600860144   -0.11656683875314508   -0.007706599708746674
-0.03121072571877382   -0.08383153769998804   -0.007136234605028067
-0.03447347012103721   -0.11684255868641659   -0.007571953470981954
-0.04904228633663825   -0.0847745553468358   -0.007315631261320674
-0.03115022255194607   -0.08406112911947201   -0.006873534503740272
-0.03447347012103721   -0.11684255868641659   -0.007571953470981954
-0.03121072571877382   -0.08383153769998804   -0.007136234605028067
-0.04904228633663825   -0.0847745553468358   -0.007315631261320674
-0.03447347012103721   -0.11684255868641659   -0.007571953470981954
-0.05306794709835385   -0.11726898071230892   -0.008152411979958838
-0.05303943578655052   -0.11691045765001563   -0.008295911491635099
-0.04904228633663825   -0.0847745553468358   -0.007315631261320674
-0.03447347012103721   -0.11684255868641659   -0.007571953470981954
-0.05303943578655052   -0.11691045765001563   -0.008295911491635099
-0.03121072571877382   -0.08383153769998804   -0.007136234605028067
-0.031138369935554328   -0.0831979282556428   -0.0077493930703539165
-0.034638165563217506   -0.11598641913403637   -0.008070019245978412
-0.015343294022899905   -0.08296158745564361   -0.007173936162846321
-0.03117984769085045   -0.08355153234937401   -0.007426774439637234
-0.034638165563217506   -0.11598641913403637   -0.008070019245978412
-0.017828104192086847   -0.1158795478864052   -0.007618531918573077
-0.015343294022899905   -0.08296158745564361   -0.007173936162846321
-0.01776859654642445   -0.11606267211477792   -0.007446297039364173
-0.03117984769085045   -0.08355153234937401   -0.007426774439637234
-0.015318055795064598   -0.08318375211462611   -0.006961387336717102
-0.01776859654642445   -0.11606267211477792   -0.007446297039364173
-0.015343294022899905   -0.08296158745564361   -0.007173936162846321
-0.03117984769085045   -0.08355153234937401   -0.007426774439637234
-0.01776859654642445   -0.11606267211477792   -0.007446297039364173
-0.03462774688016499   -0.11628851910648953   -0.007871863853557008
-0.034638165563217506   -0.11598641913403637   -0.008070019245978412
-0.03117984769085045   -0.08355153234937401   -0.007426774439637234
-0.01776859654642445   -0.11606267211477792   -0.007446297039364173
-0.034638165563217506   -0.11598641913403637   -0.008070019245978412
-0.015343294022899905   -0.08296158745564361   -0.007173936162846321
-0.03117984769085045   -0.08355153234937401   -0.007426774439637234
-0.03462774688016499   -0.11628851910648953   -0.007871863853557008
-0.015318055795064598   -0.08318375211462611   -0.006961387336717102
-0.03121072571877382   -0.08383153769998804   -0.007136234605028067
-0.03462774688016499   -0.11628851910648953   -0.007871863853557008
-0.01776859654642445   -0.11606267211477792   -0.007446297039364173
-0.015318055795064598   -0.08318375211462611   -0.006961387336717102
-0.01769482904747863   -0.11623048158897557   -0.007306997526324981
-0.03121072571877382   -0.08383153769998804   -0.007136234605028067
-0.015282096158308951   -0.08334427679502238   -0.006780455161973111
-0.01769482904747863   -0.11623048158897557   -0.007306997526324981
-0.015318055795064598   -0.08318375211462611   -0.006961387336717102
-0.03121072571877382   -0.08383153769998804   -0.007136234605028067
-0.01769482904747863   -0.11623048158897557   -0.007306997526324981
-0.03458468600860144   -0.11656683875314508   -0.007706599708746674
-0.03462774688016499   -0.11628851910648953   -0.007871863853557008
-0.03121072571877382   -0.08383153769998804   -0.007136234605028067
-0.01769482904747863   -0.11623048158897557   -0.007306997526324981
-0.03462774688016499   -0.11628851910648953   -0.007871863853557008
-0.015318055795064598   -0.08318375211462611   -0.006961387336717102
-0.03121072571877382   -0.08383153769998804   -0.007136234605028067
-0.03458468600860144   -0.11656683875314508   -0.007706599708746674
-0.015282096158308951   -0.08334427679502238   -0.006780455161973111
-0.03115022255194607   -0.08406112911947201   -0.006873534503740272
-0.03458468600860144   -0.11656683875314508   -0.007706599708746674
-0.01769482904747863   -0.11623048158897557   -0.007306997526324981
-0.015282096158308951   -0.08334427679502238   -0.006780455161973111
-0.01760558303417824   -0.11638352179652801   -0.007201408833397335
-0.03115022255194607   -0.08406112911947201   -0.006873534503740272
-0.015226586124628945   -0.08344420954739641   -0.006631649048369346
-0.01760558303417824   -0.11638352179652801   -0.007201408833397335
-0.015282096158308951   -0.08334427679502238   -0.006780455161973111
-0.03115022255194607   -0.08406112911947201   -0.006873534503740272
-0.01760558303417824   -0.11638352179652801   -0.007201408833397335
-0.03447347012103721   -0.11684255868641659   -0.007571953470981954
-0.03458468600860144   -0.11656683875314508   -0.007706599708746674
-0.03115022255194607   -0.08406112911947201   -0.006873534503740272
-0.01760558303417824   -0.11638352179652801   -0.007201408833397335
-0.03458468600860144   -0.11656683875314508   -0.007706599708746674
-0.015282096158308951   -0.08334427679502238   -0.006780455161973111
-0.015343294022899905   -0.08296158745564361   -0.007173936162846321
-0.017828104192086847   -0.1158795478864052   -0.007618531918573077
2.3818730092773924e-05   -0.08292126272973516   -0.0068379946529788654
-0.015318055795064598   -0.08318375211462611   -0.006961387336717102
-0.017828104192086847   -0.1158795478864052   -0.007618531918573077
-0.0014727240348047946   -0.11581880279468759   -0.00738414533943186
2.3818730092773924e-05   -0.08292126272973516   -0.0068379946529788654
-0.0013883751146627694   -0.11588088115965113   -0.0072395137184533805
-0.015318055795064598   -0.08318375211462611   -0.006961387336717102
7.470047126697863e-05   -0.08301140064322553   -0.006736323697083899
-0.0013883751146627694   -0.11588088115965113   -0.0072395137184533805
2.3818730092773924e-05   -0.08292126272973516   -0.0068379946529788654
-0.015318055795064598   -0.08318375211462611   -0.006961387336717102
-0.0013883751146627694   -0.11588088115965113   -0.0072395137184533805
-0.01776859654642445   -0.11606267211477792   -0.007446297039364173
-0.017828104192086847   -0.1158795478864052   -0.007618531918573077
-0.015318055795064598   -0.08318375211462611   -0.006961387336717102
-0.0013883751146627694   -0.11588088115965113   -0.0072395137184533805
-0.017828104192086847   -0.1158795478864052   -0.007618531918573077
2.3818730092773924e-05   -0.08292126272973516   -0.0068379946529788654
-0.015318055795064598   -0.08318375211462611   -0.006961387336717102
-0.01776859654642445   -0.11606267211477792   -0.007446297039364173
7.470047126697863e-05   -0.08301140064322553   -0.006736323697083899
-0.015282096158308951   -0.08334427679502238   -0.006780455161973111
-0.01776859654642445   -0.11606267211477792   -0.007446297039364173
-0.0013883751146627694   -0.11588088115965113   -0.0072395137184533805
7.470047126697863e-05   -0.08301140064322553   -0.006736323697083899
-0.0013157490363325415   -0.1159265782601538   -0.007127519370227561
-0.015282096158308951   -0.08334427679502238   -0.006780455161973111
0.0001097978552442149   -0.08303947848893044   -0.006665854719310809
-0.0013157490363325415   -0.1159265782601538   -0.007127519370227561
7.470047126697863e-05   -0.08301140064322553   -0.006736323697083899
-0.015282096158308951   -0.08334427679502238   -0.006780455161973111
-0.0013157490363325415   -0.1159265782601538   -0.007127519370227561
-0.01769482904747863   -0.11623048158897557   -0.007306997526324981
-0.01776859654642445   -0.11606267211477792   -0.007446297039364173
-0.015282096158308951   -0.08334427679502238   -0.006780455161973111
-0.0013157490363325415   -0.1159265782601538   -0.007127519370227561
-0.01776859654642445   -0.11606267211477792   -0.007446297039364173
7.470047126697863e-05   -0.08301140064322553   -0.006736323697083899
-0.015282096158308951   -0.08334427679502238   -0.006780455161973111
-0.01769482904747863   -0.11623048158897557   -0.007306997526324981
0.0001097978552442149   -0.08303947848893044   -0.006665854719310809
-0.015226586124628945   -0.08344420954739641   -0.006631649048369346
-0.01769482904747863   -0.11623048158897557   -0.007306997526324981
-0.0013157490363325415   -0.1159265782601538   -0.007127519370227561
0.0001097978552442149   -0.08303947848893044   -0.006665854719310809
-0.0012612173162254497   -0.11595567028998904   -0.007049361091521081
-0.015226586124628945   -0.08344420954739641   -0.006631649048369346
0.00013057705074877527   -0.08300464863380003   -0.006627980265705782
-0.0012612173162254497   -0.11595567028998904   -0.007049361091521081
0.0001097978552442149   -0.08303947848893044   -0.006665854719310809
-0.015226586124628945   -0.08344420954739641   -0.006631649048369346
-0.0012612173162254497   -0.11595567028998904   -0.007049361091521081
-0.01760558303417824   -0.11638352179652801   -0.007201408833397335
-0.01769482904747863   -0.11623048158897557   -0.007306997526324981
-0.015226586124628945   -0.08344420954739641   -0.006631649048369346
-0.0012612173162254497   -0.11595567028998904   -0.007049361091521081
-0.01769482904747863   -0.11623048158897557   -0.007306997526324981
0.0001097978552442149   -0.08303947848893044   -0.006665854719310809
2.3818730092773924e-05   -0.08292126272973516   -0.0068379946529788654
-0.0014727240348047946   -0.11581880279468759   -0.00738414533943186
0.01591914826537081   -0.0830603058829772   -0.00674006745439284
7.470047126697863e-05   -0.08301140064322553   -0.006736323697083899
-0.0014727240348047946   -0.11581880279468759   -0.00738414533943186
0.015382559617440445   -0.11579374477551517   -0.007368776122566784
0.01591914826537081   -0.0830603058829772   -0.00674006745439284
0.015495098858468448   -0.11573867336325731   -0.007253148728175006
7.470047126697863e-05   -0.08301140064322553   -0.006736323697083899
0.015981980906124064   -0.08302621525673265   -0.0067516423415555655
0.015495098858468448   -0.11573867336325731   -0.007253148728175006
0.01591914826537081   -0.0830603058829772   -0.00674006745439284
7.470047126697863e-05   -0.08301140064322553   -0.006736323697083899
0.015495098858468448   -0.11573867336325731   -0.007253148728175006
-0.0013883751146627694   -0.11588088115965113   -0.0072395137184533805
-0.0014727240348047946   -0.11581880279468759   -0.00738414533943186
7.470047126697863e-05   -0.08301140064322553   -0.006736323697083899
0.015495098858468448   -0.11573867336325731   -0.007253148728175006
-0.0014727240348047946   -0.11581880279468759   -0.00738414533943186
0.01591914826537081   -0.0830603058829772   -0.00674006745439284
7.470047126697863e-05   -0.08301140064322553   -0.006736323697083899
-0.0013883751146627694   -0.11588088115965113   -0.0072395137184533805
0.015981980906124064   -0.08302621525673265   -0.0067516423415555655
0.0001097978552442149   -0.08303947848893044   -0.006665854719310809
-0.0013883751146627694   -0.11588088115965113   -0.0072395137184533805
0.015495098858468448   -0.11573867336325731   -0.007253148728175006
0.015981980906124064   -0.08302621525673265   -0.0067516423415555655
0.015569076689991804   -0.1156738722075856   -0.007169234225358954
0.0001097978552442149   -0.08303947848893044   -0.006665854719310809
0.015982642352658886   -0.08293466291523799   -0.0067927499665641645
0.015569076689991804   -0.1156738722075856   -0.007169234225358954
0.015981980906124064   -0.08302621525673265   -0.0067516423415555655
0.0001097978552442149   -0.08303947848893044   -0.006665854719310809
0.015569076689991804   -0.1156738722075856   -0.007169234225358954
-0.0013157490363325415   -0.1159265782601538   -0.007127519370227561
-0.0013883751146627694   -0.11588088115965113   -0.0072395137184533805
0.0001097978552442149   -0.08303947848893044   -0.006665854719310809
0.015569076689991804   -0.1156738722075856   -0.007169234225358954
-0.0013883751146627694   -0.11588088115965113   -0.0072395137184533805
0.015981980906124064   -0.08302621525673265   -0.0067516423415555655
0.0001097978552442149   -0.08303947848893044   -0.006665854719310809
-0.0013157490363325415   -0.1159265782601538   -0.007127519370227561
0.015982642352658886   -0.08293466291523799   -0.0067927499665641645
0.00013057705074877527   -0.08300464863380003   -0.006627980265705782
-0.0013157490363325415   -0.1159265782601538   -0.007127519370227561
0.015569076689991804   -0.1156738722075856   -0.007169234225358954
0.015982642352658886   -0.08293466291523799   -0.0067927499665641645
0.015581291379683792   -0.11557788989926064   -0.007116374068773865
0.00013057705074877527   -0.08300464863380003   -0.006627980265705782
0.01594358554827307   -0.0827625881131884   -0.00686450123032494
0.015581291379683792   -0.11557788989926064   -0.007116374068773865
0.015982642352658886   -0.08293466291523799   -0.0067927499665641645
0.00013057705074877527   -0.08300464863380003   -0.006627980265705782
0.015581291379683792   -0.11557788989926064   -0.007116374068773865
-0.0012612173162254497   -0.11595567028998904   -0.007049361091521081
-0.0013157490363325415   -0.1159265782601538   -0.007127519370227561
0.00013057705074877527   -0.08300464863380003   -0.006627980265705782
0.015581291379683792   -0.11557788989926064   -0.007116374068773865
-0.0013157490363325415   -0.1159265782601538   -0.007127519370227561
0.015982642352658886   -0.08293466291523799   -0.0067927499665641645
0.01591914826537081   -0.0830603058829772   -0.00674006745439284
0.015382559617440445   -0.11579374477551517   -0.007368776122566784
0.03347191797379981   -0.08331653637326684   -0.0068274657805117295
0.015981980906124064   -0.08302621525673265   -0.0067516423415555655
0.015382559617440445   -0.11579374477551517   -0.007368776122566784
0.03365157307618935   -0.11576001069643344   -0.007549899236836916
0.03347191797379981   -0.08331653637326684   -0.0068274657805117295
0.03387325772522394   -0.1156124740955838   -0.007456424025124386
0.015981980906124064   -0.08302621525673265   -0.0067516423415555655
0.03343446268294956   -0.08319846802107898   -0.006961690640346852
0.03387325772522394   -0.1156124740955838   -0.007456424025124386
0.03347191797379981   -0.08331653637326684   -0.0068274657805117295
0.015981980906124064   -0.08302621525673265   -0.0067516423415555655
0.03387325772522394   -0.1156124740955838   -0.007456424025124386
0.015495098858468448   -0.11573867336325731   -0.007253148728175006
0.015382559617440445   -0.11579374477551517   -0.007368776122566784
0.015981980906124064   -0.08302621525673265   -0.0067516423415555655
0.03387325772522394   -0.1156124740955838   -0.007456424025124386
0.015382559617440445   -0.11579374477551517   -0.007368776122566784
0.03347191797379981   -0.08331653637326684   -0.0068274657805117295
0.015981980906124064   -0.08302621525673265   -0.0067516423415555655
0.015495098858468448   -0.11573867336325731   -0.007253148728175006
0.03343446268294956   -0.08319846802107898   -0.006961690640346852
0.015982642352658886   -0.08293466291523799   -0.0067927499665641645
0.015495098858468448   -0.11573867336325731   -0.007253148728175006
0.03387325772522394   -0.1156124740955838   -0.007456424025124386
0.03343446268294956   -0.08319846802107898   -0.006961690640346852
0.03398828968859897   -0.11549560344301732   -0.007411095237332442
0.015982642352658886   -0.08293466291523799   -0.0067927499665641645
0.03334495121368184   -0.08304879312416015   -0.007143802067118123
0.03398828968859897   -0.11549560344301732   -0.007411095237332442
0.03343446268294956   -0.08319846802107898   -0.006961690640346852
0.015982642352658886   -0.08293466291523799   -0.0067927499665641645
0.03398828968859897   -0.11549560344301732   -0.007411095237332442
0.015569076689991804   -0.1156738722075856   -0.007169234225358954
0.015495098858468448   -0.11573867336325731   -0.007253148728175006
0.015982642352658886   -0.08293466291523799   -0.0067927499665641645
0.03398828968859897   -0.11549560344301732   -0.007411095237332442
0.015495098858468448   -0.11573867336325731   -0.007253148728175006
0.03343446268294956   -0.08319846802107898   -0.006961690640346852
0.015982642352658886   -0.08293466291523799   -0.0067927499665641645
0.015569076689991804   -0.1156738722075856   -0.007169234225358954
0.03334495121368184   -0.08304879312416015   -0.007143802067118123
0.01594358554827307   -0.0827625881131884   -0.00686450123032494
0.015569076689991804   -0.1156738722075856   -0.007169234225358954
0.03398828968859897   -0.11549560344301732   -0.007411095237332442
0.03334495121368184   -0.08304879312416015   -0.007143802067118123
0.03401128307242407   -0.11530696846489424   -0.007414731527537025
0.01594358554827307   -0.0827625881131884   -0.00686450123032494
0.033110296220908844   -0.08276217947472714   -0.007373453432881501
0.03401128307242407   -0.11530696846489424   -0.007414731527537025
0.03334495121368184   -0.08304879312416015   -0.007143802067118123
0.01594358554827307   -0.0827625881131884   -0.00686450123032494
0.03401128307242407   -0.11530696846489424   -0.007414731527537025
0.015581291379683792   -0.11557788989926064   -0.007116374068773865
0.015569076689991804   -0.1156738722075856   -0.007169234225358954
0.01594358554827307   -0.0827625881131884   -0.00686450123032494
0.03401128307242407   -0.11530696846489424   -0.007414731527537025
0.015569076689991804   -0.1156738722075856   -0.007169234225358954
0.03334495121368184   -0.08304879312416015   -0.007143802067118123
-0.052733471515260394   -0.11617389480051564   -0.008733031604407563
-0.05440225674598959   -0.14930473530241253   -0.008581383109356792
-0.034638165563217506   -0.11598641913403637   -0.008070019245978412
-0.052963445671243045   -0.11657982096915782   -0.008490795315724822
-0.05440225674598959   -0.14930473530241253   -0.008581383109356792
-0.03631595861436474   -0.14939070333676102   -0.008090131788607423
-0.034638165563217506   -0.11598641913403637   -0.008070019245978412
-0.03622072070839185   -0.14964009502040912   -0.008014804952113975
-0.052963445671243045   -0.11657982096915782   -0.008490795315724822
-0.03462774688016499   -0.11628851910648953   -0.007871863853557008
-0.03622072070839185   -0.14964009502040912   -0.008014804952113975
-0.034638165563217506   -0.11598641913403637   -0.008070019245978412
-0.052963445671243045   -0.11657982096915782   -0.008490795315724822
-0.03622072070839185   -0.14964009502040912   -0.008014804952113975
-0.054343062640420714   -0.14963827665799453   -0.0085645235936414
-0.05440225674598959   -0.14930473530241253   -0.008581383109356792
-0.052963445671243045   -0.11657982096915782   -0.008490795315724822
-0.03622072070839185   -0.14964009502040912   -0.008014804952113975
-0.05440225674598959   -0.14930473530241253   -0.008581383109356792
-0.034638165563217506   -0.11598641913403637   -0.008070019245978412
-0.052963445671243045   -0.11657982096915782   -0.008490795315724822
-0.054343062640420714   -0.14963827665799453   -0.0085645235936414
-0.03462774688016499   -0.11628851910648953   -0.007871863853557008
-0.05303943578655052   -0.11691045765001563   -0.008295911491635099
-0.054343062640420714   -0.14963827665799453   -0.0085645235936414
-0.03622072070839185   -0.14964009502040912   -0.008014804952113975
-0.03462774688016499   -0.11628851910648953   -0.007871863853557008
-0.03607082735814336   -0.1499159468641144   -0.007973477280201402
-0.05303943578655052   -0.11691045765001563   -0.008295911491635099
-0.03458468600860144   -0.11656683875314508   -0.007706599708746674
-0.03607082735814336   -0.1499159468641144   -0.007973477280201402
-0.03462774688016499   -0.11628851910648953   -0.007871863853557008
-0.05303943578655052   -0.11691045765001563   -0.008295911491635099
-0.03607082735814336   -0.1499159468641144   -0.007973477280201402
-0.054179471571303796   -0.14996156807452538   -0.00859848330141909
-0.054343062640420714   -0.14963827665799453   -0.0085645235936414
-0.05303943578655052   -0.11691045765001563   -0.008295911491635099
-0.03607082735814336   -0.1499159468641144   -0.007973477280201402
-0.054343062640420714   -0.14963827665799453   -0.0085645235936414
-0.03462774688016499   -0.11628851910648953   -0.007871863853557008
-0.05303943578655052   -0.11691045765001563   -0.008295911491635099
-0.054179471571303796   -0.14996156807452538   -0.00859848330141909
-0.03458468600860144   -0.11656683875314508   -0.007706599708746674
-0.05306794709835385   -0.11726898071230892   -0.008152411979958838
-0.054179471571303796   -0.14996156807452538   -0.00859848330141909
-0.03607082735814336   -0.1499159468641144   -0.007973477280201402
-0.03458468600860144   -0.11656683875314508   -0.007706599708746674
-0.03587590984824229   -0.150237220080309   -0.007965631118703203
-0.05306794709835385   -0.11726898071230892   -0.008152411979958838
-0.03447347012103721   -0.11684255868641659   -0.007571953470981954
-0.03587590984824229   -0.150237220080309   -0.007965631118703203
-0.03458468600860144   -0.11656683875314508   -0.007706599708746674
-0.05306794709835385   -0.11726898071230892   -0.008152411979958838
-0.03587590984824229   -0.150237220080309   -0.007965631118703203
-0.05391217767809053   -0.15037751285338874   -0.008685788819105424
-0.054179471571303796   -0.14996156807452538   -0.00859848330141909
-0.05306794709835385   -0.11726898071230892   -0.008152411979958838
-0.03587590984824229   -0.150237220080309   -0.007965631118703203
-0.054179471571303796   -0.14996156807452538   -0.00859848330141909
-0.03458468600860144   -0.11656683875314508   -0.007706599708746674
-0.034638165563217506   -0.11598641913403637   -0.008070019245978412
-0.03631595861436474   -0.14939070333676102   -0.008090131788607423
-0.017828104192086847   -0.1158795478864052   -0.007618531918573077
-0.03462774688016499   -0.11628851910648953   -0.007871863853557008
-0.03631595861436474   -0.14939070333676102   -0.008090131788607423
-0.01975086719921191   -0.14940985774392626   -0.0077634843379863665
-0.017828104192086847   -0.1158795478864052   -0.007618531918573077
-0.019622530010121354   -0.14955317986405212   -0.0076304633375249694
-0.03462774688016499   -0.11628851910648953   -0.007871863853557008
-0.01776859654642445   -0.11606267211477792   -0.007446297039364173
-0.019622530010121354   -0.14955317986405212   -0.0076304633375249694
-0.017828104192086847   -0.1158795478864052   -0.007618531918573077
-0.03462774688016499   -0.11628851910648953   -0.007871863853557008
-0.019622530010121354   -0.14955317986405212   -0.0076304633375249694
-0.03622072070839185   -0.14964009502040912   -0.008014804952113975
-0.03631595861436474   -0.14939070333676102   -0.008090131788607423
-0.03462774688016499   -0.11628851910648953   -0.007871863853557008
-0.019622530010121354   -0.14955317986405212   -0.0076304633375249694
-0.03631595861436474   -0.14939070333676102   -0.008090131788607423
-0.017828104192086847   -0.1158795478864052   -0.007618531918573077
-0.03462774688016499   -0.11628851910648953   -0.007871863853557008
-0.03622072070839185   -0.14964009502040912   -0.008014804952113975
-0.01776859654642445   -0.11606267211477792   -0.007446297039364173
-0.03458468600860144   -0.11656683875314508   -0.007706599708746674
-0.03622072070839185   -0.14964009502040912   -0.008014804952113975
-0.019622530010121354   -0.14955317986405212   -0.0076304633375249694
-0.01776859654642445   -0.11606267211477792   -0.007446297039364173
-0.01947720290609784   -0.14972701776170322   -0.007531582927485876
-0.03458468600860144   -0.11656683875314508   -0.007706599708746674
-0.01769482904747863   -0.11623048158897557   -0.007306997526324981
-0.01947720290609784   -0.14972701776170322   -0.007531582927485876
-0.01776859654642445   -0.11606267211477792   -0.007446297039364173
-0.03458468600860144   -0.11656683875314508   -0.007706599708746674
-0.01947720290609784   -0.14972701776170322   -0.007531582927485876
-0.03607082735814336   -0.1499159468641144   -0.007973477280201402
-0.03622072070839185   -0.14964009502040912   -0.008014804952113975
-0.03458468600860144   -0.11656683875314508   -0.007706599708746674
-0.01947720290609784   -0.14972701776170322   -0.007531582927485876
-0.03622072070839185   -0.14964009502040912   -0.008014804952113975
-0.01776859654642445   -0.11606267211477792   -0.007446297039364173
-0.03458468600860144   -0.11656683875314508   -0.007706599708746674
-0.03607082735814336   -0.1499159468641144   -0.007973477280201402
-0.01769482904747863   -0.11623048158897557   -0.007306997526324981
-0.03447347012103721   -0.11684255868641659   -0.007571953470981954
-0.03607082735814336   -0.1499159468641144   -0.007973477280201402
-0.01947720290609784   -0.14972701776170322   -0.007531582927485876
-0.01769482904747863   -0.11623048158897557   -0.007306997526324981
-0.019320456800880136   -0.1499319124043125   -0.007467932704199629
-0.03447347012103721   -0.11684255868641659   -0.007571953470981954
-0.01760558303417824   -0.11638352179652801   -0.007201408833397335
-0.019320456800880136   -0.1499319124043125   -0.007467932704199629
-0.01769482904747863   -0.11623048158897557   -0.007306997526324981
-0.03447347012103721   -0.11684255868641659   -0.007571953470981954
-0.019320456800880136   -0.1499319124043125   -0.007467932704199629
-0.03587590984824229   -0.150237220080309   -0.007965631118703203
-0.03607082735814336   -0.1499159468641144   -0.007973477280201402
-0.03447347012103721   -0.11684255868641659   -0.007571953470981954
-0.019320456800880136   -0.1499319124043125   -0.007467932704199629
-0.03607082735814336   -0.1499159468641144   -0.007973477280201402
-0.01769482904747863   -0.11623048158897557   -0.007306997526324981
-0.017828104192086847   -0.1158795478864052   -0.007618531918573077
-0.01975086719921191   -0.14940985774392626   -0.0077634843379863665
-0.0014727240348047946   -0.11581880279468759   -0.00738414533943186
-0.01776859654642445   -0.11606267211477792   -0.007446297039364173
-0.01975086719921191   -0.14940985774392626   -0.0077634843379863665
-0.0036548581458072105   -0.1493226345320286   -0.007628960116640762
-0.0014727240348047946   -0.11581880279468759   -0.00738414533943186
-0.0035027960452613453   -0.14935646355175347   -0.007441110310251342
-0.01776859654642445   -0.11606267211477792   -0.007446297039364173
-0.0013883751146627694   -0.11588088115965113   -0.0072395137184533805
-0.0035027960452613453   -0.14935646355175347   -0.007441110310251342
-0.0014727240348047946   -0.11581880279468759   -0.00738414533943186
-0.01776859654642445   -0.11606267211477792   -0.007446297039364173
-0.0035027960452613453   -0.14935646355175347   -0.007441110310251342
-0.019622530010121354   -0.14955317986405212   -0.0076304633375249694
-0.01975086719921191   -0.14940985774392626   -0.0077634843379863665
-0.01776859654642445   -0.11606267211477792   -0.007446297039364173
-0.0035027960452613453   -0.14935646355175347   -0.007441110310251342
-0.01975086719921191   -0.14940985774392626   -0.0077634843379863665
-0.0014727240348047946   -0.11581880279468759   -0.00738414533943186
-0.01776859654642445   -0.11606267211477792   -0.007446297039364173
-0.019622530010121354   -0.14955317986405212   -0.0076304633375249694
-0.0013883751146627694   -0.11588088115965113   -0.0072395137184533805
-0.01769482904747863   -0.11623048158897557   -0.007306997526324981
-0.019622530010121354   -0.14955317986405212   -0.0076304633375249694
-0.0035027960452613453   -0.14935646355175347   -0.007441110310251342
-0.0013883751146627694   -0.11588088115965113   -0.0072395137184533805
-0.0033590565355795902   -0.14941837937409544   -0.0072871453164691504
-0.01769482904747863   -0.11623048158897557   -0.007306997526324981
-0.0013157490363325415   -0.1159265782601538   -0.007127519370227561
-0.0033590565355795902   -0.14941837937409544   -0.0072871453164691504
-0.0013883751146627694   -0.11588088115965113   -0.0072395137184533805
-0.01769482904747863   -0.11623048158897557   -0.007306997526324981
-0.0033590565355795902   -0.14941837937409544   -0.0072871453164691504
-0.01947720290609784   -0.14972701776170322   -0.007531582927485876
-0.019622530010121354   -0.14955317986405212   -0.0076304633375249694
-0.01769482904747863   -0.11623048158897557   -0.007306997526324981
-0.0033590565355795902   -0.14941837937409544   -0.0072871453164691504
-0.019622530010121354   -0.14955317986405212   -0.0076304633375249694
-0.0013883751146627694   -0.11588088115965113   -0.0072395137184533805
-0.01769482904747863   -0.11623048158897557   -0.007306997526324981
-0.01947720290609784   -0.14972701776170322   -0.007531582927485876
-0.0013157490363325415   -0.1159265782601538   -0.007127519370227561
-0.01760558303417824   -0.11638352179652801   -0.007201408833397335
-0.01947720290609784   -0.14972701776170322   -0.007531582927485876
-0.0033590565355795902   -0.14941837937409544   -0.0072871453164691504
-0.0013157490363325415   -0.1159265782601538   -0.007127519370227561
-0.003237427657341346   -0.14950981365056618   -0.0071682563642226195
-0.01760558303417824   -0.11638352179652801   -0.007201408833397335
-0.0012612173162254497   -0.11595567028998904   -0.007049361091521081
-0.003237427657341346   -0.14950981365056618   -0.0071682563642226195
-0.0013157490363325415   -0.1159265782601538   -0.007127519370227561
-0.01760558303417824   -0.11638352179652801   -0.007201408833397335
-0.003237427657341346   -0.14950981365056618   -0.0071682563642226195
-0.019320456800880136   -0.1499319124043125   -0.007467932704199629
-0.01947720290609784   -0.14972701776170322   -0.007531582927485876
-0.01760558303417824   -0.11638352179652801   -0.007201408833397335
-0.003237427657341346   -0.14950981365056618   -0.0071682563642226195
-0.01947720290609784   -0.14972701776170322   -0.007531582927485876
-0.0013157490363325415   -0.1159265782601538   -0.007127519370227561
-0.0014727240348047946   -0.11581880279468759   -0.00738414533943186
-0.0036548581458072105   -0.1493226345320286   -0.007628960116640762
0.015382559617440445   -0.11579374477551517   -0.007368776122566784
-0.0013883751146627694   -0.11588088115965113   -0.0072395137184533805
-0.0036548581458072105   -0.1493226345320286   -0.007628960116640762
0.012927540542305249   -0.14912847406249108   -0.0076928310288828855
0.015382559617440445   -0.11579374477551517   -0.007368776122566784
0.013121804958165012   -0.1490525136284644   -0.007451181473933019
-0.0013883751146627694   -0.11588088115965113   -0.0072395137184533805
0.015495098858468448   -0.11573867336325731   -0.007253148728175006
0.013121804958165012   -0.1490525136284644   -0.007451181473933019
0.015382559617440445   -0.11579374477551517   -0.007368776122566784
-0.0013883751146627694   -0.11588088115965113   -0.0072395137184533805
0.013121804958165012   -0.1490525136284644   -0.007451181473933019
-0.0035027960452613453   -0.14935646355175347   -0.007441110310251342
-0.0036548581458072105   -0.1493226345320286   -0.007628960116640762
-0.0013883751146627694   -0.11588088115965113   -0.0072395137184533805
0.013121804958165012   -0.1490525136284644   -0.007451181473933019
-0.0036548581458072105   -0.1493226345320286   -0.007628960116640762
0.015382559617440445   -0.11579374477551517   -0.007368776122566784
-0.0013883751146627694   -0.11588088115965113   -0.0072395137184533805
-0.0035027960452613453   -0.14935646355175347   -0.007441110310251342
0.015495098858468448   -0.11573867336325731   -0.007253148728175006
-0.0013157490363325415   -0.1159265782601538   -0.007127519370227561
-0.0035027960452613453   -0.14935646355175347   -0.007441110310251342
0.013121804958165012   -0.1490525136284644   -0.007451181473933019
0.015495098858468448   -0.11573867336325731   -0.007253148728175006
0.013300923466261588   -0.1490130579810432   -0.007243324396345457
-0.0013157490363325415   -0.1159265782601538   -0.007127519370227561
0.015569076689991804   -0.1156738722075856   -0.007169234225358954
0.013300923466261588   -0.1490130579810432   -0.007243324396345457
0.015495098858468448   -0.11573867336325731   -0.007253148728175006
-0.0013157490363325415   -0.1159265782601538   -0.007127519370227561
0.013300923466261588   -0.1490130579810432   -0.007243324396345457
-0.0033590565355795902   -0.14941837937409544   -0.0072871453164691504
-0.0035027960452613453   -0.14935646355175347   -0.007441110310251342
-0.0013157490363325415   -0.1159265782601538   -0.007127519370227561
0.013300923466261588   -0.1490130579810432   -0.007243324396345457
-0.0035027960452613453   -0.14935646355175347   -0.007441110310251342
0.015495098858468448   -0.11573867336325731   -0.007253148728175006
-0.0013157490363325415   -0.1159265782601538   -0.007127519370227561
-0.0033590565355795902   -0.14941837937409544   -0.0072871453164691504
0.015569076689991804   -0.1156738722075856   -0.007169234225358954
-0.0012612173162254497   -0.11595567028998904   -0.007049361091521081
-0.0033590565355795902   -0.14941837937409544   -0.0072871453164691504
0.013300923466261588   -0.1490130579810432   -0.007243324396345457
0.015569076689991804   -0.1156738722075856   -0.007169234225358954
0.01339585592202458   -0.14899074602785817   -0.0070670538550244326
-0.0012612173162254497   -0.11595567028998904   -0.007049361091521081
0.015581291379683792   -0.11557788989926064   -0.007116374068773865
0.01339585592202458   -0.14899074602785817   -0.0070670538550244326
0.015569076689991804   -0.1156738722075856   -0.007169234225358954
-0.0012612173162254497   -0.11595567028998904   -0.007049361091521081
0.01339585592202458   -0.14899074602785817   -0.0070670538550244326
-0.003237427657341346   -0.14950981365056618   -0.0071682563642226195
-0.0033590565355795902   -0.14941837937409544   -0.0072871453164691504
-0.0012612173162254497   -0.11595567028998904   -0.007049361091521081
0.01339585592202458   -0.14899074602785817   -0.0070670538550244326
-0.0033590565355795902   -0.14941837937409544   -0.0072871453164691504
0.015569076689991804   -0.1156738722075856   -0.007169234225358954
0.015382559617440445   -0.11579374477551517   -0.007368776122566784
0.012927540542305249   -0.14912847406249108   -0.0076928310288828855
0.03365157307618935   -0.11576001069643344   -0.007549899236836916
0.015495098858468448   -0.11573867336325731   -0.007253148728175006
0.012927540542305249   -0.14912847406249108   -0.0076928310288828855
0.03068711542424591   -0.148802749080272   -0.007965086257086763
0.03365157307618935   -0.11576001069643344   -0.007549899236836916
0.031196026201279207   -0.14862737719816518   -0.007648476418041574
0.015495098858468448   -0.11573867336325731   -0.007253148728175006
0.03387325772522394   -0.1156124740955838   -0.007456424025124386
0.031196026201279207   -0.14862737719816518   -0.007648476418041574
0.03365157307618935   -0.11576001069643344   -0.007549899236836916
0.015495098858468448   -0.11573867336325731   -0.007253148728175006
0.031196026201279207   -0.14862737719816518   -0.007648476418041574
0.013121804958165012   -0.1490525136284644   -0.007451181473933019
0.012927540542305249   -0.14912847406249108   -0.0076928310288828855
0.015495098858468448   -0.11573867336325731   -0.007253148728175006
0.031196026201279207   -0.14862737719816518   -0.007648476418041574
0.012927540542305249   -0.14912847406249108   -0.0076928310288828855
0.03365157307618935   -0.11576001069643344   -0.007549899236836916
0.015495098858468448   -0.11573867336325731   -0.007253148728175006
0.013121804958165012   -0.1490525136284644   -0.007451181473933019
0.03387325772522394   -0.1156124740955838   -0.007456424025124386
0.015569076689991804   -0.1156738722075856   -0.007169234225358954
0.013121804958165012   -0.1490525136284644   -0.007451181473933019
0.031196026201279207   -0.14862737719816518   -0.007648476418041574
0.03387325772522394   -0.1156124740955838   -0.007456424025124386
0.031544676767821044   -0.14854239269991723   -0.0073799488494615895
0.015569076689991804   -0.1156738722075856   -0.007169234225358954
0.03398828968859897   -0.11549560344301732   -0.007411095237332442
0.031544676767821044   -0.14854239269991723   -0.0073799488494615895
0.03387325772522394   -0.1156124740955838   -0.007456424025124386
0.015569076689991804   -0.1156738722075856   -0.007169234225358954
0.031544676767821044   -0.14854239269991723   -0.0073799488494615895
0.013300923466261588   -0.1490130579810432   -0.007243324396345457
0.013121804958165012   -0.1490525136284644   -0.007451181473933019
0.015569076689991804   -0.1156738722075856   -0.007169234225358954
0.031544676767821044   -0.14854239269991723   -0.0073799488494615895
0.013121804958165012   -0.1490525136284644   -0.007451181473933019
0.03387325772522394   -0.1156124740955838   -0.007456424025124386
0.015569076689991804   -0.1156738722075856   -0.007169234225358954
0.013300923466261588   -0.1490130579810432   -0.007243324396345457
0.03398828968859897   -0.11549560344301732   -0.007411095237332442
0.015581291379683792   -0.11557788989926064   -0.007116374068773865
0.013300923466261588   -0.1490130579810432   -0.007243324396345457
0.031544676767821044   -0.14854239269991723   -0.0073799488494615895
0.03398828968859897   -0.11549560344301732   -0.007411095237332442
0.031852886219975174   -0.148449191073014   -0.007161489049206482
0.015581291379683792   -0.11557788989926064   -0.007116374068773865
0.03401128307242407   -0.11530696846489424   -0.007414731527537025
0.031852886219975174   -0.148449191073014   -0.007161489049206482
0.03398828968859897   -0.11549560344301732   -0.007411095237332442
0.015581291379683792   -0.11557788989926064   -0.007116374068773865
0.031852886219975174   -0.148449191073014   -0.007161489049206482
0.01339585592202458   -0.14899074602785817   -0.0070670538550244326
0.013300923466261588   -0.1490130579810432   -0.007243324396345457
0.015581291379683792   -0.11557788989926064   -0.007116374068773865
0.031852886219975174   -0.148449191073014   -0.007161489049206482
0.013300923466261588   -0.1490130579810432   -0.007243324396345457
0.03398828968859897   -0.11549560344301732   -0.007411095237332442
-0.05440225674598959   -0.14930473530241253   -0.008581383109356792
-0.052956764326992076   -0.18096584897631957   -0.008201187851645395
-0.03631595861436474   -0.14939070333676102   -0.008090131788607423
-0.054343062640420714   -0.14963827665799453   -0.0085645235936414
-0.052956764326992076   -0.18096584897631957   -0.008201187851645395
-0.03617011962073707   -0.18133087765913827   -0.007904522986352676
-0.03631595861436474   -0.14939070333676102   -0.008090131788607423
-0.03595841083520358   -0.18151733609089915   -0.007949011927757956
-0.054343062640420714   -0.14963827665799453   -0.0085645235936414
-0.03622072070839185   -0.14964009502040912   -0.008014804952113975
-0.03595841083520358   -0.18151733609089915   -0.007949011927757956
-0.03631595861436474   -0.14939070333676102   -0.008090131788607423
-0.054343062640420714   -0.14963827665799453   -0.0085645235936414
-0.03595841083520358   -0.18151733609089915   -0.007949011927757956
-0.05257475239175271   -0.18121755955996216   -0.008410715954129901
-0.052956764326992076   -0.18096584897631957   -0.008201187851645395
-0.054343062640420714   -0.14963827665799453   -0.0085645235936414
-0.03595841083520358   -0.18151733609089915   -0.007949011927757956
-0.052956764326992076   -0.18096584897631957   -0.008201187851645395
-0.03631595861436474   -0.14939070333676102   -0.008090131788607423
-0.054343062640420714   -0.14963827665799453   -0.0085645235936414
-0.05257475239175271   -0.18121755955996216   -0.008410715954129901
-0.03622072070839185   -0.14964009502040912   -0.008014804952113975
-0.054179471571303796   -0.14996156807452538   -0.00859848330141909
-0.05257475239175271   -0.18121755955996216   -0.008410715954129901
-0.03595841083520358   -0.18151733609089915   -0.007949011927757956
-0.03622072070839185   -0.14964009502040912   -0.008014804952113975
-0.03567136058200811   -0.18178220124967592   -0.008028452302266615
-0.054179471571303796   -0.14996156807452538   -0.00859848330141909
-0.03607082735814336   -0.1499159468641144   -0.007973477280201402
-0.03567136058200811   -0.18178220124967592   -0.008028452302266615
-0.03622072070839185   -0.14964009502040912   -0.008014804952113975
-0.054179471571303796   -0.14996156807452538   -0.00859848330141909
-0.03567136058200811   -0.18178220124967592   -0.008028452302266615
-0.052137820294363466   -0.1815257372148513   -0.008675228977989396
-0.05257475239175271   -0.18121755955996216   -0.008410715954129901
-0.054179471571303796   -0.14996156807452538   -0.00859848330141909
-0.03567136058200811   -0.18178220124967592   -0.008028452302266615
-0.05257475239175271   -0.18121755955996216   -0.008410715954129901
-0.03622072070839185   -0.14964009502040912   -0.008014804952113975
-0.054179471571303796   -0.14996156807452538   -0.00859848330141909
-0.052137820294363466   -0.1815257372148513   -0.008675228977989396
-0.03607082735814336   -0.1499159468641144   -0.007973477280201402
-0.05391217767809053   -0.15037751285338874   -0.008685788819105424
-0.052137820294363466   -0.1815257372148513   -0.008675228977989396
-0.03567136058200811   -0.18178220124967592   -0.008028452302266615
-0.03607082735814336   -0.1499159468641144   -0.007973477280201402
-0.03536316954666534   -0.18214160145640573   -0.008143904227412893
-0.05391217767809053   -0.15037751285338874   -0.008685788819105424
-0.03587590984824229   -0.150237220080309   -0.007965631118703203
-0.03536316954666534   -0.18214160145640573   -0.008143904227412893
-0.03607082735814336   -0.1499159468641144   -0.007973477280201402
-0.05391217767809053   -0.15037751285338874   -0.008685788819105424
-0.03536316954666534   -0.18214160145640573   -0.008143904227412893
-0.051542216274592795   -0.1819944595147047   -0.008995696506524995
-0.052137820294363466   -0.1815257372148513   -0.008675228977989396
-0.05391217767809053   -0.15037751285338874   -0.008685788819105424
-0.03536316954666534   -0.18214160145640573   -0.008143904227412893
-0.052137820294363466   -0.1815257372148513   -0.008675228977989396
-0.03607082735814336   -0.1499159468641144   -0.007973477280201402
-0.03631595861436474   -0.14939070333676102   -0.008090131788607423
-0.03617011962073707   -0.18133087765913827   -0.007904522986352676
-0.01975086719921191   -0.14940985774392626   -0.0077634843379863665
-0.03622072070839185   -0.14964009502040912   -0.008014804952113975
-0.03617011962073707   -0.18133087765913827   -0.007904522986352676
-0.021127591473390384   -0.1814760458401245   -0.0077144633796589045
-0.01975086719921191   -0.14940985774392626   -0.0077634843379863665
-0.020896814483301576   -0.18157324922182852   -0.0076176410042379855
-0.03622072070839185   -0.14964009502040912   -0.008014804952113975
-0.019622530010121354   -0.14955317986405212   -0.0076304633375249694
-0.020896814483301576   -0.18157324922182852   -0.0076176410042379855
-0.01975086719921191   -0.14940985774392626   -0.0077634843379863665
-0.03622072070839185   -0.14964009502040912   -0.008014804952113975
-0.020896814483301576   -0.18157324922182852   -0.0076176410042379855
-0.03595841083520358   -0.18151733609089915   -0.007949011927757956
-0.03617011962073707   -0.18133087765913827   -0.007904522986352676
-0.03622072070839185   -0.14964009502040912   -0.008014804952113975
-0.020896814483301576   -0.18157324922182852   -0.0076176410042379855
-0.03617011962073707   -0.18133087765913827   -0.007904522986352676
-0.01975086719921191   -0.14940985774392626   -0.0077634843379863665
-0.03622072070839185   -0.14964009502040912   -0.008014804952113975
-0.03595841083520358   -0.18151733609089915   -0.007949011927757956
-0.019622530010121354   -0.14955317986405212   -0.0076304633375249694
-0.03607082735814336   -0.1499159468641144   -0.007973477280201402
-0.03595841083520358   -0.18151733609089915   -0.007949011927757956
-0.020896814483301576   -0.18157324922182852   -0.0076176410042379855
-0.019622530010121354   -0.14955317986405212   -0.0076304633375249694
-0.0206484748504441   -0.18174588943680145   -0.007555349752608052
-0.03607082735814336   -0.1499159468641144   -0.007973477280201402
-0.01947720290609784   -0.14972701776170322   -0.007531582927485876
-0.0206484748504441   -0.18174588943680145   -0.007555349752608052
-0.019622530010121354   -0.14955317986405212   -0.0076304633375249694
-0.03607082735814336   -0.1499159468641144   -0.007973477280201402
-0.0206484748504441   -0.18174588943680145   -0.007555349752608052
-0.03567136058200811   -0.18178220124967592   -0.008028452302266615
-0.03595841083520358   -0.18151733609089915   -0.007949011927757956
-0.03607082735814336   -0.1499159468641144   -0.007973477280201402
-0.0206484748504441   -0.18174588943680145   -0.007555349752608052
-0.03595841083520358   -0.18151733609089915   -0.007949011927757956
-0.019622530010121354   -0.14955317986405212   -0.0076304633375249694
-0.03607082735814336   -0.1499159468641144   -0.007973477280201402
-0.03567136058200811   -0.18178220124967592   -0.008028452302266615
-0.01947720290609784   -0.14972701776170322   -0.007531582927485876
-0.03587590984824229   -0.150237220080309   -0.007965631118703203
-0.03567136058200811   -0.18178220124967592   -0.008028452302266615
-0.0206484748504441   -0.18174588943680145   -0.007555349752608052
-0.01947720290609784   -0.14972701776170322   -0.007531582927485876
-0.02039320640350726   -0.18199617449135946   -0.007529259945021689
-0.03587590984824229   -0.150237220080309   -0.007965631118703203
-0.019320456800880136   -0.1499319124043125   -0.007467932704199629
-0.02039320640350726   -0.18199617449135946   -0.007529259945021689
-0.01947720290609784   -0.14972701776170322   -0.007531582927485876
-0.03587590984824229   -0.150237220080309   -0.007965631118703203
-0.02039320640350726   -0.18199617449135946   -0.007529259945021689
-0.03536316954666534   -0.18214160145640573   -0.008143904227412893
-0.03567136058200811   -0.18178220124967592   -0.008028452302266615
-0.03587590984824229   -0.150237220080309   -0.007965631118703203
-0.02039320640350726   -0.18199617449135946   -0.007529259945021689
-0.03567136058200811   -0.18178220124967592   -0.008028452302266615
-0.01947720290609784   -0.14972701776170322   -0.007531582927485876
-0.01975086719921191   -0.14940985774392626   -0.0077634843379863665
-0.021127591473390384   -0.1814760458401245   -0.0077144633796589045
-0.0036548581458072105   -0.1493226345320286   -0.007628960116640762
-0.019622530010121354   -0.14955317986405212   -0.0076304633375249694
-0.021127591473390384   -0.1814760458401245   -0.0077144633796589045
-0.006541430401328225   -0.18136604653464877   -0.007681734118986895
-0.0036548581458072105   -0.1493226345320286   -0.007628960116640762
-0.0062861392706179756   -0.18136894964447778   -0.007448447651337766
-0.019622530010121354   -0.14955317986405212   -0.0076304633375249694
-0.0035027960452613453   -0.14935646355175347   -0.007441110310251342
-0.0062861392706179756   -0.18136894964447778   -0.007448447651337766
-0.0036548581458072105   -0.1493226345320286   -0.007628960116640762
-0.019622530010121354   -0.14955317986405212   -0.0076304633375249694
-0.0062861392706179756   -0.18136894964447778   -0.007448447651337766
-0.020896814483301576   -0.18157324922182852   -0.0076176410042379855
-0.021127591473390384   -0.1814760458401245   -0.0077144633796589045
-0.019622530010121354   -0.14955317986405212   -0.0076304633375249694
-0.0062861392706179756   -0.18136894964447778   -0.007448447651337766
-0.021127591473390384   -0.1814760458401245   -0.0077144633796589045
-0.0036548581458072105   -0.1493226345320286   -0.007628960116640762
-0.019622530010121354   -0.14955317986405212   -0.0076304633375249694
-0.020896814483301576   -0.18157324922182852   -0.0076176410042379855
-0.0035027960452613453   -0.14935646355175347   -0.007441110310251342
-0.01947720290609784   -0.14972701776170322   -0.007531582927485876
-0.020896814483301576   -0.18157324922182852   -0.0076176410042379855
-0.0062861392706179756   -0.18136894964447778   -0.007448447651337766
-0.0035027960452613453   -0.14935646355175347   -0.007441110310251342
-0.006037599172488722   -0.1814416910852694   -0.007249765286796629
-0.01947720290609784   -0.14972701776170322   -0.007531582927485876
-0.0033590565355795902   -0.14941837937409544   -0.0072871453164691504
-0.006037599172488722   -0.1814416910852694   -0.007249765286796629
-0.0035027960452613453   -0.14935646355175347   -0.007441110310251342
-0.01947720290609784   -0.14972701776170322   -0.007531582927485876
-0.006037599172488722   -0.1814416910852694   -0.007249765286796629
-0.0206484748504441   -0.18174588943680145   -0.007555349752608052
-0.020896814483301576   -0.18157324922182852   -0.0076176410042379855
-0.01947720290609784   -0.14972701776170322   -0.007531582927485876
-0.006037599172488722   -0.1814416910852694   -0.007249765286796629
-0.020896814483301576   -0.18157324922182852   -0.0076176410042379855
-0.0035027960452613453   -0.14935646355175347   -0.007441110310251342
-0.01947720290609784   -0.14972701776170322   -0.007531582927485876
-0.0206484748504441   -0.18174588943680145   -0.007555349752608052
-0.0033590565355795902   -0.14941837937409544   -0.0072871453164691504
-0.019320456800880136   -0.1499319124043125   -0.007467932704199629
-0.0206484748504441   -0.18174588943680145   -0.007555349752608052
-0.006037599172488722   -0.1814416910852694   -0.007249765286796629
-0.0033590565355795902   -0.14941837937409544   -0.0072871453164691504
-0.005816020105655141   -0.18159035747710112   -0.0070868956594763695
-0.019320456800880136   -0.1499319124043125   -0.007467932704199629
-0.003237427657341346   -0.14950981365056618   -0.0071682563642226195
-0.005816020105655141   -0.18159035747710112   -0.0070868956594763695
-0.0033590565355795902   -0.14941837937409544   -0.0072871453164691504
-0.019320456800880136   -0.1499319124043125   -0.007467932704199629
-0.005816020105655141   -0.18159035747710112   -0.0070868956594763695
-0.02039320640350726   -0.18199617449135946   -0.007529259945021689
-0.0206484748504441   -0.18174588943680145   -0.007555349752608052
-0.019320456800880136   -0.1499319124043125   -0.007467932704199629
-0.005816020105655141   -0.18159035747710112   -0.0070868956594763695
-0.0206484748504441   -0.18174588943680145   -0.007555349752608052
-0.0033590565355795902   -0.14941837937409544   -0.0072871453164691504
-0.0036548581458072105   -0.1493226345320286   -0.007628960116640762
-0.006541430401328225   -0.18136604653464877   -0.007681734118986895
0.012927540542305249   -0.14912847406249108   -0.0076928310288828855
-0.0035027960452613453   -0.14935646355175347   -0.007441110310251342
-0.006541430401328225   -0.18136604653464877   -0.007681734118986895
0.008551037036628904   -0.18100872290173048   -0.00781870954072895
0.012927540542305249   -0.14912847406249108   -0.0076928310288828855
0.00886309812454547   -0.18091098027845817   -0.007450310693868811
-0.0035027960452613453   -0.14935646355175347   -0.007441110310251342
0.013121804958165012   -0.1490525136284644   -0.007451181473933019
0.00886309812454547   -0.18091098027845817   -0.007450310693868811
0.012927540542305249   -0.14912847406249108   -0.0076928310288828855
-0.0035027960452613453   -0.14935646355175347   -0.007441110310251342
0.00886309812454547   -0.18091098027845817   -0.007450310693868811
-0.0062861392706179756   -0.18136894964447778   -0.007448447651337766
-0.006541430401328225   -0.18136604653464877   -0.007681734118986895
-0.0035027960452613453   -0.14935646355175347   -0.007441110310251342
0.00886309812454547   -0.18091098027845817   -0.007450310693868811
-0.006541430401328225   -0.18136604653464877   -0.007681734118986895
0.012927540542305249   -0.14912847406249108   -0.0076928310288828855
-0.0035027960452613453   -0.14935646355175347   -0.007441110310251342
-0.0062861392706179756   -0.18136894964447778   -0.007448447651337766
0.013121804958165012   -0.1490525136284644   -0.007451181473933019
-0.0033590565355795902   -0.14941837937409544   -0.0072871453164691504
-0.0062861392706179756   -0.18136894964447778   -0.007448447651337766
0.00886309812454547   -0.18091098027845817   -0.007450310693868811
0.013121804958165012   -0.1490525136284644   -0.007451181473933019
0.009182827656026736   -0.18089299281205629   -0.007118749945861158
-0.0033590565355795902   -0.14941837937409544   -0.0072871453164691504
0.013300923466261588   -0.1490130579810432   -0.007243324396345457
0.009182827656026736   -0.18089299281205629   -0.007118749945861158
0.013121804958165012   -0.1490525136284644   -0.007451181473933019
-0.0033590565355795902   -0.14941837937409544   -0.0072871453164691504
0.009182827656026736   -0.18089299281205629   -0.007118749945861158
-0.006037599172488722   -0.1814416910852694   -0.007249765286796629
-0.0062861392706179756   -0.18136894964447778   -0.007448447651337766
-0.0033590565355795902   -0.14941837937409544   -0.0072871453164691504
0.009182827656026736   -0.18089299281205629   -0.007118749945861158
-0.0062861392706179756   -0.18136894964447778   -0.007448447651337766
0.013121804958165012   -0.1490525136284644   -0.007451181473933019
-0.0033590565355795902   -0.14941837937409544   -0.0072871453164691504
-0.006037599172488722   -0.1814416910852694   -0.007249765286796629
0.013300923466261588   -0.1490130579810432   -0.007243324396345457
-0.003237427657341346   -0.14950981365056618   -0.0071682563642226195
-0.006037599172488722   -0.1814416910852694   -0.007249765286796629
0.009182827656026736   -0.18089299281205629   -0.007118749945861158
0.013300923466261588   -0.1490130579810432   -0.007243324396345457
0.009395016963917797   -0.18093999133829178   -0.006819174985810284
-0.003237427657341346   -0.14950981365056618   -0.0071682563642226195
0.01339585592202458   -0.14899074602785817   -0.0070670538550244326
0.009395016963917797   -0.18093999133829178   -0.006819174985810284
0.013300923466261588   -0.1490130579810432   -0.007243324396345457
-0.003237427657341346   -0.14950981365056618   -0.0071682563642226195
0.009395016963917797   -0.18093999133829178   -0.006819174985810284
-0.005816020105655141   -0.18159035747710112   -0.0070868956594763695
-0.006037599172488722   -0.1814416910852694   -0.007249765286796629
-0.003237427657341346   -0.14950981365056618   -0.0071682563642226195
0.009395016963917797   -0.18093999133829178   -0.006819174985810284
-0.006037599172488722   -0.1814416910852694   -0.007249765286796629
0.013300923466261588   -0.1490130579810432   -0.007243324396345457
0.012927540542305249   -0.14912847406249108   -0.0076928310288828855
0.008551037036628904   -0.18100872290173048   -0.00781870954072895
0.03068711542424591   -0.148802749080272   -0.007965086257086763
0.013121804958165012   -0.1490525136284644   -0.007451181473933019
0.008551037036628904   -0.18100872290173048   -0.00781870954072895
0.02461466423541621   -0.1803946189563292   -0.008174630113561326
0.03068711542424591   -0.148802749080272   -0.007965086257086763
0.02544462786477582   -0.18019251179658757   -0.007638962799154275
0.013121804958165012   -0.1490525136284644   -0.007451181473933019
0.031196026201279207   -0.14862737719816518   -0.007648476418041574
0.02544462786477582   -0.18019251179658757   -0.007638962799154275
0.03068711542424591   -0.148802749080272   -0.007965086257086763
0.013121804958165012   -0.1490525136284644   -0.007451181473933019
0.02544462786477582   -0.18019251179658757   -0.007638962799154275
0.00886309812454547   -0.18091098027845817   -0.007450310693868811
0.008551037036628904   -0.18100872290173048   -0.00781870954072895
0.013121804958165012   -0.1490525136284644   -0.007451181473933019
0.02544462786477582   -0.18019251179658757   -0.007638962799154275
0.008551037036628904   -0.18100872290173048   -0.00781870954072895
0.03068711542424591   -0.148802749080272   -0.007965086257086763
0.013121804958165012   -0.1490525136284644   -0.007451181473933019
0.00886309812454547   -0.18091098027845817   -0.007450310693868811
0.031196026201279207   -0.14862737719816518   -0.007648476418041574
0.013300923466261588   -0.1490130579810432   -0.007243324396345457
0.00886309812454547   -0.18091098027845817   -0.007450310693868811
0.02544462786477582   -0.18019251179658757   -0.007638962799154275
0.031196026201279207   -0.14862737719816518   -0.007648476418041574
0.026058649054988864   -0.1801371711162621   -0.0071522472143914495
0.013300923466261588   -0.1490130579810432   -0.007243324396345457
0.031544676767821044   -0.14854239269991723   -0.0073799488494615895
0.026058649054988864   -0.1801371711162621   -0.0071522472143914495
0.031196026201279207   -0.14862737719816518   -0.007648476418041574
0.013300923466261588   -0.1490130579810432   -0.007243324396345457
0.026058649054988864   -0.1801371711162621   -0.0071522472143914495
0.009182827656026736   -0.18089299281205629   -0.007118749945861158
0.00886309812454547   -0.18091098027845817   -0.007450310693868811
0.013300923466261588   -0.1490130579810432   -0.007243324396345457
0.026058649054988864   -0.1801371711162621   -0.0071522472143914495
0.00886309812454547   -0.18091098027845817   -0.007450310693868811
0.031196026201279207   -0.14862737719816518   -0.007648476418041574
0.013300923466261588   -0.1490130579810432   -0.007243324396345457
0.009182827656026736   -0.18089299281205629   -0.007118749945861158
0.031544676767821044   -0.14854239269991723   -0.0073799488494615895
0.01339585592202458   -0.14899074602785817   -0.0070670538550244326
0.009182827656026736   -0.18089299281205629   -0.007118749945861158
0.026058649054988864   -0.1801371711162621   -0.0071522472143914495
0.031544676767821044   -0.14854239269991723   -0.0073799488494615895
0.02668013056271574   -0.18013642852853406   -0.0067166860786165945
0.01339585592202458   -0.14899074602785817   -0.0070670538550244326
0.031852886219975174   -0.148449191073014   -0.007161489049206482
0.02668013056271574   -0.18013642852853406   -0.0067166860786165945
0.031544676767821044   -0.14854239269991723   -0.0073799488494615895
0.01339585592202458   -0.14899074602785817   -0.0070670538550244326
0.02668013056271574   -0.18013642852853406   -0.0067166860786165945
0.009395016963917797   -0.18093999133829178   -0.006819174985810284
0.009182827656026736   -0.18089299281205629   -0.007118749945861158
0.01339585592202458   -0.14899074602785817   -0.0070670538550244326
0.02668013056271574   -0.18013642852853406   -0.0067166860786165945
0.009182827656026736   -0.18089299281205629   -0.007118749945861158
0.031544676767821044   -0.14854239269991723   -0.0073799488494615895
-0.052956764326992076   -0.18096584897631957   -0.008201187851645395
-0.04832565592416604   -0.20900031678709463   -0.0076453114370811865
-0.03617011962073707   -0.18133087765913827   -0.007904522986352676
-0.05257475239175271   -0.18121755955996216   -0.008410715954129901
-0.04832565592416604   -0.20900031678709463   -0.0076453114370811865
-0.034192626622737136   -0.20966051514518927   -0.007596915124232725
-0.03617011962073707   -0.18133087765913827   -0.007904522986352676
-0.03383872139844407   -0.20975611626894933   -0.007752789112192049
-0.05257475239175271   -0.18121755955996216   -0.008410715954129901
-0.03595841083520358   -0.18151733609089915   -0.007949011927757956
-0.03383872139844407   -0.20975611626894933   -0.007752789112192049
-0.03617011962073707   -0.18133087765913827   -0.007904522986352676
-0.05257475239175271   -0.18121755955996216   -0.008410715954129901
-0.03383872139844407   -0.20975611626894933   -0.007752789112192049
-0.04758977870454035   -0.2091423283297996   -0.008081105683776107
-0.04832565592416604   -0.20900031678709463   -0.0076453114370811865
-0.05257475239175271   -0.18121755955996216   -0.008410715954129901
-0.03383872139844407   -0.20975611626894933   -0.007752789112192049
-0.04832565592416604   -0.20900031678709463   -0.0076453114370811865
-0.03617011962073707   -0.18133087765913827   -0.007904522986352676
-0.05257475239175271   -0.18121755955996216   -0.008410715954129901
-0.04758977870454035   -0.2091423283297996   -0.008081105683776107
-0.03595841083520358   -0.18151733609089915   -0.007949011927757956
-0.052137820294363466   -0.1815257372148513   -0.008675228977989396
-0.04758977870454035   -0.2091423283297996   -0.008081105683776107
-0.03383872139844407   -0.20975611626894933   -0.007752789112192049
-0.03595841083520358   -0.18151733609089915   -0.007949011927757956
-0.033394260300670935   -0.2099845974079368   -0.007944220971620685
-0.052137820294363466   -0.1815257372148513   -0.008675228977989396
-0.03567136058200811   -0.18178220124967592   -0.008028452302266615
-0.033394260300670935   -0.2099845974079368   -0.007944220971620685
-0.03595841083520358   -0.18151733609089915   -0.007949011927757956
-0.052137820294363466   -0.1815257372148513   -0.008675228977989396
-0.033394260300670935   -0.2099845974079368   -0.007944220971620685
-0.04685512582002583   -0.20941044226782038   -0.008574806902529838
-0.04758977870454035   -0.2091423283297996   -0.008081105683776107
-0.052137820294363466   -0.1815257372148513   -0.008675228977989396
-0.033394260300670935   -0.2099845974079368   -0.007944220971620685
-0.04758977870454035   -0.2091423283297996   -0.008081105683776107
-0.03595841083520358   -0.18151733609089915   -0.007949011927757956
-0.052137820294363466   -0.1815257372148513   -0.008675228977989396
-0.04685512582002583   -0.20941044226782038   -0.008574806902529838
-0.03567136058200811   -0.18178220124967592   -0.008028452302266615
-0.051542216274592795   -0.1819944595147047   -0.008995696506524995
-0.04685512582002583   -0.20941044226782038   -0.008574806902529838
-0.033394260300670935   -0.2099845974079368   -0.007944220971620685
-0.03567136058200811   -0.18178220124967592   -0.008028452302266615
-0.032955595916061814   -0.21035892480215027   -0.008170878784125306
-0.051542216274592795   -0.1819944595147047   -0.008995696506524995
-0.03536316954666534   -0.18214160145640573   -0.008143904227412893
-0.032955595916061814   -0.21035892480215027   -0.008170878784125306
-0.03567136058200811   -0.18178220124967592   -0.008028452302266615
-0.051542216274592795   -0.1819944595147047   -0.008995696506524995
-0.032955595916061814   -0.21035892480215027   -0.008170878784125306
-0.04591389922467843   -0.20991038893298183   -0.00912529682729077
-0.04685512582002583   -0.20941044226782038   -0.008574806902529838
-0.051542216274592795   -0.1819944595147047   -0.008995696506524995
-0.032955595916061814   -0.21035892480215027   -0.008170878784125306
-0.04685512582002583   -0.20941044226782038   -0.008574806902529838
-0.03567136058200811   -0.18178220124967592   -0.008028452302266615
-0.03617011962073707   -0.18133087765913827   -0.007904522986352676
-0.034192626622737136   -0.20966051514518927   -0.007596915124232725
-0.021127591473390384   -0.1814760458401245   -0.0077144633796589045
-0.03595841083520358   -0.18151733609089915   -0.007949011927757956
-0.034192626622737136   -0.20966051514518927   -0.007596915124232725
-0.021963148908446344   -0.2099710051560339   -0.0075773329988689945
-0.021127591473390384   -0.1814760458401245   -0.0077144633796589045
-0.021599814947399716   -0.21000254783838473   -0.0075078853335974974
-0.03595841083520358   -0.18151733609089915   -0.007949011927757956
-0.020896814483301576   -0.18157324922182852   -0.0076176410042379855
-0.021599814947399716   -0.21000254783838473   -0.0075078853335974974
-0.021127591473390384   -0.1814760458401245   -0.0077144633796589045
-0.03595841083520358   -0.18151733609089915   -0.007949011927757956
-0.021599814947399716   -0.21000254783838473   -0.0075078853335974974
-0.03383872139844407   -0.20975611626894933   -0.007752789112192049
-0.034192626622737136   -0.20966051514518927   -0.007596915124232725
-0.03595841083520358   -0.18151733609089915   -0.007949011927757956
-0.021599814947399716   -0.21000254783838473   -0.0075078853335974974
-0.034192626622737136   -0.20966051514518927   -0.007596915124232725
-0.021127591473390384   -0.1814760458401245   -0.0077144633796589045
-0.03595841083520358   -0.18151733609089915   -0.007949011927757956
-0.03383872139844407   -0.20975611626894933   -0.007752789112192049
-0.020896814483301576   -0.18157324922182852   -0.0076176410042379855
-0.03567136058200811   -0.18178220124967592   -0.008028452302266615
-0.03383872139844407   -0.20975611626894933   -0.007752789112192049
-0.021599814947399716   -0.21000254783838473   -0.0075078853335974974
-0.020896814483301576   -0.18157324922182852   -0.0076176410042379855
-0.02122490155024636   -0.2101526886996102   -0.0074729440796594635
-0.03567136058200811   -0.18178220124967592   -0.008028452302266615
-0.0206484748504441   -0.18174588943680145   -0.007555349752608052
-0.02122490155024636   -0.2101526886996102   -0.0074729440796594635
-0.020896814483301576   -0.18157324922182852   -0.0076176410042379855
-0.03567136058200811   -0.18178220124967592   -0.008028452302266615
-0.02122490155024636   -0.2101526886996102   -0.0074729440796594635
-0.033394260300670935   -0.2099845974079368   -0.007944220971620685
-0.03383872139844407   -0.20975611626894933   -0.007752789112192049
-0.03567136058200811   -0.18178220124967592   -0.008028452302266615
-0.02122490155024636   -0.2101526886996102   -0.0074729440796594635
-0.03383872139844407   -0.20975611626894933   -0.007752789112192049
-0.020896814483301576   -0.18157324922182852   -0.0076176410042379855
-0.03567136058200811   -0.18178220124967592   -0.008028452302266615
-0.033394260300670935   -0.2099845974079368   -0.007944220971620685
-0.0206484748504441   -0.18174588943680145   -0.007555349752608052
-0.03536316954666534   -0.18214160145640573   -0.008143904227412893
-0.033394260300670935   -0.2099845974079368   -0.007944220971620685
-0.02122490155024636   -0.2101526886996102   -0.0074729440796594635
-0.0206484748504441   -0.18174588943680145   -0.007555349752608052
-0.020850649873652143   -0.21042853272073103   -0.007472029462501647
-0.03536316954666534   -0.18214160145640573   -0.008143904227412893
-0.02039320640350726   -0.18199617449135946   -0.007529259945021689
-0.020850649873652143   -0.21042853272073103   -0.007472029462501647
-0.0206484748504441   -0.18174588943680145   -0.007555349752608052
-0.03536316954666534   -0.18214160145640573   -0.008143904227412893
-0.020850649873652143   -0.21042853272073103   -0.007472029462501647
-0.032955595916061814   -0.21035892480215027   -0.008170878784125306
-0.033394260300670935   -0.2099845974079368   -0.007944220971620685
-0.03536316954666534   -0.18214160145640573   -0.008143904227412893
-0.020850649873652143   -0.21042853272073103   -0.007472029462501647
-0.033394260300670935   -0.2099845974079368   -0.007944220971620685
-0.0206484748504441   -0.18174588943680145   -0.007555349752608052
-0.021127591473390384   -0.1814760458401245   -0.0077144633796589045
-0.021963148908446344   -0.2099710051560339   -0.0075773329988689945
-0.006541430401328225   -0.18136604653464877   -0.007681734118986895
-0.020896814483301576   -0.18157324922182852   -0.0076176410042379855
-0.021963148908446344   -0.2099710051560339   -0.0075773329988689945
-0.010140506622148143   -0.20991708779120727   -0.007664085401517139
-0.006541430401328225   -0.18136604653464877   -0.007681734118986895
-0.009742504747071636   -0.2098767793998035   -0.007377247035714634
-0.020896814483301576   -0.18157324922182852   -0.0076176410042379855
-0.0062861392706179756   -0.18136894964447778   -0.007448447651337766
-0.009742504747071636   -0.2098767793998035   -0.007377247035714634
-0.006541430401328225   -0.18136604653464877   -0.007681734118986895
-0.020896814483301576   -0.18157324922182852   -0.0076176410042379855
-0.009742504747071636   -0.2098767793998035   -0.007377247035714634
-0.021599814947399716   -0.21000254783838473   -0.0075078853335974974
-0.021963148908446344   -0.2099710051560339   -0.0075773329988689945
-0.020896814483301576   -0.18157324922182852   -0.0076176410042379855
-0.009742504747071636   -0.2098767793998035   -0.007377247035714634
-0.021963148908446344   -0.2099710051560339   -0.0075773329988689945
-0.006541430401328225   -0.18136604653464877   -0.007681734118986895
-0.020896814483301576   -0.18157324922182852   -0.0076176410042379855
-0.021599814947399716   -0.21000254783838473   -0.0075078853335974974
-0.0062861392706179756   -0.18136894964447778   -0.007448447651337766
-0.0206484748504441   -0.18174588943680145   -0.007555349752608052
-0.021599814947399716   -0.21000254783838473   -0.0075078853335974974
-0.009742504747071636   -0.2098767793998035   -0.007377247035714634
-0.0062861392706179756   -0.18136894964447778   -0.007448447651337766
-0.009356374433925382   -0.20994357461973479   -0.007127185541604548
-0.0206484748504441   -0.18174588943680145   -0.007555349752608052
-0.006037599172488722   -0.1814416910852694   -0.007249765286796629
-0.009356374433925382   -0.20994357461973479   -0.007127185541604548
-0.0062861392706179756   -0.18136894964447778   -0.007448447651337766
-0.0206484748504441   -0.18174588943680145   -0.007555349752608052
-0.009356374433925382   -0.20994357461973479   -0.007127185541604548
-0.02122490155024636   -0.2101526886996102   -0.0074729440796594635
-0.021599814947399716   -0.21000254783838473   -0.0075078853335974974
-0.0206484748504441   -0.18174588943680145   -0.007555349752608052
-0.009356374433925382   -0.20994357461973479   -0.007127185541604548
-0.021599814947399716   -0.21000254783838473   -0.0075078853335974974
-0.0062861392706179756   -0.18136894964447778   -0.007448447651337766
-0.0206484748504441   -0.18174588943680145   -0.007555349752608052
-0.02122490155024636   -0.2101526886996102   -0.0074729440796594635
-0.006037599172488722   -0.1814416910852694   -0.007249765286796629
-0.02039320640350726   -0.18199617449135946   -0.007529259945021689
-0.02122490155024636   -0.2101526886996102   -0.0074729440796594635
-0.009356374433925382   -0.20994357461973479   -0.007127185541604548
-0.006037599172488722   -0.1814416910852694   -0.007249765286796629
-0.009007644847520832   -0.21013325704887478   -0.006910696369404818
-0.02039320640350726   -0.18199617449135946   -0.007529259945021689
-0.005816020105655141   -0.18159035747710112   -0.0070868956594763695
-0.009007644847520832   -0.21013325704887478   -0.006910696369404818
-0.006037599172488722   -0.1814416910852694   -0.007249765286796629
-0.02039320640350726   -0.18199617449135946   -0.007529259945021689
-0.009007644847520832   -0.21013325704887478   -0.006910696369404818
-0.020850649873652143   -0.21042853272073103   -0.007472029462501647
-0.02122490155024636   -0.2101526886996102   -0.0074729440796594635
-0.02039320640350726   -0.18199617449135946   -0.007529259945021689
-0.009007644847520832   -0.21013325704887478   -0.006910696369404818
-0.02122490155024636   -0.2101526886996102   -0.0074729440796594635
-0.006037599172488722   -0.1814416910852694   -0.007249765286796629
-0.006541430401328225   -0.18136604653464877   -0.007681734118986895
-0.010140506622148143   -0.20991708779120727   -0.007664085401517139
0.008551037036628904   -0.18100872290173048   -0.00781870954072895
-0.0062861392706179756   -0.18136894964447778   -0.007448447651337766
-0.010140506622148143   -0.20991708779120727   -0.007664085401517139
0.0022421143395420064   -0.20948577594054713   -0.007876600296293937
0.008551037036628904   -0.18100872290173048   -0.00781870954072895
0.002726029985672554   -0.20935404841388572   -0.007373190592631607
-0.0062861392706179756   -0.18136894964447778   -0.007448447651337766
0.00886309812454547   -0.18091098027845817   -0.007450310693868811
0.002726029985672554   -0.20935404841388572   -0.007373190592631607
0.008551037036628904   -0.18100872290173048   -0.00781870954072895
-0.0062861392706179756   -0.18136894964447778   -0.007448447651337766
0.002726029985672554   -0.20935404841388572   -0.007373190592631607
-0.009742504747071636   -0.2098767793998035   -0.007377247035714634
-0.010140506622148143   -0.20991708779120727   -0.007664085401517139
-0.0062861392706179756   -0.18136894964447778   -0.007448447651337766
0.002726029985672554   -0.20935404841388572   -0.007373190592631607
-0.010140506622148143   -0.20991708779120727   -0.007664085401517139
0.008551037036628904   -0.18100872290173048   -0.00781870954072895
-0.0062861392706179756   -0.18136894964447778   -0.007448447651337766
-0.009742504747071636   -0.2098767793998035   -0.007377247035714634
0.00886309812454547   -0.18091098027845817   -0.007450310693868811
-0.006037599172488722   -0.1814416910852694   -0.007249765286796629
-0.009742504747071636   -0.2098767793998035   -0.007377247035714634
0.002726029985672554   -0.20935404841388572   -0.007373190592631607
0.00886309812454547   -0.18091098027845817   -0.007450310693868811
0.003235579346415494   -0.20934208682367317   -0.00691643484666397
-0.006037599172488722   -0.1814416910852694   -0.007249765286796629
0.009182827656026736   -0.18089299281205629   -0.007118749945861158
0.003235579346415494   -0.20934208682367317   -0.00691643484666397
0.00886309812454547   -0.18091098027845817   -0.007450310693868811
-0.006037599172488722   -0.1814416910852694   -0.007249765286796629
0.003235579346415494   -0.20934208682367317   -0.00691643484666397
-0.009356374433925382   -0.20994357461973479   -0.007127185541604548
-0.009742504747071636   -0.2098767793998035   -0.007377247035714634
-0.006037599172488722   -0.1814416910852694   -0.007249765286796629
0.003235579346415494   -0.20934208682367317   -0.00691643484666397
-0.009742504747071636   -0.2098767793998035   -0.007377247035714634
0.00886309812454547   -0.18091098027845817   -0.007450310693868811
-0.006037599172488722   -0.1814416910852694   -0.007249765286796629
-0.009356374433925382   -0.20994357461973479   -0.007127185541604548
0.009182827656026736   -0.18089299281205629   -0.007118749945861158
-0.005816020105655141   -0.18159035747710112   -0.0070868956594763695
-0.009356374433925382   -0.20994357461973479   -0.007127185541604548
0.003235579346415494   -0.20934208682367317   -0.00691643484666397
0.009182827656026736   -0.18089299281205629   -0.007118749945861158
0.0036082568430592754   -0.20944450280072419   -0.006491819088072646
-0.005816020105655141   -0.18159035747710112   -0.0070868956594763695
0.009395016963917797   -0.18093999133829178   -0.006819174985810284
0.0036082568430592754   -0.20944450280072419   -0.006491819088072646
0.009182827656026736   -0.18089299281205629   -0.007118749945861158
-0.005816020105655141   -0.18159035747710112   -0.0070868956594763695
0.0036082568430592754   -0.20944450280072419   -0.006491819088072646
-0.009007644847520832   -0.21013325704887478   -0.006910696369404818
-0.009356374433925382   -0.20994357461973479   -0.007127185541604548
-0.005816020105655141   -0.18159035747710112   -0.0070868956594763695
0.0036082568430592754   -0.20944450280072419   -0.006491819088072646
-0.009356374433925382   -0.20994357461973479   -0.007127185541604548
0.009182827656026736   -0.18089299281205629   -0.007118749945861158
0.008551037036628904   -0.18100872290173048   -0.00781870954072895
0.0022421143395420064   -0.20948577594054713   -0.007876600296293937
0.02461466423541621   -0.1803946189563292   -0.008174630113561326
0.00886309812454547   -0.18091098027845817   -0.007450310693868811
0.0022421143395420064   -0.20948577594054713   -0.007876600296293937
0.015454808028199133   -0.20863599224663293   -0.00833301446540346
0.02461466423541621   -0.1803946189563292   -0.008174630113561326
0.016677091412801638   -0.20838282435688607   -0.007562753343419775
0.00886309812454547   -0.18091098027845817   -0.007450310693868811
0.02544462786477582   -0.18019251179658757   -0.007638962799154275
0.016677091412801638   -0.20838282435688607   -0.007562753343419775
0.02461466423541621   -0.1803946189563292   -0.008174630113561326
0.00886309812454547   -0.18091098027845817   -0.007450310693868811
0.016677091412801638   -0.20838282435688607   -0.007562753343419775
0.002726029985672554   -0.20935404841388572   -0.007373190592631607
0.0022421143395420064   -0.20948577594054713   -0.007876600296293937
0.00886309812454547   -0.18091098027845817   -0.007450310693868811
0.016677091412801638   -0.20838282435688607   -0.007562753343419775
0.0022421143395420064   -0.20948577594054713   -0.007876600296293937
0.02461466423541621   -0.1803946189563292   -0.008174630113561326
0.00886309812454547   -0.18091098027845817   -0.007450310693868811
0.002726029985672554   -0.20935404841388572   -0.007373190592631607
0.02544462786477582   -0.18019251179658757   -0.007638962799154275
0.009182827656026736   -0.18089299281205629   -0.007118749945861158
0.002726029985672554   -0.20935404841388572   -0.007373190592631607
0.016677091412801638   -0.20838282435688607   -0.007562753343419775
0.02544462786477582   -0.18019251179658757   -0.007638962799154275
0.017613997476642423   -0.2083389998355521   -0.006850333550555756
0.009182827656026736   -0.18089299281205629   -0.007118749945861158
0.026058649054988864   -0.1801371711162621   -0.0071522472143914495
0.017613997476642423   -0.2083389998355521   -0.006850333550555756
0.02544462786477582   -0.18019251179658757   -0.007638962799154275
0.009182827656026736   -0.18089299281205629   -0.007118749945861158
0.017613997476642423   -0.2083389998355521   -0.006850333550555756
0.003235579346415494   -0.20934208682367317   -0.00691643484666397
0.002726029985672554   -0.20935404841388572   -0.007373190592631607
0.009182827656026736   -0.18089299281205629   -0.007118749945861158
0.017613997476642423   -0.2083389998355521   -0.006850333550555756
0.002726029985672554   -0.20935404841388572   -0.007373190592631607
0.02544462786477582   -0.18019251179658757   -0.007638962799154275
0.009182827656026736   -0.18089299281205629   -0.007118749945861158
0.003235579346415494   -0.20934208682367317   -0.00691643484666397
0.026058649054988864   -0.1801371711162621   -0.0071522472143914495
0.009395016963917797   -0.18093999133829178   -0.006819174985810284
0.003235579346415494   -0.20934208682367317   -0.00691643484666397
0.017613997476642423   -0.2083389998355521   -0.006850333550555756
0.026058649054988864   -0.1801371711162621   -0.0071522472143914495
0.018583210240727024   -0.20841354144121985   -0.006201601984994368
0.009395016963917797   -0.18093999133829178   -0.006819174985810284
0.02668013056271574   -0.18013642852853406   -0.0067166860786165945
0.018583210240727024   -0.20841354144121985   -0.006201601984994368
0.026058649054988864   -0.1801371711162621   -0.0071522472143914495
0.009395016963917797   -0.18093999133829178   -0.006819174985810284
0.018583210240727024   -0.20841354144121985   -0.006201601984994368
0.0036082568430592754   -0.20944450280072419   -0.006491819088072646
0.003235579346415494   -0.20934208682367317   -0.00691643484666397
0.009395016963917797   -0.18093999133829178   -0.006819174985810284
0.018583210240727024   -0.20841354144121985   -0.006201601984994368
0.003235579346415494   -0.20934208682367317   -0.00691643484666397
0.026058649054988864   -0.1801371711162621   -0.0071522472143914495
-0.04832565592416604   -0.20900031678709463   -0.0076453114370811865
-0.0404438154642341   -0.2310145792949388   -0.00693418303914006
-0.034192626622737136   -0.20966051514518927   -0.007596915124232725
-0.04758977870454035   -0.2091423283297996   -0.008081105683776107
-0.0404438154642341   -0.2310145792949388   -0.00693418303914006
-0.030389359495986687   -0.2319941233143427   -0.00722839525581476
-0.034192626622737136   -0.20966051514518927   -0.007596915124232725
-0.02987772881314721   -0.23194301117892166   -0.007468385950050651
-0.04758977870454035   -0.2091423283297996   -0.008081105683776107
-0.03383872139844407   -0.20975611626894933   -0.007752789112192049
-0.02987772881314721   -0.23194301117892166   -0.007468385950050651
-0.034192626622737136   -0.20966051514518927   -0.007596915124232725
-0.04758977870454035   -0.2091423283297996   -0.008081105683776107
-0.02987772881314721   -0.23194301117892166   -0.007468385950050651
-0.03934371021912387   -0.23098657690127955   -0.007581379972394316
-0.0404438154642341   -0.2310145792949388   -0.00693418303914006
-0.04758977870454035   -0.2091423283297996   -0.008081105683776107
-0.02987772881314721   -0.23194301117892166   -0.007468385950050651
-0.0404438154642341   -0.2310145792949388   -0.00693418303914006
-0.034192626622737136   -0.20966051514518927   -0.007596915124232725
-0.04758977870454035   -0.2091423283297996   -0.008081105683776107
-0.03934371021912387   -0.23098657690127955   -0.007581379972394316
-0.03383872139844407   -0.20975611626894933   -0.007752789112192049
-0.04685512582002583   -0.20941044226782038   -0.008574806902529838
-0.03934371021912387   -0.23098657690127955   -0.007581379972394316
-0.02987772881314721   -0.23194301117892166   -0.007468385950050651
-0.03383872139844407   -0.20975611626894933   -0.007752789112192049
-0.029276417856088328   -0.23208284539743756   -0.00774478914458714
-0.04685512582002583   -0.20941044226782038   -0.008574806902529838
-0.033394260300670935   -0.2099845974079368   -0.007944220971620685
-0.029276417856088328   -0.23208284539743756   -0.00774478914458714
-0.03383872139844407   -0.20975611626894933   -0.007752789112192049
-0.04685512582002583   -0.20941044226782038   -0.008574806902529838
-0.029276417856088328   -0.23208284539743756   -0.00774478914458714
-0.03832918662610911   -0.23115953704509448   -0.00827982553375031
-0.03934371021912387   -0.23098657690127955   -0.007581379972394316
-0.04685512582002583   -0.20941044226782038   -0.008574806902529838
-0.029276417856088328   -0.23208284539743756   -0.00774478914458714
-0.03934371021912387   -0.23098657690127955   -0.007581379972394316
-0.03383872139844407   -0.20975611626894933   -0.007752789112192049
-0.04685512582002583   -0.20941044226782038   -0.008574806902529838
-0.03832918662610911   -0.23115953704509448   -0.00827982553375031
-0.033394260300670935   -0.2099845974079368   -0.007944220971620685
-0.04591389922467843   -0.20991038893298183   -0.00912529682729077
-0.03832918662610911   -0.23115953704509448   -0.00827982553375031
-0.029276417856088328   -0.23208284539743756   -0.00774478914458714
-0.033394260300670935   -0.2099845974079368   -0.007944220971620685
-0.028730886198008412   -0.2324167442151899   -0.008055266589684534
-0.04591389922467843   -0.20991038893298183   -0.00912529682729077
-0.032955595916061814   -0.21035892480215027   -0.008170878784125306
-0.028730886198008412   -0.2324167442151899   -0.008055266589684534
-0.033394260300670935   -0.2099845974079368   -0.007944220971620685
-0.04591389922467843   -0.20991038893298183   -0.00912529682729077
-0.028730886198008412   -0.2324167442151899   -0.008055266589684534
-0.03709212510824791   -0.23162292831996292   -0.009026449236884691
-0.03832918662610911   -0.23115953704509448   -0.00827982553375031
-0.04591389922467843   -0.20991038893298183   -0.00912529682729077
-0.028730886198008412   -0.2324167442151899   -0.008055266589684534
-0.03832918662610911   -0.23115953704509448   -0.00827982553375031
-0.033394260300670935   -0.2099845974079368   -0.007944220971620685
-0.034192626622737136   -0.20966051514518927   -0.007596915124232725
-0.030389359495986687   -0.2319941233143427   -0.00722839525581476
-0.021963148908446344   -0.2099710051560339   -0.0075773329988689945
-0.03383872139844407   -0.20975611626894933   -0.007752789112192049
-0.030389359495986687   -0.2319941233143427   -0.00722839525581476
-0.022184442966920043   -0.2326321410188948   -0.0074585379993904865
-0.021963148908446344   -0.2099710051560339   -0.0075773329988689945
-0.021659010669778468   -0.23255093478590513   -0.007385049289750145
-0.03383872139844407   -0.20975611626894933   -0.007752789112192049
-0.021599814947399716   -0.21000254783838473   -0.0075078853335974974
-0.021659010669778468   -0.23255093478590513   -0.007385049289750145
-0.021963148908446344   -0.2099710051560339   -0.0075773329988689945
-0.03383872139844407   -0.20975611626894933   -0.007752789112192049
-0.021659010669778468   -0.23255093478590513   -0.007385049289750145
-0.02987772881314721   -0.23194301117892166   -0.007468385950050651
-0.030389359495986687   -0.2319941233143427   -0.00722839525581476
-0.03383872139844407   -0.20975611626894933   -0.007752789112192049
-0.021659010669778468   -0.23255093478590513   -0.007385049289750145
-0.030389359495986687   -0.2319941233143427   -0.00722839525581476
-0.021963148908446344   -0.2099710051560339   -0.0075773329988689945
-0.03383872139844407   -0.20975611626894933   -0.007752789112192049
-0.02987772881314721   -0.23194301117892166   -0.007468385950050651
-0.021599814947399716   -0.21000254783838473   -0.0075078853335974974
-0.033394260300670935   -0.2099845974079368   -0.007944220971620685
-0.02987772881314721   -0.23194301117892166   -0.007468385950050651
-0.021659010669778468   -0.23255093478590513   -0.007385049289750145
-0.021599814947399716   -0.21000254783838473   -0.0075078853335974974
-0.02114122749909699   -0.23263440978924685   -0.007346896269620424
-0.033394260300670935   -0.2099845974079368   -0.007944220971620685
-0.02122490155024636   -0.2101526886996102   -0.0074729440796594635
-0.02114122749909699   -0.23263440978924685   -0.007346896269620424
-0.021599814947399716   -0.21000254783838473   -0.0075078853335974974
-0.033394260300670935   -0.2099845974079368   -0.007944220971620685
-0.02114122749909699   -0.23263440978924685   -0.007346896269620424
-0.029276417856088328   -0.23208284539743756   -0.00774478914458714
-0.02987772881314721   -0.23194301117892166   -0.007468385950050651
-0.033394260300670935   -0.2099845974079368   -0.007944220971620685
-0.02114122749909699   -0.23263440978924685   -0.007346896269620424
-0.02987772881314721   -0.23194301117892166   -0.007468385950050651
-0.021599814947399716   -0.21000254783838473   -0.0075078853335974974
-0.033394260300670935   -0.2099845974079368   -0.007944220971620685
-0.029276417856088328   -0.23208284539743756   -0.00774478914458714
-0.02122490155024636   -0.2101526886996102   -0.0074729440796594635
-0.032955595916061814   -0.21035892480215027   -0.008170878784125306
-0.029276417856088328   -0.23208284539743756   -0.00774478914458714
-0.02114122749909699   -0.23263440978924685   -0.007346896269620424
-0.02122490155024636   -0.2101526886996102   -0.0074729440796594635
-0.02066508172968585   -0.23288814788999515   -0.007351527006774929
-0.032955595916061814   -0.21035892480215027   -0.008170878784125306
-0.020850649873652143   -0.21042853272073103   -0.007472029462501647
-0.02066508172968585   -0.23288814788999515   -0.007351527006774929
-0.02122490155024636   -0.2101526886996102   -0.0074729440796594635
-0.032955595916061814   -0.21035892480215027   -0.008170878784125306
-0.02066508172968585   -0.23288814788999515   -0.007351527006774929
-0.028730886198008412   -0.2324167442151899   -0.008055266589684534
-0.029276417856088328   -0.23208284539743756   -0.00774478914458714
-0.032955595916061814   -0.21035892480215027   -0.008170878784125306
-0.02066508172968585   -0.23288814788999515   -0.007351527006774929
-0.029276417856088328   -0.23208284539743756   -0.00774478914458714
-0.02122490155024636   -0.2101526886996102   -0.0074729440796594635
-0.021963148908446344   -0.2099710051560339   -0.0075773329988689945
-0.022184442966920043   -0.2326321410188948   -0.0074585379993904865
-0.010140506622148143   -0.20991708779120727   -0.007664085401517139
-0.021599814947399716   -0.21000254783838473   -0.0075078853335974974
-0.022184442966920043   -0.2326321410188948   -0.0074585379993904865
-0.014326883750046036   -0.232972191213213   -0.007729435662270403
-0.010140506622148143   -0.20991708779120727   -0.007664085401517139
-0.013734466781407304   -0.23285566780814484   -0.007360503741426559
-0.021599814947399716   -0.21000254783838473   -0.0075078853335974974
-0.009742504747071636   -0.2098767793998035   -0.007377247035714634
-0.013734466781407304   -0.23285566780814484   -0.007360503741426559
-0.010140506622148143   -0.20991708779120727   -0.007664085401517139
-0.021599814947399716   -0.21000254783838473   -0.0075078853335974974
-0.013734466781407304   -0.23285566780814484   -0.007360503741426559
-0.021659010669778468   -0.23255093478590513   -0.007385049289750145
-0.022184442966920043   -0.2326321410188948   -0.0074585379993904865
-0.021599814947399716   -0.21000254783838473   -0.0075078853335974974
-0.013734466781407304   -0.23285566780814484   -0.007360503741426559
-0.022184442966920043   -0.2326321410188948   -0.0074585379993904865
-0.010140506622148143   -0.20991708779120727   -0.007664085401517139
-0.021599814947399716   -0.21000254783838473   -0.0075078853335974974
-0.021659010669778468   -0.23255093478590513   -0.007385049289750145
-0.009742504747071636   -0.2098767793998035   -0.007377247035714634
-0.02122490155024636   -0.2101526886996102   -0.0074729440796594635
-0.021659010669778468   -0.23255093478590513   -0.007385049289750145
-0.013734466781407304   -0.23285566780814484   -0.007360503741426559
-0.009742504747071636   -0.2098767793998035   -0.007377247035714634
-0.01316996177366793   -0.2328836862670917   -0.007022691888235205
-0.02122490155024636   -0.2101526886996102   -0.0074729440796594635
-0.009356374433925382   -0.20994357461973479   -0.007127185541604548
-0.01316996177366793   -0.2328836862670917   -0.007022691888235205
-0.009742504747071636   -0.2098767793998035   -0.007377247035714634
-0.02122490155024636   -0.2101526886996102   -0.0074729440796594635
-0.01316996177366793   -0.2328836862670917   -0.007022691888235205
-0.02114122749909699   -0.23263440978924685   -0.007346896269620424
-0.021659010669778468   -0.23255093478590513   -0.007385049289750145
-0.02122490155024636   -0.2101526886996102   -0.0074729440796594635
-0.01316996177366793   -0.2328836862670917   -0.007022691888235205
-0.021659010669778468   -0.23255093478590513   -0.007385049289750145
-0.009742504747071636   -0.2098767793998035   -0.007377247035714634
-0.02122490155024636   -0.2101526886996102   -0.0074729440796594635
-0.02114122749909699   -0.23263440978924685   -0.007346896269620424
-0.009356374433925382   -0.20994357461973479   -0.007127185541604548
-0.020850649873652143   -0.21042853272073103   -0.007472029462501647
-0.02114122749909699   -0.23263440978924685   -0.007346896269620424
-0.01316996177366793   -0.2328836862670917   -0.007022691888235205
-0.009356374433925382   -0.20994357461973479   -0.007127185541604548
-0.012700895018655557   -0.23308490265753187   -0.006735708587742102
-0.020850649873652143   -0.21042853272073103   -0.007472029462501647
-0.009007644847520832   -0.21013325704887478   -0.006910696369404818
-0.012700895018655557   -0.23308490265753187   -0.006735708587742102
-0.009356374433925382   -0.20994357461973479   -0.007127185541604548
-0.020850649873652143   -0.21042853272073103   -0.007472029462501647
-0.012700895018655557   -0.23308490265753187   -0.006735708587742102
-0.02066508172968585   -0.23288814788999515   -0.007351527006774929
-0.02114122749909699   -0.23263440978924685   -0.007346896269620424
-0.020850649873652143   -0.21042853272073103   -0.007472029462501647
-0.012700895018655557   -0.23308490265753187   -0.006735708587742102
-0.02114122749909699   -0.23263440978924685   -0.007346896269620424
-0.009356374433925382   -0.20994357461973479   -0.007127185541604548
-0.010140506622148143   -0.20991708779120727   -0.007664085401517139
-0.014326883750046036   -0.232972191213213   -0.007729435662270403
0.0022421143395420064   -0.20948577594054713   -0.007876600296293937
-0.009742504747071636   -0.2098767793998035   -0.007377247035714634
-0.014326883750046036   -0.232972191213213   -0.007729435662270403
-0.005963522206064903   -0.23289666747064913   -0.008047632342793116
0.0022421143395420064   -0.20948577594054713   -0.007876600296293937
-0.0052029237510982885   -0.2327141677670787   -0.007396323865095666
-0.009742504747071636   -0.2098767793998035   -0.007377247035714634
0.002726029985672554   -0.20935404841388572   -0.007373190592631607
-0.0052029237510982885   -0.2327141677670787   -0.007396323865095666
0.0022421143395420064   -0.20948577594054713   -0.007876600296293937
-0.009742504747071636   -0.2098767793998035   -0.007377247035714634
-0.0052029237510982885   -0.2327141677670787   -0.007396323865095666
-0.013734466781407304   -0.23285566780814484   -0.007360503741426559
-0.014326883750046036   -0.232972191213213   -0.007729435662270403
-0.009742504747071636   -0.2098767793998035   -0.007377247035714634
-0.0052029237510982885   -0.2327141677670787   -0.007396323865095666
-0.014326883750046036   -0.232972191213213   -0.007729435662270403
0.0022421143395420064   -0.20948577594054713   -0.007876600296293937
-0.009742504747071636   -0.2098767793998035   -0.007377247035714634
-0.013734466781407304   -0.23285566780814484   -0.007360503741426559
0.002726029985672554   -0.20935404841388572   -0.007373190592631607
-0.009356374433925382   -0.20994357461973479   -0.007127185541604548
-0.013734466781407304   -0.23285566780814484   -0.007360503741426559
-0.0052029237510982885   -0.2327141677670787   -0.007396323865095666
0.002726029985672554   -0.20935404841388572   -0.007373190592631607
-0.004426281652866184   -0.23268138068160416   -0.006778375159146595
-0.009356374433925382   -0.20994357461973479   -0.007127185541604548
0.003235579346415494   -0.20934208682367317   -0.00691643484666397
-0.004426281652866184   -0.23268138068160416   -0.006778375159146595
0.002726029985672554   -0.20935404841388572   -0.007373190592631607
-0.009356374433925382   -0.20994357461973479   -0.007127185541604548
-0.004426281652866184   -0.23268138068160416   -0.006778375159146595
-0.01316996177366793   -0.2328836862670917   -0.007022691888235205
-0.013734466781407304   -0.23285566780814484   -0.007360503741426559
-0.009356374433925382   -0.20994357461973479   -0.007127185541604548
-0.004426281652866184   -0.23268138068160416   -0.006778375159146595
-0.013734466781407304   -0.23285566780814484   -0.007360503741426559
0.002726029985672554   -0.20935404841388572   -0.007373190592631607
-0.009356374433925382   -0.20994357461973479   -0.007127185541604548
-0.01316996177366793   -0.2328836862670917   -0.007022691888235205
0.003235579346415494   -0.20934208682367317   -0.00691643484666397
-0.009007644847520832   -0.21013325704887478   -0.006910696369404818
-0.01316996177366793   -0.2328836862670917   -0.007022691888235205
-0.004426281652866184   -0.23268138068160416   -0.006778375159146595
0.003235579346415494   -0.20934208682367317   -0.00691643484666397
-0.0038504505896864013   -0.23283101158296463   -0.006217647320934596
-0.009007644847520832   -0.21013325704887478   -0.006910696369404818
0.0036082568430592754   -0.20944450280072419   -0.006491819088072646
-0.0038504505896864013   -0.23283101158296463   -0.006217647320934596
0.003235579346415494   -0.20934208682367317   -0.00691643484666397
-0.009007644847520832   -0.21013325704887478   -0.006910696369404818
-0.0038504505896864013   -0.23283101158296463   -0.006217647320934596
-0.012700895018655557   -0.23308490265753187   -0.006735708587742102
-0.01316996177366793   -0.2328836862670917   -0.007022691888235205
-0.009007644847520832   -0.21013325704887478   -0.006910696369404818
-0.0038504505896864013   -0.23283101158296463   -0.006217647320934596
-0.01316996177366793   -0.2328836862670917   -0.007022691888235205
0.003235579346415494   -0.20934208682367317   -0.00691643484666397
0.0022421143395420064   -0.20948577594054713   -0.007876600296293937
-0.005963522206064903   -0.23289666747064913   -0.008047632342793116
0.015454808028199133   -0.20863599224663293   -0.00833301446540346
0.002726029985672554   -0.20935404841388572   -0.007373190592631607
-0.005963522206064903   -0.23289666747064913   -0.008047632342793116
0.0030531286487222352   -0.2320964968391812   -0.00870285183606281
0.015454808028199133   -0.20863599224663293   -0.00833301446540346
0.004818247104191854   -0.23169835937464406   -0.007636917146495584
0.002726029985672554   -0.20935404841388572   -0.007373190592631607
0.016677091412801638   -0.20838282435688607   -0.007562753343419775
0.004818247104191854   -0.23169835937464406   -0.007636917146495584
0.015454808028199133   -0.20863599224663293   -0.00833301446540346
0.002726029985672554   -0.20935404841388572   -0.007373190592631607
0.004818247104191854   -0.23169835937464406   -0.007636917146495584
-0.0052029237510982885   -0.2327141677670787   -0.007396323865095666
-0.005963522206064903   -0.23289666747064913   -0.008047632342793116
0.002726029985672554   -0.20935404841388572   -0.007373190592631607
0.004818247104191854   -0.23169835937464406   -0.007636917146495584
-0.005963522206064903   -0.23289666747064913   -0.008047632342793116
0.015454808028199133   -0.20863599224663293   -0.00833301446540346
0.002726029985672554   -0.20935404841388572   -0.007373190592631607
-0.0052029237510982885   -0.2327141677670787   -0.007396323865095666
0.016677091412801638   -0.20838282435688607   -0.007562753343419775
0.003235579346415494   -0.20934208682367317   -0.00691643484666397
-0.0052029237510982885   -0.2327141677670787   -0.007396323865095666
0.004818247104191854   -0.23169835937464406   -0.007636917146495584
0.016677091412801638   -0.20838282435688607   -0.007562753343419775
0.006205828850261122   -0.2316172390540044   -0.006636705402195369
0.003235579346415494   -0.20934208682367317   -0.00691643484666397
0.017613997476642423   -0.2083389998355521   -0.006850333550555756
0.006205828850261122   -0.2316172390540044   -0.006636705402195369
0.016677091412801638   -0.20838282435688607   -0.007562753343419775
0.003235579346415494   -0.20934208682367317   -0.00691643484666397
0.006205828850261122   -0.2316172390540044   -0.006636705402195369
-0.004426281652866184   -0.23268138068160416   -0.006778375159146595
-0.0052029237510982885   -0.2327141677670787   -0.007396323865095666
0.003235579346415494   -0.20934208682367317   -0.00691643484666397
0.006205828850261122   -0.2316172390540044   -0.006636705402195369
-0.0052029237510982885   -0.2327141677670787   -0.007396323865095666
0.016677091412801638   -0.20838282435688607   -0.007562753343419775
0.003235579346415494   -0.20934208682367317   -0.00691643484666397
-0.004426281652866184   -0.23268138068160416   -0.006778375159146595
0.017613997476642423   -0.2083389998355521   -0.006850333550555756
0.0036082568430592754   -0.20944450280072419   -0.006491819088072646
-0.004426281652866184   -0.23268138068160416   -0.006778375159146595
0.006205828850261122   -0.2316172390540044   -0.006636705402195369
0.017613997476642423   -0.2083389998355521   -0.006850333550555756
0.0076459042582784666   -0.2316830073118297   -0.005724000266855372
0.0036082568430592754   -0.20944450280072419   -0.006491819088072646
0.018583210240727024   -0.20841354144121985   -0.006201601984994368
0.0076459042582784666   -0.2316830073118297   -0.005724000266855372
0.017613997476642423   -0.2083389998355521   -0.006850333550555756
0.0036082568430592754   -0.20944450280072419   -0.006491819088072646
0.0076459042582784666   -0.2316830073118297   -0.005724000266855372
-0.0038504505896864013   -0.23283101158296463   -0.006217647320934596
-0.004426281652866184   -0.23268138068160416   -0.006778375159146595
0.0036082568430592754   -0.20944450280072419   -0.006491819088072646
0.0076459042582784666   -0.2316830073118297   -0.005724000266855372
-0.004426281652866184   -0.23268138068160416   -0.006778375159146595
0.017613997476642423   -0.2083389998355521   -0.006850333550555756
-0.0404438154642341   -0.2310145792949388   -0.00693418303914006
-0.02959043342478521   -0.24408665197838733   -0.006099892516457478
-0.030389359495986687   -0.2319941233143427   -0.00722839525581476
-0.03934371021912387   -0.23098657690127955   -0.007581379972394316
-0.02959043342478521   -0.24408665197838733   -0.006099892516457478
-0.024928527113889147   -0.24532699584486978   -0.0068473703000585745
-0.030389359495986687   -0.2319941233143427   -0.00722839525581476
-0.024281718015496747   -0.24508037283431286   -0.00710218437659984
-0.03934371021912387   -0.23098657690127955   -0.007581379972394316
-0.02987772881314721   -0.23194301117892166   -0.007468385950050651
-0.024281718015496747   -0.24508037283431286   -0.00710218437659984
-0.030389359495986687   -0.2319941233143427   -0.00722839525581476
-0.03934371021912387   -0.23098657690127955   -0.007581379972394316
-0.024281718015496747   -0.24508037283431286   -0.00710218437659984
-0.028217600250378345   -0.24380901118580917   -0.006876730576921226
-0.02959043342478521   -0.24408665197838733   -0.006099892516457478
-0.03934371021912387   -0.23098657690127955   -0.007581379972394316
-0.024281718015496747   -0.24508037283431286   -0.00710218437659984
-0.02959043342478521   -0.24408665197838733   -0.006099892516457478
-0.030389359495986687   -0.2319941233143427   -0.00722839525581476
-0.03934371021912387   -0.23098657690127955   -0.007581379972394316
-0.028217600250378345   -0.24380901118580917   -0.006876730576921226
-0.02987772881314721   -0.23194301117892166   -0.007468385950050651
-0.03832918662610911   -0.23115953704509448   -0.00827982553375031
-0.028217600250378345   -0.24380901118580917   -0.006876730576921226
-0.024281718015496747   -0.24508037283431286   -0.00710218437659984
-0.02987772881314721   -0.23194301117892166   -0.007468385950050651
-0.023566106773013948   -0.24509052071537252   -0.007359545489221324
-0.03832918662610911   -0.23115953704509448   -0.00827982553375031
-0.029276417856088328   -0.23208284539743756   -0.00774478914458714
-0.023566106773013948   -0.24509052071537252   -0.007359545489221324
-0.02987772881314721   -0.23194301117892166   -0.007468385950050651
-0.03832918662610911   -0.23115953704509448   -0.00827982553375031
-0.023566106773013948   -0.24509052071537252   -0.007359545489221324
-0.027032931307285242   -0.24383047148289694   -0.007650396956132161
-0.028217600250378345   -0.24380901118580917   -0.006876730576921226
-0.03832918662610911   -0.23115953704509448   -0.00827982553375031
-0.023566106773013948   -0.24509052071537252   -0.007359545489221324
-0.028217600250378345   -0.24380901118580917   -0.006876730576921226
-0.02987772881314721   -0.23194301117892166   -0.007468385950050651
-0.03832918662610911   -0.23115953704509448   -0.00827982553375031
-0.027032931307285242   -0.24383047148289694   -0.007650396956132161
-0.029276417856088328   -0.23208284539743756   -0.00774478914458714
-0.03709212510824791   -0.23162292831996292   -0.009026449236884691
-0.027032931307285242   -0.24383047148289694   -0.007650396956132161
-0.023566106773013948   -0.24509052071537252   -0.007359545489221324
-0.029276417856088328   -0.23208284539743756   -0.00774478914458714
-0.02290089976187241   -0.24535853651866085   -0.0076205360000044286
-0.03709212510824791   -0.23162292831996292   -0.009026449236884691
-0.028730886198008412   -0.2324167442151899   -0.008055266589684534
-0.02290089976187241   -0.24535853651866085   -0.0076205360000044286
-0.029276417856088328   -0.23208284539743756   -0.00774478914458714
-0.03709212510824791   -0.23162292831996292   -0.009026449236884691
-0.02290089976187241   -0.24535853651866085   -0.0076205360000044286
-0.025628356208592665   -0.2441679880783918   -0.008440784978272841
-0.027032931307285242   -0.24383047148289694   -0.007650396956132161
-0.03709212510824791   -0.23162292831996292   -0.009026449236884691
-0.02290089976187241   -0.24535853651866085   -0.0076205360000044286
-0.027032931307285242   -0.24383047148289694   -0.007650396956132161
-0.029276417856088328   -0.23208284539743756   -0.00774478914458714
-0.030389359495986687   -0.2319941233143427   -0.00722839525581476
-0.024928527113889147   -0.24532699584486978   -0.0068473703000585745
-0.022184442966920043   -0.2326321410188948   -0.0074585379993904865
-0.02987772881314721   -0.23194301117892166   -0.007468385950050651
-0.024928527113889147   -0.24532699584486978   -0.0068473703000585745
-0.021522339210082016   -0.24657917570593732   -0.007508506090114752
-0.022184442966920043   -0.2326321410188948   -0.0074585379993904865
-0.02083918909186679   -0.24632652255662368   -0.007327850133732473
-0.02987772881314721   -0.23194301117892166   -0.007468385950050651
-0.021659010669778468   -0.23255093478590513   -0.007385049289750145
-0.02083918909186679   -0.24632652255662368   -0.007327850133732473
-0.022184442966920043   -0.2326321410188948   -0.0074585379993904865
-0.02987772881314721   -0.23194301117892166   -0.007468385950050651
-0.02083918909186679   -0.24632652255662368   -0.007327850133732473
-0.024281718015496747   -0.24508037283431286   -0.00710218437659984
-0.024928527113889147   -0.24532699584486978   -0.0068473703000585745
-0.02987772881314721   -0.23194301117892166   -0.007468385950050651
-0.02083918909186679   -0.24632652255662368   -0.007327850133732473
-0.024928527113889147   -0.24532699584486978   -0.0068473703000585745
-0.022184442966920043   -0.2326321410188948   -0.0074585379993904865
-0.02987772881314721   -0.23194301117892166   -0.007468385950050651
-0.024281718015496747   -0.24508037283431286   -0.00710218437659984
-0.021659010669778468   -0.23255093478590513   -0.007385049289750145
-0.029276417856088328   -0.23208284539743756   -0.00774478914458714
-0.024281718015496747   -0.24508037283431286   -0.00710218437659984
-0.02083918909186679   -0.24632652255662368   -0.007327850133732473
-0.021659010669778468   -0.23255093478590513   -0.007385049289750145
-0.02017901846998024   -0.24632047347909428   -0.007144896768760348
-0.029276417856088328   -0.23208284539743756   -0.00774478914458714
-0.02114122749909699   -0.23263440978924685   -0.007346896269620424
-0.02017901846998024   -0.24632047347909428   -0.007144896768760348
-0.021659010669778468   -0.23255093478590513   -0.007385049289750145
-0.029276417856088328   -0.23208284539743756   -0.00774478914458714
-0.02017901846998024   -0.24632047347909428   -0.007144896768760348
-0.023566106773013948   -0.24509052071537252   -0.007359545489221324
-0.024281718015496747   -0.24508037283431286   -0.00710218437659984
-0.029276417856088328   -0.23208284539743756   -0.00774478914458714
-0.02017901846998024   -0.24632047347909428   -0.007144896768760348
-0.024281718015496747   -0.24508037283431286   -0.00710218437659984
-0.021659010669778468   -0.23255093478590513   -0.007385049289750145
-0.029276417856088328   -0.23208284539743756   -0.00774478914458714
-0.023566106773013948   -0.24509052071537252   -0.007359545489221324
-0.02114122749909699   -0.23263440978924685   -0.007346896269620424
-0.028730886198008412   -0.2324167442151899   -0.008055266589684534
-0.023566106773013948   -0.24509052071537252   -0.007359545489221324
-0.02017901846998024   -0.24632047347909428   -0.007144896768760348
-0.02114122749909699   -0.23263440978924685   -0.007346896269620424
-0.019490504872182336   -0.24655578659509622   -0.006969044316643744
-0.028730886198008412   -0.2324167442151899   -0.008055266589684534
-0.02066508172968585   -0.23288814788999515   -0.007351527006774929
-0.019490504872182336   -0.24655578659509622   -0.006969044316643744
-0.02114122749909699   -0.23263440978924685   -0.007346896269620424
-0.028730886198008412   -0.2324167442151899   -0.008055266589684534
-0.019490504872182336   -0.24655578659509622   -0.006969044316643744
-0.02290089976187241   -0.24535853651866085   -0.0076205360000044286
-0.023566106773013948   -0.24509052071537252   -0.007359545489221324
-0.028730886198008412   -0.2324167442151899   -0.008055266589684534
-0.019490504872182336   -0.24655578659509622   -0.006969044316643744
-0.023566106773013948   -0.24509052071537252   -0.007359545489221324
-0.02114122749909699   -0.23263440978924685   -0.007346896269620424
-0.022184442966920043   -0.2326321410188948   -0.0074585379993904865
-0.021522339210082016   -0.24657917570593732   -0.007508506090114752
-0.014326883750046036   -0.232972191213213   -0.007729435662270403
-0.021659010669778468   -0.23255093478590513   -0.007385049289750145
-0.021522339210082016   -0.24657917570593732   -0.007508506090114752
-0.018414481416754513   -0.24809806000184328   -0.008235506829905894
-0.014326883750046036   -0.232972191213213   -0.007729435662270403
-0.017576542782261013   -0.24787960869990144   -0.007594796231202884
-0.021659010669778468   -0.23255093478590513   -0.007385049289750145
-0.013734466781407304   -0.23285566780814484   -0.007360503741426559
-0.017576542782261013   -0.24787960869990144   -0.007594796231202884
-0.014326883750046036   -0.232972191213213   -0.007729435662270403
-0.021659010669778468   -0.23255093478590513   -0.007385049289750145
-0.017576542782261013   -0.24787960869990144   -0.007594796231202884
-0.02083918909186679   -0.24632652255662368   -0.007327850133732473
-0.021522339210082016   -0.24657917570593732   -0.007508506090114752
-0.021659010669778468   -0.23255093478590513   -0.007385049289750145
-0.017576542782261013   -0.24787960869990144   -0.007594796231202884
-0.021522339210082016   -0.24657917570593732   -0.007508506090114752
-0.014326883750046036   -0.232972191213213   -0.007729435662270403
-0.021659010669778468   -0.23255093478590513   -0.007385049289750145
-0.02083918909186679   -0.24632652255662368   -0.007327850133732473
-0.013734466781407304   -0.23285566780814484   -0.007360503741426559
-0.02114122749909699   -0.23263440978924685   -0.007346896269620424
-0.02083918909186679   -0.24632652255662368   -0.007327850133732473
-0.017576542782261013   -0.24787960869990144   -0.007594796231202884
-0.013734466781407304   -0.23285566780814484   -0.007360503741426559
-0.016800642906662198   -0.2478670314346957   -0.006956564296035661
-0.02114122749909699   -0.23263440978924685   -0.007346896269620424
-0.01316996177366793   -0.2328836862670917   -0.007022691888235205
-0.016800642906662198   -0.2478670314346957   -0.006956564296035661
-0.013734466781407304   -0.23285566780814484   -0.007360503741426559
-0.02114122749909699   -0.23263440978924685   -0.007346896269620424
-0.016800642906662198   -0.2478670314346957   -0.006956564296035661
-0.02017901846998024   -0.24632047347909428   -0.007144896768760348
-0.02083918909186679   -0.24632652255662368   -0.007327850133732473
-0.02114122749909699   -0.23263440978924685   -0.007346896269620424
-0.016800642906662198   -0.2478670314346957   -0.006956564296035661
-0.02083918909186679   -0.24632652255662368   -0.007327850133732473
-0.013734466781407304   -0.23285566780814484   -0.007360503741426559
-0.02114122749909699   -0.23263440978924685   -0.007346896269620424
-0.02017901846998024   -0.24632047347909428   -0.007144896768760348
-0.01316996177366793   -0.2328836862670917   -0.007022691888235205
-0.02066508172968585   -0.23288814788999515   -0.007351527006774929
-0.02017901846998024   -0.24632047347909428   -0.007144896768760348
-0.016800642906662198   -0.2478670314346957   -0.006956564296035661
-0.01316996177366793   -0.2328836862670917   -0.007022691888235205
-0.01596695303781399   -0.24804897780801585   -0.006316377730700063
-0.02066508172968585   -0.23288814788999515   -0.007351527006774929
-0.012700895018655557   -0.23308490265753187   -0.006735708587742102
-0.01596695303781399   -0.24804897780801585   -0.006316377730700063
-0.01316996177366793   -0.2328836862670917   -0.007022691888235205
-0.02066508172968585   -0.23288814788999515   -0.007351527006774929
-0.01596695303781399   -0.24804897780801585   -0.006316377730700063
-0.019490504872182336   -0.24655578659509622   -0.006969044316643744
-0.02017901846998024   -0.24632047347909428   -0.007144896768760348
-0.02066508172968585   -0.23288814788999515   -0.007351527006774929
-0.01596695303781399   -0.24804897780801585   -0.006316377730700063
-0.02017901846998024   -0.24632047347909428   -0.007144896768760348
-0.01316996177366793   -0.2328836862670917   -0.007022691888235205
-0.014326883750046036   -0.232972191213213   -0.007729435662270403
-0.018414481416754513   -0.24809806000184328   -0.008235506829905894
-0.005963522206064903   -0.23289666747064913   -0.008047632342793116
-0.013734466781407304   -0.23285566780814484   -0.007360503741426559
-0.018414481416754513   -0.24809806000184328   -0.008235506829905894
-0.015355822551144193   -0.25   -0.008789922952659086
-0.005963522206064903   -0.23289666747064913   -0.008047632342793116
-0.014303073989422176   -0.25   -0.007820027868664944
-0.013734466781407304   -0.23285566780814484   -0.007360503741426559
-0.0052029237510982885   -0.2327141677670787   -0.007396323865095666
-0.014303073989422176   -0.25   -0.007820027868664944
-0.005963522206064903   -0.23289666747064913   -0.008047632342793116
-0.013734466781407304   -0.23285566780814484   -0.007360503741426559
-0.014303073989422176   -0.25   -0.007820027868664944
-0.017576542782261013   -0.24787960869990144   -0.007594796231202884
-0.018414481416754513   -0.24809806000184328   -0.008235506829905894
-0.013734466781407304   -0.23285566780814484   -0.007360503741426559
-0.014303073989422176   -0.25   -0.007820027868664944
-0.018414481416754513   -0.24809806000184328   -0.008235506829905894
-0.005963522206064903   -0.23289666747064913   -0.008047632342793116
-0.013734466781407304   -0.23285566780814484   -0.007360503741426559
-0.017576542782261013   -0.24787960869990144   -0.007594796231202884
-0.0052029237510982885   -0.2327141677670787   -0.007396323865095666
-0.01316996177366793   -0.2328836862670917   -0.007022691888235205
-0.017576542782261013   -0.24787960869990144   -0.007594796231202884
-0.014303073989422176   -0.25   -0.007820027868664944
-0.0052029237510982885   -0.2327141677670787   -0.007396323865095666
-0.013246260676079195   -0.25   -0.006838598705481985
-0.01316996177366793   -0.2328836862670917   -0.007022691888235205
-0.004426281652866184   -0.23268138068160416   -0.006778375159146595
-0.013246260676079195   -0.25   -0.006838598705481985
-0.0052029237510982885   -0.2327141677670787   -0.007396323865095666
-0.01316996177366793   -0.2328836862670917   -0.007022691888235205
-0.013246260676079195   -0.25   -0.006838598705481985
-0.016800642906662198   -0.2478670314346957   -0.006956564296035661
-0.017576542782261013   -0.24787960869990144   -0.007594796231202884
-0.01316996177366793   -0.2328836862670917   -0.007022691888235205
-0.013246260676079195   -0.25   -0.006838598705481985
-0.017576542782261013   -0.24787960869990144   -0.007594796231202884
-0.0052029237510982885   -0.2327141677670787   -0.007396323865095666
-0.01316996177366793   -0.2328836862670917   -0.007022691888235205
-0.016800642906662198   -0.2478670314346957   -0.006956564296035661
-0.004426281652866184   -0.23268138068160416   -0.006778375159146595
-0.012700895018655557   -0.23308490265753187   -0.006735708587742102
-0.016800642906662198   -0.2478670314346957   -0.006956564296035661
-0.013246260676079195   -0.25   -0.006838598705481985
-0.004426281652866184   -0.23268138068160416   -0.006778375159146595
-0.012212022821234311   -0.25   -0.0058700636287911485
-0.012700895018655557   -0.23308490265753187   -0.006735708587742102
-0.0038504505896864013   -0.23283101158296463   -0.006217647320934596
-0.012212022821234311   -0.25   -0.0058700636287911485
-0.004426281652866184   -0.23268138068160416   -0.006778375159146595
-0.012700895018655557   -0.23308490265753187   -0.006735708587742102
-0.012212022821234311   -0.25   -0.0058700636287911485
-0.01596695303781399   -0.24804897780801585   -0.006316377730700063
-0.016800642906662198   -0.2478670314346957   -0.006956564296035661
-0.012700895018655557   -0.23308490265753187   -0.006735708587742102
-0.012212022821234311   -0.25   -0.0058700636287911485
-0.016800642906662198   -0.2478670314346957   -0.006956564296035661
-0.004426281652866184   -0.23268138068160416   -0.006778375159146595
-0.005963522206064903   -0.23289666747064913   -0.008047632342793116
-0.015355822551144193   -0.25   -0.008789922952659086
0.0030531286487222352   -0.2320964968391812   -0.00870285183606281
-0.0052029237510982885   -0.2327141677670787   -0.007396323865095666
-0.015355822551144193   -0.25   -0.008789922952659086
-0.013147387462527737   -0.25   -0.009461405621456294
0.0030531286487222352   -0.2320964968391812   -0.00870285183606281
-0.010953839588876005   -0.25   -0.008059966348603995
-0.0052029237510982885   -0.2327141677670787   -0.007396323865095666
0.004818247104191854   -0.23169835937464406   -0.007636917146495584
-0.010953839588876005   -0.25   -0.008059966348603995
0.0030531286487222352   -0.2320964968391812   -0.00870285183606281
-0.0052029237510982885   -0.2327141677670787   -0.007396323865095666
-0.010953839588876005   -0.25   -0.008059966348603995
-0.014303073989422176   -0.25   -0.007820027868664944
-0.015355822551144193   -0.25   -0.008789922952659086
-0.0052029237510982885   -0.2327141677670787   -0.007396323865095666
-0.010953839588876005   -0.25   -0.008059966348603995
-0.015355822551144193   -0.25   -0.008789922952659086
0.0030531286487222352   -0.2320964968391812   -0.00870285183606281
-0.0052029237510982885   -0.2327141677670787   -0.007396323865095666
-0.014303073989422176   -0.25   -0.007820027868664944
0.004818247104191854   -0.23169835937464406   -0.007636917146495584
-0.004426281652866184   -0.23268138068160416   -0.006778375159146595
-0.014303073989422176   -0.25   -0.007820027868664944
-0.010953839588876005   -0.25   -0.008059966348603995
0.004818247104191854   -0.23169835937464406   -0.007636917146495584
-0.009204440565482986   -0.25   -0.006719218036905175
-0.004426281652866184   -0.23268138068160416   -0.006778375159146595
0.006205828850261122   -0.2316172390540044   -0.006636705402195369
-0.009204440565482986   -0.25   -0.006719218036905175
0.004818247104191854   -0.23169835937464406   -0.007636917146495584
-0.004426281652866184   -0.23268138068160416   -0.006778375159146595
-0.009204440565482986   -0.25   -0.006719218036905175
-0.013246260676079195   -0.25   -0.006838598705481985
-0.014303073989422176   -0.25   -0.007820027868664944
-0.004426281652866184   -0.23268138068160416   -0.006778375159146595
-0.009204440565482986   -0.25   -0.006719218036905175
-0.014303073989422176   -0.25   -0.007820027868664944
0.004818247104191854   -0.23169835937464406   -0.007636917146495584
-0.004426281652866184   -0.23268138068160416   -0.006778375159146595
-0.013246260676079195   -0.25   -0.006838598705481985
0.006205828850261122   -0.2316172390540044   -0.006636705402195369
-0.0038504505896864013   -0.23283101158296463   -0.006217647320934596
-0.013246260676079195   -0.25   -0.006838598705481985
-0.009204440565482986   -0.25   -0.006719218036905175
0.006205828850261122   -0.2316172390540044   -0.006636705402195369
-0.007043091445818293   -0.25   -0.005327454690270159
-0.0038504505896864013   -0.23283101158296463   -0.006217647320934596
0.0076459042582784666   -0.2316830073118297   -0.005724000266855372
-0.007043091445818293   -0.25   -0.005327454690270159
0.006205828850261122   -0.2316172390540044   -0.006636705402195369
-0.0038504505896864013   -0.23283101158296463   -0.006217647320934596
-0.007043091445818293   -0.25   -0.005327454690270159
-0.012212022821234311   -0.25   -0.0058700636287911485
-0.013246260676079195   -0.25   -0.006838598705481985
-0.0038504505896864013   -0.23283101158296463   -0.006217647320934596
-0.007043091445818293   -0.25   -0.005327454690270159
-0.013246260676079195   -0.25   -0.006838598705481985
0.006205828850261122   -0.2316172390540044   -0.006636705402195369
-0.02959043342478521   -0.24408665197838733   -0.006099892516457478
-0.01758247095675082   -0.24467895227738615   -0.005219522823402101
-0.024928527113889147   -0.24532699584486978   -0.0068473703000585745
-0.028217600250378345   -0.24380901118580917   -0.006876730576921226
-0.01758247095675082   -0.24467895227738615   -0.005219522823402101
-0.018691994797271103   -0.24563178306236355   -0.006181753221570675
-0.024928527113889147   -0.24532699584486978   -0.0068473703000585745
-0.018203385555114384   -0.24529533423687266   -0.006530458767649052
-0.028217600250378345   -0.24380901118580917   -0.006876730576921226
-0.024281718015496747   -0.24508037283431286   -0.00710218437659984
-0.018203385555114384   -0.24529533423687266   -0.006530458767649052
-0.024928527113889147   -0.24532699584486978   -0.0068473703000585745
-0.028217600250378345   -0.24380901118580917   -0.006876730576921226
-0.018203385555114384   -0.24529533423687266   -0.006530458767649052
-0.016339873373969336   -0.24424717983492933   -0.0060355058882573245
-0.01758247095675082   -0.24467895227738615   -0.005219522823402101
-0.028217600250378345   -0.24380901118580917   -0.006876730576921226
-0.018203385555114384   -0.24529533423687266   -0.006530458767649052
-0.01758247095675082   -0.24467895227738615   -0.005219522823402101
-0.024928527113889147   -0.24532699584486978   -0.0068473703000585745
-0.028217600250378345   -0.24380901118580917   -0.006876730576921226
-0.016339873373969336   -0.24424717983492933   -0.0060355058882573245
-0.024281718015496747   -0.24508037283431286   -0.00710218437659984
-0.027032931307285242   -0.24383047148289694   -0.007650396956132161
-0.016339873373969336   -0.24424717983492933   -0.0060355058882573245
-0.018203385555114384   -0.24529533423687266   -0.006530458767649052
-0.024281718015496747   -0.24508037283431286   -0.00710218437659984
-0.017630763888668483   -0.24516906230846788   -0.006851839148115898
-0.027032931307285242   -0.24383047148289694   -0.007650396956132161
-0.023566106773013948   -0.24509052071537252   -0.007359545489221324
-0.017630763888668483   -0.24516906230846788   -0.006851839148115898
-0.024281718015496747   -0.24508037283431286   -0.00710218437659984
-0.027032931307285242   -0.24383047148289694   -0.007650396956132161
-0.017630763888668483   -0.24516906230846788   -0.006851839148115898
-0.01530535738072805   -0.2441119152119071   -0.006817561357884561
-0.016339873373969336   -0.24424717983492933   -0.0060355058882573245
-0.027032931307285242   -0.24383047148289694   -0.007650396956132161
-0.017630763888668483   -0.24516906230846788   -0.006851839148115898
-0.016339873373969336   -0.24424717983492933   -0.0060355058882573245
-0.024281718015496747   -0.24508037283431286   -0.00710218437659984
-0.027032931307285242   -0.24383047148289694   -0.007650396956132161
-0.01530535738072805   -0.2441119152119071   -0.006817561357884561
-0.023566106773013948   -0.24509052071537252   -0.007359545489221324
-0.025628356208592665   -0.2441679880783918   -0.008440784978272841
-0.01530535738072805   -0.2441119152119071   -0.006817561357884561
-0.017630763888668483   -0.24516906230846788   -0.006851839148115898
-0.023566106773013948   -0.24509052071537252   -0.007359545489221324
-0.017139942204785905   -0.24525469837746255   -0.007144177720099025
-0.025628356208592665   -0.2441679880783918   -0.008440784978272841
-0.02290089976187241   -0.24535853651866085   -0.0076205360000044286
-0.017139942204785905   -0.24525469837746255   -0.007144177720099025
-0.023566106773013948   -0.24509052071537252   -0.007359545489221324
-0.025628356208592665   -0.2441679880783918   -0.008440784978272841
-0.017139942204785905   -0.24525469837746255   -0.007144177720099025
-0.014136002426204476   -0.24421885684348937   -0.007562140864224985
-0.01530535738072805   -0.2441119152119071   -0.006817561357884561
-0.025628356208592665   -0.2441679880783918   -0.008440784978272841
-0.017139942204785905   -0.24525469837746255   -0.007144177720099025
-0.01530535738072805   -0.2441119152119071   -0.006817561357884561
-0.023566106773013948   -0.24509052071537252   -0.007359545489221324
-0.024928527113889147   -0.24532699584486978   -0.0068473703000585745
-0.018691994797271103   -0.24563178306236355   -0.006181753221570675
-0.021522339210082016   -0.24657917570593732   -0.007508506090114752
-0.024281718015496747   -0.24508037283431286   -0.00710218437659984
-0.018691994797271103   -0.24563178306236355   -0.006181753221570675
-0.020175872794229943   -0.24622432324247417   -0.006951627630208344
-0.021522339210082016   -0.24657917570593732   -0.007508506090114752
-0.01974312444156853   -0.245924042042035   -0.006961249612581405
-0.024281718015496747   -0.24508037283431286   -0.00710218437659984
-0.02083918909186679   -0.24632652255662368   -0.007327850133732473
-0.01974312444156853   -0.245924042042035   -0.006961249612581405
-0.021522339210082016   -0.24657917570593732   -0.007508506090114752
-0.024281718015496747   -0.24508037283431286   -0.00710218437659984
-0.01974312444156853   -0.245924042042035   -0.006961249612581405
-0.018203385555114384   -0.24529533423687266   -0.006530458767649052
-0.018691994797271103   -0.24563178306236355   -0.006181753221570675
-0.024281718015496747   -0.24508037283431286   -0.00710218437659984
-0.01974312444156853   -0.245924042042035   -0.006961249612581405
-0.018691994797271103   -0.24563178306236355   -0.006181753221570675
-0.021522339210082016   -0.24657917570593732   -0.007508506090114752
-0.024281718015496747   -0.24508037283431286   -0.00710218437659984
-0.018203385555114384   -0.24529533423687266   -0.006530458767649052
-0.02083918909186679   -0.24632652255662368   -0.007327850133732473
-0.023566106773013948   -0.24509052071537252   -0.007359545489221324
-0.018203385555114384   -0.24529533423687266   -0.006530458767649052
-0.01974312444156853   -0.245924042042035   -0.006961249612581405
-0.02083918909186679   -0.24632652255662368   -0.007327850133732473
-0.01926131957893433   -0.245814145915074   -0.006935440620412665
-0.023566106773013948   -0.24509052071537252   -0.007359545489221324
-0.02017901846998024   -0.24632047347909428   -0.007144896768760348
-0.01926131957893433   -0.245814145915074   -0.006935440620412665
-0.02083918909186679   -0.24632652255662368   -0.007327850133732473
-0.023566106773013948   -0.24509052071537252   -0.007359545489221324
-0.01926131957893433   -0.245814145915074   -0.006935440620412665
-0.017630763888668483   -0.24516906230846788   -0.006851839148115898
-0.018203385555114384   -0.24529533423687266   -0.006530458767649052
-0.023566106773013948   -0.24509052071537252   -0.007359545489221324
-0.01926131957893433   -0.245814145915074   -0.006935440620412665
-0.018203385555114384   -0.24529533423687266   -0.006530458767649052
-0.02083918909186679   -0.24632652255662368   -0.007327850133732473
-0.023566106773013948   -0.24509052071537252   -0.007359545489221324
-0.017630763888668483   -0.24516906230846788   -0.006851839148115898
-0.02017901846998024   -0.24632047347909428   -0.007144896768760348
-0.02290089976187241   -0.24535853651866085   -0.0076205360000044286
-0.017630763888668483   -0.24516906230846788   -0.006851839148115898
-0.01926131957893433   -0.245814145915074   -0.006935440620412665
-0.02017901846998024   -0.24632047347909428   -0.007144896768760348
-0.0187713024831441   -0.24588575830236573   -0.0068818372509380455
-0.02290089976187241   -0.24535853651866085   -0.0076205360000044286
-0.019490504872182336   -0.24655578659509622   -0.006969044316643744
-0.0187713024831441   -0.24588575830236573   -0.0068818372509380455
-0.02017901846998024   -0.24632047347909428   -0.007144896768760348
-0.02290089976187241   -0.24535853651866085   -0.0076205360000044286
-0.0187713024831441   -0.24588575830236573   -0.0068818372509380455
-0.017139942204785905   -0.24525469837746255   -0.007144177720099025
-0.017630763888668483   -0.24516906230846788   -0.006851839148115898
-0.02290089976187241   -0.24535853651866085   -0.0076205360000044286
-0.0187713024831441   -0.24588575830236573   -0.0068818372509380455
-0.017630763888668483   -0.24516906230846788   -0.006851839148115898
-0.02017901846998024   -0.24632047347909428   -0.007144896768760348
-0.021522339210082016   -0.24657917570593732   -0.007508506090114752
-0.020175872794229943   -0.24622432324247417   -0.006951627630208344
-0.018414481416754513   -0.24809806000184328   -0.008235506829905894
-0.02083918909186679   -0.24632652255662368   -0.007327850133732473
-0.020175872794229943   -0.24622432324247417   -0.006951627630208344
-0.02176424747440918   -0.24647871008725003   -0.007708805100845107
-0.018414481416754513   -0.24809806000184328   -0.008235506829905894
-0.021315987044927414   -0.2461928265892224   -0.007392423828885858
-0.02083918909186679   -0.24632652255662368   -0.007327850133732473
-0.017576542782261013   -0.24787960869990144   -0.007594796231202884
-0.021315987044927414   -0.2461928265892224   -0.007392423828885858
-0.018414481416754513   -0.24809806000184328   -0.008235506829905894
-0.02083918909186679   -0.24632652255662368   -0.007327850133732473
-0.021315987044927414   -0.2461928265892224   -0.007392423828885858
-0.01974312444156853   -0.245924042042035   -0.006961249612581405
-0.020175872794229943   -0.24622432324247417   -0.006951627630208344
-0.02083918909186679   -0.24632652255662368   -0.007327850133732473
-0.021315987044927414   -0.2461928265892224   -0.007392423828885858
-0.020175872794229943   -0.24622432324247417   -0.006951627630208344
-0.018414481416754513   -0.24809806000184328   -0.008235506829905894
-0.02083918909186679   -0.24632652255662368   -0.007327850133732473
-0.01974312444156853   -0.245924042042035   -0.006961249612581405
-0.017576542782261013   -0.24787960869990144   -0.007594796231202884
-0.02017901846998024   -0.24632047347909428   -0.007144896768760348
-0.01974312444156853   -0.245924042042035   -0.006961249612581405
-0.021315987044927414   -0.2461928265892224   -0.007392423828885858
-0.017576542782261013   -0.24787960869990144   -0.007594796231202884
-0.020777932531132907   -0.24610048582106087   -0.007032903739945812
-0.02017901846998024   -0.24632047347909428   -0.007144896768760348
-0.016800642906662198   -0.2478670314346957   -0.006956564296035661
-0.020777932531132907   -0.24610048582106087   -0.007032903739945812
-0.017576542782261013   -0.24787960869990144   -0.007594796231202884
-0.02017901846998024   -0.24632047347909428   -0.007144896768760348
-0.020777932531132907   -0.24610048582106087   -0.007032903739945812
-0.01926131957893433   -0.245814145915074   -0.006935440620412665
-0.01974312444156853   -0.245924042042035   -0.006961249612581405
-0.02017901846998024   -0.24632047347909428   -0.007144896768760348
-0.020777932531132907   -0.24610048582106087   -0.007032903739945812
-0.01974312444156853   -0.245924042042035   -0.006961249612581405
-0.017576542782261013   -0.24787960869990144   -0.007594796231202884
-0.02017901846998024   -0.24632047347909428   -0.007144896768760348
-0.01926131957893433   -0.245814145915074   -0.006935440620412665
-0.016800642906662198   -0.2478670314346957   -0.006956564296035661
-0.019490504872182336   -0.24655578659509622   -0.006969044316643744
-0.01926131957893433   -0.245814145915074   -0.006935440620412665
-0.020777932531132907   -0.24610048582106087   -0.007032903739945812
-0.016800642906662198   -0.2478670314346957   -0.006956564296035661
-0.020224372464426366   -0.24617083059957656   -0.00664974348742157
-0.019490504872182336   -0.24655578659509622   -0.006969044316643744
-0.01596695303781399   -0.24804897780801585   -0.006316377730700063
-0.020224372464426366   -0.24617083059957656   -0.00664974348742157
-0.016800642906662198   -0.2478670314346957   -0.006956564296035661
-0.019490504872182336   -0.24655578659509622   -0.006969044316643744
-0.020224372464426366   -0.24617083059957656   -0.00664974348742157
-0.0187713024831441   -0.24588575830236573   -0.0068818372509380455
-0.01926131957893433   -0.245814145915074   -0.006935440620412665
-0.019490504872182336   -0.24655578659509622   -0.006969044316643744
-0.020224372464426366   -0.24617083059957656   -0.00664974348742157
-0.01926131957893433   -0.245814145915074   -0.006935440620412665
-0.016800642906662198   -0.2478670314346957   -0.006956564296035661
-0.018414481416754513   -0.24809806000184328   -0.008235506829905894
-0.02176424747440918   -0.24647871008725003   -0.007708805100845107
-0.015355822551144193   -0.25   -0.008789922952659086
-0.017576542782261013   -0.24787960869990144   -0.007594796231202884
-0.02176424747440918   -0.24647871008725003   -0.007708805100845107
-0.024063094698780624   -0.24622007234605703   -0.008426738932580679
-0.015355822551144193   -0.25   -0.008789922952659086
-0.02347739575963657   -0.24595098667443005   -0.007800311834618044
-0.017576542782261013   -0.24787960869990144   -0.007594796231202884
-0.014303073989422176   -0.25   -0.007820027868664944
-0.02347739575963657   -0.24595098667443005   -0.007800311834618044
-0.015355822551144193   -0.25   -0.008789922952659086
-0.017576542782261013   -0.24787960869990144   -0.007594796231202884
-0.02347739575963657   -0.24595098667443005   -0.007800311834618044
-0.021315987044927414   -0.2461928265892224   -0.007392423828885858
-0.02176424747440918   -0.24647871008725003   -0.007708805100845107
-0.017576542782261013   -0.24787960869990144   -0.007594796231202884
-0.02347739575963657   -0.24595098667443005   -0.007800311834618044
-0.02176424747440918   -0.24647871008725003   -0.007708805100845107
-0.015355822551144193   -0.25   -0.008789922952659086
-0.017576542782261013   -0.24787960869990144   -0.007594796231202884
-0.021315987044927414   -0.2461928265892224   -0.007392423828885858
-0.014303073989422176   -0.25   -0.007820027868664944
-0.016800642906662198   -0.2478670314346957   -0.006956564296035661
-0.021315987044927414   -0.2461928265892224   -0.007392423828885858
-0.02347739575963657   -0.24595098667443005   -0.007800311834618044
-0.014303073989422176   -0.25   -0.007820027868664944
-0.02270549730105304   -0.2458886693138282   -0.007125986400242135
-0.016800642906662198   -0.2478670314346957   -0.006956564296035661
-0.013246260676079195   -0.25   -0.006838598705481985
-0.02270549730105304   -0.2458886693138282   -0.007125986400242135
-0.014303073989422176   -0.25   -0.007820027868664944
-0.016800642906662198   -0.2478670314346957   -0.006956564296035661
-0.02270549730105304   -0.2458886693138282   -0.007125986400242135
-0.020777932531132907   -0.24610048582106087   -0.007032903739945812
-0.021315987044927414   -0.2461928265892224   -0.007392423828885858
-0.016800642906662198   -0.2478670314346957   -0.006956564296035661
-0.02270549730105304   -0.2458886693138282   -0.007125986400242135
-0.021315987044927414   -0.2461928265892224   -0.007392423828885858
-0.014303073989422176   -0.25   -0.007820027868664944
-0.016800642906662198   -0.2478670314346957   -0.006956564296035661
-0.020777932531132907   -0.24610048582106087   -0.007032903739945812
-0.013246260676079195   -0.25   -0.006838598705481985
-0.01596695303781399   -0.24804897780801585   -0.006316377730700063
-0.020777932531132907   -0.24610048582106087   -0.007032903739945812
-0.02270549730105304   -0.2458886693138282   -0.007125986400242135
-0.013246260676079195   -0.25   -0.006838598705481985
-0.021977961911482612   -0.24599288504196842   -0.006425314774379095
-0.01596695303781399   -0.24804897780801585   -0.006316377730700063
-0.012212022821234311   -0.25   -0.0058700636287911485
-0.021977961911482612   -0.24599288504196842   -0.006425314774379095
-0.013246260676079195   -0.25   -0.006838598705481985
-0.01596695303781399   -0.24804897780801585   -0.006316377730700063
-0.021977961911482612   -0.24599288504196842   -0.006425314774379095
-0.020224372464426366   -0.24617083059957656   -0.00664974348742157
-0.020777932531132907   -0.24610048582106087   -0.007032903739945812
-0.01596695303781399   -0.24804897780801585   -0.006316377730700063
-0.021977961911482612   -0.24599288504196842   -0.006425314774379095
-0.020777932531132907   -0.24610048582106087   -0.007032903739945812
-0.013246260676079195   -0.25   -0.006838598705481985
-0.015355822551144193   -0.25   -0.008789922952659086
-0.024063094698780624   -0.24622007234605703   -0.008426738932580679
-0.013147387462527737   -0.25   -0.009461405621456294
-0.014303073989422176   -0.25   -0.007820027868664944
-0.024063094698780624   -0.24622007234605703   -0.008426738932580679
-0.028511797575322996   -0.2450133231850047   -0.009185209884109695
-0.013147387462527737   -0.25   -0.009461405621456294
-0.02696466596544955   -0.24478792792149076   -0.008157271975877536
-0.014303073989422176   -0.25   -0.007820027868664944
-0.010953839588876005   -0.25   -0.008059966348603995
-0.02696466596544955   -0.24478792792149076   -0.008157271975877536
-0.013147387462527737   -0.25   -0.009461405621456294
-0.014303073989422176   -0.25   -0.007820027868664944
-0.02696466596544955   -0.24478792792149076   -0.008157271975877536
-0.02347739575963657   -0.24595098667443005   -0.007800311834618044
-0.024063094698780624   -0.24622007234605703   -0.008426738932580679
-0.014303073989422176   -0.25   -0.007820027868664944
-0.02696466596544955   -0.24478792792149076   -0.008157271975877536
-0.024063094698780624   -0.24622007234605703   -0.008426738932580679
-0.013147387462527737   -0.25   -0.009461405621456294
-0.014303073989422176   -0.25   -0.007820027868664944
-0.02347739575963657   -0.24595098667443005   -0.007800311834618044
-0.010953839588876005   -0.25   -0.008059966348603995
-0.013246260676079195   -0.25   -0.006838598705481985
-0.02347739575963657   -0.24595098667443005   -0.007800311834618044
-0.02696466596544955   -0.24478792792149076   -0.008157271975877536
-0.010953839588876005   -0.25   -0.008059966348603995
-0.025541106291715285   -0.24475604876630017   -0.007059128755366157
-0.013246260676079195   -0.25   -0.006838598705481985
-0.009204440565482986   -0.25   -0.006719218036905175
-0.025541106291715285   -0.24475604876630017   -0.007059128755366157
-0.010953839588876005   -0.25   -0.008059966348603995
-0.013246260676079195   -0.25   -0.006838598705481985
-0.025541106291715285   -0.24475604876630017   -0.007059128755366157
-0.02270549730105304   -0.2458886693138282   -0.007125986400242135
-0.02347739575963657   -0.24595098667443005   -0.007800311834618044
-0.013246260676079195   -0.25   -0.006838598705481985
-0.025541106291715285   -0.24475604876630017   -0.007059128755366157
-0.02347739575963657   -0.24595098667443005   -0.007800311834618044
-0.010953839588876005   -0.25   -0.008059966348603995
-0.013246260676079195   -0.25   -0.006838598705481985
-0.02270549730105304   -0.2458886693138282   -0.007125986400242135
-0.009204440565482986   -0.25   -0.006719218036905175
-0.012212022821234311   -0.25   -0.0058700636287911485
-0.02270549730105304   -0.2458886693138282   -0.007125986400242135
-0.025541106291715285   -0.24475604876630017   -0.007059128755366157
-0.009204440565482986   -0.25   -0.006719218036905175
-0.023743684970223257   -0.24505223733449744   -0.005909833351281684
-0.012212022821234311   -0.25   -0.0058700636287911485
-0.007043091445818293   -0.25   -0.005327454690270159
-0.023743684970223257   -0.24505223733449744   -0.005909833351281684
-0.009204440565482986   -0.25   -0.006719218036905175
-0.012212022821234311   -0.25   -0.0058700636287911485
-0.023743684970223257   -0.24505223733449744   -0.005909833351281684
-0.021977961911482612   -0.24599288504196842   -0.006425314774379095
-0.02270549730105304   -0.2458886693138282   -0.007125986400242135
-0.012212022821234311   -0.25   -0.0058700636287911485
-0.023743684970223257   -0.24505223733449744   -0.005909833351281684
-0.02270549730105304   -0.2458886693138282   -0.007125986400242135
-0.009204440565482986   -0.25   -0.006719218036905175
-0.01758247095675082   -0.24467895227738615   -0.005219522823402101
-0.0070422889454095005   -0.23532785034606643   -0.00451390930537954
-0.018691994797271103   -0.24563178306236355   -0.006181753221570675
-0.016339873373969336   -0.24424717983492933   -0.0060355058882573245
-0.0070422889454095005   -0.23532785034606643   -0.00451390930537954
-0.013356727863521675   -0.236044053795914   -0.0055352904627441754
-0.018691994797271103   -0.24563178306236355   -0.006181753221570675
-0.013010168129314912   -0.23563711098664333   -0.0058455933073188
-0.016339873373969336   -0.24424717983492933   -0.0060355058882573245
-0.018203385555114384   -0.24529533423687266   -0.006530458767649052
-0.013010168129314912   -0.23563711098664333   -0.0058455933073188
-0.018691994797271103   -0.24563178306236355   -0.006181753221570675
-0.016339873373969336   -0.24424717983492933   -0.0060355058882573245
-0.013010168129314912   -0.23563711098664333   -0.0058455933073188
-0.006053849343195387   -0.2348247283665566   -0.00521749608933735
-0.0070422889454095005   -0.23532785034606643   -0.00451390930537954
-0.016339873373969336   -0.24424717983492933   -0.0060355058882573245
-0.013010168129314912   -0.23563711098664333   -0.0058455933073188
-0.0070422889454095005   -0.23532785034606643   -0.00451390930537954
-0.018691994797271103   -0.24563178306236355   -0.006181753221570675
-0.016339873373969336   -0.24424717983492933   -0.0060355058882573245
-0.006053849343195387   -0.2348247283665566   -0.00521749608933735
-0.018203385555114384   -0.24529533423687266   -0.006530458767649052
-0.01530535738072805   -0.2441119152119071   -0.006817561357884561
-0.006053849343195387   -0.2348247283665566   -0.00521749608933735
-0.013010168129314912   -0.23563711098664333   -0.0058455933073188
-0.018203385555114384   -0.24529533423687266   -0.006530458767649052
-0.012620610322617652   -0.23540944226781776   -0.006127596993911392
-0.01530535738072805   -0.2441119152119071   -0.006817561357884561
-0.017630763888668483   -0.24516906230846788   -0.006851839148115898
-0.012620610322617652   -0.23540944226781776   -0.006127596993911392
-0.018203385555114384   -0.24529533423687266   -0.006530458767649052
-0.01530535738072805   -0.2441119152119071   -0.006817561357884561
-0.012620610322617652   -0.23540944226781776   -0.006127596993911392
-0.005276123874267515   -0.2345826064155938   -0.005879116508319339
-0.006053849343195387   -0.2348247283665566   -0.00521749608933735
-0.01530535738072805   -0.2441119152119071   -0.006817561357884561
-0.012620610322617652   -0.23540944226781776   -0.006127596993911392
-0.006053849343195387   -0.2348247283665566   -0.00521749608933735
-0.018203385555114384   -0.24529533423687266   -0.006530458767649052
-0.01530535738072805   -0.2441119152119071   -0.006817561357884561
-0.005276123874267515   -0.2345826064155938   -0.005879116508319339
-0.017630763888668483   -0.24516906230846788   -0.006851839148115898
-0.014136002426204476   -0.24421885684348937   -0.007562140864224985
-0.005276123874267515   -0.2345826064155938   -0.005879116508319339
-0.012620610322617652   -0.23540944226781776   -0.006127596993911392
-0.017630763888668483   -0.24516906230846788   -0.006851839148115898
-0.012321760192545316   -0.2353547152877753   -0.0063821851659498835
-0.014136002426204476   -0.24421885684348937   -0.007562140864224985
-0.017139942204785905   -0.24525469837746255   -0.007144177720099025
-0.012321760192545316   -0.2353547152877753   -0.0063821851659498835
-0.017630763888668483   -0.24516906230846788   -0.006851839148115898
-0.014136002426204476   -0.24421885684348937   -0.007562140864224985
-0.012321760192545316   -0.2353547152877753   -0.0063821851659498835
-0.004428136858367452   -0.23453241110458395   -0.006496970585597981
-0.005276123874267515   -0.2345826064155938   -0.005879116508319339
-0.014136002426204476   -0.24421885684348937   -0.007562140864224985
-0.012321760192545316   -0.2353547152877753   -0.0063821851659498835
-0.005276123874267515   -0.2345826064155938   -0.005879116508319339
-0.017630763888668483   -0.24516906230846788   -0.006851839148115898
-0.018691994797271103   -0.24563178306236355   -0.006181753221570675
-0.013356727863521675   -0.236044053795914   -0.0055352904627441754
-0.020175872794229943   -0.24622432324247417   -0.006951627630208344
-0.018203385555114384   -0.24529533423687266   -0.006530458767649052
-0.013356727863521675   -0.236044053795914   -0.0055352904627441754
-0.019580104404139577   -0.2362976061304597   -0.00636935744781441
-0.020175872794229943   -0.24622432324247417   -0.006951627630208344
-0.019288338829744584   -0.23594249920698585   -0.006386985540569467
-0.018203385555114384   -0.24529533423687266   -0.006530458767649052
-0.01974312444156853   -0.245924042042035   -0.006961249612581405
-0.019288338829744584   -0.23594249920698585   -0.006386985540569467
-0.020175872794229943   -0.24622432324247417   -0.006951627630208344
-0.018203385555114384   -0.24529533423687266   -0.006530458767649052
-0.019288338829744584   -0.23594249920698585   -0.006386985540569467
-0.013010168129314912   -0.23563711098664333   -0.0058455933073188
-0.013356727863521675   -0.236044053795914   -0.0055352904627441754
-0.018203385555114384   -0.24529533423687266   -0.006530458767649052
-0.019288338829744584   -0.23594249920698585   -0.006386985540569467
-0.013356727863521675   -0.236044053795914   -0.0055352904627441754
-0.020175872794229943   -0.24622432324247417   -0.006951627630208344
-0.018203385555114384   -0.24529533423687266   -0.006530458767649052
-0.013010168129314912   -0.23563711098664333   -0.0058455933073188
-0.01974312444156853   -0.245924042042035   -0.006961249612581405
-0.017630763888668483   -0.24516906230846788   -0.006851839148115898
-0.013010168129314912   -0.23563711098664333   -0.0058455933073188
-0.019288338829744584   -0.23594249920698585   -0.006386985540569467
-0.01974312444156853   -0.245924042042035   -0.006961249612581405
-0.01898663969787107   -0.2357490300360787   -0.00637841418043834
-0.017630763888668483   -0.24516906230846788   -0.006851839148115898
-0.01926131957893433   -0.245814145915074   -0.006935440620412665
-0.01898663969787107   -0.2357490300360787   -0.00637841418043834
-0.01974312444156853   -0.245924042042035   -0.006961249612581405
-0.017630763888668483   -0.24516906230846788   -0.006851839148115898
-0.01898663969787107   -0.2357490300360787   -0.00637841418043834
-0.012620610322617652   -0.23540944226781776   -0.006127596993911392
-0.013010168129314912   -0.23563711098664333   -0.0058455933073188
-0.017630763888668483   -0.24516906230846788   -0.006851839148115898
-0.01898663969787107   -0.2357490300360787   -0.00637841418043834
-0.013010168129314912   -0.23563711098664333   -0.0058455933073188
-0.01974312444156853   -0.245924042042035   -0.006961249612581405
-0.017630763888668483   -0.24516906230846788   -0.006851839148115898
-0.012620610322617652   -0.23540944226781776   -0.006127596993911392
-0.01926131957893433   -0.245814145915074   -0.006935440620412665
-0.017139942204785905   -0.24525469837746255   -0.007144177720099025
-0.012620610322617652   -0.23540944226781776   -0.006127596993911392
-0.01898663969787107   -0.2357490300360787   -0.00637841418043834
-0.01926131957893433   -0.245814145915074   -0.006935440620412665
-0.018695598574396198   -0.23570925843673812   -0.006343357189227606
-0.017139942204785905   -0.24525469837746255   -0.007144177720099025
-0.0187713024831441   -0.24588575830236573   -0.0068818372509380455
-0.018695598574396198   -0.23570925843673812   -0.006343357189227606
-0.01926131957893433   -0.245814145915074   -0.006935440620412665
-0.017139942204785905   -0.24525469837746255   -0.007144177720099025
-0.018695598574396198   -0.23570925843673812   -0.006343357189227606
-0.012321760192545316   -0.2353547152877753   -0.0063821851659498835
-0.012620610322617652   -0.23540944226781776   -0.006127596993911392
-0.017139942204785905   -0.24525469837746255   -0.007144177720099025
-0.018695598574396198   -0.23570925843673812   -0.006343357189227606
-0.012620610322617652   -0.23540944226781776   -0.006127596993911392
-0.01926131957893433   -0.245814145915074   -0.006935440620412665
-0.020175872794229943   -0.24622432324247417   -0.006951627630208344
-0.019580104404139577   -0.2362976061304597   -0.00636935744781441
-0.02176424747440918   -0.24647871008725003   -0.007708805100845107
-0.01974312444156853   -0.245924042042035   -0.006961249612581405
-0.019580104404139577   -0.2362976061304597   -0.00636935744781441
-0.025758971657130685   -0.23607409126615225   -0.007149719426352132
-0.02176424747440918   -0.24647871008725003   -0.007708805100845107
-0.025469507256004054   -0.23575892821086025   -0.006886801678131319
-0.01974312444156853   -0.245924042042035   -0.006961249612581405
-0.021315987044927414   -0.2461928265892224   -0.007392423828885858
-0.025469507256004054   -0.23575892821086025   -0.006886801678131319
-0.02176424747440918   -0.24647871008725003   -0.007708805100845107
-0.01974312444156853   -0.245924042042035   -0.006961249612581405
-0.025469507256004054   -0.23575892821086025   -0.006886801678131319
-0.019288338829744584   -0.23594249920698585   -0.006386985540569467
-0.019580104404139577   -0.2362976061304597   -0.00636935744781441
-0.01974312444156853   -0.245924042042035   -0.006961249612581405
-0.025469507256004054   -0.23575892821086025   -0.006886801678131319
-0.019580104404139577   -0.2362976061304597   -0.00636935744781441
-0.02176424747440918   -0.24647871008725003   -0.007708805100845107
-0.01974312444156853   -0.245924042042035   -0.006961249612581405
-0.019288338829744584   -0.23594249920698585   -0.006386985540569467
-0.021315987044927414   -0.2461928265892224   -0.007392423828885858
-0.01926131957893433   -0.245814145915074   -0.006935440620412665
-0.019288338829744584   -0.23594249920698585   -0.006386985540569467
-0.025469507256004054   -0.23575892821086025   -0.006886801678131319
-0.021315987044927414   -0.2461928265892224   -0.007392423828885858
-0.02514464916059186   -0.23560264440555284   -0.00659805403390755
-0.01926131957893433   -0.245814145915074   -0.006935440620412665
-0.020777932531132907   -0.24610048582106087   -0.007032903739945812
-0.02514464916059186   -0.23560264440555284   -0.00659805403390755
-0.021315987044927414   -0.2461928265892224   -0.007392423828885858
-0.01926131957893433   -0.245814145915074   -0.006935440620412665
-0.02514464916059186   -0.23560264440555284   -0.00659805403390755
-0.01898663969787107   -0.2357490300360787   -0.00637841418043834
-0.019288338829744584   -0.23594249920698585   -0.006386985540569467
-0.01926131957893433   -0.245814145915074   -0.006935440620412665
-0.02514464916059186   -0.23560264440555284   -0.00659805403390755
-0.019288338829744584   -0.23594249920698585   -0.006386985540569467
-0.021315987044927414   -0.2461928265892224   -0.007392423828885858
-0.01926131957893433   -0.245814145915074   -0.006935440620412665
-0.01898663969787107   -0.2357490300360787   -0.00637841418043834
-0.020777932531132907   -0.24610048582106087   -0.007032903739945812
-0.0187713024831441   -0.24588575830236573   -0.0068818372509380455
-0.01898663969787107   -0.2357490300360787   -0.00637841418043834
-0.02514464916059186   -0.23560264440555284   -0.00659805403390755
-0.020777932531132907   -0.24610048582106087   -0.007032903739945812
-0.024818242268283056   -0.2355897241315807   -0.006280326128460351
-0.0187713024831441   -0.24588575830236573   -0.0068818372509380455
-0.020224372464426366   -0.24617083059957656   -0.00664974348742157
-0.024818242268283056   -0.2355897241315807   -0.006280326128460351
-0.020777932531132907   -0.24610048582106087   -0.007032903739945812
-0.0187713024831441   -0.24588575830236573   -0.0068818372509380455
-0.024818242268283056   -0.2355897241315807   -0.006280326128460351
-0.018695598574396198   -0.23570925843673812   -0.006343357189227606
-0.01898663969787107   -0.2357490300360787   -0.00637841418043834
-0.0187713024831441   -0.24588575830236573   -0.0068818372509380455
-0.024818242268283056   -0.2355897241315807   -0.006280326128460351
-0.01898663969787107   -0.2357490300360787   -0.00637841418043834
-0.020777932531132907   -0.24610048582106087   -0.007032903739945812
-0.02176424747440918   -0.24647871008725003   -0.007708805100845107
-0.025758971657130685   -0.23607409126615225   -0.007149719426352132
-0.024063094698780624   -0.24622007234605703   -0.008426738932580679
-0.021315987044927414   -0.2461928265892224   -0.007392423828885858
-0.025758971657130685   -0.23607409126615225   -0.007149719426352132
-0.03255146154249125   -0.23534356819604654   -0.007865713635808852
-0.024063094698780624   -0.24622007234605703   -0.008426738932580679
-0.0321976868267831   -0.23506859938158378   -0.007328715877773841
-0.021315987044927414   -0.2461928265892224   -0.007392423828885858
-0.02347739575963657   -0.24595098667443005   -0.007800311834618044
-0.0321976868267831   -0.23506859938158378   -0.007328715877773841
-0.024063094698780624   -0.24622007234605703   -0.008426738932580679
-0.021315987044927414   -0.2461928265892224   -0.007392423828885858
-0.0321976868267831   -0.23506859938158378   -0.007328715877773841
-0.025469507256004054   -0.23575892821086025   -0.006886801678131319
-0.025758971657130685   -0.23607409126615225   -0.007149719426352132
-0.021315987044927414   -0.2461928265892224   -0.007392423828885858
-0.0321976868267831   -0.23506859938158378   -0.007328715877773841
-0.025758971657130685   -0.23607409126615225   -0.007149719426352132
-0.024063094698780624   -0.24622007234605703   -0.008426738932580679
-0.021315987044927414   -0.2461928265892224   -0.007392423828885858
-0.025469507256004054   -0.23575892821086025   -0.006886801678131319
-0.02347739575963657   -0.24595098667443005   -0.007800311834618044
-0.020777932531132907   -0.24610048582106087   -0.007032903739945812
-0.025469507256004054   -0.23575892821086025   -0.006886801678131319
-0.0321976868267831   -0.23506859938158378   -0.007328715877773841
-0.02347739575963657   -0.24595098667443005   -0.007800311834618044
-0.031709789927521194   -0.2349493513421121   -0.006767726765715961
-0.020777932531132907   -0.24610048582106087   -0.007032903739945812
-0.02270549730105304   -0.2458886693138282   -0.007125986400242135
-0.031709789927521194   -0.2349493513421121   -0.006767726765715961
-0.02347739575963657   -0.24595098667443005   -0.007800311834618044
-0.020777932531132907   -0.24610048582106087   -0.007032903739945812
-0.031709789927521194   -0.2349493513421121   -0.006767726765715961
-0.02514464916059186   -0.23560264440555284   -0.00659805403390755
-0.025469507256004054   -0.23575892821086025   -0.006886801678131319
-0.020777932531132907   -0.24610048582106087   -0.007032903739945812
-0.031709789927521194   -0.2349493513421121   -0.006767726765715961
-0.025469507256004054   -0.23575892821086025   -0.006886801678131319
-0.02347739575963657   -0.24595098667443005   -0.007800311834618044
-0.020777932531132907   -0.24610048582106087   -0.007032903739945812
-0.02514464916059186   -0.23560264440555284   -0.00659805403390755
-0.02270549730105304   -0.2458886693138282   -0.007125986400242135
-0.020224372464426366   -0.24617083059957656   -0.00664974348742157
-0.02514464916059186   -0.23560264440555284   -0.00659805403390755
-0.031709789927521194   -0.2349493513421121   -0.006767726765715961
-0.02270549730105304   -0.2458886693138282   -0.007125986400242135
-0.03128300228907325   -0.2349860612973073   -0.006166963501345674
-0.020224372464426366   -0.24617083059957656   -0.00664974348742157
-0.021977961911482612   -0.24599288504196842   -0.006425314774379095
-0.03128300228907325   -0.2349860612973073   -0.006166963501345674
-0.02270549730105304   -0.2458886693138282   -0.007125986400242135
-0.020224372464426366   -0.24617083059957656   -0.00664974348742157
-0.03128300228907325   -0.2349860612973073   -0.006166963501345674
-0.024818242268283056   -0.2355897241315807   -0.006280326128460351
-0.02514464916059186   -0.23560264440555284   -0.00659805403390755
-0.020224372464426366   -0.24617083059957656   -0.00664974348742157
-0.03128300228907325   -0.2349860612973073   -0.006166963501345674
-0.02514464916059186   -0.23560264440555284   -0.00659805403390755
-0.02270549730105304   -0.2458886693138282   -0.007125986400242135
-0.024063094698780624   -0.24622007234605703   -0.008426738932580679
-0.03255146154249125   -0.23534356819604654   -0.007865713635808852
-0.028511797575322996   -0.2450133231850047   -0.009185209884109695
-0.02347739575963657   -0.24595098667443005   -0.007800311834618044
-0.03255146154249125   -0.23534356819604654   -0.007865713635808852
-0.04129939876895009   -0.23415550731000317   -0.008550470394562658
-0.028511797575322996   -0.2450133231850047   -0.009185209884109695
-0.04016822468398925   -0.23385844413091594   -0.007702905609037264
-0.02347739575963657   -0.24595098667443005   -0.007800311834618044
-0.02696466596544955   -0.24478792792149076   -0.008157271975877536
-0.04016822468398925   -0.23385844413091594   -0.007702905609037264
-0.028511797575322996   -0.2450133231850047   -0.009185209884109695
-0.02347739575963657   -0.24595098667443005   -0.007800311834618044
-0.04016822468398925   -0.23385844413091594   -0.007702905609037264
-0.0321976868267831   -0.23506859938158378   -0.007328715877773841
-0.03255146154249125   -0.23534356819604654   -0.007865713635808852
-0.02347739575963657   -0.24595098667443005   -0.007800311834618044
-0.04016822468398925   -0.23385844413091594   -0.007702905609037264
-0.03255146154249125   -0.23534356819604654   -0.007865713635808852
-0.028511797575322996   -0.2450133231850047   -0.009185209884109695
-0.02347739575963657   -0.24595098667443005   -0.007800311834618044
-0.0321976868267831   -0.23506859938158378   -0.007328715877773841
-0.02696466596544955   -0.24478792792149076   -0.008157271975877536
-0.02270549730105304   -0.2458886693138282   -0.007125986400242135
-0.0321976868267831   -0.23506859938158378   -0.007328715877773841
-0.04016822468398925   -0.23385844413091594   -0.007702905609037264
-0.02696466596544955   -0.24478792792149076   -0.008157271975877536
-0.03915260015993495   -0.2337481429647839   -0.006805155915424116
-0.02270549730105304   -0.2458886693138282   -0.007125986400242135
-0.025541106291715285   -0.24475604876630017   -0.007059128755366157
-0.03915260015993495   -0.2337481429647839   -0.006805155915424116
-0.02696466596544955   -0.24478792792149076   -0.008157271975877536
-0.02270549730105304   -0.2458886693138282   -0.007125986400242135
-0.03915260015993495   -0.2337481429647839   -0.006805155915424116
-0.031709789927521194   -0.2349493513421121   -0.006767726765715961
-0.0321976868267831   -0.23506859938158378   -0.007328715877773841
-0.02270549730105304   -0.2458886693138282   -0.007125986400242135
-0.03915260015993495   -0.2337481429647839   -0.006805155915424116
-0.0321976868267831   -0.23506859938158378   -0.007328715877773841
-0.02696466596544955   -0.24478792792149076   -0.008157271975877536
-0.02270549730105304   -0.2458886693138282   -0.007125986400242135
-0.031709789927521194   -0.2349493513421121   -0.006767726765715961
-0.025541106291715285   -0.24475604876630017   -0.007059128755366157
-0.021977961911482612   -0.24599288504196842   -0.006425314774379095
-0.031709789927521194   -0.2349493513421121   -0.006767726765715961
-0.03915260015993495   -0.2337481429647839   -0.006805155915424116
-0.025541106291715285   -0.24475604876630017   -0.007059128755366157
-0.03783608314291904   -0.23388096296628413   -0.005865818382300861
-0.021977961911482612   -0.24599288504196842   -0.006425314774379095
-0.023743684970223257   -0.24505223733449744   -0.005909833351281684
-0.03783608314291904   -0.23388096296628413   -0.005865818382300861
-0.025541106291715285   -0.24475604876630017   -0.007059128755366157
-0.021977961911482612   -0.24599288504196842   -0.006425314774379095
-0.03783608314291904   -0.23388096296628413   -0.005865818382300861
-0.03128300228907325   -0.2349860612973073   -0.006166963501345674
-0.031709789927521194   -0.2349493513421121   -0.006767726765715961
-0.021977961911482612   -0.24599288504196842   -0.006425314774379095
-0.03783608314291904   -0.23388096296628413   -0.005865818382300861
-0.031709789927521194   -0.2349493513421121   -0.006767726765715961
-0.025541106291715285   -0.24475604876630017   -0.007059128755366157
-0.0070422889454095005   -0.23532785034606643   -0.00451390930537954
0.0014823979652643646   -0.21820625274040578   -0.0037372724552900594
-0.013356727863521675   -0.236044053795914   -0.0055352904627441754
-0.006053849343195387   -0.2348247283665566   -0.00521749608933735
0.0014823979652643646   -0.21820625274040578   -0.0037372724552900594
-0.00913255451248759   -0.21872947006103163   -0.00473939799952409
-0.013356727863521675   -0.236044053795914   -0.0055352904627441754
-0.008949555809329842   -0.21830313836037704   -0.004984832696721954
-0.006053849343195387   -0.2348247283665566   -0.00521749608933735
-0.013010168129314912   -0.23563711098664333   -0.0058455933073188
-0.008949555809329842   -0.21830313836037704   -0.004984832696721954
-0.013356727863521675   -0.236044053795914   -0.0055352904627441754
-0.006053849343195387   -0.2348247283665566   -0.00521749608933735
-0.008949555809329842   -0.21830313836037704   -0.004984832696721954
0.0021698553920021487   -0.21769547473146608   -0.004295697634340267
0.0014823979652643646   -0.21820625274040578   -0.0037372724552900594
-0.006053849343195387   -0.2348247283665566   -0.00521749608933735
-0.008949555809329842   -0.21830313836037704   -0.004984832696721954
0.0014823979652643646   -0.21820625274040578   -0.0037372724552900594
-0.013356727863521675   -0.236044053795914   -0.0055352904627441754
-0.006053849343195387   -0.2348247283665566   -0.00521749608933735
0.0021698553920021487   -0.21769547473146608   -0.004295697634340267
-0.013010168129314912   -0.23563711098664333   -0.0058455933073188
-0.005276123874267515   -0.2345826064155938   -0.005879116508319339
0.0021698553920021487   -0.21769547473146608   -0.004295697634340267
-0.008949555809329842   -0.21830313836037704   -0.004984832696721954
-0.013010168129314912   -0.23563711098664333   -0.0058455933073188
-0.00874163831700627   -0.21802253602196242   -0.005201337104895048
-0.005276123874267515   -0.2345826064155938   -0.005879116508319339
-0.012620610322617652   -0.23540944226781776   -0.006127596993911392
-0.00874163831700627   -0.21802253602196242   -0.005201337104895048
-0.013010168129314912   -0.23563711098664333   -0.0058455933073188
-0.005276123874267515   -0.2345826064155938   -0.005879116508319339
-0.00874163831700627   -0.21802253602196242   -0.005201337104895048
0.0026752557874240982   -0.21739779953552524   -0.004813632584874389
0.0021698553920021487   -0.21769547473146608   -0.004295697634340267
-0.005276123874267515   -0.2345826064155938   -0.005879116508319339
-0.00874163831700627   -0.21802253602196242   -0.005201337104895048
0.0021698553920021487   -0.21769547473146608   -0.004295697634340267
-0.013010168129314912   -0.23563711098664333   -0.0058455933073188
-0.005276123874267515   -0.2345826064155938   -0.005879116508319339
0.0026752557874240982   -0.21739779953552524   -0.004813632584874389
-0.012620610322617652   -0.23540944226781776   -0.006127596993911392
-0.004428136858367452   -0.23453241110458395   -0.006496970585597981
0.0026752557874240982   -0.21739779953552524   -0.004813632584874389
-0.00874163831700627   -0.21802253602196242   -0.005201337104895048
-0.012620610322617652   -0.23540944226781776   -0.006127596993911392
-0.008617389752733138   -0.21787943496294343   -0.005391764389834719
-0.004428136858367452   -0.23453241110458395   -0.006496970585597981
-0.012321760192545316   -0.2353547152877753   -0.0063821851659498835
-0.008617389752733138   -0.21787943496294343   -0.005391764389834719
-0.012620610322617652   -0.23540944226781776   -0.006127596993911392
-0.004428136858367452   -0.23453241110458395   -0.006496970585597981
-0.008617389752733138   -0.21787943496294343   -0.005391764389834719
0.0032150229826799896   -0.21724724718200145   -0.0052908582048657666
0.0026752557874240982   -0.21739779953552524   -0.004813632584874389
-0.004428136858367452   -0.23453241110458395   -0.006496970585597981
-0.008617389752733138   -0.21787943496294343   -0.005391764389834719
0.0026752557874240982   -0.21739779953552524   -0.004813632584874389
-0.012620610322617652   -0.23540944226781776   -0.006127596993911392
-0.013356727863521675   -0.236044053795914   -0.0055352904627441754
-0.00913255451248759   -0.21872947006103163   -0.00473939799952409
-0.019580104404139577   -0.2362976061304597   -0.00636935744781441
-0.013010168129314912   -0.23563711098664333   -0.0058455933073188
-0.00913255451248759   -0.21872947006103163   -0.00473939799952409
-0.019392430932336734   -0.21882932808071168   -0.005566529028934054
-0.019580104404139577   -0.2362976061304597   -0.00636935744781441
-0.019257565947361867   -0.21846301436449148   -0.005573240372474557
-0.013010168129314912   -0.23563711098664333   -0.0058455933073188
-0.019288338829744584   -0.23594249920698585   -0.006386985540569467
-0.019257565947361867   -0.21846301436449148   -0.005573240372474557
-0.019580104404139577   -0.2362976061304597   -0.00636935744781441
-0.013010168129314912   -0.23563711098664333   -0.0058455933073188
-0.019257565947361867   -0.21846301436449148   -0.005573240372474557
-0.008949555809329842   -0.21830313836037704   -0.004984832696721954
-0.00913255451248759   -0.21872947006103163   -0.00473939799952409
-0.013010168129314912   -0.23563711098664333   -0.0058455933073188
-0.019257565947361867   -0.21846301436449148   -0.005573240372474557
-0.00913255451248759   -0.21872947006103163   -0.00473939799952409
-0.019580104404139577   -0.2362976061304597   -0.00636935744781441
-0.013010168129314912   -0.23563711098664333   -0.0058455933073188
-0.008949555809329842   -0.21830313836037704   -0.004984832696721954
-0.019288338829744584   -0.23594249920698585   -0.006386985540569467
-0.012620610322617652   -0.23540944226781776   -0.006127596993911392
-0.008949555809329842   -0.21830313836037704   -0.004984832696721954
-0.019257565947361867   -0.21846301436449148   -0.005573240372474557
-0.019288338829744584   -0.23594249920698585   -0.006386985540569467
-0.019118946601782143   -0.21822717033790381   -0.005552253586805702
-0.012620610322617652   -0.23540944226781776   -0.006127596993911392
-0.01898663969787107   -0.2357490300360787   -0.00637841418043834
-0.019118946601782143   -0.21822717033790381   -0.005552253586805702
-0.019288338829744584   -0.23594249920698585   -0.006386985540569467
-0.012620610322617652   -0.23540944226781776   -0.006127596993911392
-0.019118946601782143   -0.21822717033790381   -0.005552253586805702
-0.00874163831700627   -0.21802253602196242   -0.005201337104895048
-0.008949555809329842   -0.21830313836037704   -0.004984832696721954
-0.012620610322617652   -0.23540944226781776   -0.006127596993911392
-0.019118946601782143   -0.21822717033790381   -0.005552253586805702
-0.008949555809329842   -0.21830313836037704   -0.004984832696721954
-0.019288338829744584   -0.23594249920698585   -0.006386985540569467
-0.012620610322617652   -0.23540944226781776   -0.006127596993911392
-0.00874163831700627   -0.21802253602196242   -0.005201337104895048
-0.01898663969787107   -0.2357490300360787   -0.00637841418043834
-0.012321760192545316   -0.2353547152877753   -0.0063821851659498835
-0.00874163831700627   -0.21802253602196242   -0.005201337104895048
-0.019118946601782143   -0.21822717033790381   -0.005552253586805702
-0.01898663969787107   -0.2357490300360787   -0.00637841418043834
-0.018997679765294873   -0.21811958630763503   -0.00550538198044788
-0.012321760192545316   -0.2353547152877753   -0.0063821851659498835
-0.018695598574396198   -0.23570925843673812   -0.006343357189227606
-0.018997679765294873   -0.21811958630763503   -0.00550538198044788
-0.01898663969787107   -0.2357490300360787   -0.00637841418043834
-0.012321760192545316   -0.2353547152877753   -0.0063821851659498835
-0.018997679765294873   -0.21811958630763503   -0.00550538198044788
-0.008617389752733138   -0.21787943496294343   -0.005391764389834719
-0.00874163831700627   -0.21802253602196242   -0.005201337104895048
-0.012321760192545316   -0.2353547152877753   -0.0063821851659498835
-0.018997679765294873   -0.21811958630763503   -0.00550538198044788
-0.00874163831700627   -0.21802253602196242   -0.005201337104895048
-0.01898663969787107   -0.2357490300360787   -0.00637841418043834
-0.019580104404139577   -0.2362976061304597   -0.00636935744781441
-0.019392430932336734   -0.21882932808071168   -0.005566529028934054
-0.025758971657130685   -0.23607409126615225   -0.007149719426352132
-0.019288338829744584   -0.23594249920698585   -0.006386985540569467
-0.019392430932336734   -0.21882932808071168   -0.005566529028934054
-0.029489114296674016   -0.2185034899972893   -0.00631329729184089
-0.025758971657130685   -0.23607409126615225   -0.007149719426352132
-0.029363520346141335   -0.21818731939961528   -0.006087066948823361
-0.019288338829744584   -0.23594249920698585   -0.006386985540569467
-0.025469507256004054   -0.23575892821086025   -0.006886801678131319
-0.029363520346141335   -0.21818731939961528   -0.006087066948823361
-0.025758971657130685   -0.23607409126615225   -0.007149719426352132
-0.019288338829744584   -0.23594249920698585   -0.006386985540569467
-0.029363520346141335   -0.21818731939961528   -0.006087066948823361
-0.019257565947361867   -0.21846301436449148   -0.005573240372474557
-0.019392430932336734   -0.21882932808071168   -0.005566529028934054
-0.019288338829744584   -0.23594249920698585   -0.006386985540569467
-0.029363520346141335   -0.21818731939961528   -0.006087066948823361
-0.019392430932336734   -0.21882932808071168   -0.005566529028934054
-0.025758971657130685   -0.23607409126615225   -0.007149719426352132
-0.019288338829744584   -0.23594249920698585   -0.006386985540569467
-0.019257565947361867   -0.21846301436449148   -0.005573240372474557
-0.025469507256004054   -0.23575892821086025   -0.006886801678131319
-0.01898663969787107   -0.2357490300360787   -0.00637841418043834
-0.019257565947361867   -0.21846301436449148   -0.005573240372474557
-0.029363520346141335   -0.21818731939961528   -0.006087066948823361
-0.025469507256004054   -0.23575892821086025   -0.006886801678131319
-0.02921179344368137   -0.21800017337627128   -0.005833722232470921
-0.01898663969787107   -0.2357490300360787   -0.00637841418043834
-0.02514464916059186   -0.23560264440555284   -0.00659805403390755
-0.02921179344368137   -0.21800017337627128   -0.005833722232470921
-0.025469507256004054   -0.23575892821086025   -0.006886801678131319
-0.01898663969787107   -0.2357490300360787   -0.00637841418043834
-0.02921179344368137   -0.21800017337627128   -0.005833722232470921
-0.019118946601782143   -0.21822717033790381   -0.005552253586805702
-0.019257565947361867   -0.21846301436449148   -0.005573240372474557
-0.01898663969787107   -0.2357490300360787   -0.00637841418043834
-0.02921179344368137   -0.21800017337627128   -0.005833722232470921
-0.019257565947361867   -0.21846301436449148   -0.005573240372474557
-0.025469507256004054   -0.23575892821086025   -0.006886801678131319
-0.01898663969787107   -0.2357490300360787   -0.00637841418043834
-0.019118946601782143   -0.21822717033790381   -0.005552253586805702
-0.02514464916059186   -0.23560264440555284   -0.00659805403390755
-0.018695598574396198   -0.23570925843673812   -0.006343357189227606
-0.019118946601782143   -0.21822717033790381   -0.005552253586805702
-0.02921179344368137   -0.21800017337627128   -0.005833722232470921
-0.02514464916059186   -0.23560264440555284   -0.00659805403390755
-0.02906409371204035   -0.21793594899795674   -0.005554102316733766
-0.018695598574396198   -0.23570925843673812   -0.006343357189227606
-0.024818242268283056   -0.2355897241315807   -0.006280326128460351
-0.02906409371204035   -0.21793594899795674   -0.005554102316733766
-0.02514464916059186   -0.23560264440555284   -0.00659805403390755
-0.018695598574396198   -0.23570925843673812   -0.006343357189227606
-0.02906409371204035   -0.21793594899795674   -0.005554102316733766
-0.018997679765294873   -0.21811958630763503   -0.00550538198044788
-0.019118946601782143   -0.21822717033790381   -0.005552253586805702
-0.018695598574396198   -0.23570925843673812   -0.006343357189227606
-0.02906409371204035   -0.21793594899795674   -0.005554102316733766
-0.019118946601782143   -0.21822717033790381   -0.005552253586805702
-0.02514464916059186   -0.23560264440555284   -0.00659805403390755
-0.025758971657130685   -0.23607409126615225   -0.007149719426352132
-0.029489114296674016   -0.2185034899972893   -0.00631329729184089
-0.03255146154249125   -0.23534356819604654   -0.007865713635808852
-0.025469507256004054   -0.23575892821086025   -0.006886801678131319
-0.029489114296674016   -0.2185034899972893   -0.00631329729184089
-0.04007260939847916   -0.2177637688568532   -0.006976489394205594
-0.03255146154249125   -0.23534356819604654   -0.007865713635808852
-0.03990912085733379   -0.217495660768294   -0.006517116958127926
-0.025469507256004054   -0.23575892821086025   -0.006886801678131319
-0.0321976868267831   -0.23506859938158378   -0.007328715877773841
-0.03990912085733379   -0.217495660768294   -0.006517116958127926
-0.03255146154249125   -0.23534356819604654   -0.007865713635808852
-0.025469507256004054   -0.23575892821086025   -0.006886801678131319
-0.03990912085733379   -0.217495660768294   -0.006517116958127926
-0.029363520346141335   -0.21818731939961528   -0.006087066948823361
-0.029489114296674016   -0.2185034899972893   -0.00631329729184089
-0.025469507256004054   -0.23575892821086025   -0.006886801678131319
-0.03990912085733379   -0.217495660768294   -0.006517116958127926
-0.029489114296674016   -0.2185034899972893   -0.00631329729184089
-0.03255146154249125   -0.23534356819604654   -0.007865713635808852
-0.025469507256004054   -0.23575892821086025   -0.006886801678131319
-0.029363520346141335   -0.21818731939961528   -0.006087066948823361
-0.0321976868267831   -0.23506859938158378   -0.007328715877773841
-0.02514464916059186   -0.23560264440555284   -0.00659805403390755
-0.029363520346141335   -0.21818731939961528   -0.006087066948823361
-0.03990912085733379   -0.217495660768294   -0.006517116958127926
-0.0321976868267831   -0.23506859938158378   -0.007328715877773841
-0.03963228597258781   -0.21735266845414322   -0.006034769590303869
-0.02514464916059186   -0.23560264440555284   -0.00659805403390755
-0.031709789927521194   -0.2349493513421121   -0.006767726765715961
-0.03963228597258781   -0.21735266845414322   -0.006034769590303869
-0.0321976868267831   -0.23506859938158378   -0.007328715877773841
-0.02514464916059186   -0.23560264440555284   -0.00659805403390755
-0.03963228597258781   -0.21735266845414322   -0.006034769590303869
-0.02921179344368137   -0.21800017337627128   -0.005833722232470921
-0.029363520346141335   -0.21818731939961528   -0.006087066948823361
-0.02514464916059186   -0.23560264440555284   -0.00659805403390755
-0.03963228597258781   -0.21735266845414322   -0.006034769590303869
-0.029363520346141335   -0.21818731939961528   -0.006087066948823361
-0.0321976868267831   -0.23506859938158378   -0.007328715877773841
-0.02514464916059186   -0.23560264440555284   -0.00659805403390755
-0.02921179344368137   -0.21800017337627128   -0.005833722232470921
-0.031709789927521194   -0.2349493513421121   -0.006767726765715961
-0.024818242268283056   -0.2355897241315807   -0.006280326128460351
-0.02921179344368137   -0.21800017337627128   -0.005833722232470921
-0.03963228597258781   -0.21735266845414322   -0.006034769590303869
-0.031709789927521194   -0.2349493513421121   -0.006767726765715961
-0.039406748081139566   -0.21734222579713514   -0.0055223406065923325
-0.024818242268283056   -0.2355897241315807   -0.006280326128460351
-0.03128300228907325   -0.2349860612973073   -0.006166963501345674
-0.039406748081139566   -0.21734222579713514   -0.0055223406065923325
-0.031709789927521194   -0.2349493513421121   -0.006767726765715961
-0.024818242268283056   -0.2355897241315807   -0.006280326128460351
-0.039406748081139566   -0.21734222579713514   -0.0055223406065923325
-0.02906409371204035   -0.21793594899795674   -0.005554102316733766
-0.02921179344368137   -0.21800017337627128   -0.005833722232470921
-0.024818242268283056   -0.2355897241315807   -0.006280326128460351
-0.039406748081139566   -0.21734222579713514   -0.0055223406065923325
-0.02921179344368137   -0.21800017337627128   -0.005833722232470921
-0.031709789927521194   -0.2349493513421121   -0.006767726765715961
-0.03255146154249125   -0.23534356819604654   -0.007865713635808852
-0.04007260939847916   -0.2177637688568532   -0.006976489394205594
-0.04129939876895009   -0.23415550731000317   -0.008550470394562658
-0.0321976868267831   -0.23506859938158378   -0.007328715877773841
-0.04007260939847916   -0.2177637688568532   -0.006976489394205594
-0.05241671484003434   -0.21670052239395993   -0.007593094888011993
-0.04129939876895009   -0.23415550731000317   -0.008550470394562658
-0.051585126792465574   -0.21642171007766206   -0.006874467866369905
-0.0321976868267831   -0.23506859938158378   -0.007328715877773841
-0.04016822468398925   -0.23385844413091594   -0.007702905609037264
-0.051585126792465574   -0.21642171007766206   -0.006874467866369905
-0.04129939876895009   -0.23415550731000317   -0.008550470394562658
-0.0321976868267831   -0.23506859938158378   -0.007328715877773841
-0.051585126792465574   -0.21642171007766206   -0.006874467866369905
-0.03990912085733379   -0.217495660768294   -0.006517116958127926
-0.04007260939847916   -0.2177637688568532   -0.006976489394205594
-0.0321976868267831   -0.23506859938158378   -0.007328715877773841
-0.051585126792465574   -0.21642171007766206   -0.006874467866369905
-0.04007260939847916   -0.2177637688568532   -0.006976489394205594
-0.04129939876895009   -0.23415550731000317   -0.008550470394562658
-0.0321976868267831   -0.23506859938158378   -0.007328715877773841
-0.03990912085733379   -0.217495660768294   -0.006517116958127926
-0.04016822468398925   -0.23385844413091594   -0.007702905609037264
-0.031709789927521194   -0.2349493513421121   -0.006767726765715961
-0.03990912085733379   -0.217495660768294   -0.006517116958127926
-0.051585126792465574   -0.21642171007766206   -0.006874467866369905
-0.04016822468398925   -0.23385844413091594   -0.007702905609037264
-0.05086227780400335   -0.21629069858588434   -0.006118040043364713
-0.031709789927521194   -0.2349493513421121   -0.006767726765715961
-0.03915260015993495   -0.2337481429647839   -0.006805155915424116
-0.05086227780400335   -0.21629069858588434   -0.006118040043364713
-0.04016822468398925   -0.23385844413091594   -0.007702905609037264
-0.031709789927521194   -0.2349493513421121   -0.006767726765715961
-0.05086227780400335   -0.21629069858588434   -0.006118040043364713
-0.03963228597258781   -0.21735266845414322   -0.006034769590303869
-0.03990912085733379   -0.217495660768294   -0.006517116958127926
-0.031709789927521194   -0.2349493513421121   -0.006767726765715961
-0.05086227780400335   -0.21629069858588434   -0.006118040043364713
-0.03990912085733379   -0.217495660768294   -0.006517116958127926
-0.04016822468398925   -0.23385844413091594   -0.007702905609037264
-0.031709789927521194   -0.2349493513421121   -0.006767726765715961
-0.03963228597258781   -0.21735266845414322   -0.006034769590303869
-0.03915260015993495   -0.2337481429647839   -0.006805155915424116
-0.03128300228907325   -0.2349860612973073   -0.006166963501345674
-0.03963228597258781   -0.21735266845414322   -0.006034769590303869
-0.05086227780400335   -0.21629069858588434   -0.006118040043364713
-0.03915260015993495   -0.2337481429647839   -0.006805155915424116
-0.04988793410855128   -0.21636255066470209   -0.005328646777546435
-0.03128300228907325   -0.2349860612973073   -0.006166963501345674
-0.03783608314291904   -0.23388096296628413   -0.005865818382300861
-0.04988793410855128   -0.21636255066470209   -0.005328646777546435
-0.03915260015993495   -0.2337481429647839   -0.006805155915424116
-0.03128300228907325   -0.2349860612973073   -0.006166963501345674
-0.04988793410855128   -0.21636255066470209   -0.005328646777546435
-0.039406748081139566   -0.21734222579713514   -0.0055223406065923325
-0.03963228597258781   -0.21735266845414322   -0.006034769590303869
-0.03128300228907325   -0.2349860612973073   -0.006166963501345674
-0.04988793410855128   -0.21636255066470209   -0.005328646777546435
-0.03963228597258781   -0.21735266845414322   -0.006034769590303869
-0.03915260015993495   -0.2337481429647839   -0.006805155915424116
0.0014823979652643646   -0.21820625274040578   -0.0037372724552900594
0.00793093049631584   -0.19502270670961333   -0.002849148202322587
-0.00913255451248759   -0.21872947006103163   -0.00473939799952409
0.0021698553920021487   -0.21769547473146608   -0.004295697634340267
0.00793093049631584   -0.19502270670961333   -0.002849148202322587
-0.006094686374224095   -0.19536679148910344   -0.0038053922100094234
-0.00913255451248759   -0.21872947006103163   -0.00473939799952409
-0.006057574237661898   -0.1949427727172157   -0.003974751450394941
0.0021698553920021487   -0.21769547473146608   -0.004295697634340267
-0.008949555809329842   -0.21830313836037704   -0.004984832696721954
-0.006057574237661898   -0.1949427727172157   -0.003974751450394941
-0.00913255451248759   -0.21872947006103163   -0.00473939799952409
0.0021698553920021487   -0.21769547473146608   -0.004295697634340267
-0.006057574237661898   -0.1949427727172157   -0.003974751450394941
0.00833628953734069   -0.1945245218258476   -0.0032604432124451717
0.00793093049631584   -0.19502270670961333   -0.002849148202322587
0.0021698553920021487   -0.21769547473146608   -0.004295697634340267
-0.006057574237661898   -0.1949427727172157   -0.003974751450394941
0.00793093049631584   -0.19502270670961333   -0.002849148202322587
-0.00913255451248759   -0.21872947006103163   -0.00473939799952409
0.0021698553920021487   -0.21769547473146608   -0.004295697634340267
0.00833628953734069   -0.1945245218258476   -0.0032604432124451717
-0.008949555809329842   -0.21830313836037704   -0.004984832696721954
0.0026752557874240982   -0.21739779953552524   -0.004813632584874389
0.00833628953734069   -0.1945245218258476   -0.0032604432124451717
-0.006057574237661898   -0.1949427727172157   -0.003974751450394941
-0.008949555809329842   -0.21830313836037704   -0.004984832696721954
-0.006010520893228619   -0.19463332192510988   -0.004117757410742085
0.0026752557874240982   -0.21739779953552524   -0.004813632584874389
-0.00874163831700627   -0.21802253602196242   -0.005201337104895048
-0.006010520893228619   -0.19463332192510988   -0.004117757410742085
-0.008949555809329842   -0.21830313836037704   -0.004984832696721954
0.0026752557874240982   -0.21739779953552524   -0.004813632584874389
-0.006010520893228619   -0.19463332192510988   -0.004117757410742085
0.008594662454749376   -0.1941951642386803   -0.0036345166446628764
0.00833628953734069   -0.1945245218258476   -0.0032604432124451717
0.0026752557874240982   -0.21739779953552524   -0.004813632584874389
-0.006010520893228619   -0.19463332192510988   -0.004117757410742085
0.00833628953734069   -0.1945245218258476   -0.0032604432124451717
-0.008949555809329842   -0.21830313836037704   -0.004984832696721954
0.0026752557874240982   -0.21739779953552524   -0.004813632584874389
0.008594662454749376   -0.1941951642386803   -0.0036345166446628764
-0.00874163831700627   -0.21802253602196242   -0.005201337104895048
0.0032150229826799896   -0.21724724718200145   -0.0052908582048657666
0.008594662454749376   -0.1941951642386803   -0.0036345166446628764
-0.006010520893228619   -0.19463332192510988   -0.004117757410742085
-0.00874163831700627   -0.21802253602196242   -0.005201337104895048
-0.006034719012779252   -0.1944286523319691   -0.00423633569159197
0.0032150229826799896   -0.21724724718200145   -0.0052908582048657666
-0.008617389752733138   -0.21787943496294343   -0.005391764389834719
-0.006034719012779252   -0.1944286523319691   -0.00423633569159197
-0.00874163831700627   -0.21802253602196242   -0.005201337104895048
0.0032150229826799896   -0.21724724718200145   -0.0052908582048657666
-0.006034719012779252   -0.1944286523319691   -0.00423633569159197
0.008858722144188565   -0.19397145731542492   -0.003972130804263962
0.008594662454749376   -0.1941951642386803   -0.0036345166446628764
0.0032150229826799896   -0.21724724718200145   -0.0052908582048657666
-0.006034719012779252   -0.1944286523319691   -0.00423633569159197
0.008594662454749376   -0.1941951642386803   -0.0036345166446628764
-0.00874163831700627   -0.21802253602196242   -0.005201337104895048
-0.00913255451248759   -0.21872947006103163   -0.00473939799952409
-0.006094686374224095   -0.19536679148910344   -0.0038053922100094234
-0.019392430932336734   -0.21882932808071168   -0.005566529028934054
-0.008949555809329842   -0.21830313836037704   -0.004984832696721954
-0.006094686374224095   -0.19536679148910344   -0.0038053922100094234
-0.01958398983775201   -0.19536765958056557   -0.00459584751055162
-0.019392430932336734   -0.21882932808071168   -0.005566529028934054
-0.01958618959943879   -0.1950083167579081   -0.004579913071794791
-0.008949555809329842   -0.21830313836037704   -0.004984832696721954
-0.019257565947361867   -0.21846301436449148   -0.005573240372474557
-0.01958618959943879   -0.1950083167579081   -0.004579913071794791
-0.019392430932336734   -0.21882932808071168   -0.005566529028934054
-0.008949555809329842   -0.21830313836037704   -0.004984832696721954
-0.01958618959943879   -0.1950083167579081   -0.004579913071794791
-0.006057574237661898   -0.1949427727172157   -0.003974751450394941
-0.006094686374224095   -0.19536679148910344   -0.0038053922100094234
-0.008949555809329842   -0.21830313836037704   -0.004984832696721954
-0.01958618959943879   -0.1950083167579081   -0.004579913071794791
-0.006094686374224095   -0.19536679148910344   -0.0038053922100094234
-0.019392430932336734   -0.21882932808071168   -0.005566529028934054
-0.008949555809329842   -0.21830313836037704   -0.004984832696721954
-0.006057574237661898   -0.1949427727172157   -0.003974751450394941
-0.019257565947361867   -0.21846301436449148   -0.005573240372474557
-0.00874163831700627   -0.21802253602196242   -0.005201337104895048
-0.006057574237661898   -0.1949427727172157   -0.003974751450394941
-0.01958618959943879   -0.1950083167579081   -0.004579913071794791
-0.019257565947361867   -0.21846301436449148   -0.005573240372474557
-0.019587514813854342   -0.1947500053469059   -0.004537749889454587
-0.00874163831700627   -0.21802253602196242   -0.005201337104895048
-0.019118946601782143   -0.21822717033790381   -0.005552253586805702
-0.019587514813854342   -0.1947500053469059   -0.004537749889454587
-0.019257565947361867   -0.21846301436449148   -0.005573240372474557
-0.00874163831700627   -0.21802253602196242   -0.005201337104895048
-0.019587514813854342   -0.1947500053469059   -0.004537749889454587
-0.006010520893228619   -0.19463332192510988   -0.004117757410742085
-0.006057574237661898   -0.1949427727172157   -0.003974751450394941
-0.00874163831700627   -0.21802253602196242   -0.005201337104895048
-0.019587514813854342   -0.1947500053469059   -0.004537749889454587
-0.006057574237661898   -0.1949427727172157   -0.003974751450394941
-0.019257565947361867   -0.21846301436449148   -0.005573240372474557
-0.00874163831700627   -0.21802253602196242   -0.005201337104895048
-0.006010520893228619   -0.19463332192510988   -0.004117757410742085
-0.019118946601782143   -0.21822717033790381   -0.005552253586805702
-0.008617389752733138   -0.21787943496294343   -0.005391764389834719
-0.006010520893228619   -0.19463332192510988   -0.004117757410742085
-0.019587514813854342   -0.1947500053469059   -0.004537749889454587
-0.019118946601782143   -0.21822717033790381   -0.005552253586805702
-0.019606929473004225   -0.19459289466982796   -0.004470690021264234
-0.008617389752733138   -0.21787943496294343   -0.005391764389834719
-0.018997679765294873   -0.21811958630763503   -0.00550538198044788
-0.019606929473004225   -0.19459289466982796   -0.004470690021264234
-0.019118946601782143   -0.21822717033790381   -0.005552253586805702
-0.008617389752733138   -0.21787943496294343   -0.005391764389834719
-0.019606929473004225   -0.19459289466982796   -0.004470690021264234
-0.006034719012779252   -0.1944286523319691   -0.00423633569159197
-0.006010520893228619   -0.19463332192510988   -0.004117757410742085
-0.008617389752733138   -0.21787943496294343   -0.005391764389834719
-0.019606929473004225   -0.19459289466982796   -0.004470690021264234
-0.006010520893228619   -0.19463332192510988   -0.004117757410742085
-0.019118946601782143   -0.21822717033790381   -0.005552253586805702
-0.019392430932336734   -0.21882932808071168   -0.005566529028934054
-0.01958398983775201   -0.19536765958056557   -0.00459584751055162
-0.029489114296674016   -0.2185034899972893   -0.00631329729184089
-0.019257565947361867   -0.21846301436449148   -0.005573240372474557
-0.01958398983775201   -0.19536765958056557   -0.00459584751055162
-0.03284238168948866   -0.19503262996890627   -0.005288834280388606
-0.029489114296674016   -0.2185034899972893   -0.00631329729184089
-0.03285450093177345   -0.1947302946607096   -0.005089817750998389
-0.019257565947361867   -0.21846301436449148   -0.005573240372474557
-0.029363520346141335   -0.21818731939961528   -0.006087066948823361
-0.03285450093177345   -0.1947302946607096   -0.005089817750998389
-0.029489114296674016   -0.2185034899972893   -0.00631329729184089
-0.019257565947361867   -0.21846301436449148   -0.005573240372474557
-0.03285450093177345   -0.1947302946607096   -0.005089817750998389
-0.01958618959943879   -0.1950083167579081   -0.004579913071794791
-0.01958398983775201   -0.19536765958056557   -0.00459584751055162
-0.019257565947361867   -0.21846301436449148   -0.005573240372474557
-0.03285450093177345   -0.1947302946607096   -0.005089817750998389
-0.01958398983775201   -0.19536765958056557   -0.00459584751055162
-0.029489114296674016   -0.2185034899972893   -0.00631329729184089
-0.019257565947361867   -0.21846301436449148   -0.005573240372474557
-0.01958618959943879   -0.1950083167579081   -0.004579913071794791
-0.029363520346141335   -0.21818731939961528   -0.006087066948823361
-0.019118946601782143   -0.21822717033790381   -0.005552253586805702
-0.01958618959943879   -0.1950083167579081   -0.004579913071794791
-0.03285450093177345   -0.1947302946607096   -0.005089817750998389
-0.029363520346141335   -0.21818731939961528   -0.006087066948823361
-0.03284397480204772   -0.1945280942923815   -0.004865066433411506
-0.019118946601782143   -0.21822717033790381   -0.005552253586805702
-0.02921179344368137   -0.21800017337627128   -0.005833722232470921
-0.03284397480204772   -0.1945280942923815   -0.004865066433411506
-0.029363520346141335   -0.21818731939961528   -0.006087066948823361
-0.019118946601782143   -0.21822717033790381   -0.005552253586805702
-0.03284397480204772   -0.1945280942923815   -0.004865066433411506
-0.019587514813854342   -0.1947500053469059   -0.004537749889454587
-0.01958618959943879   -0.1950083167579081   -0.004579913071794791
-0.019118946601782143   -0.21822717033790381   -0.005552253586805702
-0.03284397480204772   -0.1945280942923815   -0.004865066433411506
-0.01958618959943879   -0.1950083167579081   -0.004579913071794791
-0.029363520346141335   -0.21818731939961528   -0.006087066948823361
-0.019118946601782143   -0.21822717033790381   -0.005552253586805702
-0.019587514813854342   -0.1947500053469059   -0.004537749889454587
-0.02921179344368137   -0.21800017337627128   -0.005833722232470921
-0.018997679765294873   -0.21811958630763503   -0.00550538198044788
-0.019587514813854342   -0.1947500053469059   -0.004537749889454587
-0.03284397480204772   -0.1945280942923815   -0.004865066433411506
-0.02921179344368137   -0.21800017337627128   -0.005833722232470921
-0.032837464097497826   -0.19442424204771785   -0.004615338130489201
-0.018997679765294873   -0.21811958630763503   -0.00550538198044788
-0.02906409371204035   -0.21793594899795674   -0.005554102316733766
-0.032837464097497826   -0.19442424204771785   -0.004615338130489201
-0.02921179344368137   -0.21800017337627128   -0.005833722232470921
-0.018997679765294873   -0.21811958630763503   -0.00550538198044788
-0.032837464097497826   -0.19442424204771785   -0.004615338130489201
-0.019606929473004225   -0.19459289466982796   -0.004470690021264234
-0.019587514813854342   -0.1947500053469059   -0.004537749889454587
-0.018997679765294873   -0.21811958630763503   -0.00550538198044788
-0.032837464097497826   -0.19442424204771785   -0.004615338130489201
-0.019587514813854342   -0.1947500053469059   -0.004537749889454587
-0.02921179344368137   -0.21800017337627128   -0.005833722232470921
-0.029489114296674016   -0.2185034899972893   -0.00631329729184089
-0.03284238168948866   -0.19503262996890627   -0.005288834280388606
-0.04007260939847916   -0.2177637688568532   -0.006976489394205594
-0.029363520346141335   -0.21818731939961528   -0.006087066948823361
-0.03284238168948866   -0.19503262996890627   -0.005288834280388606
-0.04651521810058634   -0.1943746089047772   -0.005885384479739938
-0.04007260939847916   -0.2177637688568532   -0.006976489394205594
-0.04649983602809727   -0.1941270243519122   -0.005501161070332378
-0.029363520346141335   -0.21818731939961528   -0.006087066948823361
-0.03990912085733379   -0.217495660768294   -0.006517116958127926
-0.04649983602809727   -0.1941270243519122   -0.005501161070332378
-0.04007260939847916   -0.2177637688568532   -0.006976489394205594
-0.029363520346141335   -0.21818731939961528   -0.006087066948823361
-0.04649983602809727   -0.1941270243519122   -0.005501161070332378
-0.03285450093177345   -0.1947302946607096   -0.005089817750998389
-0.03284238168948866   -0.19503262996890627   -0.005288834280388606
-0.029363520346141335   -0.21818731939961528   -0.006087066948823361
-0.04649983602809727   -0.1941270243519122   -0.005501161070332378
-0.03284238168948866   -0.19503262996890627   -0.005288834280388606
-0.04007260939847916   -0.2177637688568532   -0.006976489394205594
-0.029363520346141335   -0.21818731939961528   -0.006087066948823361
-0.03285450093177345   -0.1947302946607096   -0.005089817750998389
-0.03990912085733379   -0.217495660768294   -0.006517116958127926
-0.02921179344368137   -0.21800017337627128   -0.005833722232470921
-0.03285450093177345   -0.1947302946607096   -0.005089817750998389
-0.04649983602809727   -0.1941270243519122   -0.005501161070332378
-0.03990912085733379   -0.217495660768294   -0.006517116958127926
-0.04638616591194736   -0.19397569293452788   -0.005095072087903292
-0.02921179344368137   -0.21800017337627128   -0.005833722232470921
-0.03963228597258781   -0.21735266845414322   -0.006034769590303869
-0.04638616591194736   -0.19397569293452788   -0.005095072087903292
-0.03990912085733379   -0.217495660768294   -0.006517116958127926
-0.02921179344368137   -0.21800017337627128   -0.005833722232470921
-0.04638616591194736   -0.19397569293452788   -0.005095072087903292
-0.03284397480204772   -0.1945280942923815   -0.004865066433411506
-0.03285450093177345   -0.1947302946607096   -0.005089817750998389
-0.02921179344368137   -0.21800017337627128   -0.005833722232470921
-0.04638616591194736   -0.19397569293452788   -0.005095072087903292
-0.03285450093177345   -0.1947302946607096   -0.005089817750998389
-0.03990912085733379   -0.217495660768294   -0.006517116958127926
-0.02921179344368137   -0.21800017337627128   -0.005833722232470921
-0.03284397480204772   -0.1945280942923815   -0.004865066433411506
-0.03963228597258781   -0.21735266845414322   -0.006034769590303869
-0.02906409371204035   -0.21793594899795674   -0.005554102316733766
-0.03284397480204772   -0.1945280942923815   -0.004865066433411506
-0.04638616591194736   -0.19397569293452788   -0.005095072087903292
-0.03963228597258781   -0.21735266845414322   -0.006034769590303869
-0.04630996397026278   -0.19393094456431126   -0.004662015262156857
-0.02906409371204035   -0.21793594899795674   -0.005554102316733766
-0.039406748081139566   -0.21734222579713514   -0.0055223406065923325
-0.04630996397026278   -0.19393094456431126   -0.004662015262156857
-0.03963228597258781   -0.21735266845414322   -0.006034769590303869
-0.02906409371204035   -0.21793594899795674   -0.005554102316733766
-0.04630996397026278   -0.19393094456431126   -0.004662015262156857
-0.032837464097497826   -0.19442424204771785   -0.004615338130489201
-0.03284397480204772   -0.1945280942923815   -0.004865066433411506
-0.02906409371204035   -0.21793594899795674   -0.005554102316733766
-0.04630996397026278   -0.19393094456431126   -0.004662015262156857
-0.03284397480204772   -0.1945280942923815   -0.004865066433411506
-0.03963228597258781   -0.21735266845414322   -0.006034769590303869
-0.04007260939847916   -0.2177637688568532   -0.006976489394205594
-0.04651521810058634   -0.1943746089047772   -0.005885384479739938
-0.05241671484003434   -0.21670052239395993   -0.007593094888011993
-0.03990912085733379   -0.217495660768294   -0.006517116958127926
-0.04651521810058634   -0.1943746089047772   -0.005885384479739938
-0.06178711457765932   -0.19346966413944033   -0.006422327889279886
-0.05241671484003434   -0.21670052239395993   -0.007593094888011993
-0.06122141028536009   -0.1932271686696129   -0.005835134731762291
-0.03990912085733379   -0.217495660768294   -0.006517116958127926
-0.051585126792465574   -0.21642171007766206   -0.006874467866369905
-0.06122141028536009   -0.1932271686696129   -0.005835134731762291
-0.05241671484003434   -0.21670052239395993   -0.007593094888011993
-0.03990912085733379   -0.217495660768294   -0.006517116958127926
-0.06122141028536009   -0.1932271686696129   -0.005835134731762291
-0.04649983602809727   -0.1941270243519122   -0.005501161070332378
-0.04651521810058634   -0.1943746089047772   -0.005885384479739938
-0.03990912085733379   -0.217495660768294   -0.006517116958127926
-0.06122141028536009   -0.1932271686696129   -0.005835134731762291
-0.04651521810058634   -0.1943746089047772   -0.005885384479739938
-0.05241671484003434   -0.21670052239395993   -0.007593094888011993
-0.03990912085733379   -0.217495660768294   -0.006517116958127926
-0.04649983602809727   -0.1941270243519122   -0.005501161070332378
-0.051585126792465574   -0.21642171007766206   -0.006874467866369905
-0.03963228597258781   -0.21735266845414322   -0.006034769590303869
-0.04649983602809727   -0.1941270243519122   -0.005501161070332378
-0.06122141028536009   -0.1932271686696129   -0.005835134731762291
-0.051585126792465574   -0.21642171007766206   -0.006874467866369905
-0.06073689134904692   -0.19309436219815088   -0.00521125690890229
-0.03963228597258781   -0.21735266845414322   -0.006034769590303869
-0.05086227780400335   -0.21629069858588434   -0.006118040043364713
-0.06073689134904692   -0.19309436219815088   -0.00521125690890229
-0.051585126792465574   -0.21642171007766206   -0.006874467866369905
-0.03963228597258781   -0.21735266845414322   -0.006034769590303869
-0.06073689134904692   -0.19309436219815088   -0.00521125690890229
-0.04638616591194736   -0.19397569293452788   -0.005095072087903292
-0.04649983602809727   -0.1941270243519122   -0.005501161070332378
-0.03963228597258781   -0.21735266845414322   -0.006034769590303869
-0.06073689134904692   -0.19309436219815088   -0.00521125690890229
-0.04649983602809727   -0.1941270243519122   -0.005501161070332378
-0.051585126792465574   -0.21642171007766206   -0.006874467866369905
-0.03963228597258781   -0.21735266845414322   -0.006034769590303869
-0.04638616591194736   -0.19397569293452788   -0.005095072087903292
-0.05086227780400335   -0.21629069858588434   -0.006118040043364713
-0.039406748081139566   -0.21734222579713514   -0.0055223406065923325
-0.04638616591194736   -0.19397569293452788   -0.005095072087903292
-0.06073689134904692   -0.19309436219815088   -0.00521125690890229
-0.05086227780400335   -0.21629069858588434   -0.006118040043364713
-0.060036659925775976   -0.19313088003987056   -0.004555691145232235
-0.039406748081139566   -0.21734222579713514   -0.0055223406065923325
-0.04988793410855128   -0.21636255066470209   -0.005328646777546435
-0.060036659925775976   -0.19313088003987056   -0.004555691145232235
-0.05086227780400335   -0.21629069858588434   -0.006118040043364713
-0.039406748081139566   -0.21734222579713514   -0.0055223406065923325
-0.060036659925775976   -0.19313088003987056   -0.004555691145232235
-0.04630996397026278   -0.19393094456431126   -0.004662015262156857
-0.04638616591194736   -0.19397569293452788   -0.005095072087903292
-0.039406748081139566   -0.21734222579713514   -0.0055223406065923325
-0.060036659925775976   -0.19313088003987056   -0.004555691145232235
-0.04638616591194736   -0.19397569293452788   -0.005095072087903292
-0.05086227780400335   -0.21629069858588434   -0.006118040043364713
0.00793093049631584   -0.19502270670961333   -0.002849148202322587
0.012351964852843782   -0.16719071660048768   -0.0018968357387870573
-0.006094686374224095   -0.19536679148910344   -0.0038053922100094234
0.00833628953734069   -0.1945245218258476   -0.0032604432124451717
0.012351964852843782   -0.16719071660048768   -0.0018968357387870573
-0.004261596279985014   -0.1673579797724559   -0.002796668540674802
-0.006094686374224095   -0.19536679148910344   -0.0038053922100094234
-0.004341539448920251   -0.1669441626340587   -0.002887061079009442
0.00833628953734069   -0.1945245218258476   -0.0032604432124451717
-0.006057574237661898   -0.1949427727172157   -0.003974751450394941
-0.004341539448920251   -0.1669441626340587   -0.002887061079009442
-0.006094686374224095   -0.19536679148910344   -0.0038053922100094234
0.00833628953734069   -0.1945245218258476   -0.0032604432124451717
-0.004341539448920251   -0.1669441626340587   -0.002887061079009442
0.012508519639265057   -0.16671077317233635   -0.0021645857897332993
0.012351964852843782   -0.16719071660048768   -0.0018968357387870573
0.00833628953734069   -0.1945245218258476   -0.0032604432124451717
-0.004341539448920251   -0.1669441626340587   -0.002887061079009442
0.012351964852843782   -0.16719071660048768   -0.0018968357387870573
-0.006094686374224095   -0.19536679148910344   -0.0038053922100094234
0.00833628953734069   -0.1945245218258476   -0.0032604432124451717
0.012508519639265057   -0.16671077317233635   -0.0021645857897332993
-0.006057574237661898   -0.1949427727172157   -0.003974751450394941
0.008594662454749376   -0.1941951642386803   -0.0036345166446628764
0.012508519639265057   -0.16671077317233635   -0.0021645857897332993
-0.004341539448920251   -0.1669441626340587   -0.002887061079009442
-0.006057574237661898   -0.1949427727172157   -0.003974751450394941
-0.004425775157941239   -0.1666148950928682   -0.0029540165310645533
0.008594662454749376   -0.1941951642386803   -0.0036345166446628764
-0.006010520893228619   -0.19463332192510988   -0.004117757410742085
-0.004425775157941239   -0.1666148950928682   -0.0029540165310645533
-0.006057574237661898   -0.1949427727172157   -0.003974751450394941
0.008594662454749376   -0.1941951642386803   -0.0036345166446628764
-0.004425775157941239   -0.1666148950928682   -0.0029540165310645533
0.012553496879934418   -0.16635862636493412   -0.0023977808937335923
0.012508519639265057   -0.16671077317233635   -0.0021645857897332993
0.008594662454749376   -0.1941951642386803   -0.0036345166446628764
-0.004425775157941239   -0.1666148950928682   -0.0029540165310645533
0.012508519639265057   -0.16671077317233635   -0.0021645857897332993
-0.006057574237661898   -0.1949427727172157   -0.003974751450394941
0.008594662454749376   -0.1941951642386803   -0.0036345166446628764
0.012553496879934418   -0.16635862636493412   -0.0023977808937335923
-0.006010520893228619   -0.19463332192510988   -0.004117757410742085
0.008858722144188565   -0.19397145731542492   -0.003972130804263962
0.012553496879934418   -0.16635862636493412   -0.0023977808937335923
-0.004425775157941239   -0.1666148950928682   -0.0029540165310645533
-0.006010520893228619   -0.19463332192510988   -0.004117757410742085
-0.004567583720860147   -0.16635997686220205   -0.0029983323204772427
0.008858722144188565   -0.19397145731542492   -0.003972130804263962
-0.006034719012779252   -0.1944286523319691   -0.00423633569159197
-0.004567583720860147   -0.16635997686220205   -0.0029983323204772427
-0.006010520893228619   -0.19463332192510988   -0.004117757410742085
0.008858722144188565   -0.19397145731542492   -0.003972130804263962
-0.004567583720860147   -0.16635997686220205   -0.0029983323204772427
0.01257583659964912   -0.166073092827685   -0.002598045147806837
0.012553496879934418   -0.16635862636493412   -0.0023977808937335923
0.008858722144188565   -0.19397145731542492   -0.003972130804263962
-0.004567583720860147   -0.16635997686220205   -0.0029983323204772427
0.012553496879934418   -0.16635862636493412   -0.0023977808937335923
-0.006010520893228619   -0.19463332192510988   -0.004117757410742085
-0.006094686374224095   -0.19536679148910344   -0.0038053922100094234
-0.004261596279985014   -0.1673579797724559   -0.002796668540674802
-0.01958398983775201   -0.19536765958056557   -0.00459584751055162
-0.006057574237661898   -0.1949427727172157   -0.003974751450394941
-0.004261596279985014   -0.1673579797724559   -0.002796668540674802
-0.020181076251128395   -0.16726939621388623   -0.0035398169629761995
-0.01958398983775201   -0.19536765958056557   -0.00459584751055162
-0.02029075438917287   -0.1669227270162056   -0.003496822251577593
-0.006057574237661898   -0.1949427727172157   -0.003974751450394941
-0.01958618959943879   -0.1950083167579081   -0.004579913071794791
-0.02029075438917287   -0.1669227270162056   -0.003496822251577593
-0.01958398983775201   -0.19536765958056557   -0.00459584751055162
-0.006057574237661898   -0.1949427727172157   -0.003974751450394941
-0.02029075438917287   -0.1669227270162056   -0.003496822251577593
-0.004341539448920251   -0.1669441626340587   -0.002887061079009442
-0.004261596279985014   -0.1673579797724559   -0.002796668540674802
-0.006057574237661898   -0.1949427727172157   -0.003974751450394941
-0.02029075438917287   -0.1669227270162056   -0.003496822251577593
-0.004261596279985014   -0.1673579797724559   -0.002796668540674802
-0.01958398983775201   -0.19536765958056557   -0.00459584751055162
-0.006057574237661898   -0.1949427727172157   -0.003974751450394941
-0.004341539448920251   -0.1669441626340587   -0.002887061079009442
-0.01958618959943879   -0.1950083167579081   -0.004579913071794791
-0.006010520893228619   -0.19463332192510988   -0.004117757410742085
-0.004341539448920251   -0.1669441626340587   -0.002887061079009442
-0.02029075438917287   -0.1669227270162056   -0.003496822251577593
-0.01958618959943879   -0.1950083167579081   -0.004579913071794791
-0.020401927494772255   -0.1666485565369372   -0.0034297207875091775
-0.006010520893228619   -0.19463332192510988   -0.004117757410742085
-0.019587514813854342   -0.1947500053469059   -0.004537749889454587
-0.020401927494772255   -0.1666485565369372   -0.0034297207875091775
-0.01958618959943879   -0.1950083167579081   -0.004579913071794791
-0.006010520893228619   -0.19463332192510988   -0.004117757410742085
-0.020401927494772255   -0.1666485565369372   -0.0034297207875091775
-0.004425775157941239   -0.1666148950928682   -0.0029540165310645533
-0.004341539448920251   -0.1669441626340587   -0.002887061079009442
-0.006010520893228619   -0.19463332192510988   -0.004117757410742085
-0.020401927494772255   -0.1666485565369372   -0.0034297207875091775
-0.004341539448920251   -0.1669441626340587   -0.002887061079009442
-0.01958618959943879   -0.1950083167579081   -0.004579913071794791
-0.006010520893228619   -0.19463332192510988   -0.004117757410742085
-0.004425775157941239   -0.1666148950928682   -0.0029540165310645533
-0.019587514813854342   -0.1947500053469059   -0.004537749889454587
-0.006034719012779252   -0.1944286523319691   -0.00423633569159197
-0.004425775157941239   -0.1666148950928682   -0.0029540165310645533
-0.020401927494772255   -0.1666485565369372   -0.0034297207875091775
-0.019587514813854342   -0.1947500053469059   -0.004537749889454587
-0.020530236012664335   -0.16644812692406338   -0.00333964805229389
-0.006034719012779252   -0.1944286523319691   -0.00423633569159197
-0.019606929473004225   -0.19459289466982796   -0.004470690021264234
-0.020530236012664335   -0.16644812692406338   -0.00333964805229389
-0.019587514813854342   -0.1947500053469059   -0.004537749889454587
-0.006034719012779252   -0.1944286523319691   -0.00423633569159197
-0.020530236012664335   -0.16644812692406338   -0.00333964805229389
-0.004567583720860147   -0.16635997686220205   -0.0029983323204772427
-0.004425775157941239   -0.1666148950928682   -0.0029540165310645533
-0.006034719012779252   -0.1944286523319691   -0.00423633569159197
-0.020530236012664335   -0.16644812692406338   -0.00333964805229389
-0.004425775157941239   -0.1666148950928682   -0.0029540165310645533
-0.019587514813854342   -0.1947500053469059   -0.004537749889454587
-0.01958398983775201   -0.19536765958056557   -0.00459584751055162
-0.020181076251128395   -0.16726939621388623   -0.0035398169629761995
-0.03284238168948866   -0.19503262996890627   -0.005288834280388606
-0.01958618959943879   -0.1950083167579081   -0.004579913071794791
-0.020181076251128395   -0.16726939621388623   -0.0035398169629761995
-0.035830249756456746   -0.16694021651826296   -0.004176695540788622
-0.03284238168948866   -0.19503262996890627   -0.005288834280388606
-0.035948315776731916   -0.16665473382494256   -0.004000905021446865
-0.01958618959943879   -0.1950083167579081   -0.004579913071794791
-0.03285450093177345   -0.1947302946607096   -0.005089817750998389
-0.035948315776731916   -0.16665473382494256   -0.004000905021446865
-0.03284238168948866   -0.19503262996890627   -0.005288834280388606
-0.01958618959943879   -0.1950083167579081   -0.004579913071794791
-0.035948315776731916   -0.16665473382494256   -0.004000905021446865
-0.02029075438917287   -0.1669227270162056   -0.003496822251577593
-0.020181076251128395   -0.16726939621388623   -0.0035398169629761995
-0.01958618959943879   -0.1950083167579081   -0.004579913071794791
-0.035948315776731916   -0.16665473382494256   -0.004000905021446865
-0.020181076251128395   -0.16726939621388623   -0.0035398169629761995
-0.03284238168948866   -0.19503262996890627   -0.005288834280388606
-0.01958618959943879   -0.1950083167579081   -0.004579913071794791
-0.02029075438917287   -0.1669227270162056   -0.003496822251577593
-0.03285450093177345   -0.1947302946607096   -0.005089817750998389
-0.019587514813854342   -0.1947500053469059   -0.004537749889454587
-0.02029075438917287   -0.1669227270162056   -0.003496822251577593
-0.035948315776731916   -0.16665473382494256   -0.004000905021446865
-0.03285450093177345   -0.1947302946607096   -0.005089817750998389
-0.03604632105482947   -0.1664410533440295   -0.00380142130952267
-0.019587514813854342   -0.1947500053469059   -0.004537749889454587
-0.03284397480204772   -0.1945280942923815   -0.004865066433411506
-0.03604632105482947   -0.1664410533440295   -0.00380142130952267
-0.03285450093177345   -0.1947302946607096   -0.005089817750998389
-0.019587514813854342   -0.1947500053469059   -0.004537749889454587
-0.03604632105482947   -0.1664410533440295   -0.00380142130952267
-0.020401927494772255   -0.1666485565369372   -0.0034297207875091775
-0.02029075438917287   -0.1669227270162056   -0.003496822251577593
-0.019587514813854342   -0.1947500053469059   -0.004537749889454587
-0.03604632105482947   -0.1664410533440295   -0.00380142130952267
-0.02029075438917287   -0.1669227270162056   -0.003496822251577593
-0.03285450093177345   -0.1947302946607096   -0.005089817750998389
-0.019587514813854342   -0.1947500053469059   -0.004537749889454587
-0.020401927494772255   -0.1666485565369372   -0.0034297207875091775
-0.03284397480204772   -0.1945280942923815   -0.004865066433411506
-0.019606929473004225   -0.19459289466982796   -0.004470690021264234
-0.020401927494772255   -0.1666485565369372   -0.0034297207875091775
-0.03604632105482947   -0.1664410533440295   -0.00380142130952267
-0.03284397480204772   -0.1945280942923815   -0.004865066433411506
-0.036147114768325106   -0.16629888381767327   -0.0035789504807261646
-0.019606929473004225   -0.19459289466982796   -0.004470690021264234
-0.032837464097497826   -0.19442424204771785   -0.004615338130489201
-0.036147114768325106   -0.16629888381767327   -0.0035789504807261646
-0.03284397480204772   -0.1945280942923815   -0.004865066433411506
-0.019606929473004225   -0.19459289466982796   -0.004470690021264234
-0.036147114768325106   -0.16629888381767327   -0.0035789504807261646
-0.020530236012664335   -0.16644812692406338   -0.00333964805229389
-0.020401927494772255   -0.1666485565369372   -0.0034297207875091775
-0.019606929473004225   -0.19459289466982796   -0.004470690021264234
-0.036147114768325106   -0.16629888381767327   -0.0035789504807261646
-0.020401927494772255   -0.1666485565369372   -0.0034297207875091775
-0.03284397480204772   -0.1945280942923815   -0.004865066433411506
-0.03284238168948866   -0.19503262996890627   -0.005288834280388606
-0.035830249756456746   -0.16694021651826296   -0.004176695540788622
-0.04651521810058634   -0.1943746089047772   -0.005885384479739938
-0.03285450093177345   -0.1947302946607096   -0.005089817750998389
-0.035830249756456746   -0.16694021651826296   -0.004176695540788622
-0.05185178598585885   -0.16637710655977206   -0.004709504898288327
-0.04651521810058634   -0.1943746089047772   -0.005885384479739938
-0.051949943136638664   -0.16615151641814654   -0.004399136570136521
-0.03285450093177345   -0.1947302946607096   -0.005089817750998389
-0.04649983602809727   -0.1941270243519122   -0.005501161070332378
-0.051949943136638664   -0.16615151641814654   -0.004399136570136521
-0.04651521810058634   -0.1943746089047772   -0.005885384479739938
-0.03285450093177345   -0.1947302946607096   -0.005089817750998389
-0.051949943136638664   -0.16615151641814654   -0.004399136570136521
-0.035948315776731916   -0.16665473382494256   -0.004000905021446865
-0.035830249756456746   -0.16694021651826296   -0.004176695540788622
-0.03285450093177345   -0.1947302946607096   -0.005089817750998389
-0.051949943136638664   -0.16615151641814654   -0.004399136570136521
-0.035830249756456746   -0.16694021651826296   -0.004176695540788622
-0.04651521810058634   -0.1943746089047772   -0.005885384479739938
-0.03285450093177345   -0.1947302946607096   -0.005089817750998389
-0.035948315776731916   -0.16665473382494256   -0.004000905021446865
-0.04649983602809727   -0.1941270243519122   -0.005501161070332378
-0.03284397480204772   -0.1945280942923815   -0.004865066433411506
-0.035948315776731916   -0.16665473382494256   -0.004000905021446865
-0.051949943136638664   -0.16615151641814654   -0.004399136570136521
-0.04649983602809727   -0.1941270243519122   -0.005501161070332378
-0.05196415276916053   -0.1659931261331932   -0.004068357996738699
-0.03284397480204772   -0.1945280942923815   -0.004865066433411506
-0.04638616591194736   -0.19397569293452788   -0.005095072087903292
-0.05196415276916053   -0.1659931261331932   -0.004068357996738699
-0.04649983602809727   -0.1941270243519122   -0.005501161070332378
-0.03284397480204772   -0.1945280942923815   -0.004865066433411506
-0.05196415276916053   -0.1659931261331932   -0.004068357996738699
-0.03604632105482947   -0.1664410533440295   -0.00380142130952267
-0.035948315776731916   -0.16665473382494256   -0.004000905021446865
-0.03284397480204772   -0.1945280942923815   -0.004865066433411506
-0.05196415276916053   -0.1659931261331932   -0.004068357996738699
-0.035948315776731916   -0.16665473382494256   -0.004000905021446865
-0.04649983602809727   -0.1941270243519122   -0.005501161070332378
-0.03284397480204772   -0.1945280942923815   -0.004865066433411506
-0.03604632105482947   -0.1664410533440295   -0.00380142130952267
-0.04638616591194736   -0.19397569293452788   -0.005095072087903292
-0.032837464097497826   -0.19442424204771785   -0.004615338130489201
-0.03604632105482947   -0.1664410533440295   -0.00380142130952267
-0.05196415276916053   -0.1659931261331932   -0.004068357996738699
-0.04638616591194736   -0.19397569293452788   -0.005095072087903292
-0.052001806413187704   -0.1659126374291333   -0.0037128603013681346
-0.032837464097497826   -0.19442424204771785   -0.004615338130489201
-0.04630996397026278   -0.19393094456431126   -0.004662015262156857
-0.052001806413187704   -0.1659126374291333   -0.0037128603013681346
-0.04638616591194736   -0.19397569293452788   -0.005095072087903292
-0.032837464097497826   -0.19442424204771785   -0.004615338130489201
-0.052001806413187704   -0.1659126374291333   -0.0037128603013681346
-0.036147114768325106   -0.16629888381767327   -0.0035789504807261646
-0.03604632105482947   -0.1664410533440295   -0.00380142130952267
-0.032837464097497826   -0.19442424204771785   -0.004615338130489201
-0.052001806413187704   -0.1659126374291333   -0.0037128603013681346
-0.03604632105482947   -0.1664410533440295   -0.00380142130952267
-0.04638616591194736   -0.19397569293452788   -0.005095072087903292
-0.04651521810058634   -0.1943746089047772   -0.005885384479739938
-0.05185178598585885   -0.16637710655977206   -0.004709504898288327
-0.06178711457765932   -0.19346966413944033   -0.006422327889279886
-0.04649983602809727   -0.1941270243519122   -0.005501161070332378
-0.05185178598585885   -0.16637710655977206   -0.004709504898288327
-0.06932022872461292   -0.16564035459536727   -0.005164546269714451
-0.06178711457765932   -0.19346966413944033   -0.006422327889279886
-0.06899150469933463   -0.16543430853169638   -0.0047124706415669895
-0.04649983602809727   -0.1941270243519122   -0.005501161070332378
-0.06122141028536009   -0.1932271686696129   -0.005835134731762291
-0.06899150469933463   -0.16543430853169638   -0.0047124706415669895
-0.06178711457765932   -0.19346966413944033   -0.006422327889279886
-0.04649983602809727   -0.1941270243519122   -0.005501161070332378
-0.06899150469933463   -0.16543430853169638   -0.0047124706415669895
-0.051949943136638664   -0.16615151641814654   -0.004399136570136521
-0.05185178598585885   -0.16637710655977206   -0.004709504898288327
-0.04649983602809727   -0.1941270243519122   -0.005501161070332378
-0.06899150469933463   -0.16543430853169638   -0.0047124706415669895
-0.05185178598585885   -0.16637710655977206   -0.004709504898288327
-0.06178711457765932   -0.19346966413944033   -0.006422327889279886
-0.04649983602809727   -0.1941270243519122   -0.005501161070332378
-0.051949943136638664   -0.16615151641814654   -0.004399136570136521
-0.06122141028536009   -0.1932271686696129   -0.005835134731762291
-0.04638616591194736   -0.19397569293452788   -0.005095072087903292
-0.051949943136638664   -0.16615151641814654   -0.004399136570136521
-0.06899150469933463   -0.16543430853169638   -0.0047124706415669895
-0.06122141028536009   -0.1932271686696129   -0.005835134731762291
-0.06871402286216997   -0.16529932893687166   -0.004224799440711304
-0.04638616591194736   -0.19397569293452788   -0.005095072087903292
-0.06073689134904692   -0.19309436219815088   -0.00521125690890229
-0.06871402286216997   -0.16529932893687166   -0.004224799440711304
-0.06122141028536009   -0.1932271686696129   -0.005835134731762291
-0.04638616591194736   -0.19397569293452788   -0.005095072087903292
-0.06871402286216997   -0.16529932893687166   -0.004224799440711304
-0.05196415276916053   -0.1659931261331932   -0.004068357996738699
-0.051949943136638664   -0.16615151641814654   -0.004399136570136521
-0.04638616591194736   -0.19397569293452788   -0.005095072087903292
-0.06871402286216997   -0.16529932893687166   -0.004224799440711304
-0.051949943136638664   -0.16615151641814654   -0.004399136570136521
-0.06122141028536009   -0.1932271686696129   -0.005835134731762291
-0.04638616591194736   -0.19397569293452788   -0.005095072087903292
-0.05196415276916053   -0.1659931261331932   -0.004068357996738699
-0.06073689134904692   -0.19309436219815088   -0.00521125690890229
-0.04630996397026278   -0.19393094456431126   -0.004662015262156857
-0.05196415276916053   -0.1659931261331932   -0.004068357996738699
-0.06871402286216997   -0.16529932893687166   -0.004224799440711304
-0.06073689134904692   -0.19309436219815088   -0.00521125690890229
-0.06825419477258934   -0.16529702763473936   -0.003705957979874716
-0.04630996397026278   -0.19393094456431126   -0.004662015262156857
-0.060036659925775976   -0.19313088003987056   -0.004555691145232235
-0.06825419477258934   -0.16529702763473936   -0.003705957979874716
-0.06073689134904692   -0.19309436219815088   -0.00521125690890229
-0.04630996397026278   -0.19393094456431126   -0.004662015262156857
-0.06825419477258934   -0.16529702763473936   -0.003705957979874716
-0.052001806413187704   -0.1659126374291333   -0.0037128603013681346
-0.05196415276916053   -0.1659931261331932   -0.004068357996738699
-0.04630996397026278   -0.19393094456431126   -0.004662015262156857
-0.06825419477258934   -0.16529702763473936   -0.003705957979874716
-0.05196415276916053   -0.1659931261331932   -0.004068357996738699
-0.06073689134904692   -0.19309436219815088   -0.00521125690890229
0.012351964852843782   -0.16719071660048768   -0.0018968357387870573
0.014783297432048325   -0.13600895318020265   -0.0009627987715745338
-0.004261596279985014   -0.1673579797724559   -0.002796668540674802
0.012508519639265057   -0.16671077317233635   -0.0021645857897332993
0.014783297432048325   -0.13600895318020265   -0.0009627987715745338
-0.003635118281152418   -0.13600185184234725   -0.0017979481860380378
-0.004261596279985014   -0.1673579797724559   -0.002796668540674802
-0.0038022338042580724   -0.1356012725483909   -0.0018086821553746125
0.012508519639265057   -0.16671077317233635   -0.0021645857897332993
-0.004341539448920251   -0.1669441626340587   -0.002887061079009442
-0.0038022338042580724   -0.1356012725483909   -0.0018086821553746125
-0.004261596279985014   -0.1673579797724559   -0.002796668540674802
0.012508519639265057   -0.16671077317233635   -0.0021645857897332993
-0.0038022338042580724   -0.1356012725483909   -0.0018086821553746125
0.014724653490771362   -0.13554925838880977   -0.0010891575601726657
0.014783297432048325   -0.13600895318020265   -0.0009627987715745338
0.012508519639265057   -0.16671077317233635   -0.0021645857897332993
-0.0038022338042580724   -0.1356012725483909   -0.0018086821553746125
0.014783297432048325   -0.13600895318020265   -0.0009627987715745338
-0.004261596279985014   -0.1673579797724559   -0.002796668540674802
0.012508519639265057   -0.16671077317233635   -0.0021645857897332993
0.014724653490771362   -0.13554925838880977   -0.0010891575601726657
-0.004341539448920251   -0.1669441626340587   -0.002887061079009442
0.012553496879934418   -0.16635862636493412   -0.0023977808937335923
0.014724653490771362   -0.13554925838880977   -0.0010891575601726657
-0.0038022338042580724   -0.1356012725483909   -0.0018086821553746125
-0.004341539448920251   -0.1669441626340587   -0.002887061079009442
-0.003987885076564551   -0.13525482391036417   -0.0017987224051971696
0.012553496879934418   -0.16635862636493412   -0.0023977808937335923
-0.004425775157941239   -0.1666148950928682   -0.0029540165310645533
-0.003987885076564551   -0.13525482391036417   -0.0017987224051971696
-0.004341539448920251   -0.1669441626340587   -0.002887061079009442
0.012553496879934418   -0.16635862636493412   -0.0023977808937335923
-0.003987885076564551   -0.13525482391036417   -0.0017987224051971696
0.014587628482601991   -0.13517715650425308   -0.0011823486080716813
0.014724653490771362   -0.13554925838880977   -0.0010891575601726657
0.012553496879934418   -0.16635862636493412   -0.0023977808937335923
-0.003987885076564551   -0.13525482391036417   -0.0017987224051971696
0.014724653490771362   -0.13554925838880977   -0.0010891575601726657
-0.004341539448920251   -0.1669441626340587   -0.002887061079009442
0.012553496879934418   -0.16635862636493412   -0.0023977808937335923
0.014587628482601991   -0.13517715650425308   -0.0011823486080716813
-0.004425775157941239   -0.1666148950928682   -0.0029540165310645533
0.01257583659964912   -0.166073092827685   -0.002598045147806837
0.014587628482601991   -0.13517715650425308   -0.0011823486080716813
-0.003987885076564551   -0.13525482391036417   -0.0017987224051971696
-0.004425775157941239   -0.1666148950928682   -0.0029540165310645533
-0.00421746939467671   -0.13495366617930393   -0.0017672531341154153
0.01257583659964912   -0.166073092827685   -0.002598045147806837
-0.004567583720860147   -0.16635997686220205   -0.0029983323204772427
-0.00421746939467671   -0.13495366617930393   -0.0017672531341154153
-0.004425775157941239   -0.1666148950928682   -0.0029540165310645533
0.01257583659964912   -0.166073092827685   -0.002598045147806837
-0.00421746939467671   -0.13495366617930393   -0.0017672531341154153
0.014397136591840148   -0.13483295545690424   -0.0012446872964743414
0.014587628482601991   -0.13517715650425308   -0.0011823486080716813
0.01257583659964912   -0.166073092827685   -0.002598045147806837
-0.00421746939467671   -0.13495366617930393   -0.0017672531341154153
0.014587628482601991   -0.13517715650425308   -0.0011823486080716813
-0.004425775157941239   -0.1666148950928682   -0.0029540165310645533
-0.004261596279985014   -0.1673579797724559   -0.002796668540674802
-0.003635118281152418   -0.13600185184234725   -0.0017979481860380378
-0.020181076251128395   -0.16726939621388623   -0.0035398169629761995
-0.004341539448920251   -0.1669441626340587   -0.002887061079009442
-0.003635118281152418   -0.13600185184234725   -0.0017979481860380378
-0.021200463064892226   -0.13583465417715168   -0.0024896783948093484
-0.020181076251128395   -0.16726939621388623   -0.0035398169629761995
-0.021386622647358352   -0.13550109536458838   -0.002417487417592682
-0.004341539448920251   -0.1669441626340587   -0.002887061079009442
-0.02029075438917287   -0.1669227270162056   -0.003496822251577593
-0.021386622647358352   -0.13550109536458838   -0.002417487417592682
-0.020181076251128395   -0.16726939621388623   -0.0035398169629761995
-0.004341539448920251   -0.1669441626340587   -0.002887061079009442
-0.021386622647358352   -0.13550109536458838   -0.002417487417592682
-0.0038022338042580724   -0.1356012725483909   -0.0018086821553746125
-0.003635118281152418   -0.13600185184234725   -0.0017979481860380378
-0.004341539448920251   -0.1669441626340587   -0.002887061079009442
-0.021386622647358352   -0.13550109536458838   -0.002417487417592682
-0.003635118281152418   -0.13600185184234725   -0.0017979481860380378
-0.020181076251128395   -0.16726939621388623   -0.0035398169629761995
-0.004341539448920251   -0.1669441626340587   -0.002887061079009442
-0.0038022338042580724   -0.1356012725483909   -0.0018086821553746125
-0.02029075438917287   -0.1669227270162056   -0.003496822251577593
-0.004425775157941239   -0.1666148950928682   -0.0029540165310645533
-0.0038022338042580724   -0.1356012725483909   -0.0018086821553746125
-0.021386622647358352   -0.13550109536458838   -0.002417487417592682
-0.02029075438917287   -0.1669227270162056   -0.003496822251577593
-0.021576469655841906   -0.13521160881879052   -0.0023237634454503636
-0.004425775157941239   -0.1666148950928682   -0.0029540165310645533
-0.020401927494772255   -0.1666485565369372   -0.0034297207875091775
-0.021576469655841906   -0.13521160881879052   -0.0023237634454503636
-0.02029075438917287   -0.1669227270162056   -0.003496822251577593
-0.004425775157941239   -0.1666148950928682   -0.0029540165310645533
-0.021576469655841906   -0.13521160881879052   -0.0023237634454503636
-0.003987885076564551   -0.13525482391036417   -0.0017987224051971696
-0.0038022338042580724   -0.1356012725483909   -0.0018086821553746125
-0.004425775157941239   -0.1666148950928682   -0.0029540165310645533
-0.021576469655841906   -0.13521160881879052   -0.0023237634454503636
-0.0038022338042580724   -0.1356012725483909   -0.0018086821553746125
-0.02029075438917287   -0.1669227270162056   -0.003496822251577593
-0.004425775157941239   -0.1666148950928682   -0.0029540165310645533
-0.003987885076564551   -0.13525482391036417   -0.0017987224051971696
-0.020401927494772255   -0.1666485565369372   -0.0034297207875091775
-0.004567583720860147   -0.16635997686220205   -0.0029983323204772427
-0.003987885076564551   -0.13525482391036417   -0.0017987224051971696
-0.021576469655841906   -0.13521160881879052   -0.0023237634454503636
-0.020401927494772255   -0.1666485565369372   -0.0034297207875091775
-0.021782231622783817   -0.1349688605432538   -0.0022094900470636353
-0.004567583720860147   -0.16635997686220205   -0.0029983323204772427
-0.020530236012664335   -0.16644812692406338   -0.00333964805229389
-0.021782231622783817   -0.1349688605432538   -0.0022094900470636353
-0.020401927494772255   -0.1666485565369372   -0.0034297207875091775
-0.004567583720860147   -0.16635997686220205   -0.0029983323204772427
-0.021782231622783817   -0.1349688605432538   -0.0022094900470636353
-0.00421746939467671   -0.13495366617930393   -0.0017672531341154153
-0.003987885076564551   -0.13525482391036417   -0.0017987224051971696
-0.004567583720860147   -0.16635997686220205   -0.0029983323204772427
-0.021782231622783817   -0.1349688605432538   -0.0022094900470636353
-0.003987885076564551   -0.13525482391036417   -0.0017987224051971696
-0.020401927494772255   -0.1666485565369372   -0.0034297207875091775
-0.020181076251128395   -0.16726939621388623   -0.0035398169629761995
-0.021200463064892226   -0.13583465417715168   -0.0024896783948093484
-0.035830249756456746   -0.16694021651826296   -0.004176695540788622
-0.02029075438917287   -0.1669227270162056   -0.003496822251577593
-0.021200463064892226   -0.13583465417715168   -0.0024896783948093484
-0.038468675582882625   -0.13552486236625103   -0.003074628106902053
-0.035830249756456746   -0.16694021651826296   -0.004176695540788622
-0.03866003757355374   -0.1352532575719287   -0.002919583977711561
-0.02029075438917287   -0.1669227270162056   -0.003496822251577593
-0.035948315776731916   -0.16665473382494256   -0.004000905021446865
-0.03866003757355374   -0.1352532575719287   -0.002919583977711561
-0.035830249756456746   -0.16694021651826296   -0.004176695540788622
-0.02029075438917287   -0.1669227270162056   -0.003496822251577593
-0.03866003757355374   -0.1352532575719287   -0.002919583977711561
-0.021386622647358352   -0.13550109536458838   -0.002417487417592682
-0.021200463064892226   -0.13583465417715168   -0.0024896783948093484
-0.02029075438917287   -0.1669227270162056   -0.003496822251577593
-0.03866003757355374   -0.1352532575719287   -0.002919583977711561
-0.021200463064892226   -0.13583465417715168   -0.0024896783948093484
-0.035830249756456746   -0.16694021651826296   -0.004176695540788622
-0.02029075438917287   -0.1669227270162056   -0.003496822251577593
-0.021386622647358352   -0.13550109536458838   -0.002417487417592682
-0.035948315776731916   -0.16665473382494256   -0.004000905021446865
-0.020401927494772255   -0.1666485565369372   -0.0034297207875091775
-0.021386622647358352   -0.13550109536458838   -0.002417487417592682
-0.03866003757355374   -0.1352532575719287   -0.002919583977711561
-0.035948315776731916   -0.16665473382494256   -0.004000905021446865
-0.038833775717636417   -0.13502541270805968   -0.0027435003532315203
-0.020401927494772255   -0.1666485565369372   -0.0034297207875091775
-0.03604632105482947   -0.1664410533440295   -0.00380142130952267
-0.038833775717636417   -0.13502541270805968   -0.0027435003532315203
-0.035948315776731916   -0.16665473382494256   -0.004000905021446865
-0.020401927494772255   -0.1666485565369372   -0.0034297207875091775
-0.038833775717636417   -0.13502541270805968   -0.0027435003532315203
-0.021576469655841906   -0.13521160881879052   -0.0023237634454503636
-0.021386622647358352   -0.13550109536458838   -0.002417487417592682
-0.020401927494772255   -0.1666485565369372   -0.0034297207875091775
-0.038833775717636417   -0.13502541270805968   -0.0027435003532315203
-0.021386622647358352   -0.13550109536458838   -0.002417487417592682
-0.035948315776731916   -0.16665473382494256   -0.004000905021446865
-0.020401927494772255   -0.1666485565369372   -0.0034297207875091775
-0.021576469655841906   -0.13521160881879052   -0.0023237634454503636
-0.03604632105482947   -0.1664410533440295   -0.00380142130952267
-0.020530236012664335   -0.16644812692406338   -0.00333964805229389
-0.021576469655841906   -0.13521160881879052   -0.0023237634454503636
-0.038833775717636417   -0.13502541270805968   -0.0027435003532315203
-0.03604632105482947   -0.1664410533440295   -0.00380142130952267
-0.03900914246824545   -0.13484173162838717   -0.0025471894250797492
-0.020530236012664335   -0.16644812692406338   -0.00333964805229389
-0.036147114768325106   -0.16629888381767327   -0.0035789504807261646
-0.03900914246824545   -0.13484173162838717   -0.0025471894250797492
-0.03604632105482947   -0.1664410533440295   -0.00380142130952267
-0.020530236012664335   -0.16644812692406338   -0.00333964805229389
-0.03900914246824545   -0.13484173162838717   -0.0025471894250797492
-0.021782231622783817   -0.1349688605432538   -0.0022094900470636353
-0.021576469655841906   -0.13521160881879052   -0.0023237634454503636
-0.020530236012664335   -0.16644812692406338   -0.00333964805229389
-0.03900914246824545   -0.13484173162838717   -0.0025471894250797492
-0.021576469655841906   -0.13521160881879052   -0.0023237634454503636
-0.03604632105482947   -0.1664410533440295   -0.00380142130952267
-0.035830249756456746   -0.16694021651826296   -0.004176695540788622
-0.038468675582882625   -0.13552486236625103   -0.003074628106902053
-0.05185178598585885   -0.16637710655977206   -0.004709504898288327
-0.035948315776731916   -0.16665473382494256   -0.004000905021446865
-0.038468675582882625   -0.13552486236625103   -0.003074628106902053
-0.05607828866263797   -0.1350658420712283   -0.00355394944744
-0.05185178598585885   -0.16637710655977206   -0.004709504898288327
-0.056256239934863325   -0.13485679396777261   -0.0033154328484938885
-0.035948315776731916   -0.16665473382494256   -0.004000905021446865
-0.051949943136638664   -0.16615151641814654   -0.004399136570136521
-0.056256239934863325   -0.13485679396777261   -0.0033154328484938885
-0.05185178598585885   -0.16637710655977206   -0.004709504898288327
-0.035948315776731916   -0.16665473382494256   -0.004000905021446865
-0.056256239934863325   -0.13485679396777261   -0.0033154328484938885
-0.03866003757355374   -0.1352532575719287   -0.002919583977711561
-0.038468675582882625   -0.13552486236625103   -0.003074628106902053
-0.035948315776731916   -0.16665473382494256   -0.004000905021446865
-0.056256239934863325   -0.13485679396777261   -0.0033154328484938885
-0.038468675582882625   -0.13552486236625103   -0.003074628106902053
-0.05185178598585885   -0.16637710655977206   -0.004709504898288327
-0.035948315776731916   -0.16665473382494256   -0.004000905021446865
-0.03866003757355374   -0.1352532575719287   -0.002919583977711561
-0.051949943136638664   -0.16615151641814654   -0.004399136570136521
-0.03604632105482947   -0.1664410533440295   -0.00380142130952267
-0.03866003757355374   -0.1352532575719287   -0.002919583977711561
-0.056256239934863325   -0.13485679396777261   -0.0033154328484938885
-0.051949943136638664   -0.16615151641814654   -0.004399136570136521
-0.056365064717624314   -0.13468571172834853   -0.0030587380854413776
-0.03604632105482947   -0.1664410533440295   -0.00380142130952267
-0.05196415276916053   -0.1659931261331932   -0.004068357996738699
-0.056365064717624314   -0.13468571172834853   -0.0030587380854413776
-0.051949943136638664   -0.16615151641814654   -0.004399136570136521
-0.03604632105482947   -0.1664410533440295   -0.00380142130952267
-0.056365064717624314   -0.13468571172834853   -0.0030587380854413776
-0.038833775717636417   -0.13502541270805968   -0.0027435003532315203
-0.03866003757355374   -0.1352532575719287   -0.002919583977711561
-0.03604632105482947   -0.1664410533440295   -0.00380142130952267
-0.056365064717624314   -0.13468571172834853   -0.0030587380854413776
-0.03866003757355374   -0.1352532575719287   -0.002919583977711561
-0.051949943136638664   -0.16615151641814654   -0.004399136570136521
-0.03604632105482947   -0.1664410533440295   -0.00380142130952267
-0.038833775717636417   -0.13502541270805968   -0.0027435003532315203
-0.05196415276916053   -0.1659931261331932   -0.004068357996738699
-0.036147114768325106   -0.16629888381767327   -0.0035789504807261646
-0.038833775717636417   -0.13502541270805968   -0.0027435003532315203
-0.056365064717624314   -0.13468571172834853   -0.0030587380854413776
-0.05196415276916053   -0.1659931261331932   -0.004068357996738699
-0.056484056809444294   -0.13456257239034877   -0.00278009588464318
-0.036147114768325106   -0.16629888381767327   -0.0035789504807261646
-0.052001806413187704   -0.1659126374291333   -0.0037128603013681346
-0.056484056809444294   -0.13456257239034877   -0.00278009588464318
-0.05196415276916053   -0.1659931261331932   -0.004068357996738699
-0.036147114768325106   -0.16629888381767327   -0.0035789504807261646
-0.056484056809444294   -0.13456257239034877   -0.00278009588464318
-0.03900914246824545   -0.13484173162838717   -0.0025471894250797492
-0.038833775717636417   -0.13502541270805968   -0.0027435003532315203
-0.036147114768325106   -0.16629888381767327   -0.0035789504807261646
-0.056484056809444294   -0.13456257239034877   -0.00278009588464318
-0.038833775717636417   -0.13502541270805968   -0.0027435003532315203
-0.05196415276916053   -0.1659931261331932   -0.004068357996738699
-0.05185178598585885   -0.16637710655977206   -0.004709504898288327
-0.05607828866263797   -0.1350658420712283   -0.00355394944744
-0.06932022872461292   -0.16564035459536727   -0.005164546269714451
-0.051949943136638664   -0.16615151641814654   -0.004399136570136521
-0.05607828866263797   -0.1350658420712283   -0.00355394944744
-0.0749729532659454   -0.134502945161596   -0.003935974374617684
-0.06932022872461292   -0.16564035459536727   -0.005164546269714451
-0.07484852828275025   -0.13432615147393345   -0.0036193201039414697
-0.051949943136638664   -0.16615151641814654   -0.004399136570136521
-0.06899150469933463   -0.16543430853169638   -0.0047124706415669895
-0.07484852828275025   -0.13432615147393345   -0.0036193201039414697
-0.06932022872461292   -0.16564035459536727   -0.005164546269714451
-0.051949943136638664   -0.16615151641814654   -0.004399136570136521
-0.07484852828275025   -0.13432615147393345   -0.0036193201039414697
-0.056256239934863325   -0.13485679396777261   -0.0033154328484938885
-0.05607828866263797   -0.1350658420712283   -0.00355394944744
-0.051949943136638664   -0.16615151641814654   -0.004399136570136521
-0.07484852828275025   -0.13432615147393345   -0.0036193201039414697
-0.05607828866263797   -0.1350658420712283   -0.00355394944744
-0.06932022872461292   -0.16564035459536727   -0.005164546269714451
-0.051949943136638664   -0.16615151641814654   -0.004399136570136521
-0.056256239934863325   -0.13485679396777261   -0.0033154328484938885
-0.06899150469933463   -0.16543430853169638   -0.0047124706415669895
-0.05196415276916053   -0.1659931261331932   -0.004068357996738699
-0.056256239934863325   -0.13485679396777261   -0.0033154328484938885
-0.07484852828275025   -0.13432615147393345   -0.0036193201039414697
-0.06899150469933463   -0.16543430853169638   -0.0047124706415669895
-0.07474720895650916   -0.13418178839070305   -0.0032693137413800292
-0.05196415276916053   -0.1659931261331932   -0.004068357996738699
-0.06871402286216997   -0.16529932893687166   -0.004224799440711304
-0.07474720895650916   -0.13418178839070305   -0.0032693137413800292
-0.06899150469933463   -0.16543430853169638   -0.0047124706415669895
-0.05196415276916053   -0.1659931261331932   -0.004068357996738699
-0.07474720895650916   -0.13418178839070305   -0.0032693137413800292
-0.056365064717624314   -0.13468571172834853   -0.0030587380854413776
-0.056256239934863325   -0.13485679396777261   -0.0033154328484938885
-0.05196415276916053   -0.1659931261331932   -0.004068357996738699
-0.07474720895650916   -0.13418178839070305   -0.0032693137413800292
-0.056256239934863325   -0.13485679396777261   -0.0033154328484938885
-0.06899150469933463   -0.16543430853169638   -0.0047124706415669895
-0.05196415276916053   -0.1659931261331932   -0.004068357996738699
-0.056365064717624314   -0.13468571172834853   -0.0030587380854413776
-0.06871402286216997   -0.16529932893687166   -0.004224799440711304
-0.052001806413187704   -0.1659126374291333   -0.0037128603013681346
-0.056365064717624314   -0.13468571172834853   -0.0030587380854413776
-0.07474720895650916   -0.13418178839070305   -0.0032693137413800292
-0.06871402286216997   -0.16529932893687166   -0.004224799440711304
-0.07449851225390973   -0.13413094774370538   -0.0028897663758172933
-0.052001806413187704   -0.1659126374291333   -0.0037128603013681346
-0.06825419477258934   -0.16529702763473936   -0.003705957979874716
-0.07449851225390973   -0.13413094774370538   -0.0028897663758172933
-0.06871402286216997   -0.16529932893687166   -0.004224799440711304
-0.052001806413187704   -0.1659126374291333   -0.0037128603013681346
-0.07449851225390973   -0.13413094774370538   -0.0028897663758172933
-0.056484056809444294   -0.13456257239034877   -0.00278009588464318
-0.056365064717624314   -0.13468571172834853   -0.0030587380854413776
-0.052001806413187704   -0.1659126374291333   -0.0037128603013681346
-0.07449851225390973   -0.13413094774370538   -0.0028897663758172933
-0.056365064717624314   -0.13468571172834853   -0.0030587380854413776
-0.06871402286216997   -0.16529932893687166   -0.004224799440711304
0.014783297432048325   -0.13600895318020265   -0.0009627987715745338
0.01523324049792176   -0.10271835978825543   -0.00014408599308269213
-0.003635118281152418   -0.13600185184234725   -0.0017979481860380378
0.014724653490771362   -0.13554925838880977   -0.0010891575601726657
0.01523324049792176   -0.10271835978825543   -0.00014408599308269213
-0.004206789774001909   -0.10254441046049938   -0.0008963941450140783
-0.003635118281152418   -0.13600185184234725   -0.0017979481860380378
-0.004435072646409865   -0.10216054250502449   -0.0008278215259200858
0.014724653490771362   -0.13554925838880977   -0.0010891575601726657
-0.0038022338042580724   -0.1356012725483909   -0.0018086821553746125
-0.004435072646409865   -0.10216054250502449   -0.0008278215259200858
-0.003635118281152418   -0.13600185184234725   -0.0017979481860380378
0.014724653490771362   -0.13554925838880977   -0.0010891575601726657
-0.004435072646409865   -0.10216054250502449   -0.0008278215259200858
0.014987971844259516   -0.10227936794245714   -0.0001270816599049419
0.01523324049792176   -0.10271835978825543   -0.00014408599308269213
0.014724653490771362   -0.13554925838880977   -0.0010891575601726657
-0.004435072646409865   -0.10216054250502449   -0.0008278215259200858
0.01523324049792176   -0.10271835978825543   -0.00014408599308269213
-0.003635118281152418   -0.13600185184234725   -0.0017979481860380378
0.014724653490771362   -0.13554925838880977   -0.0010891575601726657
0.014987971844259516   -0.10227936794245714   -0.0001270816599049419
-0.0038022338042580724   -0.1356012725483909   -0.0018086821553746125
0.014587628482601991   -0.13517715650425308   -0.0011823486080716813
0.014987971844259516   -0.10227936794245714   -0.0001270816599049419
-0.004435072646409865   -0.10216054250502449   -0.0008278215259200858
-0.0038022338042580724   -0.1356012725483909   -0.0018086821553746125
-0.004696189382229118   -0.10179704083106479   -0.0007405640111219755
0.014587628482601991   -0.13517715650425308   -0.0011823486080716813
-0.003987885076564551   -0.13525482391036417   -0.0017987224051971696
-0.004696189382229118   -0.10179704083106479   -0.0007405640111219755
-0.0038022338042580724   -0.1356012725483909   -0.0018086821553746125
0.014587628482601991   -0.13517715650425308   -0.0011823486080716813
-0.004696189382229118   -0.10179704083106479   -0.0007405640111219755
0.014689254567035882   -0.10188528728389995   -7.184512988886059e-05
0.014987971844259516   -0.10227936794245714   -0.0001270816599049419
0.014587628482601991   -0.13517715650425308   -0.0011823486080716813
-0.004696189382229118   -0.10179704083106479   -0.0007405640111219755
0.014987971844259516   -0.10227936794245714   -0.0001270816599049419
-0.0038022338042580724   -0.1356012725483909   -0.0018086821553746125
0.014587628482601991   -0.13517715650425308   -0.0011823486080716813
0.014689254567035882   -0.10188528728389995   -7.184512988886059e-05
-0.003987885076564551   -0.13525482391036417   -0.0017987224051971696
0.014397136591840148   -0.13483295545690424   -0.0012446872964743414
0.014689254567035882   -0.10188528728389995   -7.184512988886059e-05
-0.004696189382229118   -0.10179704083106479   -0.0007405640111219755
-0.003987885076564551   -0.13525482391036417   -0.0017987224051971696
-0.004988682716004432   -0.10144899198580161   -0.0006299272451963361
0.014397136591840148   -0.13483295545690424   -0.0012446872964743414
-0.00421746939467671   -0.13495366617930393   -0.0017672531341154153
-0.004988682716004432   -0.10144899198580161   -0.0006299272451963361
-0.003987885076564551   -0.13525482391036417   -0.0017987224051971696
0.014397136591840148   -0.13483295545690424   -0.0012446872964743414
-0.004988682716004432   -0.10144899198580161   -0.0006299272451963361
0.014296106564855958   -0.10147215389282972   1.9876854236405988e-05
0.014689254567035882   -0.10188528728389995   -7.184512988886059e-05
0.014397136591840148   -0.13483295545690424   -0.0012446872964743414
-0.004988682716004432   -0.10144899198580161   -0.0006299272451963361
0.014689254567035882   -0.10188528728389995   -7.184512988886059e-05
-0.003987885076564551   -0.13525482391036417   -0.0017987224051971696
-0.003635118281152418   -0.13600185184234725   -0.0017979481860380378
-0.004206789774001909   -0.10254441046049938   -0.0008963941450140783
-0.021200463064892226   -0.13583465417715168   -0.0024896783948093484
-0.0038022338042580724   -0.1356012725483909   -0.0018086821553746125
-0.004206789774001909   -0.10254441046049938   -0.0008963941450140783
-0.022628015103570296   -0.10234474268248696   -0.0015356034611488307
-0.021200463064892226   -0.13583465417715168   -0.0024896783948093484
-0.022860103186349345   -0.10202256095019331   -0.0014325264279468708
-0.0038022338042580724   -0.1356012725483909   -0.0018086821553746125
-0.021386622647358352   -0.13550109536458838   -0.002417487417592682
-0.022860103186349345   -0.10202256095019331   -0.0014325264279468708
-0.021200463064892226   -0.13583465417715168   -0.0024896783948093484
-0.0038022338042580724   -0.1356012725483909   -0.0018086821553746125
-0.022860103186349345   -0.10202256095019331   -0.0014325264279468708
-0.004435072646409865   -0.10216054250502449   -0.0008278215259200858
-0.004206789774001909   -0.10254441046049938   -0.0008963941450140783
-0.0038022338042580724   -0.1356012725483909   -0.0018086821553746125
-0.022860103186349345   -0.10202256095019331   -0.0014325264279468708
-0.004206789774001909   -0.10254441046049938   -0.0008963941450140783
-0.021200463064892226   -0.13583465417715168   -0.0024896783948093484
-0.0038022338042580724   -0.1356012725483909   -0.0018086821553746125
-0.004435072646409865   -0.10216054250502449   -0.0008278215259200858
-0.021386622647358352   -0.13550109536458838   -0.002417487417592682
-0.003987885076564551   -0.13525482391036417   -0.0017987224051971696
-0.004435072646409865   -0.10216054250502449   -0.0008278215259200858
-0.022860103186349345   -0.10202256095019331   -0.0014325264279468708
-0.021386622647358352   -0.13550109536458838   -0.002417487417592682
-0.023097293989813295   -0.10171621462504518   -0.0013116867142334218
-0.003987885076564551   -0.13525482391036417   -0.0017987224051971696
-0.021576469655841906   -0.13521160881879052   -0.0023237634454503636
-0.023097293989813295   -0.10171621462504518   -0.0013116867142334218
-0.021386622647358352   -0.13550109536458838   -0.002417487417592682
-0.003987885076564551   -0.13525482391036417   -0.0017987224051971696
-0.023097293989813295   -0.10171621462504518   -0.0013116867142334218
-0.004696189382229118   -0.10179704083106479   -0.0007405640111219755
-0.004435072646409865   -0.10216054250502449   -0.0008278215259200858
-0.003987885076564551   -0.13525482391036417   -0.0017987224051971696
-0.023097293989813295   -0.10171621462504518   -0.0013116867142334218
-0.004435072646409865   -0.10216054250502449   -0.0008278215259200858
-0.021386622647358352   -0.13550109536458838   -0.002417487417592682
-0.003987885076564551   -0.13525482391036417   -0.0017987224051971696
-0.004696189382229118   -0.10179704083106479   -0.0007405640111219755
-0.021576469655841906   -0.13521160881879052   -0.0023237634454503636
-0.00421746939467671   -0.13495366617930393   -0.0017672531341154153
-0.004696189382229118   -0.10179704083106479   -0.0007405640111219755
-0.023097293989813295   -0.10171621462504518   -0.0013116867142334218
-0.021576469655841906   -0.13521160881879052   -0.0023237634454503636
-0.023349421491553918   -0.1014303133771621   -0.0011728585316545003
-0.00421746939467671   -0.13495366617930393   -0.0017672531341154153
-0.021782231622783817   -0.1349688605432538   -0.0022094900470636353
-0.023349421491553918   -0.1014303133771621   -0.0011728585316545003
-0.021576469655841906   -0.13521160881879052   -0.0023237634454503636
-0.00421746939467671   -0.13495366617930393   -0.0017672531341154153
-0.023349421491553918   -0.1014303133771621   -0.0011728585316545003
-0.004988682716004432   -0.10144899198580161   -0.0006299272451963361
-0.004696189382229118   -0.10179704083106479   -0.0007405640111219755
-0.00421746939467671   -0.13495366617930393   -0.0017672531341154153
-0.023349421491553918   -0.1014303133771621   -0.0011728585316545003
-0.004696189382229118   -0.10179704083106479   -0.0007405640111219755
-0.021576469655841906   -0.13521160881879052   -0.0023237634454503636
-0.021200463064892226   -0.13583465417715168   -0.0024896783948093484
-0.022628015103570296   -0.10234474268248696   -0.0015356034611488307
-0.038468675582882625   -0.13552486236625103   -0.003074628106902053
-0.021386622647358352   -0.13550109536458838   -0.002417487417592682
-0.022628015103570296   -0.10234474268248696   -0.0015356034611488307
-0.040751160321012975   -0.10210671103087174   -0.0020799555543233776
-0.038468675582882625   -0.13552486236625103   -0.003074628106902053
-0.04098126090758867   -0.10184186279482052   -0.00194227702236647
-0.021386622647358352   -0.13550109536458838   -0.002417487417592682
-0.03866003757355374   -0.1352532575719287   -0.002919583977711561
-0.04098126090758867   -0.10184186279482052   -0.00194227702236647
-0.038468675582882625   -0.13552486236625103   -0.003074628106902053
-0.021386622647358352   -0.13550109536458838   -0.002417487417592682
-0.04098126090758867   -0.10184186279482052   -0.00194227702236647
-0.022860103186349345   -0.10202256095019331   -0.0014325264279468708
-0.022628015103570296   -0.10234474268248696   -0.0015356034611488307
-0.021386622647358352   -0.13550109536458838   -0.002417487417592682
-0.04098126090758867   -0.10184186279482052   -0.00194227702236647
-0.022628015103570296   -0.10234474268248696   -0.0015356034611488307
-0.038468675582882625   -0.13552486236625103   -0.003074628106902053
-0.021386622647358352   -0.13550109536458838   -0.002417487417592682
-0.022860103186349345   -0.10202256095019331   -0.0014325264279468708
-0.03866003757355374   -0.1352532575719287   -0.002919583977711561
-0.021576469655841906   -0.13521160881879052   -0.0023237634454503636
-0.022860103186349345   -0.10202256095019331   -0.0014325264279468708
-0.04098126090758867   -0.10184186279482052   -0.00194227702236647
-0.03866003757355374   -0.1352532575719287   -0.002919583977711561
-0.041196561525606405   -0.10159380485635609   -0.0017874452048650276
-0.021576469655841906   -0.13521160881879052   -0.0023237634454503636
-0.038833775717636417   -0.13502541270805968   -0.0027435003532315203
-0.041196561525606405   -0.10159380485635609   -0.0017874452048650276
-0.03866003757355374   -0.1352532575719287   -0.002919583977711561
-0.021576469655841906   -0.13521160881879052   -0.0023237634454503636
-0.041196561525606405   -0.10159380485635609   -0.0017874452048650276
-0.023097293989813295   -0.10171621462504518   -0.0013116867142334218
-0.022860103186349345   -0.10202256095019331   -0.0014325264279468708
-0.021576469655841906   -0.13521160881879052   -0.0023237634454503636
-0.041196561525606405   -0.10159380485635609   -0.0017874452048650276
-0.022860103186349345   -0.10202256095019331   -0.0014325264279468708
-0.03866003757355374   -0.1352532575719287   -0.002919583977711561
-0.021576469655841906   -0.13521160881879052   -0.0023237634454503636
-0.023097293989813295   -0.10171621462504518   -0.0013116867142334218
-0.038833775717636417   -0.13502541270805968   -0.0027435003532315203
-0.021782231622783817   -0.1349688605432538   -0.0022094900470636353
-0.023097293989813295   -0.10171621462504518   -0.0013116867142334218
-0.041196561525606405   -0.10159380485635609   -0.0017874452048650276
-0.038833775717636417   -0.13502541270805968   -0.0027435003532315203
-0.04141262938520908   -0.10136324529112355   -0.0016163197972533406
-0.021782231622783817   -0.1349688605432538   -0.0022094900470636353
-0.03900914246824545   -0.13484173162838717   -0.0025471894250797492
-0.04141262938520908   -0.10136324529112355   -0.0016163197972533406
-0.038833775717636417   -0.13502541270805968   -0.0027435003532315203
-0.021782231622783817   -0.1349688605432538   -0.0022094900470636353
-0.04141262938520908   -0.10136324529112355   -0.0016163197972533406
-0.023349421491553918   -0.1014303133771621   -0.0011728585316545003
-0.023097293989813295   -0.10171621462504518   -0.0013116867142334218
-0.021782231622783817   -0.1349688605432538   -0.0022094900470636353
-0.04141262938520908   -0.10136324529112355   -0.0016163197972533406
-0.023097293989813295   -0.10171621462504518   -0.0013116867142334218
-0.038833775717636417   -0.13502541270805968   -0.0027435003532315203
-0.038468675582882625   -0.13552486236625103   -0.003074628106902053
-0.040751160321012975   -0.10210671103087174   -0.0020799555543233776
-0.05607828866263797   -0.1350658420712283   -0.00355394944744
-0.03866003757355374   -0.1352532575719287   -0.002919583977711561
-0.040751160321012975   -0.10210671103087174   -0.0020799555543233776
-0.05920069333033442   -0.10178582930152258   -0.0025248216982816795
-0.05607828866263797   -0.1350658420712283   -0.00355394944744
-0.0594211643196139   -0.10158132130909485   -0.0023529463888418475
-0.03866003757355374   -0.1352532575719287   -0.002919583977711561
-0.056256239934863325   -0.13485679396777261   -0.0033154328484938885
-0.0594211643196139   -0.10158132130909485   -0.0023529463888418475
-0.05607828866263797   -0.1350658420712283   -0.00355394944744
-0.03866003757355374   -0.1352532575719287   -0.002919583977711561
-0.0594211643196139   -0.10158132130909485   -0.0023529463888418475
-0.04098126090758867   -0.10184186279482052   -0.00194227702236647
-0.040751160321012975   -0.10210671103087174   -0.0020799555543233776
-0.03866003757355374   -0.1352532575719287   -0.002919583977711561
-0.0594211643196139   -0.10158132130909485   -0.0023529463888418475
-0.040751160321012975   -0.10210671103087174   -0.0020799555543233776
-0.05607828866263797   -0.1350658420712283   -0.00355394944744
-0.03866003757355374   -0.1352532575719287   -0.002919583977711561
-0.04098126090758867   -0.10184186279482052   -0.00194227702236647
-0.056256239934863325   -0.13485679396777261   -0.0033154328484938885
-0.038833775717636417   -0.13502541270805968   -0.0027435003532315203
-0.04098126090758867   -0.10184186279482052   -0.00194227702236647
-0.0594211643196139   -0.10158132130909485   -0.0023529463888418475
-0.056256239934863325   -0.13485679396777261   -0.0033154328484938885
-0.05958902010301113   -0.10138685758113676   -0.0021667960313643303
-0.038833775717636417   -0.13502541270805968   -0.0027435003532315203
-0.056365064717624314   -0.13468571172834853   -0.0030587380854413776
-0.05958902010301113   -0.10138685758113676   -0.0021667960313643303
-0.056256239934863325   -0.13485679396777261   -0.0033154328484938885
-0.038833775717636417   -0.13502541270805968   -0.0027435003532315203
-0.05958902010301113   -0.10138685758113676   -0.0021667960313643303
-0.041196561525606405   -0.10159380485635609   -0.0017874452048650276
-0.04098126090758867   -0.10184186279482052   -0.00194227702236647
-0.038833775717636417   -0.13502541270805968   -0.0027435003532315203
-0.05958902010301113   -0.10138685758113676   -0.0021667960313643303
-0.04098126090758867   -0.10184186279482052   -0.00194227702236647
-0.056256239934863325   -0.13485679396777261   -0.0033154328484938885
-0.038833775717636417   -0.13502541270805968   -0.0027435003532315203
-0.041196561525606405   -0.10159380485635609   -0.0017874452048650276
-0.056365064717624314   -0.13468571172834853   -0.0030587380854413776
-0.03900914246824545   -0.13484173162838717   -0.0025471894250797492
-0.041196561525606405   -0.10159380485635609   -0.0017874452048650276
-0.05958902010301113   -0.10138685758113676   -0.0021667960313643303
-0.056365064717624314   -0.13468571172834853   -0.0030587380854413776
-0.05975539865212854   -0.10121080227221081   -0.0019626046672382757
-0.03900914246824545   -0.13484173162838717   -0.0025471894250797492
-0.056484056809444294   -0.13456257239034877   -0.00278009588464318
-0.05975539865212854   -0.10121080227221081   -0.0019626046672382757
-0.056365064717624314   -0.13468571172834853   -0.0030587380854413776
-0.03900914246824545   -0.13484173162838717   -0.0025471894250797492
-0.05975539865212854   -0.10121080227221081   -0.0019626046672382757
-0.04141262938520908   -0.10136324529112355   -0.0016163197972533406
-0.041196561525606405   -0.10159380485635609   -0.0017874452048650276
-0.03900914246824545   -0.13484173162838717   -0.0025471894250797492
-0.05975539865212854   -0.10121080227221081   -0.0019626046672382757
-0.041196561525606405   -0.10159380485635609   -0.0017874452048650276
-0.056365064717624314   -0.13468571172834853   -0.0030587380854413776
-0.05607828866263797   -0.1350658420712283   -0.00355394944744
-0.05920069333033442   -0.10178582930152258   -0.0025248216982816795
-0.0749729532659454   -0.134502945161596   -0.003935974374617684
-0.056256239934863325   -0.13485679396777261   -0.0033154328484938885
-0.05920069333033442   -0.10178582930152258   -0.0025248216982816795
-0.07874765573658193   -0.10140830326705609   -0.0028569501331401665
-0.0749729532659454   -0.134502945161596   -0.003935974374617684
-0.0787854836180132   -0.10124397129209146   -0.00266837062253152
-0.056256239934863325   -0.13485679396777261   -0.0033154328484938885
-0.07484852828275025   -0.13432615147393345   -0.0036193201039414697
-0.0787854836180132   -0.10124397129209146   -0.00266837062253152
-0.0749729532659454   -0.134502945161596   -0.003935974374617684
-0.056256239934863325   -0.13485679396777261   -0.0033154328484938885
-0.0787854836180132   -0.10124397129209146   -0.00266837062253152
-0.0594211643196139   -0.10158132130909485   -0.0023529463888418475
-0.05920069333033442   -0.10178582930152258   -0.0025248216982816795
-0.056256239934863325   -0.13485679396777261   -0.0033154328484938885
-0.0787854836180132   -0.10124397129209146   -0.00266837062253152
-0.05920069333033442   -0.10178582930152258   -0.0025248216982816795
-0.0749729532659454   -0.134502945161596   -0.003935974374617684
-0.056256239934863325   -0.13485679396777261   -0.0033154328484938885
-0.0594211643196139   -0.10158132130909485   -0.0023529463888418475
-0.07484852828275025   -0.13432615147393345   -0.0036193201039414697
-0.056365064717624314   -0.13468571172834853   -0.0030587380854413776
-0.0594211643196139   -0.10158132130909485   -0.0023529463888418475
-0.0787854836180132   -0.10124397129209146   -0.00266837062253152
-0.07484852828275025   -0.13432615147393345   -0.0036193201039414697
-0.07882366993803976   -0.10107701651566135   -0.002450995524569709
-0.056365064717624314   -0.13468571172834853   -0.0030587380854413776
-0.07474720895650916   -0.13418178839070305   -0.0032693137413800292
-0.07882366993803976   -0.10107701651566135   -0.002450995524569709
-0.07484852828275025   -0.13432615147393345   -0.0036193201039414697
-0.056365064717624314   -0.13468571172834853   -0.0030587380854413776
-0.07882366993803976   -0.10107701651566135   -0.002450995524569709
-0.05958902010301113   -0.10138685758113676   -0.0021667960313643303
-0.0594211643196139   -0.10158132130909485   -0.0023529463888418475
-0.056365064717624314   -0.13468571172834853   -0.0030587380854413776
-0.07882366993803976   -0.10107701651566135   -0.002450995524569709
-0.0594211643196139   -0.10158132130909485   -0.0023529463888418475
-0.07484852828275025   -0.13432615147393345   -0.0036193201039414697
-0.056365064717624314   -0.13468571172834853   -0.0030587380854413776
-0.05958902010301113   -0.10138685758113676   -0.0021667960313643303
-0.07474720895650916   -0.13418178839070305   -0.0032693137413800292
-0.056484056809444294   -0.13456257239034877   -0.00278009588464318
-0.05958902010301113   -0.10138685758113676   -0.0021667960313643303
-0.07882366993803976   -0.10107701651566135   -0.002450995524569709
-0.07474720895650916   -0.13418178839070305   -0.0032693137413800292
-0.07875306287260254   -0.10096372142885048   -0.0022082717494816932
-0.056484056809444294   -0.13456257239034877   -0.00278009588464318
-0.07449851225390973   -0.13413094774370538   -0.0028897663758172933
-0.07875306287260254   -0.10096372142885048   -0.0022082717494816932
-0.07474720895650916   -0.13418178839070305   -0.0032693137413800292
-0.056484056809444294   -0.13456257239034877   -0.00278009588464318
-0.07875306287260254   -0.10096372142885048   -0.0022082717494816932
-0.05975539865212854   -0.10121080227221081   -0.0019626046672382757
-0.05958902010301113   -0.10138685758113676   -0.0021667960313643303
-0.056484056809444294   -0.13456257239034877   -0.00278009588464318
-0.07875306287260254   -0.10096372142885048   -0.0022082717494816932
-0.05958902010301113   -0.10138685758113676   -0.0021667960313643303
-0.07474720895650916   -0.13418178839070305   -0.0032693137413800292
0.01523324049792176   -0.10271835978825543   -0.00014408599308269213
0.013622509695021089   -0.06848070622173867   0.0004205501861445304
-0.004206789774001909   -0.10254441046049938   -0.0008963941450140783
0.014987971844259516   -0.10227936794245714   -0.0001270816599049419
0.013622509695021089   -0.06848070622173867   0.0004205501861445304
-0.00593970239392668   -0.06815527439967102   -0.00018026783150887143
-0.004206789774001909   -0.10254441046049938   -0.0008963941450140783
-0.006211116082114251   -0.0678069898429537   -3.909118001226605e-05
0.014987971844259516   -0.10227936794245714   -0.0001270816599049419
-0.004435072646409865   -0.10216054250502449   -0.0008278215259200858
-0.006211116082114251   -0.0678069898429537   -3.909118001226605e-05
-0.004206789774001909   -0.10254441046049938   -0.0008963941450140783
0.014987971844259516   -0.10227936794245714   -0.0001270816599049419
-0.006211116082114251   -0.0678069898429537   -3.909118001226605e-05
0.01319290271035341   -0.06806186118675481   0.0005980711636922372
0.013622509695021089   -0.06848070622173867   0.0004205501861445304
0.014987971844259516   -0.10227936794245714   -0.0001270816599049419
-0.006211116082114251   -0.0678069898429537   -3.909118001226605e-05
0.013622509695021089   -0.06848070622173867   0.0004205501861445304
-0.004206789774001909   -0.10254441046049938   -0.0008963941450140783
0.014987971844259516   -0.10227936794245714   -0.0001270816599049419
0.01319290271035341   -0.06806186118675481   0.0005980711636922372
-0.004435072646409865   -0.10216054250502449   -0.0008278215259200858
0.014689254567035882   -0.10188528728389995   -7.184512988886059e-05
0.01319290271035341   -0.06806186118675481   0.0005980711636922372
-0.006211116082114251   -0.0678069898429537   -3.909118001226605e-05
-0.004435072646409865   -0.10216054250502449   -0.0008278215259200858
-0.006528267539688419   -0.06743894741996607   0.0001269210427876986
0.014689254567035882   -0.10188528728389995   -7.184512988886059e-05
-0.004696189382229118   -0.10179704083106479   -0.0007405640111219755
-0.006528267539688419   -0.06743894741996607   0.0001269210427876986
-0.004435072646409865   -0.10216054250502449   -0.0008278215259200858
0.014689254567035882   -0.10188528728389995   -7.184512988886059e-05
-0.006528267539688419   -0.06743894741996607   0.0001269210427876986
0.012715231031859509   -0.06764479499007381   0.0008514147322670917
0.01319290271035341   -0.06806186118675481   0.0005980711636922372
0.014689254567035882   -0.10188528728389995   -7.184512988886059e-05
-0.006528267539688419   -0.06743894741996607   0.0001269210427876986
0.01319290271035341   -0.06806186118675481   0.0005980711636922372
-0.004435072646409865   -0.10216054250502449   -0.0008278215259200858
0.014689254567035882   -0.10188528728389995   -7.184512988886059e-05
0.012715231031859509   -0.06764479499007381   0.0008514147322670917
-0.004696189382229118   -0.10179704083106479   -0.0007405640111219755
0.014296106564855958   -0.10147215389282972   1.9876854236405988e-05
0.012715231031859509   -0.06764479499007381   0.0008514147322670917
-0.006528267539688419   -0.06743894741996607   0.0001269210427876986
-0.004696189382229118   -0.10179704083106479   -0.0007405640111219755
-0.006855903834927733   -0.06704775069334398   0.00031738059109827805
0.014296106564855958   -0.10147215389282972   1.9876854236405988e-05
-0.004988682716004432   -0.10144899198580161   -0.0006299272451963361
-0.006855903834927733   -0.06704775069334398   0.00031738059109827805
-0.004696189382229118   -0.10179704083106479   -0.0007405640111219755
0.014296106564855958   -0.10147215389282972   1.9876854236405988e-05
-0.006855903834927733   -0.06704775069334398   0.00031738059109827805
0.01213175552333281   -0.06713288402804375   0.0011299017377785225
0.012715231031859509   -0.06764479499007381   0.0008514147322670917
0.014296106564855958   -0.10147215389282972   1.9876854236405988e-05
-0.006855903834927733   -0.06704775069334398   0.00031738059109827805
0.012715231031859509   -0.06764479499007381   0.0008514147322670917
-0.004696189382229118   -0.10179704083106479   -0.0007405640111219755
-0.004206789774001909   -0.10254441046049938   -0.0008963941450140783
-0.00593970239392668   -0.06815527439967102   -0.00018026783150887143
-0.022628015103570296   -0.10234474268248696   -0.0015356034611488307
-0.004435072646409865   -0.10216054250502449   -0.0008278215259200858
-0.00593970239392668   -0.06815527439967102   -0.00018026783150887143
-0.024367083059649894   -0.06807119842979087   -0.0007606889843792932
-0.022628015103570296   -0.10234474268248696   -0.0015356034611488307
-0.024611731593667464   -0.06776622355477267   -0.0006302129296377963
-0.004435072646409865   -0.10216054250502449   -0.0008278215259200858
-0.022860103186349345   -0.10202256095019331   -0.0014325264279468708
-0.024611731593667464   -0.06776622355477267   -0.0006302129296377963
-0.022628015103570296   -0.10234474268248696   -0.0015356034611488307
-0.004435072646409865   -0.10216054250502449   -0.0008278215259200858
-0.024611731593667464   -0.06776622355477267   -0.0006302129296377963
-0.006211116082114251   -0.0678069898429537   -3.909118001226605e-05
-0.00593970239392668   -0.06815527439967102   -0.00018026783150887143
-0.004435072646409865   -0.10216054250502449   -0.0008278215259200858
-0.024611731593667464   -0.06776622355477267   -0.0006302129296377963
-0.00593970239392668   -0.06815527439967102   -0.00018026783150887143
-0.022628015103570296   -0.10234474268248696   -0.0015356034611488307
-0.004435072646409865   -0.10216054250502449   -0.0008278215259200858
-0.006211116082114251   -0.0678069898429537   -3.909118001226605e-05
-0.022860103186349345   -0.10202256095019331   -0.0014325264279468708
-0.004696189382229118   -0.10179704083106479   -0.0007405640111219755
-0.006211116082114251   -0.0678069898429537   -3.909118001226605e-05
-0.024611731593667464   -0.06776622355477267   -0.0006302129296377963
-0.022860103186349345   -0.10202256095019331   -0.0014325264279468708
-0.024864635842454415   -0.0674488140208008   -0.00048696077598799536
-0.004696189382229118   -0.10179704083106479   -0.0007405640111219755
-0.023097293989813295   -0.10171621462504518   -0.0013116867142334218
-0.024864635842454415   -0.0674488140208008   -0.00048696077598799536
-0.022860103186349345   -0.10202256095019331   -0.0014325264279468708
-0.004696189382229118   -0.10179704083106479   -0.0007405640111219755
-0.024864635842454415   -0.0674488140208008   -0.00048696077598799536
-0.006528267539688419   -0.06743894741996607   0.0001269210427876986
-0.006211116082114251   -0.0678069898429537   -3.909118001226605e-05
-0.004696189382229118   -0.10179704083106479   -0.0007405640111219755
-0.024864635842454415   -0.0674488140208008   -0.00048696077598799536
-0.006211116082114251   -0.0678069898429537   -3.909118001226605e-05
-0.022860103186349345   -0.10202256095019331   -0.0014325264279468708
-0.004696189382229118   -0.10179704083106479   -0.0007405640111219755
-0.006528267539688419   -0.06743894741996607   0.0001269210427876986
-0.023097293989813295   -0.10171621462504518   -0.0013116867142334218
-0.004988682716004432   -0.10144899198580161   -0.0006299272451963361
-0.006528267539688419   -0.06743894741996607   0.0001269210427876986
-0.024864635842454415   -0.0674488140208008   -0.00048696077598799536
-0.023097293989813295   -0.10171621462504518   -0.0013116867142334218
-0.02512775625740347   -0.06712440679998   -0.0003283405834453179
-0.004988682716004432   -0.10144899198580161   -0.0006299272451963361
-0.023349421491553918   -0.1014303133771621   -0.0011728585316545003
-0.02512775625740347   -0.06712440679998   -0.0003283405834453179
-0.023097293989813295   -0.10171621462504518   -0.0013116867142334218
-0.004988682716004432   -0.10144899198580161   -0.0006299272451963361
-0.02512775625740347   -0.06712440679998   -0.0003283405834453179
-0.006855903834927733   -0.06704775069334398   0.00031738059109827805
-0.006528267539688419   -0.06743894741996607   0.0001269210427876986
-0.004988682716004432   -0.10144899198580161   -0.0006299272451963361
-0.02512775625740347   -0.06712440679998   -0.0003283405834453179
-0.006528267539688419   -0.06743894741996607   0.0001269210427876986
-0.023097293989813295   -0.10171621462504518   -0.0013116867142334218
-0.022628015103570296   -0.10234474268248696   -0.0015356034611488307
-0.024367083059649894   -0.06807119842979087   -0.0007606889843792932
-0.040751160321012975   -0.10210671103087174   -0.0020799555543233776
-0.022860103186349345   -0.10202256095019331   -0.0014325264279468708
-0.024367083059649894   -0.06807119842979087   -0.0007606889843792932
-0.04260989190851042   -0.06804803273437883   -0.0012861405823762534
-0.040751160321012975   -0.10210671103087174   -0.0020799555543233776
-0.042843437259640106   -0.06777989704344894   -0.0011624205424032392
-0.022860103186349345   -0.10202256095019331   -0.0014325264279468708
-0.04098126090758867   -0.10184186279482052   -0.00194227702236647
-0.042843437259640106   -0.06777989704344894   -0.0011624205424032392
-0.040751160321012975   -0.10210671103087174   -0.0020799555543233776
-0.022860103186349345   -0.10202256095019331   -0.0014325264279468708
-0.042843437259640106   -0.06777989704344894   -0.0011624205424032392
-0.024611731593667464   -0.06776622355477267   -0.0006302129296377963
-0.024367083059649894   -0.06807119842979087   -0.0007606889843792932
-0.022860103186349345   -0.10202256095019331   -0.0014325264279468708
-0.042843437259640106   -0.06777989704344894   -0.0011624205424032392
-0.024367083059649894   -0.06807119842979087   -0.0007606889843792932
-0.040751160321012975   -0.10210671103087174   -0.0020799555543233776
-0.022860103186349345   -0.10202256095019331   -0.0014325264279468708
-0.024611731593667464   -0.06776622355477267   -0.0006302129296377963
-0.04098126090758867   -0.10184186279482052   -0.00194227702236647
-0.023097293989813295   -0.10171621462504518   -0.0013116867142334218
-0.024611731593667464   -0.06776622355477267   -0.0006302129296377963
-0.042843437259640106   -0.06777989704344894   -0.0011624205424032392
-0.04098126090758867   -0.10184186279482052   -0.00194227702236647
-0.04306589404509175   -0.06750662056068872   -0.001027557289049044
-0.023097293989813295   -0.10171621462504518   -0.0013116867142334218
-0.041196561525606405   -0.10159380485635609   -0.0017874452048650276
-0.04306589404509175   -0.06750662056068872   -0.001027557289049044
-0.04098126090758867   -0.10184186279482052   -0.00194227702236647
-0.023097293989813295   -0.10171621462504518   -0.0013116867142334218
-0.04306589404509175   -0.06750662056068872   -0.001027557289049044
-0.024864635842454415   -0.0674488140208008   -0.00048696077598799536
-0.024611731593667464   -0.06776622355477267   -0.0006302129296377963
-0.023097293989813295   -0.10171621462504518   -0.0013116867142334218
-0.04306589404509175   -0.06750662056068872   -0.001027557289049044
-0.024611731593667464   -0.06776622355477267   -0.0006302129296377963
-0.04098126090758867   -0.10184186279482052   -0.00194227702236647
-0.023097293989813295   -0.10171621462504518   -0.0013116867142334218
-0.024864635842454415   -0.0674488140208008   -0.00048696077598799536
-0.041196561525606405   -0.10159380485635609   -0.0017874452048650276
-0.023349421491553918   -0.1014303133771621   -0.0011728585316545003
-0.024864635842454415   -0.0674488140208008   -0.00048696077598799536
-0.04306589404509175   -0.06750662056068872   -0.001027557289049044
-0.041196561525606405   -0.10159380485635609   -0.0017874452048650276
-0.04328609410688653   -0.06722668988407386   -0.000882209254673017
-0.023349421491553918   -0.1014303133771621   -0.0011728585316545003
-0.04141262938520908   -0.10136324529112355   -0.0016163197972533406
-0.04328609410688653   -0.06722668988407386   -0.000882209254673017
-0.041196561525606405   -0.10159380485635609   -0.0017874452048650276
-0.023349421491553918   -0.1014303133771621   -0.0011728585316545003
-0.04328609410688653   -0.06722668988407386   -0.000882209254673017
-0.02512775625740347   -0.06712440679998   -0.0003283405834453179
-0.024864635842454415   -0.0674488140208008   -0.00048696077598799536
-0.023349421491553918   -0.1014303133771621   -0.0011728585316545003
-0.04328609410688653   -0.06722668988407386   -0.000882209254673017
-0.024864635842454415   -0.0674488140208008   -0.00048696077598799536
-0.041196561525606405   -0.10159380485635609   -0.0017874452048650276
-0.040751160321012975   -0.10210671103087174   -0.0020799555543233776
-0.04260989190851042   -0.06804803273437883   -0.0012861405823762534
-0.05920069333033442   -0.10178582930152258   -0.0025248216982816795
-0.04098126090758867   -0.10184186279482052   -0.00194227702236647
-0.04260989190851042   -0.06804803273437883   -0.0012861405823762534
-0.061238503853145214   -0.06794309974448838   -0.0017291171648268022
-0.05920069333033442   -0.10178582930152258   -0.0025248216982816795
-0.06146115985806589   -0.06772341160228575   -0.0016126822997726475
-0.04098126090758867   -0.10184186279482052   -0.00194227702236647
-0.0594211643196139   -0.10158132130909485   -0.0023529463888418475
-0.06146115985806589   -0.06772341160228575   -0.0016126822997726475
-0.05920069333033442   -0.10178582930152258   -0.0025248216982816795
-0.04098126090758867   -0.10184186279482052   -0.00194227702236647
-0.06146115985806589   -0.06772341160228575   -0.0016126822997726475
-0.042843437259640106   -0.06777989704344894   -0.0011624205424032392
-0.04260989190851042   -0.06804803273437883   -0.0012861405823762534
-0.04098126090758867   -0.10184186279482052   -0.00194227702236647
-0.06146115985806589   -0.06772341160228575   -0.0016126822997726475
-0.04260989190851042   -0.06804803273437883   -0.0012861405823762534
-0.05920069333033442   -0.10178582930152258   -0.0025248216982816795
-0.04098126090758867   -0.10184186279482052   -0.00194227702236647
-0.042843437259640106   -0.06777989704344894   -0.0011624205424032392
-0.0594211643196139   -0.10158132130909485   -0.0023529463888418475
-0.041196561525606405   -0.10159380485635609   -0.0017874452048650276
-0.042843437259640106   -0.06777989704344894   -0.0011624205424032392
-0.06146115985806589   -0.06772341160228575   -0.0016126822997726475
-0.0594211643196139   -0.10158132130909485   -0.0023529463888418475
-0.06165019367387761   -0.06749157036857116   -0.0014884180903782173
-0.041196561525606405   -0.10159380485635609   -0.0017874452048650276
-0.05958902010301113   -0.10138685758113676   -0.0021667960313643303
-0.06165019367387761   -0.06749157036857116   -0.0014884180903782173
-0.0594211643196139   -0.10158132130909485   -0.0023529463888418475
-0.041196561525606405   -0.10159380485635609   -0.0017874452048650276
-0.06165019367387761   -0.06749157036857116   -0.0014884180903782173
-0.04306589404509175   -0.06750662056068872   -0.001027557289049044
-0.042843437259640106   -0.06777989704344894   -0.0011624205424032392
-0.041196561525606405   -0.10159380485635609   -0.0017874452048650276
-0.06165019367387761   -0.06749157036857116   -0.0014884180903782173
-0.042843437259640106   -0.06777989704344894   -0.0011624205424032392
-0.0594211643196139   -0.10158132130909485   -0.0023529463888418475
-0.041196561525606405   -0.10159380485635609   -0.0017874452048650276
-0.04306589404509175   -0.06750662056068872   -0.001027557289049044
-0.05958902010301113   -0.10138685758113676   -0.0021667960313643303
-0.04141262938520908   -0.10136324529112355   -0.0016163197972533406
-0.04306589404509175   -0.06750662056068872   -0.001027557289049044
-0.06165019367387761   -0.06749157036857116   -0.0014884180903782173
-0.05958902010301113   -0.10138685758113676   -0.0021667960313643303
-0.061828879983172845   -0.06725337666572807   -0.0013528346779962685
-0.04141262938520908   -0.10136324529112355   -0.0016163197972533406
-0.05975539865212854   -0.10121080227221081   -0.0019626046672382757
-0.061828879983172845   -0.06725337666572807   -0.0013528346779962685
-0.05958902010301113   -0.10138685758113676   -0.0021667960313643303
-0.04141262938520908   -0.10136324529112355   -0.0016163197972533406
-0.061828879983172845   -0.06725337666572807   -0.0013528346779962685
-0.04328609410688653   -0.06722668988407386   -0.000882209254673017
-0.04306589404509175   -0.06750662056068872   -0.001027557289049044
-0.04141262938520908   -0.10136324529112355   -0.0016163197972533406
-0.061828879983172845   -0.06725337666572807   -0.0013528346779962685
-0.04306589404509175   -0.06750662056068872   -0.001027557289049044
-0.05958902010301113   -0.10138685758113676   -0.0021667960313643303
-0.05920069333033442   -0.10178582930152258   -0.0025248216982816795
-0.061238503853145214   -0.06794309974448838   -0.0017291171648268022
-0.07874765573658193   -0.10140830326705609   -0.0028569501331401665
-0.0594211643196139   -0.10158132130909485   -0.0023529463888418475
-0.061238503853145214   -0.06794309974448838   -0.0017291171648268022
-0.08074388460772529   -0.06777131173745816   -0.0020594618085737464
-0.07874765573658193   -0.10140830326705609   -0.0028569501331401665
-0.08088428182856447   -0.06758576286101653   -0.001973337839775096
-0.0594211643196139   -0.10158132130909485   -0.0023529463888418475
-0.0787854836180132   -0.10124397129209146   -0.00266837062253152
-0.08088428182856447   -0.06758576286101653   -0.001973337839775096
-0.07874765573658193   -0.10140830326705609   -0.0028569501331401665
-0.0594211643196139   -0.10158132130909485   -0.0023529463888418475
-0.08088428182856447   -0.06758576286101653   -0.001973337839775096
-0.06146115985806589   -0.06772341160228575   -0.0016126822997726475
-0.061238503853145214   -0.06794309974448838   -0.0017291171648268022
-0.0594211643196139   -0.10158132130909485   -0.0023529463888418475
-0.08088428182856447   -0.06758576286101653   -0.001973337839775096
-0.061238503853145214   -0.06794309974448838   -0.0017291171648268022
-0.07874765573658193   -0.10140830326705609   -0.0028569501331401665
-0.0594211643196139   -0.10158132130909485   -0.0023529463888418475
-0.06146115985806589   -0.06772341160228575   -0.0016126822997726475
-0.0787854836180132   -0.10124397129209146   -0.00266837062253152
-0.05958902010301113   -0.10138685758113676   -0.0021667960313643303
-0.06146115985806589   -0.06772341160228575   -0.0016126822997726475
-0.08088428182856447   -0.06758576286101653   -0.001973337839775096
-0.0787854836180132   -0.10124397129209146   -0.00266837062253152
-0.08101265756719092   -0.06737628145903815   -0.0018678363164981112
-0.05958902010301113   -0.10138685758113676   -0.0021667960313643303
-0.07882366993803976   -0.10107701651566135   -0.002450995524569709
-0.08101265756719092   -0.06737628145903815   -0.0018678363164981112
-0.0787854836180132   -0.10124397129209146   -0.00266837062253152
-0.05958902010301113   -0.10138685758113676   -0.0021667960313643303
-0.08101265756719092   -0.06737628145903815   -0.0018678363164981112
-0.06165019367387761   -0.06749157036857116   -0.0014884180903782173
-0.06146115985806589   -0.06772341160228575   -0.0016126822997726475
-0.05958902010301113   -0.10138685758113676   -0.0021667960313643303
-0.08101265756719092   -0.06737628145903815   -0.0018678363164981112
-0.06146115985806589   -0.06772341160228575   -0.0016126822997726475
-0.0787854836180132   -0.10124397129209146   -0.00266837062253152
-0.05958902010301113   -0.10138685758113676   -0.0021667960313643303
-0.06165019367387761   -0.06749157036857116   -0.0014884180903782173
-0.07882366993803976   -0.10107701651566135   -0.002450995524569709
-0.05975539865212854   -0.10121080227221081   -0.0019626046672382757
-0.06165019367387761   -0.06749157036857116   -0.0014884180903782173
-0.08101265756719092   -0.06737628145903815   -0.0018678363164981112
-0.07882366993803976   -0.10107701651566135   -0.002450995524569709
-0.08107713545208739   -0.0671826308684064   -0.0017478965770292391
-0.05975539865212854   -0.10121080227221081   -0.0019626046672382757
-0.07875306287260254   -0.10096372142885048   -0.0022082717494816932
-0.08107713545208739   -0.0671826308684064   -0.0017478965770292391
-0.07882366993803976   -0.10107701651566135   -0.002450995524569709
-0.05975539865212854   -0.10121080227221081   -0.0019626046672382757
-0.08107713545208739   -0.0671826308684064   -0.0017478965770292391
-0.061828879983172845   -0.06725337666572807   -0.0013528346779962685
-0.06165019367387761   -0.06749157036857116   -0.0014884180903782173
-0.05975539865212854   -0.10121080227221081   -0.0019626046672382757
-0.08107713545208739   -0.0671826308684064   -0.0017478965770292391
-0.06165019367387761   -0.06749157036857116   -0.0014884180903782173
-0.07882366993803976   -0.10107701651566135   -0.002450995524569709
0.013622509695021089   -0.06848070622173867   0.0004205501861445304
0.009523798640406025   -0.034350467132061684   0.0004494070470694869
-0.00593970239392668   -0.06815527439967102   -0.00018026783150887143
0.01319290271035341   -0.06806186118675481   0.0005980711636922372
0.009523798640406025   -0.034350467132061684   0.0004494070470694869
-0.008693005943118549   -0.03389883066749739   0.00021830028415441798
-0.00593970239392668   -0.06815527439967102   -0.00018026783150887143
-0.00896213870771158   -0.03371985020831427   0.00041314173286172574
0.01319290271035341   -0.06806186118675481   0.0005980711636922372
-0.006211116082114251   -0.0678069898429537   -3.909118001226605e-05
-0.00896213870771158   -0.03371985020831427   0.00041314173286172574
-0.00593970239392668   -0.06815527439967102   -0.00018026783150887143
0.01319290271035341   -0.06806186118675481   0.0005980711636922372
-0.00896213870771158   -0.03371985020831427   0.00041314173286172574
0.008685905487414042   -0.03390698528946396   0.0009329924885294281
0.009523798640406025   -0.034350467132061684   0.0004494070470694869
0.01319290271035341   -0.06806186118675481   0.0005980711636922372
-0.00896213870771158   -0.03371985020831427   0.00041314173286172574
0.009523798640406025   -0.034350467132061684   0.0004494070470694869
-0.00593970239392668   -0.06815527439967102   -0.00018026783150887143
0.01319290271035341   -0.06806186118675481   0.0005980711636922372
0.008685905487414042   -0.03390698528946396   0.0009329924885294281
-0.006211116082114251   -0.0678069898429537   -3.909118001226605e-05
0.012715231031859509   -0.06764479499007381   0.0008514147322670917
0.008685905487414042   -0.03390698528946396   0.0009329924885294281
-0.00896213870771158   -0.03371985020831427   0.00041314173286172574
-0.006211116082114251   -0.0678069898429537   -3.909118001226605e-05
-0.009314368201575331   -0.03340610391505707   0.000649308982429584
0.012715231031859509   -0.06764479499007381   0.0008514147322670917
-0.006528267539688419   -0.06743894741996607   0.0001269210427876986
-0.009314368201575331   -0.03340610391505707   0.000649308982429584
-0.006211116082114251   -0.0678069898429537   -3.909118001226605e-05
0.012715231031859509   -0.06764479499007381   0.0008514147322670917
-0.009314368201575331   -0.03340610391505707   0.000649308982429584
0.00819459264971842   -0.03354186999614798   0.0012946986955607797
0.008685905487414042   -0.03390698528946396   0.0009329924885294281
0.012715231031859509   -0.06764479499007381   0.0008514147322670917
-0.009314368201575331   -0.03340610391505707   0.000649308982429584
0.008685905487414042   -0.03390698528946396   0.0009329924885294281
-0.006211116082114251   -0.0678069898429537   -3.909118001226605e-05
0.012715231031859509   -0.06764479499007381   0.0008514147322670917
0.00819459264971842   -0.03354186999614798   0.0012946986955607797
-0.006528267539688419   -0.06743894741996607   0.0001269210427876986
0.01213175552333281   -0.06713288402804375   0.0011299017377785225
0.00819459264971842   -0.03354186999614798   0.0012946986955607797
-0.009314368201575331   -0.03340610391505707   0.000649308982429584
-0.006528267539688419   -0.06743894741996607   0.0001269210427876986
-0.009609850312359317   -0.03306785761875962   0.0008572936086313938
0.01213175552333281   -0.06713288402804375   0.0011299017377785225
-0.006855903834927733   -0.06704775069334398   0.00031738059109827805
-0.009609850312359317   -0.03306785761875962   0.0008572936086313938
-0.006528267539688419   -0.06743894741996607   0.0001269210427876986
0.01213175552333281   -0.06713288402804375   0.0011299017377785225
-0.009609850312359317   -0.03306785761875962   0.0008572936086313938
0.007566022746201187   -0.03298604629283437   0.0017084795980021336
0.00819459264971842   -0.03354186999614798   0.0012946986955607797
0.01213175552333281   -0.06713288402804375   0.0011299017377785225
-0.009609850312359317   -0.03306785761875962   0.0008572936086313938
0.00819459264971842   -0.03354186999614798   0.0012946986955607797
-0.006528267539688419   -0.06743894741996607   0.0001269210427876986
-0.00593970239392668   -0.06815527439967102   -0.00018026783150887143
-0.008693005943118549   -0.03389883066749739   0.00021830028415441798
-0.024367083059649894   -0.06807119842979087   -0.0007606889843792932
-0.006211116082114251   -0.0678069898429537   -3.909118001226605e-05
-0.008693005943118549   -0.03389883066749739   0.00021830028415441798
-0.02604985131088499   -0.03439540291507649   -0.00024685155031401113
-0.024367083059649894   -0.06807119842979087   -0.0007606889843792932
-0.026296352186972106   -0.03412522915119198   -0.00010937173476799771
-0.006211116082114251   -0.0678069898429537   -3.909118001226605e-05
-0.024611731593667464   -0.06776622355477267   -0.0006302129296377963
-0.026296352186972106   -0.03412522915119198   -0.00010937173476799771
-0.024367083059649894   -0.06807119842979087   -0.0007606889843792932
-0.006211116082114251   -0.0678069898429537   -3.909118001226605e-05
-0.026296352186972106   -0.03412522915119198   -0.00010937173476799771
-0.00896213870771158   -0.03371985020831427   0.00041314173286172574
-0.008693005943118549   -0.03389883066749739   0.00021830028415441798
-0.006211116082114251   -0.0678069898429537   -3.909118001226605e-05
-0.026296352186972106   -0.03412522915119198   -0.00010937173476799771
-0.008693005943118549   -0.03389883066749739   0.00021830028415441798
-0.024367083059649894   -0.06807119842979087   -0.0007606889843792932
-0.006211116082114251   -0.0678069898429537   -3.909118001226605e-05
-0.00896213870771158   -0.03371985020831427   0.00041314173286172574
-0.024611731593667464   -0.06776622355477267   -0.0006302129296377963
-0.006528267539688419   -0.06743894741996607   0.0001269210427876986
-0.00896213870771158   -0.03371985020831427   0.00041314173286172574
-0.026296352186972106   -0.03412522915119198   -0.00010937173476799771
-0.024611731593667464   -0.06776622355477267   -0.0006302129296377963
-0.026553659434206723   -0.03382108729548864   3.576726930184961e-05
-0.006528267539688419   -0.06743894741996607   0.0001269210427876986
-0.024864635842454415   -0.0674488140208008   -0.00048696077598799536
-0.026553659434206723   -0.03382108729548864   3.576726930184961e-05
-0.024611731593667464   -0.06776622355477267   -0.0006302129296377963
-0.006528267539688419   -0.06743894741996607   0.0001269210427876986
-0.026553659434206723   -0.03382108729548864   3.576726930184961e-05
-0.009314368201575331   -0.03340610391505707   0.000649308982429584
-0.00896213870771158   -0.03371985020831427   0.00041314173286172574
-0.006528267539688419   -0.06743894741996607   0.0001269210427876986
-0.026553659434206723   -0.03382108729548864   3.576726930184961e-05
-0.00896213870771158   -0.03371985020831427   0.00041314173286172574
-0.024611731593667464   -0.06776622355477267   -0.0006302129296377963
-0.006528267539688419   -0.06743894741996607   0.0001269210427876986
-0.009314368201575331   -0.03340610391505707   0.000649308982429584
-0.024864635842454415   -0.0674488140208008   -0.00048696077598799536
-0.006855903834927733   -0.06704775069334398   0.00031738059109827805
-0.009314368201575331   -0.03340610391505707   0.000649308982429584
-0.026553659434206723   -0.03382108729548864   3.576726930184961e-05
-0.024864635842454415   -0.0674488140208008   -0.00048696077598799536
-0.026797636592272762   -0.033487758733833896   0.00019561990707695162
-0.006855903834927733   -0.06704775069334398   0.00031738059109827805
-0.02512775625740347   -0.06712440679998   -0.0003283405834453179
-0.026797636592272762   -0.033487758733833896   0.00019561990707695162
-0.024864635842454415   -0.0674488140208008   -0.00048696077598799536
-0.006855903834927733   -0.06704775069334398   0.00031738059109827805
-0.026797636592272762   -0.033487758733833896   0.00019561990707695162
-0.009609850312359317   -0.03306785761875962   0.0008572936086313938
-0.009314368201575331   -0.03340610391505707   0.000649308982429584
-0.006855903834927733   -0.06704775069334398   0.00031738059109827805
-0.026797636592272762   -0.033487758733833896   0.00019561990707695162
-0.009314368201575331   -0.03340610391505707   0.000649308982429584
-0.024864635842454415   -0.0674488140208008   -0.00048696077598799536
-0.024367083059649894   -0.06807119842979087   -0.0007606889843792932
-0.02604985131088499   -0.03439540291507649   -0.00024685155031401113
-0.04260989190851042   -0.06804803273437883   -0.0012861405823762534
-0.024611731593667464   -0.06776622355477267   -0.0006302129296377963
-0.02604985131088499   -0.03439540291507649   -0.00024685155031401113
-0.043840476321074025   -0.034783188128229156   -0.0007601023831701113
-0.04260989190851042   -0.06804803273437883   -0.0012861405823762534
-0.04406129329998303   -0.0345060737962298   -0.0006540168617303525
-0.024611731593667464   -0.06776622355477267   -0.0006302129296377963
-0.042843437259640106   -0.06777989704344894   -0.0011624205424032392
-0.04406129329998303   -0.0345060737962298   -0.0006540168617303525
-0.04260989190851042   -0.06804803273437883   -0.0012861405823762534
-0.024611731593667464   -0.06776622355477267   -0.0006302129296377963
-0.04406129329998303   -0.0345060737962298   -0.0006540168617303525
-0.026296352186972106   -0.03412522915119198   -0.00010937173476799771
-0.02604985131088499   -0.03439540291507649   -0.00024685155031401113
-0.024611731593667464   -0.06776622355477267   -0.0006302129296377963
-0.04406129329998303   -0.0345060737962298   -0.0006540168617303525
-0.02604985131088499   -0.03439540291507649   -0.00024685155031401113
-0.04260989190851042   -0.06804803273437883   -0.0012861405823762534
-0.024611731593667464   -0.06776622355477267   -0.0006302129296377963
-0.026296352186972106   -0.03412522915119198   -0.00010937173476799771
-0.042843437259640106   -0.06777989704344894   -0.0011624205424032392
-0.024864635842454415   -0.0674488140208008   -0.00048696077598799536
-0.026296352186972106   -0.03412522915119198   -0.00010937173476799771
-0.04406129329998303   -0.0345060737962298   -0.0006540168617303525
-0.042843437259640106   -0.06777989704344894   -0.0011624205424032392
-0.04427224779492227   -0.03421379790636436   -0.000548534873635281
-0.024864635842454415   -0.0674488140208008   -0.00048696077598799536
-0.04306589404509175   -0.06750662056068872   -0.001027557289049044
-0.04427224779492227   -0.03421379790636436   -0.000548534873635281
-0.042843437259640106   -0.06777989704344894   -0.0011624205424032392
-0.024864635842454415   -0.0674488140208008   -0.00048696077598799536
-0.04427224779492227   -0.03421379790636436   -0.000548534873635281
-0.026553659434206723   -0.03382108729548864   3.576726930184961e-05
-0.026296352186972106   -0.03412522915119198   -0.00010937173476799771
-0.024864635842454415   -0.0674488140208008   -0.00048696077598799536
-0.04427224779492227   -0.03421379790636436   -0.000548534873635281
-0.026296352186972106   -0.03412522915119198   -0.00010937173476799771
-0.042843437259640106   -0.06777989704344894   -0.0011624205424032392
-0.024864635842454415   -0.0674488140208008   -0.00048696077598799536
-0.026553659434206723   -0.03382108729548864   3.576726930184961e-05
-0.04306589404509175   -0.06750662056068872   -0.001027557289049044
-0.02512775625740347   -0.06712440679998   -0.0003283405834453179
-0.026553659434206723   -0.03382108729548864   3.576726930184961e-05
-0.04427224779492227   -0.03421379790636436   -0.000548534873635281
-0.04306589404509175   -0.06750662056068872   -0.001027557289049044
-0.04446636063821772   -0.033897666884084715   -0.000433970937788107
-0.02512775625740347   -0.06712440679998   -0.0003283405834453179
-0.04328609410688653   -0.06722668988407386   -0.000882209254673017
-0.04446636063821772   -0.033897666884084715   -0.000433970937788107
-0.04306589404509175   -0.06750662056068872   -0.001027557289049044
-0.02512775625740347   -0.06712440679998   -0.0003283405834453179
-0.04446636063821772   -0.033897666884084715   -0.000433970937788107
-0.026797636592272762   -0.033487758733833896   0.00019561990707695162
-0.026553659434206723   -0.03382108729548864   3.576726930184961e-05
-0.02512775625740347   -0.06712440679998   -0.0003283405834453179
-0.04446636063821772   -0.033897666884084715   -0.000433970937788107
-0.026553659434206723   -0.03382108729548864   3.576726930184961e-05
-0.04306589404509175   -0.06750662056068872   -0.001027557289049044
-0.04260989190851042   -0.06804803273437883   -0.0012861405823762534
-0.043840476321074025   -0.034783188128229156   -0.0007601023831701113
-0.061238503853145214   -0.06794309974448838   -0.0017291171648268022
-0.042843437259640106   -0.06777989704344894   -0.0011624205424032392
-0.043840476321074025   -0.034783188128229156   -0.0007601023831701113
-0.06225577103527504   -0.03494186024328538   -0.0012344730915950924
-0.061238503853145214   -0.06794309974448838   -0.0017291171648268022
-0.06245458185100596   -0.0346922351783905   -0.0011575169832864654
-0.042843437259640106   -0.06777989704344894   -0.0011624205424032392
-0.06146115985806589   -0.06772341160228575   -0.0016126822997726475
-0.06245458185100596   -0.0346922351783905   -0.0011575169832864654
-0.061238503853145214   -0.06794309974448838   -0.0017291171648268022
-0.042843437259640106   -0.06777989704344894   -0.0011624205424032392
-0.06245458185100596   -0.0346922351783905   -0.0011575169832864654
-0.04406129329998303   -0.0345060737962298   -0.0006540168617303525
-0.043840476321074025   -0.034783188128229156   -0.0007601023831701113
-0.042843437259640106   -0.06777989704344894   -0.0011624205424032392
-0.06245458185100596   -0.0346922351783905   -0.0011575169832864654
-0.043840476321074025   -0.034783188128229156   -0.0007601023831701113
-0.061238503853145214   -0.06794309974448838   -0.0017291171648268022
-0.042843437259640106   -0.06777989704344894   -0.0011624205424032392
-0.04406129329998303   -0.0345060737962298   -0.0006540168617303525
-0.06146115985806589   -0.06772341160228575   -0.0016126822997726475
-0.04306589404509175   -0.06750662056068872   -0.001027557289049044
-0.04406129329998303   -0.0345060737962298   -0.0006540168617303525
-0.06245458185100596   -0.0346922351783905   -0.0011575169832864654
-0.06146115985806589   -0.06772341160228575   -0.0016126822997726475
-0.06263171807811022   -0.0344209102472835   -0.0010829944251032635
-0.04306589404509175   -0.06750662056068872   -0.001027557289049044
-0.06165019367387761   -0.06749157036857116   -0.0014884180903782173
-0.06263171807811022   -0.0344209102472835   -0.0010829944251032635
-0.06146115985806589   -0.06772341160228575   -0.0016126822997726475
-0.04306589404509175   -0.06750662056068872   -0.001027557289049044
-0.06263171807811022   -0.0344209102472835   -0.0010829944251032635
-0.04427224779492227   -0.03421379790636436   -0.000548534873635281
-0.04406129329998303   -0.0345060737962298   -0.0006540168617303525
-0.04306589404509175   -0.06750662056068872   -0.001027557289049044
-0.06263171807811022   -0.0344209102472835   -0.0010829944251032635
-0.04406129329998303   -0.0345060737962298   -0.0006540168617303525
-0.06146115985806589   -0.06772341160228575   -0.0016126822997726475
-0.04306589404509175   -0.06750662056068872   -0.001027557289049044
-0.04427224779492227   -0.03421379790636436   -0.000548534873635281
-0.06165019367387761   -0.06749157036857116   -0.0014884180903782173
-0.04328609410688653   -0.06722668988407386   -0.000882209254673017
-0.04427224779492227   -0.03421379790636436   -0.000548534873635281
-0.06263171807811022   -0.0344209102472835   -0.0010829944251032635
-0.06165019367387761   -0.06749157036857116   -0.0014884180903782173
-0.06279201830579116   -0.034132362234515184   -0.0010065391934718946
-0.04328609410688653   -0.06722668988407386   -0.000882209254673017
-0.061828879983172845   -0.06725337666572807   -0.0013528346779962685
-0.06279201830579116   -0.034132362234515184   -0.0010065391934718946
-0.06165019367387761   -0.06749157036857116   -0.0014884180903782173
-0.04328609410688653   -0.06722668988407386   -0.000882209254673017
-0.06279201830579116   -0.034132362234515184   -0.0010065391934718946
-0.04446636063821772   -0.033897666884084715   -0.000433970937788107
-0.04427224779492227   -0.03421379790636436   -0.000548534873635281
-0.04328609410688653   -0.06722668988407386   -0.000882209254673017
-0.06279201830579116   -0.034132362234515184   -0.0010065391934718946
-0.04427224779492227   -0.03421379790636436   -0.000548534873635281
-0.06165019367387761   -0.06749157036857116   -0.0014884180903782173
-0.061238503853145214   -0.06794309974448838   -0.0017291171648268022
-0.06225577103527504   -0.03494186024328538   -0.0012344730915950924
-0.08074388460772529   -0.06777131173745816   -0.0020594618085737464
-0.06146115985806589   -0.06772341160228575   -0.0016126822997726475
-0.06225577103527504   -0.03494186024328538   -0.0012344730915950924
-0.08131870385850493   -0.03496034724897113   -0.0016301481527887605
-0.08074388460772529   -0.06777131173745816   -0.0020594618085737464
-0.08149018364033067   -0.034717704448024675   -0.0015978429902395541
-0.06146115985806589   -0.06772341160228575   -0.0016126822997726475
-0.08088428182856447   -0.06758576286101653   -0.001973337839775096
-0.08149018364033067   -0.034717704448024675   -0.0015978429902395541
-0.08074388460772529   -0.06777131173745816   -0.0020594618085737464
-0.06146115985806589   -0.06772341160228575   -0.0016126822997726475
-0.08149018364033067   -0.034717704448024675   -0.0015978429902395541
-0.06245458185100596   -0.0346922351783905   -0.0011575169832864654
-0.06225577103527504   -0.03494186024328538   -0.0012344730915950924
-0.06146115985806589   -0.06772341160228575   -0.0016126822997726475
-0.08149018364033067   -0.034717704448024675   -0.0015978429902395541
-0.06225577103527504   -0.03494186024328538   -0.0012344730915950924
-0.08074388460772529   -0.06777131173745816   -0.0020594618085737464
-0.06146115985806589   -0.06772341160228575   -0.0016126822997726475
-0.06245458185100596   -0.0346922351783905   -0.0011575169832864654
-0.08088428182856447   -0.06758576286101653   -0.001973337839775096
-0.06165019367387761   -0.06749157036857116   -0.0014884180903782173
-0.06245458185100596   -0.0346922351783905   -0.0011575169832864654
-0.08149018364033067   -0.034717704448024675   -0.0015978429902395541
-0.08088428182856447   -0.06758576286101653   -0.001973337839775096
-0.08164381367602125   -0.03445593338082236   -0.0015601963724988428
-0.06165019367387761   -0.06749157036857116   -0.0014884180903782173
-0.08101265756719092   -0.06737628145903815   -0.0018678363164981112
-0.08164381367602125   -0.03445593338082236   -0.0015601963724988428
-0.08088428182856447   -0.06758576286101653   -0.001973337839775096
-0.06165019367387761   -0.06749157036857116   -0.0014884180903782173
-0.08164381367602125   -0.03445593338082236   -0.0015601963724988428
-0.06263171807811022   -0.0344209102472835   -0.0010829944251032635
-0.06245458185100596   -0.0346922351783905   -0.0011575169832864654
-0.06165019367387761   -0.06749157036857116   -0.0014884180903782173
-0.08164381367602125   -0.03445593338082236   -0.0015601963724988428
-0.06245458185100596   -0.0346922351783905   -0.0011575169832864654
-0.08088428182856447   -0.06758576286101653   -0.001973337839775096
-0.06165019367387761   -0.06749157036857116   -0.0014884180903782173
-0.06263171807811022   -0.0344209102472835   -0.0010829944251032635
-0.08101265756719092   -0.06737628145903815   -0.0018678363164981112
-0.061828879983172845   -0.06725337666572807   -0.0013528346779962685
-0.06263171807811022   -0.0344209102472835   -0.0010829944251032635
-0.08164381367602125   -0.03445593338082236   -0.0015601963724988428
-0.08101265756719092   -0.06737628145903815   -0.0018678363164981112
-0.08177385662547897   -0.03417863377399935   -0.0015256505344088478
-0.061828879983172845   -0.06725337666572807   -0.0013528346779962685
-0.08107713545208739   -0.0671826308684064   -0.0017478965770292391
-0.08177385662547897   -0.03417863377399935   -0.0015256505344088478
-0.08101265756719092   -0.06737628145903815   -0.0018678363164981112
-0.061828879983172845   -0.06725337666572807   -0.0013528346779962685
-0.08177385662547897   -0.03417863377399935   -0.0015256505344088478
-0.06279201830579116   -0.034132362234515184   -0.0010065391934718946
-0.06263171807811022   -0.0344209102472835   -0.0010829944251032635
-0.061828879983172845   -0.06725337666572807   -0.0013528346779962685
-0.08177385662547897   -0.03417863377399935   -0.0015256505344088478
-0.06263171807811022   -0.0344209102472835   -0.0010829944251032635
-0.08101265756719092   -0.06737628145903815   -0.0018678363164981112
0.009523798640406025   -0.034350467132061684   0.0004494070470694869
0.0   0.0   0.0
-0.008693005943118549   -0.03389883066749739   0.00021830028415441798
0.008685905487414042   -0.03390698528946396   0.0009329924885294281
0.0   0.0   0.0
-0.010942556818634992   -0.0027245519653171265   -0.00010401786230204677
-0.008693005943118549   -0.03389883066749739   0.00021830028415441798
-0.01159527969879335   -0.0021074234781078573   0.0002678490438694329
0.008685905487414042   -0.03390698528946396   0.0009329924885294281
-0.00896213870771158   -0.03371985020831427   0.00041314173286172574
-0.01159527969879335   -0.0021074234781078573   0.0002678490438694329
-0.008693005943118549   -0.03389883066749739   0.00021830028415441798
0.008685905487414042   -0.03390698528946396   0.0009329924885294281
-0.01159527969879335   -0.0021074234781078573   0.0002678490438694329
0.0   0.0   0.0
0.0   0.0   0.0
0.008685905487414042   -0.03390698528946396   0.0009329924885294281
-0.01159527969879335   -0.0021074234781078573   0.0002678490438694329
0.0   0.0   0.0
-0.008693005943118549   -0.03389883066749739   0.00021830028415441798
0.008685905487414042   -0.03390698528946396   0.0009329924885294281
0.0   0.0   0.0
-0.00896213870771158   -0.03371985020831427   0.00041314173286172574
0.00819459264971842   -0.03354186999614798   0.0012946986955607797
0.0   0.0   0.0
-0.01159527969879335   -0.0021074234781078573   0.0002678490438694329
-0.00896213870771158   -0.03371985020831427   0.00041314173286172574
-0.012003422164437342   -0.0018086918080108597   0.0004808426243000088
0.00819459264971842   -0.03354186999614798   0.0012946986955607797
-0.009314368201575331   -0.03340610391505707   0.000649308982429584
-0.012003422164437342   -0.0018086918080108597   0.0004808426243000088
-0.00896213870771158   -0.03371985020831427   0.00041314173286172574
0.00819459264971842   -0.03354186999614798   0.0012946986955607797
-0.012003422164437342   -0.0018086918080108597   0.0004808426243000088
0.0   0.0   0.0
0.0   0.0   0.0
0.00819459264971842   -0.03354186999614798   0.0012946986955607797
-0.012003422164437342   -0.0018086918080108597   0.0004808426243000088
0.0   0.0   0.0
-0.00896213870771158   -0.03371985020831427   0.00041314173286172574
0.00819459264971842   -0.03354186999614798   0.0012946986955607797
0.0   0.0   0.0
-0.009314368201575331   -0.03340610391505707   0.000649308982429584
0.007566022746201187   -0.03298604629283437   0.0017084795980021336
0.0   0.0   0.0
-0.012003422164437342   -0.0018086918080108597   0.0004808426243000088
-0.009314368201575331   -0.03340610391505707   0.000649308982429584
-0.012548007432643522   -0.0014128535362656553   0.0007250040959473257
0.007566022746201187   -0.03298604629283437   0.0017084795980021336
-0.009609850312359317   -0.03306785761875962   0.0008572936086313938
-0.012548007432643522   -0.0014128535362656553   0.0007250040959473257
-0.009314368201575331   -0.03340610391505707   0.000649308982429584
0.007566022746201187   -0.03298604629283437   0.0017084795980021336
-0.012548007432643522   -0.0014128535362656553   0.0007250040959473257
0.0   0.0   0.0
0.0   0.0   0.0
0.007566022746201187   -0.03298604629283437   0.0017084795980021336
-0.012548007432643522   -0.0014128535362656553   0.0007250040959473257
0.0   0.0   0.0
-0.009314368201575331   -0.03340610391505707   0.000649308982429584
-0.008693005943118549   -0.03389883066749739   0.00021830028415441798
-0.010942556818634992   -0.0027245519653171265   -0.00010401786230204677
-0.02604985131088499   -0.03439540291507649   -0.00024685155031401113
-0.00896213870771158   -0.03371985020831427   0.00041314173286172574
-0.010942556818634992   -0.0027245519653171265   -0.00010401786230204677
-0.026836565961831156   -0.0035504429620693417   -0.0001154174055520324
-0.02604985131088499   -0.03439540291507649   -0.00024685155031401113
-0.02717092659107844   -0.0032102337468458563   -2.243111670765856e-05
-0.00896213870771158   -0.03371985020831427   0.00041314173286172574
-0.026296352186972106   -0.03412522915119198   -0.00010937173476799771
-0.02717092659107844   -0.0032102337468458563   -2.243111670765856e-05
-0.02604985131088499   -0.03439540291507649   -0.00024685155031401113
-0.00896213870771158   -0.03371985020831427   0.00041314173286172574
-0.02717092659107844   -0.0032102337468458563   -2.243111670765856e-05
-0.01159527969879335   -0.0021074234781078573   0.0002678490438694329
-0.010942556818634992   -0.0027245519653171265   -0.00010401786230204677
-0.00896213870771158   -0.03371985020831427   0.00041314173286172574
-0.02717092659107844   -0.0032102337468458563   -2.243111670765856e-05
-0.010942556818634992   -0.0027245519653171265   -0.00010401786230204677
-0.02604985131088499   -0.03439540291507649   -0.00024685155031401113
-0.00896213870771158   -0.03371985020831427   0.00041314173286172574
-0.01159527969879335   -0.0021074234781078573   0.0002678490438694329
-0.026296352186972106   -0.03412522915119198   -0.00010937173476799771
-0.009314368201575331   -0.03340610391505707   0.000649308982429584
-0.01159527969879335   -0.0021074234781078573   0.0002678490438694329
-0.02717092659107844   -0.0032102337468458563   -2.243111670765856e-05
-0.026296352186972106   -0.03412522915119198   -0.00010937173476799771
-0.027503180134974377   -0.002812956430033402   0.0001459058422178366
-0.009314368201575331   -0.03340610391505707   0.000649308982429584
-0.026553659434206723   -0.03382108729548864   3.576726930184961e-05
-0.027503180134974377   -0.002812956430033402   0.0001459058422178366
-0.026296352186972106   -0.03412522915119198   -0.00010937173476799771
-0.009314368201575331   -0.03340610391505707   0.000649308982429584
-0.027503180134974377   -0.002812956430033402   0.0001459058422178366
-0.012003422164437342   -0.0018086918080108597   0.0004808426243000088
-0.01159527969879335   -0.0021074234781078573   0.0002678490438694329
-0.009314368201575331   -0.03340610391505707   0.000649308982429584
-0.027503180134974377   -0.002812956430033402   0.0001459058422178366
-0.01159527969879335   -0.0021074234781078573   0.0002678490438694329
-0.026296352186972106   -0.03412522915119198   -0.00010937173476799771
-0.009314368201575331   -0.03340610391505707   0.000649308982429584
-0.012003422164437342   -0.0018086918080108597   0.0004808426243000088
-0.026553659434206723   -0.03382108729548864   3.576726930184961e-05
-0.009609850312359317   -0.03306785761875962   0.0008572936086313938
-0.012003422164437342   -0.0018086918080108597   0.0004808426243000088
-0.027503180134974377   -0.002812956430033402   0.0001459058422178366
-0.026553659434206723   -0.03382108729548864   3.576726930184961e-05
-0.027868356544607183   -0.002355422325608361   0.00030597967305668635
-0.009609850312359317   -0.03306785761875962   0.0008572936086313938
-0.026797636592272762   -0.033487758733833896   0.00019561990707695162
-0.027868356544607183   -0.002355422325608361   0.00030597967305668635
-0.026553659434206723   -0.03382108729548864   3.576726930184961e-05
-0.009609850312359317   -0.03306785761875962   0.0008572936086313938
-0.027868356544607183   -0.002355422325608361   0.00030597967305668635
-0.012548007432643522   -0.0014128535362656553   0.0007250040959473257
-0.012003422164437342   -0.0018086918080108597   0.0004808426243000088
-0.009609850312359317   -0.03306785761875962   0.0008572936086313938
-0.027868356544607183   -0.002355422325608361   0.00030597967305668635
-0.012003422164437342   -0.0018086918080108597   0.0004808426243000088
-0.026553659434206723   -0.03382108729548864   3.576726930184961e-05
-0.02604985131088499   -0.03439540291507649   -0.00024685155031401113
-0.026836565961831156   -0.0035504429620693417   -0.0001154174055520324
-0.043840476321074025   -0.034783188128229156   -0.0007601023831701113
-0.026296352186972106   -0.03412522915119198   -0.00010937173476799771
-0.026836565961831156   -0.0035504429620693417   -0.0001154174055520324
-0.044277484269598544   -0.0037705987432238284   -0.00044677918929590736
-0.043840476321074025   -0.034783188128229156   -0.0007601023831701113
-0.04447913632082031   -0.0035018841886880554   -0.00042220591730001425
-0.026296352186972106   -0.03412522915119198   -0.00010937173476799771
-0.04406129329998303   -0.0345060737962298   -0.0006540168617303525
-0.04447913632082031   -0.0035018841886880554   -0.00042220591730001425
-0.043840476321074025   -0.034783188128229156   -0.0007601023831701113
-0.026296352186972106   -0.03412522915119198   -0.00010937173476799771
-0.04447913632082031   -0.0035018841886880554   -0.00042220591730001425
-0.02717092659107844   -0.0032102337468458563   -2.243111670765856e-05
-0.026836565961831156   -0.0035504429620693417   -0.0001154174055520324
-0.026296352186972106   -0.03412522915119198   -0.00010937173476799771
-0.04447913632082031   -0.0035018841886880554   -0.00042220591730001425
-0.026836565961831156   -0.0035504429620693417   -0.0001154174055520324
-0.043840476321074025   -0.034783188128229156   -0.0007601023831701113
-0.026296352186972106   -0.03412522915119198   -0.00010937173476799771
-0.02717092659107844   -0.0032102337468458563   -2.243111670765856e-05
-0.04406129329998303   -0.0345060737962298   -0.0006540168617303525
-0.026553659434206723   -0.03382108729548864   3.576726930184961e-05
-0.02717092659107844   -0.0032102337468458563   -2.243111670765856e-05
-0.04447913632082031   -0.0035018841886880554   -0.00042220591730001425
-0.04406129329998303   -0.0345060737962298   -0.0006540168617303525
-0.04468859731725172   -0.0031917058743034022   -0.00037840188243420226
-0.026553659434206723   -0.03382108729548864   3.576726930184961e-05
-0.04427224779492227   -0.03421379790636436   -0.000548534873635281
-0.04468859731725172   -0.0031917058743034022   -0.00037840188243420226
-0.04406129329998303   -0.0345060737962298   -0.0006540168617303525
-0.026553659434206723   -0.03382108729548864   3.576726930184961e-05
-0.04468859731725172   -0.0031917058743034022   -0.00037840188243420226
-0.027503180134974377   -0.002812956430033402   0.0001459058422178366
-0.02717092659107844   -0.0032102337468458563   -2.243111670765856e-05
-0.026553659434206723   -0.03382108729548864   3.576726930184961e-05
-0.04468859731725172   -0.0031917058743034022   -0.00037840188243420226
-0.02717092659107844   -0.0032102337468458563   -2.243111670765856e-05
-0.04406129329998303   -0.0345060737962298   -0.0006540168617303525
-0.026553659434206723   -0.03382108729548864   3.576726930184961e-05
-0.027503180134974377   -0.002812956430033402   0.0001459058422178366
-0.04427224779492227   -0.03421379790636436   -0.000548534873635281
-0.026797636592272762   -0.033487758733833896   0.00019561990707695162
-0.027503180134974377   -0.002812956430033402   0.0001459058422178366
-0.04468859731725172   -0.0031917058743034022   -0.00037840188243420226
-0.04427224779492227   -0.03421379790636436   -0.000548534873635281
-0.04488507203600405   -0.002817146746892522   -0.00032045148819485805
-0.026797636592272762   -0.033487758733833896   0.00019561990707695162
-0.04446636063821772   -0.033897666884084715   -0.000433970937788107
-0.04488507203600405   -0.002817146746892522   -0.00032045148819485805
-0.04427224779492227   -0.03421379790636436   -0.000548534873635281
-0.026797636592272762   -0.033487758733833896   0.00019561990707695162
-0.04488507203600405   -0.002817146746892522   -0.00032045148819485805
-0.027868356544607183   -0.002355422325608361   0.00030597967305668635
-0.027503180134974377   -0.002812956430033402   0.0001459058422178366
-0.026797636592272762   -0.033487758733833896   0.00019561990707695162
-0.04488507203600405   -0.002817146746892522   -0.00032045148819485805
-0.027503180134974377   -0.002812956430033402   0.0001459058422178366
-0.04427224779492227   -0.03421379790636436   -0.000548534873635281
-0.043840476321074025   -0.034783188128229156   -0.0007601023831701113
-0.044277484269598544   -0.0037705987432238284   -0.00044677918929590736
-0.06225577103527504   -0.03494186024328538   -0.0012344730915950924
-0.04406129329998303   -0.0345060737962298   -0.0006540168617303525
-0.044277484269598544   -0.0037705987432238284   -0.00044677918929590736
-0.0625761010635062   -0.003720630979597277   -0.0009145793028156494
-0.06225577103527504   -0.03494186024328538   -0.0012344730915950924
-0.06271198436020292   -0.003476604862411513   -0.0009042374712011611
-0.04406129329998303   -0.0345060737962298   -0.0006540168617303525
-0.06245458185100596   -0.0346922351783905   -0.0011575169832864654
-0.06271198436020292   -0.003476604862411513   -0.0009042374712011611
-0.06225577103527504   -0.03494186024328538   -0.0012344730915950924
-0.04406129329998303   -0.0345060737962298   -0.0006540168617303525
-0.06271198436020292   -0.003476604862411513   -0.0009042374712011611
-0.04447913632082031   -0.0035018841886880554   -0.00042220591730001425
-0.044277484269598544   -0.0037705987432238284   -0.00044677918929590736
-0.04406129329998303   -0.0345060737962298   -0.0006540168617303525
-0.06271198436020292   -0.003476604862411513   -0.0009042374712011611
-0.044277484269598544   -0.0037705987432238284   -0.00044677918929590736
-0.06225577103527504   -0.03494186024328538   -0.0012344730915950924
-0.04406129329998303   -0.0345060737962298   -0.0006540168617303525
-0.04447913632082031   -0.0035018841886880554   -0.00042220591730001425
-0.06245458185100596   -0.0346922351783905   -0.0011575169832864654
-0.04427224779492227   -0.03421379790636436   -0.000548534873635281
-0.04447913632082031   -0.0035018841886880554   -0.00042220591730001425
-0.06271198436020292   -0.003476604862411513   -0.0009042374712011611
-0.06245458185100596   -0.0346922351783905   -0.0011575169832864654
-0.06285382462706114   -0.0032066344330055133   -0.0008980422101811437
-0.04427224779492227   -0.03421379790636436   -0.000548534873635281
-0.06263171807811022   -0.0344209102472835   -0.0010829944251032635
-0.06285382462706114   -0.0032066344330055133   -0.0008980422101811437
-0.06245458185100596   -0.0346922351783905   -0.0011575169832864654
-0.04427224779492227   -0.03421379790636436   -0.000548534873635281
-0.06285382462706114   -0.0032066344330055133   -0.0008980422101811437
-0.04468859731725172   -0.0031917058743034022   -0.00037840188243420226
-0.04447913632082031   -0.0035018841886880554   -0.00042220591730001425
-0.04427224779492227   -0.03421379790636436   -0.000548534873635281
-0.06285382462706114   -0.0032066344330055133   -0.0008980422101811437
-0.04447913632082031   -0.0035018841886880554   -0.00042220591730001425
-0.06245458185100596   -0.0346922351783905   -0.0011575169832864654
-0.04427224779492227   -0.03421379790636436   -0.000548534873635281
-0.04468859731725172   -0.0031917058743034022   -0.00037840188243420226
-0.06263171807811022   -0.0344209102472835   -0.0010829944251032635
-0.04446636063821772   -0.033897666884084715   -0.000433970937788107
-0.04468859731725172   -0.0031917058743034022   -0.00037840188243420226
-0.06285382462706114   -0.0032066344330055133   -0.0008980422101811437
-0.06263171807811022   -0.0344209102472835   -0.0010829944251032635
-0.06295987456973161   -0.0029159974323914937   -0.0008966917552563122
-0.04446636063821772   -0.033897666884084715   -0.000433970937788107
-0.06279201830579116   -0.034132362234515184   -0.0010065391934718946
-0.06295987456973161   -0.0029159974323914937   -0.0008966917552563122
-0.06263171807811022   -0.0344209102472835   -0.0010829944251032635
-0.04446636063821772   -0.033897666884084715   -0.000433970937788107
-0.06295987456973161   -0.0029159974323914937   -0.0008966917552563122
-0.04488507203600405   -0.002817146746892522   -0.00032045148819485805
-0.04468859731725172   -0.0031917058743034022   -0.00037840188243420226
-0.04446636063821772   -0.033897666884084715   -0.000433970937788107
-0.06295987456973161   -0.0029159974323914937   -0.0008966917552563122
-0.04468859731725172   -0.0031917058743034022   -0.00037840188243420226
-0.06263171807811022   -0.0344209102472835   -0.0010829944251032635
-0.06225577103527504   -0.03494186024328538   -0.0012344730915950924
-0.0625761010635062   -0.003720630979597277   -0.0009145793028156494
-0.08131870385850493   -0.03496034724897113   -0.0016301481527887605
-0.06245458185100596   -0.0346922351783905   -0.0011575169832864654
-0.0625761010635062   -0.003720630979597277   -0.0009145793028156494
-0.08137385809077823   -0.003692041596681551   -0.0013742895555951885
-0.08131870385850493   -0.03496034724897113   -0.0016301481527887605
-0.0814833813869341   -0.003426721850257518   -0.0013746260123471644
-0.06245458185100596   -0.0346922351783905   -0.0011575169832864654
-0.08149018364033067   -0.034717704448024675   -0.0015978429902395541
-0.0814833813869341   -0.003426721850257518   -0.0013746260123471644
-0.08131870385850493   -0.03496034724897113   -0.0016301481527887605
-0.06245458185100596   -0.0346922351783905   -0.0011575169832864654
-0.0814833813869341   -0.003426721850257518   -0.0013746260123471644
-0.06271198436020292   -0.003476604862411513   -0.0009042374712011611
-0.0625761010635062   -0.003720630979597277   -0.0009145793028156494
-0.06245458185100596   -0.0346922351783905   -0.0011575169832864654
-0.0814833813869341   -0.003426721850257518   -0.0013746260123471644
-0.0625761010635062   -0.003720630979597277   -0.0009145793028156494
-0.08131870385850493   -0.03496034724897113   -0.0016301481527887605
-0.06245458185100596   -0.0346922351783905   -0.0011575169832864654
-0.06271198436020292   -0.003476604862411513   -0.0009042374712011611
-0.08149018364033067   -0.034717704448024675   -0.0015978429902395541
-0.06263171807811022   -0.0344209102472835   -0.0010829944251032635
-0.06271198436020292   -0.003476604862411513   -0.0009042374712011611
-0.0814833813869341   -0.003426721850257518   -0.0013746260123471644
-0.08149018364033067   -0.034717704448024675   -0.0015978429902395541
-0.08160375618144206   -0.003162775451523797   -0.0013956065204410706
-0.06263171807811022   -0.0344209102472835   -0.0010829944251032635
-0.08164381367602125   -0.03445593338082236   -0.0015601963724988428
-0.08160375618144206   -0.003162775451523797   -0.0013956065204410706
-0.08149018364033067   -0.034717704448024675   -0.0015978429902395541
-0.06263171807811022   -0.0344209102472835   -0.0010829944251032635
-0.08160375618144206   -0.003162775451523797   -0.0013956065204410706
-0.06285382462706114   -0.0032066344330055133   -0.0008980422101811437
-0.06271198436020292   -0.003476604862411513   -0.0009042374712011611
-0.06263171807811022   -0.0344209102472835   -0.0010829944251032635
-0.08160375618144206   -0.003162775451523797   -0.0013956065204410706
-0.06271198436020292   -0.003476604862411513   -0.0009042374712011611
-0.08149018364033067   -0.034717704448024675   -0.0015978429902395541
-0.06263171807811022   -0.0344209102472835   -0.0010829944251032635
-0.06285382462706114   -0.0032066344330055133   -0.0008980422101811437
-0.08164381367602125   -0.03445593338082236   -0.0015601963724988428
-0.06279201830579116   -0.034132362234515184   -0.0010065391934718946
-0.06285382462706114   -0.0032066344330055133   -0.0008980422101811437
-0.08160375618144206   -0.003162775451523797   -0.0013956065204410706
-0.08164381367602125   -0.03445593338082236   -0.0015601963724988428
-0.0816918890048081   -0.002876189577728328   -0.0014181755549031235
-0.06279201830579116   -0.034132362234515184   -0.0010065391934718946
-0.08177385662547897   -0.03417863377399935   -0.0015256505344088478
-0.0816918890048081   -0.002876189577728328   -0.0014181755549031235
-0.08164381367602125   -0.03445593338082236   -0.0015601963724988428
-0.06279201830579116   -0.034132362234515184   -0.0010065391934718946
-0.0816918890048081   -0.002876189577728328   -0.0014181755549031235
-0.06295987456973161   -0.0029159974323914937   -0.0008966917552563122
-0.06285382462706114   -0.0032066344330055133   -0.0008980422101811437
-0.06279201830579116   -0.034132362234515184   -0.0010065391934718946
-0.0816918890048081   -0.002876189577728328   -0.0014181755549031235
-0.06285382462706114   -0.0032066344330055133   -0.0008980422101811437
-0.08164381367602125   -0.03445593338082236   -0.0015601963724988428
              </DataArray>   
          </PointData>  
       </Piece>  
   </UnstructuredGrid> 
</VTKFile> 
