<?xml version="1.0"?> 
<VTKFile type="UnstructuredGrid"> 
   <UnstructuredGrid> 
      <Piece NumberOfPoints="6000"  NumberOfCells="1500">  
          <Points>  
             <DataArray type="Float64" NumberOfComponents="3" format="ascii">   
-500.0   0.0   0.0
-450.0   0.0   0.0
-500.0   30.0   0.0
-500.0   0.0   16.666666666666668
-450.0   0.0   0.0
-450.0   30.0   0.0
-500.0   30.0   0.0
-450.0   30.0   16.666666666666668
-500.0   0.0   16.666666666666668
-500.0   30.0   16.666666666666668
-450.0   30.0   16.666666666666668
-500.0   30.0   0.0
-500.0   0.0   16.666666666666668
-450.0   30.0   16.666666666666668
-450.0   0.0   16.666666666666668
-450.0   0.0   0.0
-500.0   0.0   16.666666666666668
-450.0   30.0   16.666666666666668
-450.0   0.0   0.0
-500.0   30.0   0.0
-500.0   0.0   16.666666666666668
-450.0   0.0   16.666666666666668
-500.0   30.0   16.666666666666668
-500.0   0.0   33.333333333333336
-450.0   0.0   16.666666666666668
-450.0   30.0   16.666666666666668
-500.0   30.0   16.666666666666668
-450.0   30.0   33.333333333333336
-500.0   0.0   33.333333333333336
-500.0   30.0   33.333333333333336
-450.0   30.0   33.333333333333336
-500.0   30.0   16.666666666666668
-500.0   0.0   33.333333333333336
-450.0   30.0   33.333333333333336
-450.0   0.0   33.333333333333336
-450.0   0.0   16.666666666666668
-500.0   0.0   33.333333333333336
-450.0   30.0   33.333333333333336
-450.0   0.0   16.666666666666668
-500.0   30.0   16.666666666666668
-500.0   0.0   33.333333333333336
-450.0   0.0   33.333333333333336
-500.0   30.0   33.333333333333336
-500.0   0.0   50.0
-450.0   0.0   33.333333333333336
-450.0   30.0   33.333333333333336
-500.0   30.0   33.333333333333336
-450.0   30.0   50.0
-500.0   0.0   50.0
-500.0   30.0   50.0
-450.0   30.0   50.0
-500.0   30.0   33.333333333333336
-500.0   0.0   50.0
-450.0   30.0   50.0
-450.0   0.0   50.0
-450.0   0.0   33.333333333333336
-500.0   0.0   50.0
-450.0   30.0   50.0
-450.0   0.0   33.333333333333336
-500.0   30.0   33.333333333333336
-500.0   30.0   0.0
-450.0   30.0   0.0
-500.0   60.0   0.0
-500.0   30.0   16.666666666666668
-450.0   30.0   0.0
-450.0   60.0   0.0
-500.0   60.0   0.0
-450.0   60.0   16.666666666666668
-500.0   30.0   16.666666666666668
-500.0   60.0   16.666666666666668
-450.0   60.0   16.666666666666668
-500.0   60.0   0.0
-500.0   30.0   16.666666666666668
-450.0   60.0   16.666666666666668
-450.0   30.0   16.666666666666668
-450.0   30.0   0.0
-500.0   30.0   16.666666666666668
-450.0   60.0   16.666666666666668
-450.0   30.0   0.0
-500.0   60.0   0.0
-500.0   30.0   16.666666666666668
-450.0   30.0   16.666666666666668
-500.0   60.0   16.666666666666668
-500.0   30.0   33.333333333333336
-450.0   30.0   16.666666666666668
-450.0   60.0   16.666666666666668
-500.0   60.0   16.666666666666668
-450.0   60.0   33.333333333333336
-500.0   30.0   33.333333333333336
-500.0   60.0   33.333333333333336
-450.0   60.0   33.333333333333336
-500.0   60.0   16.666666666666668
-500.0   30.0   33.333333333333336
-450.0   60.0   33.333333333333336
-450.0   30.0   33.333333333333336
-450.0   30.0   16.666666666666668
-500.0   30.0   33.333333333333336
-450.0   60.0   33.333333333333336
-450.0   30.0   16.666666666666668
-500.0   60.0   16.666666666666668
-500.0   30.0   33.333333333333336
-450.0   30.0   33.333333333333336
-500.0   60.0   33.333333333333336
-500.0   30.0   50.0
-450.0   30.0   33.333333333333336
-450.0   60.0   33.333333333333336
-500.0   60.0   33.333333333333336
-450.0   60.0   50.0
-500.0   30.0   50.0
-500.0   60.0   50.0
-450.0   60.0   50.0
-500.0   60.0   33.333333333333336
-500.0   30.0   50.0
-450.0   60.0   50.0
-450.0   30.0   50.0
-450.0   30.0   33.333333333333336
-500.0   30.0   50.0
-450.0   60.0   50.0
-450.0   30.0   33.333333333333336
-500.0   60.0   33.333333333333336
-500.0   60.0   0.0
-450.0   60.0   0.0
-500.0   90.0   0.0
-500.0   60.0   16.666666666666668
-450.0   60.0   0.0
-450.0   90.0   0.0
-500.0   90.0   0.0
-450.0   90.0   16.666666666666668
-500.0   60.0   16.666666666666668
-500.0   90.0   16.666666666666668
-450.0   90.0   16.666666666666668
-500.0   90.0   0.0
-500.0   60.0   16.666666666666668
-450.0   90.0   16.666666666666668
-450.0   60.0   16.666666666666668
-450.0   60.0   0.0
-500.0   60.0   16.666666666666668
-450.0   90.0   16.666666666666668
-450.0   60.0   0.0
-500.0   90.0   0.0
-500.0   60.0   16.666666666666668
-450.0   60.0   16.666666666666668
-500.0   90.0   16.666666666666668
-500.0   60.0   33.333333333333336
-450.0   60.0   16.666666666666668
-450.0   90.0   16.666666666666668
-500.0   90.0   16.666666666666668
-450.0   90.0   33.333333333333336
-500.0   60.0   33.333333333333336
-500.0   90.0   33.333333333333336
-450.0   90.0   33.333333333333336
-500.0   90.0   16.666666666666668
-500.0   60.0   33.333333333333336
-450.0   90.0   33.333333333333336
-450.0   60.0   33.333333333333336
-450.0   60.0   16.666666666666668
-500.0   60.0   33.333333333333336
-450.0   90.0   33.333333333333336
-450.0   60.0   16.666666666666668
-500.0   90.0   16.666666666666668
-500.0   60.0   33.333333333333336
-450.0   60.0   33.333333333333336
-500.0   90.0   33.333333333333336
-500.0   60.0   50.0
-450.0   60.0   33.333333333333336
-450.0   90.0   33.333333333333336
-500.0   90.0   33.333333333333336
-450.0   90.0   50.0
-500.0   60.0   50.0
-500.0   90.0   50.0
-450.0   90.0   50.0
-500.0   90.0   33.333333333333336
-500.0   60.0   50.0
-450.0   90.0   50.0
-450.0   60.0   50.0
-450.0   60.0   33.333333333333336
-500.0   60.0   50.0
-450.0   90.0   50.0
-450.0   60.0   33.333333333333336
-500.0   90.0   33.333333333333336
-500.0   90.0   0.0
-450.0   90.0   0.0
-500.0   120.0   0.0
-500.0   90.0   16.666666666666668
-450.0   90.0   0.0
-450.0   120.0   0.0
-500.0   120.0   0.0
-450.0   120.0   16.666666666666668
-500.0   90.0   16.666666666666668
-500.0   120.0   16.666666666666668
-450.0   120.0   16.666666666666668
-500.0   120.0   0.0
-500.0   90.0   16.666666666666668
-450.0   120.0   16.666666666666668
-450.0   90.0   16.666666666666668
-450.0   90.0   0.0
-500.0   90.0   16.666666666666668
-450.0   120.0   16.666666666666668
-450.0   90.0   0.0
-500.0   120.0   0.0
-500.0   90.0   16.666666666666668
-450.0   90.0   16.666666666666668
-500.0   120.0   16.666666666666668
-500.0   90.0   33.333333333333336
-450.0   90.0   16.666666666666668
-450.0   120.0   16.666666666666668
-500.0   120.0   16.666666666666668
-450.0   120.0   33.333333333333336
-500.0   90.0   33.333333333333336
-500.0   120.0   33.333333333333336
-450.0   120.0   33.333333333333336
-500.0   120.0   16.666666666666668
-500.0   90.0   33.333333333333336
-450.0   120.0   33.333333333333336
-450.0   90.0   33.333333333333336
-450.0   90.0   16.666666666666668
-500.0   90.0   33.333333333333336
-450.0   120.0   33.333333333333336
-450.0   90.0   16.666666666666668
-500.0   120.0   16.666666666666668
-500.0   90.0   33.333333333333336
-450.0   90.0   33.333333333333336
-500.0   120.0   33.333333333333336
-500.0   90.0   50.0
-450.0   90.0   33.333333333333336
-450.0   120.0   33.333333333333336
-500.0   120.0   33.333333333333336
-450.0   120.0   50.0
-500.0   90.0   50.0
-500.0   120.0   50.0
-450.0   120.0   50.0
-500.0   120.0   33.333333333333336
-500.0   90.0   50.0
-450.0   120.0   50.0
-450.0   90.0   50.0
-450.0   90.0   33.333333333333336
-500.0   90.0   50.0
-450.0   120.0   50.0
-450.0   90.0   33.333333333333336
-500.0   120.0   33.333333333333336
-500.0   120.0   0.0
-450.0   120.0   0.0
-500.0   150.0   0.0
-500.0   120.0   16.666666666666668
-450.0   120.0   0.0
-450.0   150.0   0.0
-500.0   150.0   0.0
-450.0   150.0   16.666666666666668
-500.0   120.0   16.666666666666668
-500.0   150.0   16.666666666666668
-450.0   150.0   16.666666666666668
-500.0   150.0   0.0
-500.0   120.0   16.666666666666668
-450.0   150.0   16.666666666666668
-450.0   120.0   16.666666666666668
-450.0   120.0   0.0
-500.0   120.0   16.666666666666668
-450.0   150.0   16.666666666666668
-450.0   120.0   0.0
-500.0   150.0   0.0
-500.0   120.0   16.666666666666668
-450.0   120.0   16.666666666666668
-500.0   150.0   16.666666666666668
-500.0   120.0   33.333333333333336
-450.0   120.0   16.666666666666668
-450.0   150.0   16.666666666666668
-500.0   150.0   16.666666666666668
-450.0   150.0   33.333333333333336
-500.0   120.0   33.333333333333336
-500.0   150.0   33.333333333333336
-450.0   150.0   33.333333333333336
-500.0   150.0   16.666666666666668
-500.0   120.0   33.333333333333336
-450.0   150.0   33.333333333333336
-450.0   120.0   33.333333333333336
-450.0   120.0   16.666666666666668
-500.0   120.0   33.333333333333336
-450.0   150.0   33.333333333333336
-450.0   120.0   16.666666666666668
-500.0   150.0   16.666666666666668
-500.0   120.0   33.333333333333336
-450.0   120.0   33.333333333333336
-500.0   150.0   33.333333333333336
-500.0   120.0   50.0
-450.0   120.0   33.333333333333336
-450.0   150.0   33.333333333333336
-500.0   150.0   33.333333333333336
-450.0   150.0   50.0
-500.0   120.0   50.0
-500.0   150.0   50.0
-450.0   150.0   50.0
-500.0   150.0   33.333333333333336
-500.0   120.0   50.0
-450.0   150.0   50.0
-450.0   120.0   50.0
-450.0   120.0   33.333333333333336
-500.0   120.0   50.0
-450.0   150.0   50.0
-450.0   120.0   33.333333333333336
-500.0   150.0   33.333333333333336
-450.0   0.0   0.0
-400.0   0.0   0.0
-450.0   30.0   0.0
-450.0   0.0   16.666666666666668
-400.0   0.0   0.0
-400.0   30.0   0.0
-450.0   30.0   0.0
-400.0   30.0   16.666666666666668
-450.0   0.0   16.666666666666668
-450.0   30.0   16.666666666666668
-400.0   30.0   16.666666666666668
-450.0   30.0   0.0
-450.0   0.0   16.666666666666668
-400.0   30.0   16.666666666666668
-400.0   0.0   16.666666666666668
-400.0   0.0   0.0
-450.0   0.0   16.666666666666668
-400.0   30.0   16.666666666666668
-400.0   0.0   0.0
-450.0   30.0   0.0
-450.0   0.0   16.666666666666668
-400.0   0.0   16.666666666666668
-450.0   30.0   16.666666666666668
-450.0   0.0   33.333333333333336
-400.0   0.0   16.666666666666668
-400.0   30.0   16.666666666666668
-450.0   30.0   16.666666666666668
-400.0   30.0   33.333333333333336
-450.0   0.0   33.333333333333336
-450.0   30.0   33.333333333333336
-400.0   30.0   33.333333333333336
-450.0   30.0   16.666666666666668
-450.0   0.0   33.333333333333336
-400.0   30.0   33.333333333333336
-400.0   0.0   33.333333333333336
-400.0   0.0   16.666666666666668
-450.0   0.0   33.333333333333336
-400.0   30.0   33.333333333333336
-400.0   0.0   16.666666666666668
-450.0   30.0   16.666666666666668
-450.0   0.0   33.333333333333336
-400.0   0.0   33.333333333333336
-450.0   30.0   33.333333333333336
-450.0   0.0   50.0
-400.0   0.0   33.333333333333336
-400.0   30.0   33.333333333333336
-450.0   30.0   33.333333333333336
-400.0   30.0   50.0
-450.0   0.0   50.0
-450.0   30.0   50.0
-400.0   30.0   50.0
-450.0   30.0   33.333333333333336
-450.0   0.0   50.0
-400.0   30.0   50.0
-400.0   0.0   50.0
-400.0   0.0   33.333333333333336
-450.0   0.0   50.0
-400.0   30.0   50.0
-400.0   0.0   33.333333333333336
-450.0   30.0   33.333333333333336
-450.0   30.0   0.0
-400.0   30.0   0.0
-450.0   60.0   0.0
-450.0   30.0   16.666666666666668
-400.0   30.0   0.0
-400.0   60.0   0.0
-450.0   60.0   0.0
-400.0   60.0   16.666666666666668
-450.0   30.0   16.666666666666668
-450.0   60.0   16.666666666666668
-400.0   60.0   16.666666666666668
-450.0   60.0   0.0
-450.0   30.0   16.666666666666668
-400.0   60.0   16.666666666666668
-400.0   30.0   16.666666666666668
-400.0   30.0   0.0
-450.0   30.0   16.666666666666668
-400.0   60.0   16.666666666666668
-400.0   30.0   0.0
-450.0   60.0   0.0
-450.0   30.0   16.666666666666668
-400.0   30.0   16.666666666666668
-450.0   60.0   16.666666666666668
-450.0   30.0   33.333333333333336
-400.0   30.0   16.666666666666668
-400.0   60.0   16.666666666666668
-450.0   60.0   16.666666666666668
-400.0   60.0   33.333333333333336
-450.0   30.0   33.333333333333336
-450.0   60.0   33.333333333333336
-400.0   60.0   33.333333333333336
-450.0   60.0   16.666666666666668
-450.0   30.0   33.333333333333336
-400.0   60.0   33.333333333333336
-400.0   30.0   33.333333333333336
-400.0   30.0   16.666666666666668
-450.0   30.0   33.333333333333336
-400.0   60.0   33.333333333333336
-400.0   30.0   16.666666666666668
-450.0   60.0   16.666666666666668
-450.0   30.0   33.333333333333336
-400.0   30.0   33.333333333333336
-450.0   60.0   33.333333333333336
-450.0   30.0   50.0
-400.0   30.0   33.333333333333336
-400.0   60.0   33.333333333333336
-450.0   60.0   33.333333333333336
-400.0   60.0   50.0
-450.0   30.0   50.0
-450.0   60.0   50.0
-400.0   60.0   50.0
-450.0   60.0   33.333333333333336
-450.0   30.0   50.0
-400.0   60.0   50.0
-400.0   30.0   50.0
-400.0   30.0   33.333333333333336
-450.0   30.0   50.0
-400.0   60.0   50.0
-400.0   30.0   33.333333333333336
-450.0   60.0   33.333333333333336
-450.0   60.0   0.0
-400.0   60.0   0.0
-450.0   90.0   0.0
-450.0   60.0   16.666666666666668
-400.0   60.0   0.0
-400.0   90.0   0.0
-450.0   90.0   0.0
-400.0   90.0   16.666666666666668
-450.0   60.0   16.666666666666668
-450.0   90.0   16.666666666666668
-400.0   90.0   16.666666666666668
-450.0   90.0   0.0
-450.0   60.0   16.666666666666668
-400.0   90.0   16.666666666666668
-400.0   60.0   16.666666666666668
-400.0   60.0   0.0
-450.0   60.0   16.666666666666668
-400.0   90.0   16.666666666666668
-400.0   60.0   0.0
-450.0   90.0   0.0
-450.0   60.0   16.666666666666668
-400.0   60.0   16.666666666666668
-450.0   90.0   16.666666666666668
-450.0   60.0   33.333333333333336
-400.0   60.0   16.666666666666668
-400.0   90.0   16.666666666666668
-450.0   90.0   16.666666666666668
-400.0   90.0   33.333333333333336
-450.0   60.0   33.333333333333336
-450.0   90.0   33.333333333333336
-400.0   90.0   33.333333333333336
-450.0   90.0   16.666666666666668
-450.0   60.0   33.333333333333336
-400.0   90.0   33.333333333333336
-400.0   60.0   33.333333333333336
-400.0   60.0   16.666666666666668
-450.0   60.0   33.333333333333336
-400.0   90.0   33.333333333333336
-400.0   60.0   16.666666666666668
-450.0   90.0   16.666666666666668
-450.0   60.0   33.333333333333336
-400.0   60.0   33.333333333333336
-450.0   90.0   33.333333333333336
-450.0   60.0   50.0
-400.0   60.0   33.333333333333336
-400.0   90.0   33.333333333333336
-450.0   90.0   33.333333333333336
-400.0   90.0   50.0
-450.0   60.0   50.0
-450.0   90.0   50.0
-400.0   90.0   50.0
-450.0   90.0   33.333333333333336
-450.0   60.0   50.0
-400.0   90.0   50.0
-400.0   60.0   50.0
-400.0   60.0   33.333333333333336
-450.0   60.0   50.0
-400.0   90.0   50.0
-400.0   60.0   33.333333333333336
-450.0   90.0   33.333333333333336
-450.0   90.0   0.0
-400.0   90.0   0.0
-450.0   120.0   0.0
-450.0   90.0   16.666666666666668
-400.0   90.0   0.0
-400.0   120.0   0.0
-450.0   120.0   0.0
-400.0   120.0   16.666666666666668
-450.0   90.0   16.666666666666668
-450.0   120.0   16.666666666666668
-400.0   120.0   16.666666666666668
-450.0   120.0   0.0
-450.0   90.0   16.666666666666668
-400.0   120.0   16.666666666666668
-400.0   90.0   16.666666666666668
-400.0   90.0   0.0
-450.0   90.0   16.666666666666668
-400.0   120.0   16.666666666666668
-400.0   90.0   0.0
-450.0   120.0   0.0
-450.0   90.0   16.666666666666668
-400.0   90.0   16.666666666666668
-450.0   120.0   16.666666666666668
-450.0   90.0   33.333333333333336
-400.0   90.0   16.666666666666668
-400.0   120.0   16.666666666666668
-450.0   120.0   16.666666666666668
-400.0   120.0   33.333333333333336
-450.0   90.0   33.333333333333336
-450.0   120.0   33.333333333333336
-400.0   120.0   33.333333333333336
-450.0   120.0   16.666666666666668
-450.0   90.0   33.333333333333336
-400.0   120.0   33.333333333333336
-400.0   90.0   33.333333333333336
-400.0   90.0   16.666666666666668
-450.0   90.0   33.333333333333336
-400.0   120.0   33.333333333333336
-400.0   90.0   16.666666666666668
-450.0   120.0   16.666666666666668
-450.0   90.0   33.333333333333336
-400.0   90.0   33.333333333333336
-450.0   120.0   33.333333333333336
-450.0   90.0   50.0
-400.0   90.0   33.333333333333336
-400.0   120.0   33.333333333333336
-450.0   120.0   33.333333333333336
-400.0   120.0   50.0
-450.0   90.0   50.0
-450.0   120.0   50.0
-400.0   120.0   50.0
-450.0   120.0   33.333333333333336
-450.0   90.0   50.0
-400.0   120.0   50.0
-400.0   90.0   50.0
-400.0   90.0   33.333333333333336
-450.0   90.0   50.0
-400.0   120.0   50.0
-400.0   90.0   33.333333333333336
-450.0   120.0   33.333333333333336
-450.0   120.0   0.0
-400.0   120.0   0.0
-450.0   150.0   0.0
-450.0   120.0   16.666666666666668
-400.0   120.0   0.0
-400.0   150.0   0.0
-450.0   150.0   0.0
-400.0   150.0   16.666666666666668
-450.0   120.0   16.666666666666668
-450.0   150.0   16.666666666666668
-400.0   150.0   16.666666666666668
-450.0   150.0   0.0
-450.0   120.0   16.666666666666668
-400.0   150.0   16.666666666666668
-400.0   120.0   16.666666666666668
-400.0   120.0   0.0
-450.0   120.0   16.666666666666668
-400.0   150.0   16.666666666666668
-400.0   120.0   0.0
-450.0   150.0   0.0
-450.0   120.0   16.666666666666668
-400.0   120.0   16.666666666666668
-450.0   150.0   16.666666666666668
-450.0   120.0   33.333333333333336
-400.0   120.0   16.666666666666668
-400.0   150.0   16.666666666666668
-450.0   150.0   16.666666666666668
-400.0   150.0   33.333333333333336
-450.0   120.0   33.333333333333336
-450.0   150.0   33.333333333333336
-400.0   150.0   33.333333333333336
-450.0   150.0   16.666666666666668
-450.0   120.0   33.333333333333336
-400.0   150.0   33.333333333333336
-400.0   120.0   33.333333333333336
-400.0   120.0   16.666666666666668
-450.0   120.0   33.333333333333336
-400.0   150.0   33.333333333333336
-400.0   120.0   16.666666666666668
-450.0   150.0   16.666666666666668
-450.0   120.0   33.333333333333336
-400.0   120.0   33.333333333333336
-450.0   150.0   33.333333333333336
-450.0   120.0   50.0
-400.0   120.0   33.333333333333336
-400.0   150.0   33.333333333333336
-450.0   150.0   33.333333333333336
-400.0   150.0   50.0
-450.0   120.0   50.0
-450.0   150.0   50.0
-400.0   150.0   50.0
-450.0   150.0   33.333333333333336
-450.0   120.0   50.0
-400.0   150.0   50.0
-400.0   120.0   50.0
-400.0   120.0   33.333333333333336
-450.0   120.0   50.0
-400.0   150.0   50.0
-400.0   120.0   33.333333333333336
-450.0   150.0   33.333333333333336
-400.0   0.0   0.0
-350.0   0.0   0.0
-400.0   30.0   0.0
-400.0   0.0   16.666666666666668
-350.0   0.0   0.0
-350.0   30.0   0.0
-400.0   30.0   0.0
-350.0   30.0   16.666666666666668
-400.0   0.0   16.666666666666668
-400.0   30.0   16.666666666666668
-350.0   30.0   16.666666666666668
-400.0   30.0   0.0
-400.0   0.0   16.666666666666668
-350.0   30.0   16.666666666666668
-350.0   0.0   16.666666666666668
-350.0   0.0   0.0
-400.0   0.0   16.666666666666668
-350.0   30.0   16.666666666666668
-350.0   0.0   0.0
-400.0   30.0   0.0
-400.0   0.0   16.666666666666668
-350.0   0.0   16.666666666666668
-400.0   30.0   16.666666666666668
-400.0   0.0   33.333333333333336
-350.0   0.0   16.666666666666668
-350.0   30.0   16.666666666666668
-400.0   30.0   16.666666666666668
-350.0   30.0   33.333333333333336
-400.0   0.0   33.333333333333336
-400.0   30.0   33.333333333333336
-350.0   30.0   33.333333333333336
-400.0   30.0   16.666666666666668
-400.0   0.0   33.333333333333336
-350.0   30.0   33.333333333333336
-350.0   0.0   33.333333333333336
-350.0   0.0   16.666666666666668
-400.0   0.0   33.333333333333336
-350.0   30.0   33.333333333333336
-350.0   0.0   16.666666666666668
-400.0   30.0   16.666666666666668
-400.0   0.0   33.333333333333336
-350.0   0.0   33.333333333333336
-400.0   30.0   33.333333333333336
-400.0   0.0   50.0
-350.0   0.0   33.333333333333336
-350.0   30.0   33.333333333333336
-400.0   30.0   33.333333333333336
-350.0   30.0   50.0
-400.0   0.0   50.0
-400.0   30.0   50.0
-350.0   30.0   50.0
-400.0   30.0   33.333333333333336
-400.0   0.0   50.0
-350.0   30.0   50.0
-350.0   0.0   50.0
-350.0   0.0   33.333333333333336
-400.0   0.0   50.0
-350.0   30.0   50.0
-350.0   0.0   33.333333333333336
-400.0   30.0   33.333333333333336
-400.0   30.0   0.0
-350.0   30.0   0.0
-400.0   60.0   0.0
-400.0   30.0   16.666666666666668
-350.0   30.0   0.0
-350.0   60.0   0.0
-400.0   60.0   0.0
-350.0   60.0   16.666666666666668
-400.0   30.0   16.666666666666668
-400.0   60.0   16.666666666666668
-350.0   60.0   16.666666666666668
-400.0   60.0   0.0
-400.0   30.0   16.666666666666668
-350.0   60.0   16.666666666666668
-350.0   30.0   16.666666666666668
-350.0   30.0   0.0
-400.0   30.0   16.666666666666668
-350.0   60.0   16.666666666666668
-350.0   30.0   0.0
-400.0   60.0   0.0
-400.0   30.0   16.666666666666668
-350.0   30.0   16.666666666666668
-400.0   60.0   16.666666666666668
-400.0   30.0   33.333333333333336
-350.0   30.0   16.666666666666668
-350.0   60.0   16.666666666666668
-400.0   60.0   16.666666666666668
-350.0   60.0   33.333333333333336
-400.0   30.0   33.333333333333336
-400.0   60.0   33.333333333333336
-350.0   60.0   33.333333333333336
-400.0   60.0   16.666666666666668
-400.0   30.0   33.333333333333336
-350.0   60.0   33.333333333333336
-350.0   30.0   33.333333333333336
-350.0   30.0   16.666666666666668
-400.0   30.0   33.333333333333336
-350.0   60.0   33.333333333333336
-350.0   30.0   16.666666666666668
-400.0   60.0   16.666666666666668
-400.0   30.0   33.333333333333336
-350.0   30.0   33.333333333333336
-400.0   60.0   33.333333333333336
-400.0   30.0   50.0
-350.0   30.0   33.333333333333336
-350.0   60.0   33.333333333333336
-400.0   60.0   33.333333333333336
-350.0   60.0   50.0
-400.0   30.0   50.0
-400.0   60.0   50.0
-350.0   60.0   50.0
-400.0   60.0   33.333333333333336
-400.0   30.0   50.0
-350.0   60.0   50.0
-350.0   30.0   50.0
-350.0   30.0   33.333333333333336
-400.0   30.0   50.0
-350.0   60.0   50.0
-350.0   30.0   33.333333333333336
-400.0   60.0   33.333333333333336
-400.0   60.0   0.0
-350.0   60.0   0.0
-400.0   90.0   0.0
-400.0   60.0   16.666666666666668
-350.0   60.0   0.0
-350.0   90.0   0.0
-400.0   90.0   0.0
-350.0   90.0   16.666666666666668
-400.0   60.0   16.666666666666668
-400.0   90.0   16.666666666666668
-350.0   90.0   16.666666666666668
-400.0   90.0   0.0
-400.0   60.0   16.666666666666668
-350.0   90.0   16.666666666666668
-350.0   60.0   16.666666666666668
-350.0   60.0   0.0
-400.0   60.0   16.666666666666668
-350.0   90.0   16.666666666666668
-350.0   60.0   0.0
-400.0   90.0   0.0
-400.0   60.0   16.666666666666668
-350.0   60.0   16.666666666666668
-400.0   90.0   16.666666666666668
-400.0   60.0   33.333333333333336
-350.0   60.0   16.666666666666668
-350.0   90.0   16.666666666666668
-400.0   90.0   16.666666666666668
-350.0   90.0   33.333333333333336
-400.0   60.0   33.333333333333336
-400.0   90.0   33.333333333333336
-350.0   90.0   33.333333333333336
-400.0   90.0   16.666666666666668
-400.0   60.0   33.333333333333336
-350.0   90.0   33.333333333333336
-350.0   60.0   33.333333333333336
-350.0   60.0   16.666666666666668
-400.0   60.0   33.333333333333336
-350.0   90.0   33.333333333333336
-350.0   60.0   16.666666666666668
-400.0   90.0   16.666666666666668
-400.0   60.0   33.333333333333336
-350.0   60.0   33.333333333333336
-400.0   90.0   33.333333333333336
-400.0   60.0   50.0
-350.0   60.0   33.333333333333336
-350.0   90.0   33.333333333333336
-400.0   90.0   33.333333333333336
-350.0   90.0   50.0
-400.0   60.0   50.0
-400.0   90.0   50.0
-350.0   90.0   50.0
-400.0   90.0   33.333333333333336
-400.0   60.0   50.0
-350.0   90.0   50.0
-350.0   60.0   50.0
-350.0   60.0   33.333333333333336
-400.0   60.0   50.0
-350.0   90.0   50.0
-350.0   60.0   33.333333333333336
-400.0   90.0   33.333333333333336
-400.0   90.0   0.0
-350.0   90.0   0.0
-400.0   120.0   0.0
-400.0   90.0   16.666666666666668
-350.0   90.0   0.0
-350.0   120.0   0.0
-400.0   120.0   0.0
-350.0   120.0   16.666666666666668
-400.0   90.0   16.666666666666668
-400.0   120.0   16.666666666666668
-350.0   120.0   16.666666666666668
-400.0   120.0   0.0
-400.0   90.0   16.666666666666668
-350.0   120.0   16.666666666666668
-350.0   90.0   16.666666666666668
-350.0   90.0   0.0
-400.0   90.0   16.666666666666668
-350.0   120.0   16.666666666666668
-350.0   90.0   0.0
-400.0   120.0   0.0
-400.0   90.0   16.666666666666668
-350.0   90.0   16.666666666666668
-400.0   120.0   16.666666666666668
-400.0   90.0   33.333333333333336
-350.0   90.0   16.666666666666668
-350.0   120.0   16.666666666666668
-400.0   120.0   16.666666666666668
-350.0   120.0   33.333333333333336
-400.0   90.0   33.333333333333336
-400.0   120.0   33.333333333333336
-350.0   120.0   33.333333333333336
-400.0   120.0   16.666666666666668
-400.0   90.0   33.333333333333336
-350.0   120.0   33.333333333333336
-350.0   90.0   33.333333333333336
-350.0   90.0   16.666666666666668
-400.0   90.0   33.333333333333336
-350.0   120.0   33.333333333333336
-350.0   90.0   16.666666666666668
-400.0   120.0   16.666666666666668
-400.0   90.0   33.333333333333336
-350.0   90.0   33.333333333333336
-400.0   120.0   33.333333333333336
-400.0   90.0   50.0
-350.0   90.0   33.333333333333336
-350.0   120.0   33.333333333333336
-400.0   120.0   33.333333333333336
-350.0   120.0   50.0
-400.0   90.0   50.0
-400.0   120.0   50.0
-350.0   120.0   50.0
-400.0   120.0   33.333333333333336
-400.0   90.0   50.0
-350.0   120.0   50.0
-350.0   90.0   50.0
-350.0   90.0   33.333333333333336
-400.0   90.0   50.0
-350.0   120.0   50.0
-350.0   90.0   33.333333333333336
-400.0   120.0   33.333333333333336
-400.0   120.0   0.0
-350.0   120.0   0.0
-400.0   150.0   0.0
-400.0   120.0   16.666666666666668
-350.0   120.0   0.0
-350.0   150.0   0.0
-400.0   150.0   0.0
-350.0   150.0   16.666666666666668
-400.0   120.0   16.666666666666668
-400.0   150.0   16.666666666666668
-350.0   150.0   16.666666666666668
-400.0   150.0   0.0
-400.0   120.0   16.666666666666668
-350.0   150.0   16.666666666666668
-350.0   120.0   16.666666666666668
-350.0   120.0   0.0
-400.0   120.0   16.666666666666668
-350.0   150.0   16.666666666666668
-350.0   120.0   0.0
-400.0   150.0   0.0
-400.0   120.0   16.666666666666668
-350.0   120.0   16.666666666666668
-400.0   150.0   16.666666666666668
-400.0   120.0   33.333333333333336
-350.0   120.0   16.666666666666668
-350.0   150.0   16.666666666666668
-400.0   150.0   16.666666666666668
-350.0   150.0   33.333333333333336
-400.0   120.0   33.333333333333336
-400.0   150.0   33.333333333333336
-350.0   150.0   33.333333333333336
-400.0   150.0   16.666666666666668
-400.0   120.0   33.333333333333336
-350.0   150.0   33.333333333333336
-350.0   120.0   33.333333333333336
-350.0   120.0   16.666666666666668
-400.0   120.0   33.333333333333336
-350.0   150.0   33.333333333333336
-350.0   120.0   16.666666666666668
-400.0   150.0   16.666666666666668
-400.0   120.0   33.333333333333336
-350.0   120.0   33.333333333333336
-400.0   150.0   33.333333333333336
-400.0   120.0   50.0
-350.0   120.0   33.333333333333336
-350.0   150.0   33.333333333333336
-400.0   150.0   33.333333333333336
-350.0   150.0   50.0
-400.0   120.0   50.0
-400.0   150.0   50.0
-350.0   150.0   50.0
-400.0   150.0   33.333333333333336
-400.0   120.0   50.0
-350.0   150.0   50.0
-350.0   120.0   50.0
-350.0   120.0   33.333333333333336
-400.0   120.0   50.0
-350.0   150.0   50.0
-350.0   120.0   33.333333333333336
-400.0   150.0   33.333333333333336
-350.0   0.0   0.0
-300.0   0.0   0.0
-350.0   30.0   0.0
-350.0   0.0   16.666666666666668
-300.0   0.0   0.0
-300.0   30.0   0.0
-350.0   30.0   0.0
-300.0   30.0   16.666666666666668
-350.0   0.0   16.666666666666668
-350.0   30.0   16.666666666666668
-300.0   30.0   16.666666666666668
-350.0   30.0   0.0
-350.0   0.0   16.666666666666668
-300.0   30.0   16.666666666666668
-300.0   0.0   16.666666666666668
-300.0   0.0   0.0
-350.0   0.0   16.666666666666668
-300.0   30.0   16.666666666666668
-300.0   0.0   0.0
-350.0   30.0   0.0
-350.0   0.0   16.666666666666668
-300.0   0.0   16.666666666666668
-350.0   30.0   16.666666666666668
-350.0   0.0   33.333333333333336
-300.0   0.0   16.666666666666668
-300.0   30.0   16.666666666666668
-350.0   30.0   16.666666666666668
-300.0   30.0   33.333333333333336
-350.0   0.0   33.333333333333336
-350.0   30.0   33.333333333333336
-300.0   30.0   33.333333333333336
-350.0   30.0   16.666666666666668
-350.0   0.0   33.333333333333336
-300.0   30.0   33.333333333333336
-300.0   0.0   33.333333333333336
-300.0   0.0   16.666666666666668
-350.0   0.0   33.333333333333336
-300.0   30.0   33.333333333333336
-300.0   0.0   16.666666666666668
-350.0   30.0   16.666666666666668
-350.0   0.0   33.333333333333336
-300.0   0.0   33.333333333333336
-350.0   30.0   33.333333333333336
-350.0   0.0   50.0
-300.0   0.0   33.333333333333336
-300.0   30.0   33.333333333333336
-350.0   30.0   33.333333333333336
-300.0   30.0   50.0
-350.0   0.0   50.0
-350.0   30.0   50.0
-300.0   30.0   50.0
-350.0   30.0   33.333333333333336
-350.0   0.0   50.0
-300.0   30.0   50.0
-300.0   0.0   50.0
-300.0   0.0   33.333333333333336
-350.0   0.0   50.0
-300.0   30.0   50.0
-300.0   0.0   33.333333333333336
-350.0   30.0   33.333333333333336
-350.0   30.0   0.0
-300.0   30.0   0.0
-350.0   60.0   0.0
-350.0   30.0   16.666666666666668
-300.0   30.0   0.0
-300.0   60.0   0.0
-350.0   60.0   0.0
-300.0   60.0   16.666666666666668
-350.0   30.0   16.666666666666668
-350.0   60.0   16.666666666666668
-300.0   60.0   16.666666666666668
-350.0   60.0   0.0
-350.0   30.0   16.666666666666668
-300.0   60.0   16.666666666666668
-300.0   30.0   16.666666666666668
-300.0   30.0   0.0
-350.0   30.0   16.666666666666668
-300.0   60.0   16.666666666666668
-300.0   30.0   0.0
-350.0   60.0   0.0
-350.0   30.0   16.666666666666668
-300.0   30.0   16.666666666666668
-350.0   60.0   16.666666666666668
-350.0   30.0   33.333333333333336
-300.0   30.0   16.666666666666668
-300.0   60.0   16.666666666666668
-350.0   60.0   16.666666666666668
-300.0   60.0   33.333333333333336
-350.0   30.0   33.333333333333336
-350.0   60.0   33.333333333333336
-300.0   60.0   33.333333333333336
-350.0   60.0   16.666666666666668
-350.0   30.0   33.333333333333336
-300.0   60.0   33.333333333333336
-300.0   30.0   33.333333333333336
-300.0   30.0   16.666666666666668
-350.0   30.0   33.333333333333336
-300.0   60.0   33.333333333333336
-300.0   30.0   16.666666666666668
-350.0   60.0   16.666666666666668
-350.0   30.0   33.333333333333336
-300.0   30.0   33.333333333333336
-350.0   60.0   33.333333333333336
-350.0   30.0   50.0
-300.0   30.0   33.333333333333336
-300.0   60.0   33.333333333333336
-350.0   60.0   33.333333333333336
-300.0   60.0   50.0
-350.0   30.0   50.0
-350.0   60.0   50.0
-300.0   60.0   50.0
-350.0   60.0   33.333333333333336
-350.0   30.0   50.0
-300.0   60.0   50.0
-300.0   30.0   50.0
-300.0   30.0   33.333333333333336
-350.0   30.0   50.0
-300.0   60.0   50.0
-300.0   30.0   33.333333333333336
-350.0   60.0   33.333333333333336
-350.0   60.0   0.0
-300.0   60.0   0.0
-350.0   90.0   0.0
-350.0   60.0   16.666666666666668
-300.0   60.0   0.0
-300.0   90.0   0.0
-350.0   90.0   0.0
-300.0   90.0   16.666666666666668
-350.0   60.0   16.666666666666668
-350.0   90.0   16.666666666666668
-300.0   90.0   16.666666666666668
-350.0   90.0   0.0
-350.0   60.0   16.666666666666668
-300.0   90.0   16.666666666666668
-300.0   60.0   16.666666666666668
-300.0   60.0   0.0
-350.0   60.0   16.666666666666668
-300.0   90.0   16.666666666666668
-300.0   60.0   0.0
-350.0   90.0   0.0
-350.0   60.0   16.666666666666668
-300.0   60.0   16.666666666666668
-350.0   90.0   16.666666666666668
-350.0   60.0   33.333333333333336
-300.0   60.0   16.666666666666668
-300.0   90.0   16.666666666666668
-350.0   90.0   16.666666666666668
-300.0   90.0   33.333333333333336
-350.0   60.0   33.333333333333336
-350.0   90.0   33.333333333333336
-300.0   90.0   33.333333333333336
-350.0   90.0   16.666666666666668
-350.0   60.0   33.333333333333336
-300.0   90.0   33.333333333333336
-300.0   60.0   33.333333333333336
-300.0   60.0   16.666666666666668
-350.0   60.0   33.333333333333336
-300.0   90.0   33.333333333333336
-300.0   60.0   16.666666666666668
-350.0   90.0   16.666666666666668
-350.0   60.0   33.333333333333336
-300.0   60.0   33.333333333333336
-350.0   90.0   33.333333333333336
-350.0   60.0   50.0
-300.0   60.0   33.333333333333336
-300.0   90.0   33.333333333333336
-350.0   90.0   33.333333333333336
-300.0   90.0   50.0
-350.0   60.0   50.0
-350.0   90.0   50.0
-300.0   90.0   50.0
-350.0   90.0   33.333333333333336
-350.0   60.0   50.0
-300.0   90.0   50.0
-300.0   60.0   50.0
-300.0   60.0   33.333333333333336
-350.0   60.0   50.0
-300.0   90.0   50.0
-300.0   60.0   33.333333333333336
-350.0   90.0   33.333333333333336
-350.0   90.0   0.0
-300.0   90.0   0.0
-350.0   120.0   0.0
-350.0   90.0   16.666666666666668
-300.0   90.0   0.0
-300.0   120.0   0.0
-350.0   120.0   0.0
-300.0   120.0   16.666666666666668
-350.0   90.0   16.666666666666668
-350.0   120.0   16.666666666666668
-300.0   120.0   16.666666666666668
-350.0   120.0   0.0
-350.0   90.0   16.666666666666668
-300.0   120.0   16.666666666666668
-300.0   90.0   16.666666666666668
-300.0   90.0   0.0
-350.0   90.0   16.666666666666668
-300.0   120.0   16.666666666666668
-300.0   90.0   0.0
-350.0   120.0   0.0
-350.0   90.0   16.666666666666668
-300.0   90.0   16.666666666666668
-350.0   120.0   16.666666666666668
-350.0   90.0   33.333333333333336
-300.0   90.0   16.666666666666668
-300.0   120.0   16.666666666666668
-350.0   120.0   16.666666666666668
-300.0   120.0   33.333333333333336
-350.0   90.0   33.333333333333336
-350.0   120.0   33.333333333333336
-300.0   120.0   33.333333333333336
-350.0   120.0   16.666666666666668
-350.0   90.0   33.333333333333336
-300.0   120.0   33.333333333333336
-300.0   90.0   33.333333333333336
-300.0   90.0   16.666666666666668
-350.0   90.0   33.333333333333336
-300.0   120.0   33.333333333333336
-300.0   90.0   16.666666666666668
-350.0   120.0   16.666666666666668
-350.0   90.0   33.333333333333336
-300.0   90.0   33.333333333333336
-350.0   120.0   33.333333333333336
-350.0   90.0   50.0
-300.0   90.0   33.333333333333336
-300.0   120.0   33.333333333333336
-350.0   120.0   33.333333333333336
-300.0   120.0   50.0
-350.0   90.0   50.0
-350.0   120.0   50.0
-300.0   120.0   50.0
-350.0   120.0   33.333333333333336
-350.0   90.0   50.0
-300.0   120.0   50.0
-300.0   90.0   50.0
-300.0   90.0   33.333333333333336
-350.0   90.0   50.0
-300.0   120.0   50.0
-300.0   90.0   33.333333333333336
-350.0   120.0   33.333333333333336
-350.0   120.0   0.0
-300.0   120.0   0.0
-350.0   150.0   0.0
-350.0   120.0   16.666666666666668
-300.0   120.0   0.0
-300.0   150.0   0.0
-350.0   150.0   0.0
-300.0   150.0   16.666666666666668
-350.0   120.0   16.666666666666668
-350.0   150.0   16.666666666666668
-300.0   150.0   16.666666666666668
-350.0   150.0   0.0
-350.0   120.0   16.666666666666668
-300.0   150.0   16.666666666666668
-300.0   120.0   16.666666666666668
-300.0   120.0   0.0
-350.0   120.0   16.666666666666668
-300.0   150.0   16.666666666666668
-300.0   120.0   0.0
-350.0   150.0   0.0
-350.0   120.0   16.666666666666668
-300.0   120.0   16.666666666666668
-350.0   150.0   16.666666666666668
-350.0   120.0   33.333333333333336
-300.0   120.0   16.666666666666668
-300.0   150.0   16.666666666666668
-350.0   150.0   16.666666666666668
-300.0   150.0   33.333333333333336
-350.0   120.0   33.333333333333336
-350.0   150.0   33.333333333333336
-300.0   150.0   33.333333333333336
-350.0   150.0   16.666666666666668
-350.0   120.0   33.333333333333336
-300.0   150.0   33.333333333333336
-300.0   120.0   33.333333333333336
-300.0   120.0   16.666666666666668
-350.0   120.0   33.333333333333336
-300.0   150.0   33.333333333333336
-300.0   120.0   16.666666666666668
-350.0   150.0   16.666666666666668
-350.0   120.0   33.333333333333336
-300.0   120.0   33.333333333333336
-350.0   150.0   33.333333333333336
-350.0   120.0   50.0
-300.0   120.0   33.333333333333336
-300.0   150.0   33.333333333333336
-350.0   150.0   33.333333333333336
-300.0   150.0   50.0
-350.0   120.0   50.0
-350.0   150.0   50.0
-300.0   150.0   50.0
-350.0   150.0   33.333333333333336
-350.0   120.0   50.0
-300.0   150.0   50.0
-300.0   120.0   50.0
-300.0   120.0   33.333333333333336
-350.0   120.0   50.0
-300.0   150.0   50.0
-300.0   120.0   33.333333333333336
-350.0   150.0   33.333333333333336
-300.0   0.0   0.0
-250.0   0.0   0.0
-300.0   30.0   0.0
-300.0   0.0   16.666666666666668
-250.0   0.0   0.0
-250.0   30.0   0.0
-300.0   30.0   0.0
-250.0   30.0   16.666666666666668
-300.0   0.0   16.666666666666668
-300.0   30.0   16.666666666666668
-250.0   30.0   16.666666666666668
-300.0   30.0   0.0
-300.0   0.0   16.666666666666668
-250.0   30.0   16.666666666666668
-250.0   0.0   16.666666666666668
-250.0   0.0   0.0
-300.0   0.0   16.666666666666668
-250.0   30.0   16.666666666666668
-250.0   0.0   0.0
-300.0   30.0   0.0
-300.0   0.0   16.666666666666668
-250.0   0.0   16.666666666666668
-300.0   30.0   16.666666666666668
-300.0   0.0   33.333333333333336
-250.0   0.0   16.666666666666668
-250.0   30.0   16.666666666666668
-300.0   30.0   16.666666666666668
-250.0   30.0   33.333333333333336
-300.0   0.0   33.333333333333336
-300.0   30.0   33.333333333333336
-250.0   30.0   33.333333333333336
-300.0   30.0   16.666666666666668
-300.0   0.0   33.333333333333336
-250.0   30.0   33.333333333333336
-250.0   0.0   33.333333333333336
-250.0   0.0   16.666666666666668
-300.0   0.0   33.333333333333336
-250.0   30.0   33.333333333333336
-250.0   0.0   16.666666666666668
-300.0   30.0   16.666666666666668
-300.0   0.0   33.333333333333336
-250.0   0.0   33.333333333333336
-300.0   30.0   33.333333333333336
-300.0   0.0   50.0
-250.0   0.0   33.333333333333336
-250.0   30.0   33.333333333333336
-300.0   30.0   33.333333333333336
-250.0   30.0   50.0
-300.0   0.0   50.0
-300.0   30.0   50.0
-250.0   30.0   50.0
-300.0   30.0   33.333333333333336
-300.0   0.0   50.0
-250.0   30.0   50.0
-250.0   0.0   50.0
-250.0   0.0   33.333333333333336
-300.0   0.0   50.0
-250.0   30.0   50.0
-250.0   0.0   33.333333333333336
-300.0   30.0   33.333333333333336
-300.0   30.0   0.0
-250.0   30.0   0.0
-300.0   60.0   0.0
-300.0   30.0   16.666666666666668
-250.0   30.0   0.0
-250.0   60.0   0.0
-300.0   60.0   0.0
-250.0   60.0   16.666666666666668
-300.0   30.0   16.666666666666668
-300.0   60.0   16.666666666666668
-250.0   60.0   16.666666666666668
-300.0   60.0   0.0
-300.0   30.0   16.666666666666668
-250.0   60.0   16.666666666666668
-250.0   30.0   16.666666666666668
-250.0   30.0   0.0
-300.0   30.0   16.666666666666668
-250.0   60.0   16.666666666666668
-250.0   30.0   0.0
-300.0   60.0   0.0
-300.0   30.0   16.666666666666668
-250.0   30.0   16.666666666666668
-300.0   60.0   16.666666666666668
-300.0   30.0   33.333333333333336
-250.0   30.0   16.666666666666668
-250.0   60.0   16.666666666666668
-300.0   60.0   16.666666666666668
-250.0   60.0   33.333333333333336
-300.0   30.0   33.333333333333336
-300.0   60.0   33.333333333333336
-250.0   60.0   33.333333333333336
-300.0   60.0   16.666666666666668
-300.0   30.0   33.333333333333336
-250.0   60.0   33.333333333333336
-250.0   30.0   33.333333333333336
-250.0   30.0   16.666666666666668
-300.0   30.0   33.333333333333336
-250.0   60.0   33.333333333333336
-250.0   30.0   16.666666666666668
-300.0   60.0   16.666666666666668
-300.0   30.0   33.333333333333336
-250.0   30.0   33.333333333333336
-300.0   60.0   33.333333333333336
-300.0   30.0   50.0
-250.0   30.0   33.333333333333336
-250.0   60.0   33.333333333333336
-300.0   60.0   33.333333333333336
-250.0   60.0   50.0
-300.0   30.0   50.0
-300.0   60.0   50.0
-250.0   60.0   50.0
-300.0   60.0   33.333333333333336
-300.0   30.0   50.0
-250.0   60.0   50.0
-250.0   30.0   50.0
-250.0   30.0   33.333333333333336
-300.0   30.0   50.0
-250.0   60.0   50.0
-250.0   30.0   33.333333333333336
-300.0   60.0   33.333333333333336
-300.0   60.0   0.0
-250.0   60.0   0.0
-300.0   90.0   0.0
-300.0   60.0   16.666666666666668
-250.0   60.0   0.0
-250.0   90.0   0.0
-300.0   90.0   0.0
-250.0   90.0   16.666666666666668
-300.0   60.0   16.666666666666668
-300.0   90.0   16.666666666666668
-250.0   90.0   16.666666666666668
-300.0   90.0   0.0
-300.0   60.0   16.666666666666668
-250.0   90.0   16.666666666666668
-250.0   60.0   16.666666666666668
-250.0   60.0   0.0
-300.0   60.0   16.666666666666668
-250.0   90.0   16.666666666666668
-250.0   60.0   0.0
-300.0   90.0   0.0
-300.0   60.0   16.666666666666668
-250.0   60.0   16.666666666666668
-300.0   90.0   16.666666666666668
-300.0   60.0   33.333333333333336
-250.0   60.0   16.666666666666668
-250.0   90.0   16.666666666666668
-300.0   90.0   16.666666666666668
-250.0   90.0   33.333333333333336
-300.0   60.0   33.333333333333336
-300.0   90.0   33.333333333333336
-250.0   90.0   33.333333333333336
-300.0   90.0   16.666666666666668
-300.0   60.0   33.333333333333336
-250.0   90.0   33.333333333333336
-250.0   60.0   33.333333333333336
-250.0   60.0   16.666666666666668
-300.0   60.0   33.333333333333336
-250.0   90.0   33.333333333333336
-250.0   60.0   16.666666666666668
-300.0   90.0   16.666666666666668
-300.0   60.0   33.333333333333336
-250.0   60.0   33.333333333333336
-300.0   90.0   33.333333333333336
-300.0   60.0   50.0
-250.0   60.0   33.333333333333336
-250.0   90.0   33.333333333333336
-300.0   90.0   33.333333333333336
-250.0   90.0   50.0
-300.0   60.0   50.0
-300.0   90.0   50.0
-250.0   90.0   50.0
-300.0   90.0   33.333333333333336
-300.0   60.0   50.0
-250.0   90.0   50.0
-250.0   60.0   50.0
-250.0   60.0   33.333333333333336
-300.0   60.0   50.0
-250.0   90.0   50.0
-250.0   60.0   33.333333333333336
-300.0   90.0   33.333333333333336
-300.0   90.0   0.0
-250.0   90.0   0.0
-300.0   120.0   0.0
-300.0   90.0   16.666666666666668
-250.0   90.0   0.0
-250.0   120.0   0.0
-300.0   120.0   0.0
-250.0   120.0   16.666666666666668
-300.0   90.0   16.666666666666668
-300.0   120.0   16.666666666666668
-250.0   120.0   16.666666666666668
-300.0   120.0   0.0
-300.0   90.0   16.666666666666668
-250.0   120.0   16.666666666666668
-250.0   90.0   16.666666666666668
-250.0   90.0   0.0
-300.0   90.0   16.666666666666668
-250.0   120.0   16.666666666666668
-250.0   90.0   0.0
-300.0   120.0   0.0
-300.0   90.0   16.666666666666668
-250.0   90.0   16.666666666666668
-300.0   120.0   16.666666666666668
-300.0   90.0   33.333333333333336
-250.0   90.0   16.666666666666668
-250.0   120.0   16.666666666666668
-300.0   120.0   16.666666666666668
-250.0   120.0   33.333333333333336
-300.0   90.0   33.333333333333336
-300.0   120.0   33.333333333333336
-250.0   120.0   33.333333333333336
-300.0   120.0   16.666666666666668
-300.0   90.0   33.333333333333336
-250.0   120.0   33.333333333333336
-250.0   90.0   33.333333333333336
-250.0   90.0   16.666666666666668
-300.0   90.0   33.333333333333336
-250.0   120.0   33.333333333333336
-250.0   90.0   16.666666666666668
-300.0   120.0   16.666666666666668
-300.0   90.0   33.333333333333336
-250.0   90.0   33.333333333333336
-300.0   120.0   33.333333333333336
-300.0   90.0   50.0
-250.0   90.0   33.333333333333336
-250.0   120.0   33.333333333333336
-300.0   120.0   33.333333333333336
-250.0   120.0   50.0
-300.0   90.0   50.0
-300.0   120.0   50.0
-250.0   120.0   50.0
-300.0   120.0   33.333333333333336
-300.0   90.0   50.0
-250.0   120.0   50.0
-250.0   90.0   50.0
-250.0   90.0   33.333333333333336
-300.0   90.0   50.0
-250.0   120.0   50.0
-250.0   90.0   33.333333333333336
-300.0   120.0   33.333333333333336
-300.0   120.0   0.0
-250.0   120.0   0.0
-300.0   150.0   0.0
-300.0   120.0   16.666666666666668
-250.0   120.0   0.0
-250.0   150.0   0.0
-300.0   150.0   0.0
-250.0   150.0   16.666666666666668
-300.0   120.0   16.666666666666668
-300.0   150.0   16.666666666666668
-250.0   150.0   16.666666666666668
-300.0   150.0   0.0
-300.0   120.0   16.666666666666668
-250.0   150.0   16.666666666666668
-250.0   120.0   16.666666666666668
-250.0   120.0   0.0
-300.0   120.0   16.666666666666668
-250.0   150.0   16.666666666666668
-250.0   120.0   0.0
-300.0   150.0   0.0
-300.0   120.0   16.666666666666668
-250.0   120.0   16.666666666666668
-300.0   150.0   16.666666666666668
-300.0   120.0   33.333333333333336
-250.0   120.0   16.666666666666668
-250.0   150.0   16.666666666666668
-300.0   150.0   16.666666666666668
-250.0   150.0   33.333333333333336
-300.0   120.0   33.333333333333336
-300.0   150.0   33.333333333333336
-250.0   150.0   33.333333333333336
-300.0   150.0   16.666666666666668
-300.0   120.0   33.333333333333336
-250.0   150.0   33.333333333333336
-250.0   120.0   33.333333333333336
-250.0   120.0   16.666666666666668
-300.0   120.0   33.333333333333336
-250.0   150.0   33.333333333333336
-250.0   120.0   16.666666666666668
-300.0   150.0   16.666666666666668
-300.0   120.0   33.333333333333336
-250.0   120.0   33.333333333333336
-300.0   150.0   33.333333333333336
-300.0   120.0   50.0
-250.0   120.0   33.333333333333336
-250.0   150.0   33.333333333333336
-300.0   150.0   33.333333333333336
-250.0   150.0   50.0
-300.0   120.0   50.0
-300.0   150.0   50.0
-250.0   150.0   50.0
-300.0   150.0   33.333333333333336
-300.0   120.0   50.0
-250.0   150.0   50.0
-250.0   120.0   50.0
-250.0   120.0   33.333333333333336
-300.0   120.0   50.0
-250.0   150.0   50.0
-250.0   120.0   33.333333333333336
-300.0   150.0   33.333333333333336
-250.0   0.0   0.0
-200.0   0.0   0.0
-250.0   30.0   0.0
-250.0   0.0   16.666666666666668
-200.0   0.0   0.0
-200.0   30.0   0.0
-250.0   30.0   0.0
-200.0   30.0   16.666666666666668
-250.0   0.0   16.666666666666668
-250.0   30.0   16.666666666666668
-200.0   30.0   16.666666666666668
-250.0   30.0   0.0
-250.0   0.0   16.666666666666668
-200.0   30.0   16.666666666666668
-200.0   0.0   16.666666666666668
-200.0   0.0   0.0
-250.0   0.0   16.666666666666668
-200.0   30.0   16.666666666666668
-200.0   0.0   0.0
-250.0   30.0   0.0
-250.0   0.0   16.666666666666668
-200.0   0.0   16.666666666666668
-250.0   30.0   16.666666666666668
-250.0   0.0   33.333333333333336
-200.0   0.0   16.666666666666668
-200.0   30.0   16.666666666666668
-250.0   30.0   16.666666666666668
-200.0   30.0   33.333333333333336
-250.0   0.0   33.333333333333336
-250.0   30.0   33.333333333333336
-200.0   30.0   33.333333333333336
-250.0   30.0   16.666666666666668
-250.0   0.0   33.333333333333336
-200.0   30.0   33.333333333333336
-200.0   0.0   33.333333333333336
-200.0   0.0   16.666666666666668
-250.0   0.0   33.333333333333336
-200.0   30.0   33.333333333333336
-200.0   0.0   16.666666666666668
-250.0   30.0   16.666666666666668
-250.0   0.0   33.333333333333336
-200.0   0.0   33.333333333333336
-250.0   30.0   33.333333333333336
-250.0   0.0   50.0
-200.0   0.0   33.333333333333336
-200.0   30.0   33.333333333333336
-250.0   30.0   33.333333333333336
-200.0   30.0   50.0
-250.0   0.0   50.0
-250.0   30.0   50.0
-200.0   30.0   50.0
-250.0   30.0   33.333333333333336
-250.0   0.0   50.0
-200.0   30.0   50.0
-200.0   0.0   50.0
-200.0   0.0   33.333333333333336
-250.0   0.0   50.0
-200.0   30.0   50.0
-200.0   0.0   33.333333333333336
-250.0   30.0   33.333333333333336
-250.0   30.0   0.0
-200.0   30.0   0.0
-250.0   60.0   0.0
-250.0   30.0   16.666666666666668
-200.0   30.0   0.0
-200.0   60.0   0.0
-250.0   60.0   0.0
-200.0   60.0   16.666666666666668
-250.0   30.0   16.666666666666668
-250.0   60.0   16.666666666666668
-200.0   60.0   16.666666666666668
-250.0   60.0   0.0
-250.0   30.0   16.666666666666668
-200.0   60.0   16.666666666666668
-200.0   30.0   16.666666666666668
-200.0   30.0   0.0
-250.0   30.0   16.666666666666668
-200.0   60.0   16.666666666666668
-200.0   30.0   0.0
-250.0   60.0   0.0
-250.0   30.0   16.666666666666668
-200.0   30.0   16.666666666666668
-250.0   60.0   16.666666666666668
-250.0   30.0   33.333333333333336
-200.0   30.0   16.666666666666668
-200.0   60.0   16.666666666666668
-250.0   60.0   16.666666666666668
-200.0   60.0   33.333333333333336
-250.0   30.0   33.333333333333336
-250.0   60.0   33.333333333333336
-200.0   60.0   33.333333333333336
-250.0   60.0   16.666666666666668
-250.0   30.0   33.333333333333336
-200.0   60.0   33.333333333333336
-200.0   30.0   33.333333333333336
-200.0   30.0   16.666666666666668
-250.0   30.0   33.333333333333336
-200.0   60.0   33.333333333333336
-200.0   30.0   16.666666666666668
-250.0   60.0   16.666666666666668
-250.0   30.0   33.333333333333336
-200.0   30.0   33.333333333333336
-250.0   60.0   33.333333333333336
-250.0   30.0   50.0
-200.0   30.0   33.333333333333336
-200.0   60.0   33.333333333333336
-250.0   60.0   33.333333333333336
-200.0   60.0   50.0
-250.0   30.0   50.0
-250.0   60.0   50.0
-200.0   60.0   50.0
-250.0   60.0   33.333333333333336
-250.0   30.0   50.0
-200.0   60.0   50.0
-200.0   30.0   50.0
-200.0   30.0   33.333333333333336
-250.0   30.0   50.0
-200.0   60.0   50.0
-200.0   30.0   33.333333333333336
-250.0   60.0   33.333333333333336
-250.0   60.0   0.0
-200.0   60.0   0.0
-250.0   90.0   0.0
-250.0   60.0   16.666666666666668
-200.0   60.0   0.0
-200.0   90.0   0.0
-250.0   90.0   0.0
-200.0   90.0   16.666666666666668
-250.0   60.0   16.666666666666668
-250.0   90.0   16.666666666666668
-200.0   90.0   16.666666666666668
-250.0   90.0   0.0
-250.0   60.0   16.666666666666668
-200.0   90.0   16.666666666666668
-200.0   60.0   16.666666666666668
-200.0   60.0   0.0
-250.0   60.0   16.666666666666668
-200.0   90.0   16.666666666666668
-200.0   60.0   0.0
-250.0   90.0   0.0
-250.0   60.0   16.666666666666668
-200.0   60.0   16.666666666666668
-250.0   90.0   16.666666666666668
-250.0   60.0   33.333333333333336
-200.0   60.0   16.666666666666668
-200.0   90.0   16.666666666666668
-250.0   90.0   16.666666666666668
-200.0   90.0   33.333333333333336
-250.0   60.0   33.333333333333336
-250.0   90.0   33.333333333333336
-200.0   90.0   33.333333333333336
-250.0   90.0   16.666666666666668
-250.0   60.0   33.333333333333336
-200.0   90.0   33.333333333333336
-200.0   60.0   33.333333333333336
-200.0   60.0   16.666666666666668
-250.0   60.0   33.333333333333336
-200.0   90.0   33.333333333333336
-200.0   60.0   16.666666666666668
-250.0   90.0   16.666666666666668
-250.0   60.0   33.333333333333336
-200.0   60.0   33.333333333333336
-250.0   90.0   33.333333333333336
-250.0   60.0   50.0
-200.0   60.0   33.333333333333336
-200.0   90.0   33.333333333333336
-250.0   90.0   33.333333333333336
-200.0   90.0   50.0
-250.0   60.0   50.0
-250.0   90.0   50.0
-200.0   90.0   50.0
-250.0   90.0   33.333333333333336
-250.0   60.0   50.0
-200.0   90.0   50.0
-200.0   60.0   50.0
-200.0   60.0   33.333333333333336
-250.0   60.0   50.0
-200.0   90.0   50.0
-200.0   60.0   33.333333333333336
-250.0   90.0   33.333333333333336
-250.0   90.0   0.0
-200.0   90.0   0.0
-250.0   120.0   0.0
-250.0   90.0   16.666666666666668
-200.0   90.0   0.0
-200.0   120.0   0.0
-250.0   120.0   0.0
-200.0   120.0   16.666666666666668
-250.0   90.0   16.666666666666668
-250.0   120.0   16.666666666666668
-200.0   120.0   16.666666666666668
-250.0   120.0   0.0
-250.0   90.0   16.666666666666668
-200.0   120.0   16.666666666666668
-200.0   90.0   16.666666666666668
-200.0   90.0   0.0
-250.0   90.0   16.666666666666668
-200.0   120.0   16.666666666666668
-200.0   90.0   0.0
-250.0   120.0   0.0
-250.0   90.0   16.666666666666668
-200.0   90.0   16.666666666666668
-250.0   120.0   16.666666666666668
-250.0   90.0   33.333333333333336
-200.0   90.0   16.666666666666668
-200.0   120.0   16.666666666666668
-250.0   120.0   16.666666666666668
-200.0   120.0   33.333333333333336
-250.0   90.0   33.333333333333336
-250.0   120.0   33.333333333333336
-200.0   120.0   33.333333333333336
-250.0   120.0   16.666666666666668
-250.0   90.0   33.333333333333336
-200.0   120.0   33.333333333333336
-200.0   90.0   33.333333333333336
-200.0   90.0   16.666666666666668
-250.0   90.0   33.333333333333336
-200.0   120.0   33.333333333333336
-200.0   90.0   16.666666666666668
-250.0   120.0   16.666666666666668
-250.0   90.0   33.333333333333336
-200.0   90.0   33.333333333333336
-250.0   120.0   33.333333333333336
-250.0   90.0   50.0
-200.0   90.0   33.333333333333336
-200.0   120.0   33.333333333333336
-250.0   120.0   33.333333333333336
-200.0   120.0   50.0
-250.0   90.0   50.0
-250.0   120.0   50.0
-200.0   120.0   50.0
-250.0   120.0   33.333333333333336
-250.0   90.0   50.0
-200.0   120.0   50.0
-200.0   90.0   50.0
-200.0   90.0   33.333333333333336
-250.0   90.0   50.0
-200.0   120.0   50.0
-200.0   90.0   33.333333333333336
-250.0   120.0   33.333333333333336
-250.0   120.0   0.0
-200.0   120.0   0.0
-250.0   150.0   0.0
-250.0   120.0   16.666666666666668
-200.0   120.0   0.0
-200.0   150.0   0.0
-250.0   150.0   0.0
-200.0   150.0   16.666666666666668
-250.0   120.0   16.666666666666668
-250.0   150.0   16.666666666666668
-200.0   150.0   16.666666666666668
-250.0   150.0   0.0
-250.0   120.0   16.666666666666668
-200.0   150.0   16.666666666666668
-200.0   120.0   16.666666666666668
-200.0   120.0   0.0
-250.0   120.0   16.666666666666668
-200.0   150.0   16.666666666666668
-200.0   120.0   0.0
-250.0   150.0   0.0
-250.0   120.0   16.666666666666668
-200.0   120.0   16.666666666666668
-250.0   150.0   16.666666666666668
-250.0   120.0   33.333333333333336
-200.0   120.0   16.666666666666668
-200.0   150.0   16.666666666666668
-250.0   150.0   16.666666666666668
-200.0   150.0   33.333333333333336
-250.0   120.0   33.333333333333336
-250.0   150.0   33.333333333333336
-200.0   150.0   33.333333333333336
-250.0   150.0   16.666666666666668
-250.0   120.0   33.333333333333336
-200.0   150.0   33.333333333333336
-200.0   120.0   33.333333333333336
-200.0   120.0   16.666666666666668
-250.0   120.0   33.333333333333336
-200.0   150.0   33.333333333333336
-200.0   120.0   16.666666666666668
-250.0   150.0   16.666666666666668
-250.0   120.0   33.333333333333336
-200.0   120.0   33.333333333333336
-250.0   150.0   33.333333333333336
-250.0   120.0   50.0
-200.0   120.0   33.333333333333336
-200.0   150.0   33.333333333333336
-250.0   150.0   33.333333333333336
-200.0   150.0   50.0
-250.0   120.0   50.0
-250.0   150.0   50.0
-200.0   150.0   50.0
-250.0   150.0   33.333333333333336
-250.0   120.0   50.0
-200.0   150.0   50.0
-200.0   120.0   50.0
-200.0   120.0   33.333333333333336
-250.0   120.0   50.0
-200.0   150.0   50.0
-200.0   120.0   33.333333333333336
-250.0   150.0   33.333333333333336
-200.0   0.0   0.0
-150.0   0.0   0.0
-200.0   30.0   0.0
-200.0   0.0   16.666666666666668
-150.0   0.0   0.0
-150.0   30.0   0.0
-200.0   30.0   0.0
-150.0   30.0   16.666666666666668
-200.0   0.0   16.666666666666668
-200.0   30.0   16.666666666666668
-150.0   30.0   16.666666666666668
-200.0   30.0   0.0
-200.0   0.0   16.666666666666668
-150.0   30.0   16.666666666666668
-150.0   0.0   16.666666666666668
-150.0   0.0   0.0
-200.0   0.0   16.666666666666668
-150.0   30.0   16.666666666666668
-150.0   0.0   0.0
-200.0   30.0   0.0
-200.0   0.0   16.666666666666668
-150.0   0.0   16.666666666666668
-200.0   30.0   16.666666666666668
-200.0   0.0   33.333333333333336
-150.0   0.0   16.666666666666668
-150.0   30.0   16.666666666666668
-200.0   30.0   16.666666666666668
-150.0   30.0   33.333333333333336
-200.0   0.0   33.333333333333336
-200.0   30.0   33.333333333333336
-150.0   30.0   33.333333333333336
-200.0   30.0   16.666666666666668
-200.0   0.0   33.333333333333336
-150.0   30.0   33.333333333333336
-150.0   0.0   33.333333333333336
-150.0   0.0   16.666666666666668
-200.0   0.0   33.333333333333336
-150.0   30.0   33.333333333333336
-150.0   0.0   16.666666666666668
-200.0   30.0   16.666666666666668
-200.0   0.0   33.333333333333336
-150.0   0.0   33.333333333333336
-200.0   30.0   33.333333333333336
-200.0   0.0   50.0
-150.0   0.0   33.333333333333336
-150.0   30.0   33.333333333333336
-200.0   30.0   33.333333333333336
-150.0   30.0   50.0
-200.0   0.0   50.0
-200.0   30.0   50.0
-150.0   30.0   50.0
-200.0   30.0   33.333333333333336
-200.0   0.0   50.0
-150.0   30.0   50.0
-150.0   0.0   50.0
-150.0   0.0   33.333333333333336
-200.0   0.0   50.0
-150.0   30.0   50.0
-150.0   0.0   33.333333333333336
-200.0   30.0   33.333333333333336
-200.0   30.0   0.0
-150.0   30.0   0.0
-200.0   60.0   0.0
-200.0   30.0   16.666666666666668
-150.0   30.0   0.0
-150.0   60.0   0.0
-200.0   60.0   0.0
-150.0   60.0   16.666666666666668
-200.0   30.0   16.666666666666668
-200.0   60.0   16.666666666666668
-150.0   60.0   16.666666666666668
-200.0   60.0   0.0
-200.0   30.0   16.666666666666668
-150.0   60.0   16.666666666666668
-150.0   30.0   16.666666666666668
-150.0   30.0   0.0
-200.0   30.0   16.666666666666668
-150.0   60.0   16.666666666666668
-150.0   30.0   0.0
-200.0   60.0   0.0
-200.0   30.0   16.666666666666668
-150.0   30.0   16.666666666666668
-200.0   60.0   16.666666666666668
-200.0   30.0   33.333333333333336
-150.0   30.0   16.666666666666668
-150.0   60.0   16.666666666666668
-200.0   60.0   16.666666666666668
-150.0   60.0   33.333333333333336
-200.0   30.0   33.333333333333336
-200.0   60.0   33.333333333333336
-150.0   60.0   33.333333333333336
-200.0   60.0   16.666666666666668
-200.0   30.0   33.333333333333336
-150.0   60.0   33.333333333333336
-150.0   30.0   33.333333333333336
-150.0   30.0   16.666666666666668
-200.0   30.0   33.333333333333336
-150.0   60.0   33.333333333333336
-150.0   30.0   16.666666666666668
-200.0   60.0   16.666666666666668
-200.0   30.0   33.333333333333336
-150.0   30.0   33.333333333333336
-200.0   60.0   33.333333333333336
-200.0   30.0   50.0
-150.0   30.0   33.333333333333336
-150.0   60.0   33.333333333333336
-200.0   60.0   33.333333333333336
-150.0   60.0   50.0
-200.0   30.0   50.0
-200.0   60.0   50.0
-150.0   60.0   50.0
-200.0   60.0   33.333333333333336
-200.0   30.0   50.0
-150.0   60.0   50.0
-150.0   30.0   50.0
-150.0   30.0   33.333333333333336
-200.0   30.0   50.0
-150.0   60.0   50.0
-150.0   30.0   33.333333333333336
-200.0   60.0   33.333333333333336
-200.0   60.0   0.0
-150.0   60.0   0.0
-200.0   90.0   0.0
-200.0   60.0   16.666666666666668
-150.0   60.0   0.0
-150.0   90.0   0.0
-200.0   90.0   0.0
-150.0   90.0   16.666666666666668
-200.0   60.0   16.666666666666668
-200.0   90.0   16.666666666666668
-150.0   90.0   16.666666666666668
-200.0   90.0   0.0
-200.0   60.0   16.666666666666668
-150.0   90.0   16.666666666666668
-150.0   60.0   16.666666666666668
-150.0   60.0   0.0
-200.0   60.0   16.666666666666668
-150.0   90.0   16.666666666666668
-150.0   60.0   0.0
-200.0   90.0   0.0
-200.0   60.0   16.666666666666668
-150.0   60.0   16.666666666666668
-200.0   90.0   16.666666666666668
-200.0   60.0   33.333333333333336
-150.0   60.0   16.666666666666668
-150.0   90.0   16.666666666666668
-200.0   90.0   16.666666666666668
-150.0   90.0   33.333333333333336
-200.0   60.0   33.333333333333336
-200.0   90.0   33.333333333333336
-150.0   90.0   33.333333333333336
-200.0   90.0   16.666666666666668
-200.0   60.0   33.333333333333336
-150.0   90.0   33.333333333333336
-150.0   60.0   33.333333333333336
-150.0   60.0   16.666666666666668
-200.0   60.0   33.333333333333336
-150.0   90.0   33.333333333333336
-150.0   60.0   16.666666666666668
-200.0   90.0   16.666666666666668
-200.0   60.0   33.333333333333336
-150.0   60.0   33.333333333333336
-200.0   90.0   33.333333333333336
-200.0   60.0   50.0
-150.0   60.0   33.333333333333336
-150.0   90.0   33.333333333333336
-200.0   90.0   33.333333333333336
-150.0   90.0   50.0
-200.0   60.0   50.0
-200.0   90.0   50.0
-150.0   90.0   50.0
-200.0   90.0   33.333333333333336
-200.0   60.0   50.0
-150.0   90.0   50.0
-150.0   60.0   50.0
-150.0   60.0   33.333333333333336
-200.0   60.0   50.0
-150.0   90.0   50.0
-150.0   60.0   33.333333333333336
-200.0   90.0   33.333333333333336
-200.0   90.0   0.0
-150.0   90.0   0.0
-200.0   120.0   0.0
-200.0   90.0   16.666666666666668
-150.0   90.0   0.0
-150.0   120.0   0.0
-200.0   120.0   0.0
-150.0   120.0   16.666666666666668
-200.0   90.0   16.666666666666668
-200.0   120.0   16.666666666666668
-150.0   120.0   16.666666666666668
-200.0   120.0   0.0
-200.0   90.0   16.666666666666668
-150.0   120.0   16.666666666666668
-150.0   90.0   16.666666666666668
-150.0   90.0   0.0
-200.0   90.0   16.666666666666668
-150.0   120.0   16.666666666666668
-150.0   90.0   0.0
-200.0   120.0   0.0
-200.0   90.0   16.666666666666668
-150.0   90.0   16.666666666666668
-200.0   120.0   16.666666666666668
-200.0   90.0   33.333333333333336
-150.0   90.0   16.666666666666668
-150.0   120.0   16.666666666666668
-200.0   120.0   16.666666666666668
-150.0   120.0   33.333333333333336
-200.0   90.0   33.333333333333336
-200.0   120.0   33.333333333333336
-150.0   120.0   33.333333333333336
-200.0   120.0   16.666666666666668
-200.0   90.0   33.333333333333336
-150.0   120.0   33.333333333333336
-150.0   90.0   33.333333333333336
-150.0   90.0   16.666666666666668
-200.0   90.0   33.333333333333336
-150.0   120.0   33.333333333333336
-150.0   90.0   16.666666666666668
-200.0   120.0   16.666666666666668
-200.0   90.0   33.333333333333336
-150.0   90.0   33.333333333333336
-200.0   120.0   33.333333333333336
-200.0   90.0   50.0
-150.0   90.0   33.333333333333336
-150.0   120.0   33.333333333333336
-200.0   120.0   33.333333333333336
-150.0   120.0   50.0
-200.0   90.0   50.0
-200.0   120.0   50.0
-150.0   120.0   50.0
-200.0   120.0   33.333333333333336
-200.0   90.0   50.0
-150.0   120.0   50.0
-150.0   90.0   50.0
-150.0   90.0   33.333333333333336
-200.0   90.0   50.0
-150.0   120.0   50.0
-150.0   90.0   33.333333333333336
-200.0   120.0   33.333333333333336
-200.0   120.0   0.0
-150.0   120.0   0.0
-200.0   150.0   0.0
-200.0   120.0   16.666666666666668
-150.0   120.0   0.0
-150.0   150.0   0.0
-200.0   150.0   0.0
-150.0   150.0   16.666666666666668
-200.0   120.0   16.666666666666668
-200.0   150.0   16.666666666666668
-150.0   150.0   16.666666666666668
-200.0   150.0   0.0
-200.0   120.0   16.666666666666668
-150.0   150.0   16.666666666666668
-150.0   120.0   16.666666666666668
-150.0   120.0   0.0
-200.0   120.0   16.666666666666668
-150.0   150.0   16.666666666666668
-150.0   120.0   0.0
-200.0   150.0   0.0
-200.0   120.0   16.666666666666668
-150.0   120.0   16.666666666666668
-200.0   150.0   16.666666666666668
-200.0   120.0   33.333333333333336
-150.0   120.0   16.666666666666668
-150.0   150.0   16.666666666666668
-200.0   150.0   16.666666666666668
-150.0   150.0   33.333333333333336
-200.0   120.0   33.333333333333336
-200.0   150.0   33.333333333333336
-150.0   150.0   33.333333333333336
-200.0   150.0   16.666666666666668
-200.0   120.0   33.333333333333336
-150.0   150.0   33.333333333333336
-150.0   120.0   33.333333333333336
-150.0   120.0   16.666666666666668
-200.0   120.0   33.333333333333336
-150.0   150.0   33.333333333333336
-150.0   120.0   16.666666666666668
-200.0   150.0   16.666666666666668
-200.0   120.0   33.333333333333336
-150.0   120.0   33.333333333333336
-200.0   150.0   33.333333333333336
-200.0   120.0   50.0
-150.0   120.0   33.333333333333336
-150.0   150.0   33.333333333333336
-200.0   150.0   33.333333333333336
-150.0   150.0   50.0
-200.0   120.0   50.0
-200.0   150.0   50.0
-150.0   150.0   50.0
-200.0   150.0   33.333333333333336
-200.0   120.0   50.0
-150.0   150.0   50.0
-150.0   120.0   50.0
-150.0   120.0   33.333333333333336
-200.0   120.0   50.0
-150.0   150.0   50.0
-150.0   120.0   33.333333333333336
-200.0   150.0   33.333333333333336
-150.0   0.0   0.0
-100.0   0.0   0.0
-150.0   30.0   0.0
-150.0   0.0   16.666666666666668
-100.0   0.0   0.0
-100.0   30.0   0.0
-150.0   30.0   0.0
-100.0   30.0   16.666666666666668
-150.0   0.0   16.666666666666668
-150.0   30.0   16.666666666666668
-100.0   30.0   16.666666666666668
-150.0   30.0   0.0
-150.0   0.0   16.666666666666668
-100.0   30.0   16.666666666666668
-100.0   0.0   16.666666666666668
-100.0   0.0   0.0
-150.0   0.0   16.666666666666668
-100.0   30.0   16.666666666666668
-100.0   0.0   0.0
-150.0   30.0   0.0
-150.0   0.0   16.666666666666668
-100.0   0.0   16.666666666666668
-150.0   30.0   16.666666666666668
-150.0   0.0   33.333333333333336
-100.0   0.0   16.666666666666668
-100.0   30.0   16.666666666666668
-150.0   30.0   16.666666666666668
-100.0   30.0   33.333333333333336
-150.0   0.0   33.333333333333336
-150.0   30.0   33.333333333333336
-100.0   30.0   33.333333333333336
-150.0   30.0   16.666666666666668
-150.0   0.0   33.333333333333336
-100.0   30.0   33.333333333333336
-100.0   0.0   33.333333333333336
-100.0   0.0   16.666666666666668
-150.0   0.0   33.333333333333336
-100.0   30.0   33.333333333333336
-100.0   0.0   16.666666666666668
-150.0   30.0   16.666666666666668
-150.0   0.0   33.333333333333336
-100.0   0.0   33.333333333333336
-150.0   30.0   33.333333333333336
-150.0   0.0   50.0
-100.0   0.0   33.333333333333336
-100.0   30.0   33.333333333333336
-150.0   30.0   33.333333333333336
-100.0   30.0   50.0
-150.0   0.0   50.0
-150.0   30.0   50.0
-100.0   30.0   50.0
-150.0   30.0   33.333333333333336
-150.0   0.0   50.0
-100.0   30.0   50.0
-100.0   0.0   50.0
-100.0   0.0   33.333333333333336
-150.0   0.0   50.0
-100.0   30.0   50.0
-100.0   0.0   33.333333333333336
-150.0   30.0   33.333333333333336
-150.0   30.0   0.0
-100.0   30.0   0.0
-150.0   60.0   0.0
-150.0   30.0   16.666666666666668
-100.0   30.0   0.0
-100.0   60.0   0.0
-150.0   60.0   0.0
-100.0   60.0   16.666666666666668
-150.0   30.0   16.666666666666668
-150.0   60.0   16.666666666666668
-100.0   60.0   16.666666666666668
-150.0   60.0   0.0
-150.0   30.0   16.666666666666668
-100.0   60.0   16.666666666666668
-100.0   30.0   16.666666666666668
-100.0   30.0   0.0
-150.0   30.0   16.666666666666668
-100.0   60.0   16.666666666666668
-100.0   30.0   0.0
-150.0   60.0   0.0
-150.0   30.0   16.666666666666668
-100.0   30.0   16.666666666666668
-150.0   60.0   16.666666666666668
-150.0   30.0   33.333333333333336
-100.0   30.0   16.666666666666668
-100.0   60.0   16.666666666666668
-150.0   60.0   16.666666666666668
-100.0   60.0   33.333333333333336
-150.0   30.0   33.333333333333336
-150.0   60.0   33.333333333333336
-100.0   60.0   33.333333333333336
-150.0   60.0   16.666666666666668
-150.0   30.0   33.333333333333336
-100.0   60.0   33.333333333333336
-100.0   30.0   33.333333333333336
-100.0   30.0   16.666666666666668
-150.0   30.0   33.333333333333336
-100.0   60.0   33.333333333333336
-100.0   30.0   16.666666666666668
-150.0   60.0   16.666666666666668
-150.0   30.0   33.333333333333336
-100.0   30.0   33.333333333333336
-150.0   60.0   33.333333333333336
-150.0   30.0   50.0
-100.0   30.0   33.333333333333336
-100.0   60.0   33.333333333333336
-150.0   60.0   33.333333333333336
-100.0   60.0   50.0
-150.0   30.0   50.0
-150.0   60.0   50.0
-100.0   60.0   50.0
-150.0   60.0   33.333333333333336
-150.0   30.0   50.0
-100.0   60.0   50.0
-100.0   30.0   50.0
-100.0   30.0   33.333333333333336
-150.0   30.0   50.0
-100.0   60.0   50.0
-100.0   30.0   33.333333333333336
-150.0   60.0   33.333333333333336
-150.0   60.0   0.0
-100.0   60.0   0.0
-150.0   90.0   0.0
-150.0   60.0   16.666666666666668
-100.0   60.0   0.0
-100.0   90.0   0.0
-150.0   90.0   0.0
-100.0   90.0   16.666666666666668
-150.0   60.0   16.666666666666668
-150.0   90.0   16.666666666666668
-100.0   90.0   16.666666666666668
-150.0   90.0   0.0
-150.0   60.0   16.666666666666668
-100.0   90.0   16.666666666666668
-100.0   60.0   16.666666666666668
-100.0   60.0   0.0
-150.0   60.0   16.666666666666668
-100.0   90.0   16.666666666666668
-100.0   60.0   0.0
-150.0   90.0   0.0
-150.0   60.0   16.666666666666668
-100.0   60.0   16.666666666666668
-150.0   90.0   16.666666666666668
-150.0   60.0   33.333333333333336
-100.0   60.0   16.666666666666668
-100.0   90.0   16.666666666666668
-150.0   90.0   16.666666666666668
-100.0   90.0   33.333333333333336
-150.0   60.0   33.333333333333336
-150.0   90.0   33.333333333333336
-100.0   90.0   33.333333333333336
-150.0   90.0   16.666666666666668
-150.0   60.0   33.333333333333336
-100.0   90.0   33.333333333333336
-100.0   60.0   33.333333333333336
-100.0   60.0   16.666666666666668
-150.0   60.0   33.333333333333336
-100.0   90.0   33.333333333333336
-100.0   60.0   16.666666666666668
-150.0   90.0   16.666666666666668
-150.0   60.0   33.333333333333336
-100.0   60.0   33.333333333333336
-150.0   90.0   33.333333333333336
-150.0   60.0   50.0
-100.0   60.0   33.333333333333336
-100.0   90.0   33.333333333333336
-150.0   90.0   33.333333333333336
-100.0   90.0   50.0
-150.0   60.0   50.0
-150.0   90.0   50.0
-100.0   90.0   50.0
-150.0   90.0   33.333333333333336
-150.0   60.0   50.0
-100.0   90.0   50.0
-100.0   60.0   50.0
-100.0   60.0   33.333333333333336
-150.0   60.0   50.0
-100.0   90.0   50.0
-100.0   60.0   33.333333333333336
-150.0   90.0   33.333333333333336
-150.0   90.0   0.0
-100.0   90.0   0.0
-150.0   120.0   0.0
-150.0   90.0   16.666666666666668
-100.0   90.0   0.0
-100.0   120.0   0.0
-150.0   120.0   0.0
-100.0   120.0   16.666666666666668
-150.0   90.0   16.666666666666668
-150.0   120.0   16.666666666666668
-100.0   120.0   16.666666666666668
-150.0   120.0   0.0
-150.0   90.0   16.666666666666668
-100.0   120.0   16.666666666666668
-100.0   90.0   16.666666666666668
-100.0   90.0   0.0
-150.0   90.0   16.666666666666668
-100.0   120.0   16.666666666666668
-100.0   90.0   0.0
-150.0   120.0   0.0
-150.0   90.0   16.666666666666668
-100.0   90.0   16.666666666666668
-150.0   120.0   16.666666666666668
-150.0   90.0   33.333333333333336
-100.0   90.0   16.666666666666668
-100.0   120.0   16.666666666666668
-150.0   120.0   16.666666666666668
-100.0   120.0   33.333333333333336
-150.0   90.0   33.333333333333336
-150.0   120.0   33.333333333333336
-100.0   120.0   33.333333333333336
-150.0   120.0   16.666666666666668
-150.0   90.0   33.333333333333336
-100.0   120.0   33.333333333333336
-100.0   90.0   33.333333333333336
-100.0   90.0   16.666666666666668
-150.0   90.0   33.333333333333336
-100.0   120.0   33.333333333333336
-100.0   90.0   16.666666666666668
-150.0   120.0   16.666666666666668
-150.0   90.0   33.333333333333336
-100.0   90.0   33.333333333333336
-150.0   120.0   33.333333333333336
-150.0   90.0   50.0
-100.0   90.0   33.333333333333336
-100.0   120.0   33.333333333333336
-150.0   120.0   33.333333333333336
-100.0   120.0   50.0
-150.0   90.0   50.0
-150.0   120.0   50.0
-100.0   120.0   50.0
-150.0   120.0   33.333333333333336
-150.0   90.0   50.0
-100.0   120.0   50.0
-100.0   90.0   50.0
-100.0   90.0   33.333333333333336
-150.0   90.0   50.0
-100.0   120.0   50.0
-100.0   90.0   33.333333333333336
-150.0   120.0   33.333333333333336
-150.0   120.0   0.0
-100.0   120.0   0.0
-150.0   150.0   0.0
-150.0   120.0   16.666666666666668
-100.0   120.0   0.0
-100.0   150.0   0.0
-150.0   150.0   0.0
-100.0   150.0   16.666666666666668
-150.0   120.0   16.666666666666668
-150.0   150.0   16.666666666666668
-100.0   150.0   16.666666666666668
-150.0   150.0   0.0
-150.0   120.0   16.666666666666668
-100.0   150.0   16.666666666666668
-100.0   120.0   16.666666666666668
-100.0   120.0   0.0
-150.0   120.0   16.666666666666668
-100.0   150.0   16.666666666666668
-100.0   120.0   0.0
-150.0   150.0   0.0
-150.0   120.0   16.666666666666668
-100.0   120.0   16.666666666666668
-150.0   150.0   16.666666666666668
-150.0   120.0   33.333333333333336
-100.0   120.0   16.666666666666668
-100.0   150.0   16.666666666666668
-150.0   150.0   16.666666666666668
-100.0   150.0   33.333333333333336
-150.0   120.0   33.333333333333336
-150.0   150.0   33.333333333333336
-100.0   150.0   33.333333333333336
-150.0   150.0   16.666666666666668
-150.0   120.0   33.333333333333336
-100.0   150.0   33.333333333333336
-100.0   120.0   33.333333333333336
-100.0   120.0   16.666666666666668
-150.0   120.0   33.333333333333336
-100.0   150.0   33.333333333333336
-100.0   120.0   16.666666666666668
-150.0   150.0   16.666666666666668
-150.0   120.0   33.333333333333336
-100.0   120.0   33.333333333333336
-150.0   150.0   33.333333333333336
-150.0   120.0   50.0
-100.0   120.0   33.333333333333336
-100.0   150.0   33.333333333333336
-150.0   150.0   33.333333333333336
-100.0   150.0   50.0
-150.0   120.0   50.0
-150.0   150.0   50.0
-100.0   150.0   50.0
-150.0   150.0   33.333333333333336
-150.0   120.0   50.0
-100.0   150.0   50.0
-100.0   120.0   50.0
-100.0   120.0   33.333333333333336
-150.0   120.0   50.0
-100.0   150.0   50.0
-100.0   120.0   33.333333333333336
-150.0   150.0   33.333333333333336
-100.0   0.0   0.0
-50.0   0.0   0.0
-100.0   30.0   0.0
-100.0   0.0   16.666666666666668
-50.0   0.0   0.0
-50.0   30.0   0.0
-100.0   30.0   0.0
-50.0   30.0   16.666666666666668
-100.0   0.0   16.666666666666668
-100.0   30.0   16.666666666666668
-50.0   30.0   16.666666666666668
-100.0   30.0   0.0
-100.0   0.0   16.666666666666668
-50.0   30.0   16.666666666666668
-50.0   0.0   16.666666666666668
-50.0   0.0   0.0
-100.0   0.0   16.666666666666668
-50.0   30.0   16.666666666666668
-50.0   0.0   0.0
-100.0   30.0   0.0
-100.0   0.0   16.666666666666668
-50.0   0.0   16.666666666666668
-100.0   30.0   16.666666666666668
-100.0   0.0   33.333333333333336
-50.0   0.0   16.666666666666668
-50.0   30.0   16.666666666666668
-100.0   30.0   16.666666666666668
-50.0   30.0   33.333333333333336
-100.0   0.0   33.333333333333336
-100.0   30.0   33.333333333333336
-50.0   30.0   33.333333333333336
-100.0   30.0   16.666666666666668
-100.0   0.0   33.333333333333336
-50.0   30.0   33.333333333333336
-50.0   0.0   33.333333333333336
-50.0   0.0   16.666666666666668
-100.0   0.0   33.333333333333336
-50.0   30.0   33.333333333333336
-50.0   0.0   16.666666666666668
-100.0   30.0   16.666666666666668
-100.0   0.0   33.333333333333336
-50.0   0.0   33.333333333333336
-100.0   30.0   33.333333333333336
-100.0   0.0   50.0
-50.0   0.0   33.333333333333336
-50.0   30.0   33.333333333333336
-100.0   30.0   33.333333333333336
-50.0   30.0   50.0
-100.0   0.0   50.0
-100.0   30.0   50.0
-50.0   30.0   50.0
-100.0   30.0   33.333333333333336
-100.0   0.0   50.0
-50.0   30.0   50.0
-50.0   0.0   50.0
-50.0   0.0   33.333333333333336
-100.0   0.0   50.0
-50.0   30.0   50.0
-50.0   0.0   33.333333333333336
-100.0   30.0   33.333333333333336
-100.0   30.0   0.0
-50.0   30.0   0.0
-100.0   60.0   0.0
-100.0   30.0   16.666666666666668
-50.0   30.0   0.0
-50.0   60.0   0.0
-100.0   60.0   0.0
-50.0   60.0   16.666666666666668
-100.0   30.0   16.666666666666668
-100.0   60.0   16.666666666666668
-50.0   60.0   16.666666666666668
-100.0   60.0   0.0
-100.0   30.0   16.666666666666668
-50.0   60.0   16.666666666666668
-50.0   30.0   16.666666666666668
-50.0   30.0   0.0
-100.0   30.0   16.666666666666668
-50.0   60.0   16.666666666666668
-50.0   30.0   0.0
-100.0   60.0   0.0
-100.0   30.0   16.666666666666668
-50.0   30.0   16.666666666666668
-100.0   60.0   16.666666666666668
-100.0   30.0   33.333333333333336
-50.0   30.0   16.666666666666668
-50.0   60.0   16.666666666666668
-100.0   60.0   16.666666666666668
-50.0   60.0   33.333333333333336
-100.0   30.0   33.333333333333336
-100.0   60.0   33.333333333333336
-50.0   60.0   33.333333333333336
-100.0   60.0   16.666666666666668
-100.0   30.0   33.333333333333336
-50.0   60.0   33.333333333333336
-50.0   30.0   33.333333333333336
-50.0   30.0   16.666666666666668
-100.0   30.0   33.333333333333336
-50.0   60.0   33.333333333333336
-50.0   30.0   16.666666666666668
-100.0   60.0   16.666666666666668
-100.0   30.0   33.333333333333336
-50.0   30.0   33.333333333333336
-100.0   60.0   33.333333333333336
-100.0   30.0   50.0
-50.0   30.0   33.333333333333336
-50.0   60.0   33.333333333333336
-100.0   60.0   33.333333333333336
-50.0   60.0   50.0
-100.0   30.0   50.0
-100.0   60.0   50.0
-50.0   60.0   50.0
-100.0   60.0   33.333333333333336
-100.0   30.0   50.0
-50.0   60.0   50.0
-50.0   30.0   50.0
-50.0   30.0   33.333333333333336
-100.0   30.0   50.0
-50.0   60.0   50.0
-50.0   30.0   33.333333333333336
-100.0   60.0   33.333333333333336
-100.0   60.0   0.0
-50.0   60.0   0.0
-100.0   90.0   0.0
-100.0   60.0   16.666666666666668
-50.0   60.0   0.0
-50.0   90.0   0.0
-100.0   90.0   0.0
-50.0   90.0   16.666666666666668
-100.0   60.0   16.666666666666668
-100.0   90.0   16.666666666666668
-50.0   90.0   16.666666666666668
-100.0   90.0   0.0
-100.0   60.0   16.666666666666668
-50.0   90.0   16.666666666666668
-50.0   60.0   16.666666666666668
-50.0   60.0   0.0
-100.0   60.0   16.666666666666668
-50.0   90.0   16.666666666666668
-50.0   60.0   0.0
-100.0   90.0   0.0
-100.0   60.0   16.666666666666668
-50.0   60.0   16.666666666666668
-100.0   90.0   16.666666666666668
-100.0   60.0   33.333333333333336
-50.0   60.0   16.666666666666668
-50.0   90.0   16.666666666666668
-100.0   90.0   16.666666666666668
-50.0   90.0   33.333333333333336
-100.0   60.0   33.333333333333336
-100.0   90.0   33.333333333333336
-50.0   90.0   33.333333333333336
-100.0   90.0   16.666666666666668
-100.0   60.0   33.333333333333336
-50.0   90.0   33.333333333333336
-50.0   60.0   33.333333333333336
-50.0   60.0   16.666666666666668
-100.0   60.0   33.333333333333336
-50.0   90.0   33.333333333333336
-50.0   60.0   16.666666666666668
-100.0   90.0   16.666666666666668
-100.0   60.0   33.333333333333336
-50.0   60.0   33.333333333333336
-100.0   90.0   33.333333333333336
-100.0   60.0   50.0
-50.0   60.0   33.333333333333336
-50.0   90.0   33.333333333333336
-100.0   90.0   33.333333333333336
-50.0   90.0   50.0
-100.0   60.0   50.0
-100.0   90.0   50.0
-50.0   90.0   50.0
-100.0   90.0   33.333333333333336
-100.0   60.0   50.0
-50.0   90.0   50.0
-50.0   60.0   50.0
-50.0   60.0   33.333333333333336
-100.0   60.0   50.0
-50.0   90.0   50.0
-50.0   60.0   33.333333333333336
-100.0   90.0   33.333333333333336
-100.0   90.0   0.0
-50.0   90.0   0.0
-100.0   120.0   0.0
-100.0   90.0   16.666666666666668
-50.0   90.0   0.0
-50.0   120.0   0.0
-100.0   120.0   0.0
-50.0   120.0   16.666666666666668
-100.0   90.0   16.666666666666668
-100.0   120.0   16.666666666666668
-50.0   120.0   16.666666666666668
-100.0   120.0   0.0
-100.0   90.0   16.666666666666668
-50.0   120.0   16.666666666666668
-50.0   90.0   16.666666666666668
-50.0   90.0   0.0
-100.0   90.0   16.666666666666668
-50.0   120.0   16.666666666666668
-50.0   90.0   0.0
-100.0   120.0   0.0
-100.0   90.0   16.666666666666668
-50.0   90.0   16.666666666666668
-100.0   120.0   16.666666666666668
-100.0   90.0   33.333333333333336
-50.0   90.0   16.666666666666668
-50.0   120.0   16.666666666666668
-100.0   120.0   16.666666666666668
-50.0   120.0   33.333333333333336
-100.0   90.0   33.333333333333336
-100.0   120.0   33.333333333333336
-50.0   120.0   33.333333333333336
-100.0   120.0   16.666666666666668
-100.0   90.0   33.333333333333336
-50.0   120.0   33.333333333333336
-50.0   90.0   33.333333333333336
-50.0   90.0   16.666666666666668
-100.0   90.0   33.333333333333336
-50.0   120.0   33.333333333333336
-50.0   90.0   16.666666666666668
-100.0   120.0   16.666666666666668
-100.0   90.0   33.333333333333336
-50.0   90.0   33.333333333333336
-100.0   120.0   33.333333333333336
-100.0   90.0   50.0
-50.0   90.0   33.333333333333336
-50.0   120.0   33.333333333333336
-100.0   120.0   33.333333333333336
-50.0   120.0   50.0
-100.0   90.0   50.0
-100.0   120.0   50.0
-50.0   120.0   50.0
-100.0   120.0   33.333333333333336
-100.0   90.0   50.0
-50.0   120.0   50.0
-50.0   90.0   50.0
-50.0   90.0   33.333333333333336
-100.0   90.0   50.0
-50.0   120.0   50.0
-50.0   90.0   33.333333333333336
-100.0   120.0   33.333333333333336
-100.0   120.0   0.0
-50.0   120.0   0.0
-100.0   150.0   0.0
-100.0   120.0   16.666666666666668
-50.0   120.0   0.0
-50.0   150.0   0.0
-100.0   150.0   0.0
-50.0   150.0   16.666666666666668
-100.0   120.0   16.666666666666668
-100.0   150.0   16.666666666666668
-50.0   150.0   16.666666666666668
-100.0   150.0   0.0
-100.0   120.0   16.666666666666668
-50.0   150.0   16.666666666666668
-50.0   120.0   16.666666666666668
-50.0   120.0   0.0
-100.0   120.0   16.666666666666668
-50.0   150.0   16.666666666666668
-50.0   120.0   0.0
-100.0   150.0   0.0
-100.0   120.0   16.666666666666668
-50.0   120.0   16.666666666666668
-100.0   150.0   16.666666666666668
-100.0   120.0   33.333333333333336
-50.0   120.0   16.666666666666668
-50.0   150.0   16.666666666666668
-100.0   150.0   16.666666666666668
-50.0   150.0   33.333333333333336
-100.0   120.0   33.333333333333336
-100.0   150.0   33.333333333333336
-50.0   150.0   33.333333333333336
-100.0   150.0   16.666666666666668
-100.0   120.0   33.333333333333336
-50.0   150.0   33.333333333333336
-50.0   120.0   33.333333333333336
-50.0   120.0   16.666666666666668
-100.0   120.0   33.333333333333336
-50.0   150.0   33.333333333333336
-50.0   120.0   16.666666666666668
-100.0   150.0   16.666666666666668
-100.0   120.0   33.333333333333336
-50.0   120.0   33.333333333333336
-100.0   150.0   33.333333333333336
-100.0   120.0   50.0
-50.0   120.0   33.333333333333336
-50.0   150.0   33.333333333333336
-100.0   150.0   33.333333333333336
-50.0   150.0   50.0
-100.0   120.0   50.0
-100.0   150.0   50.0
-50.0   150.0   50.0
-100.0   150.0   33.333333333333336
-100.0   120.0   50.0
-50.0   150.0   50.0
-50.0   120.0   50.0
-50.0   120.0   33.333333333333336
-100.0   120.0   50.0
-50.0   150.0   50.0
-50.0   120.0   33.333333333333336
-100.0   150.0   33.333333333333336
-50.0   0.0   0.0
0.0   0.0   0.0
-50.0   30.0   0.0
-50.0   0.0   16.666666666666668
0.0   0.0   0.0
0.0   30.0   0.0
-50.0   30.0   0.0
0.0   30.0   16.666666666666668
-50.0   0.0   16.666666666666668
-50.0   30.0   16.666666666666668
0.0   30.0   16.666666666666668
-50.0   30.0   0.0
-50.0   0.0   16.666666666666668
0.0   30.0   16.666666666666668
0.0   0.0   16.666666666666668
0.0   0.0   0.0
-50.0   0.0   16.666666666666668
0.0   30.0   16.666666666666668
0.0   0.0   0.0
-50.0   30.0   0.0
-50.0   0.0   16.666666666666668
0.0   0.0   16.666666666666668
-50.0   30.0   16.666666666666668
-50.0   0.0   33.333333333333336
0.0   0.0   16.666666666666668
0.0   30.0   16.666666666666668
-50.0   30.0   16.666666666666668
0.0   30.0   33.333333333333336
-50.0   0.0   33.333333333333336
-50.0   30.0   33.333333333333336
0.0   30.0   33.333333333333336
-50.0   30.0   16.666666666666668
-50.0   0.0   33.333333333333336
0.0   30.0   33.333333333333336
0.0   0.0   33.333333333333336
0.0   0.0   16.666666666666668
-50.0   0.0   33.333333333333336
0.0   30.0   33.333333333333336
0.0   0.0   16.666666666666668
-50.0   30.0   16.666666666666668
-50.0   0.0   33.333333333333336
0.0   0.0   33.333333333333336
-50.0   30.0   33.333333333333336
-50.0   0.0   50.0
0.0   0.0   33.333333333333336
0.0   30.0   33.333333333333336
-50.0   30.0   33.333333333333336
0.0   30.0   50.0
-50.0   0.0   50.0
-50.0   30.0   50.0
0.0   30.0   50.0
-50.0   30.0   33.333333333333336
-50.0   0.0   50.0
0.0   30.0   50.0
0.0   0.0   50.0
0.0   0.0   33.333333333333336
-50.0   0.0   50.0
0.0   30.0   50.0
0.0   0.0   33.333333333333336
-50.0   30.0   33.333333333333336
-50.0   30.0   0.0
0.0   30.0   0.0
-50.0   60.0   0.0
-50.0   30.0   16.666666666666668
0.0   30.0   0.0
0.0   60.0   0.0
-50.0   60.0   0.0
0.0   60.0   16.666666666666668
-50.0   30.0   16.666666666666668
-50.0   60.0   16.666666666666668
0.0   60.0   16.666666666666668
-50.0   60.0   0.0
-50.0   30.0   16.666666666666668
0.0   60.0   16.666666666666668
0.0   30.0   16.666666666666668
0.0   30.0   0.0
-50.0   30.0   16.666666666666668
0.0   60.0   16.666666666666668
0.0   30.0   0.0
-50.0   60.0   0.0
-50.0   30.0   16.666666666666668
0.0   30.0   16.666666666666668
-50.0   60.0   16.666666666666668
-50.0   30.0   33.333333333333336
0.0   30.0   16.666666666666668
0.0   60.0   16.666666666666668
-50.0   60.0   16.666666666666668
0.0   60.0   33.333333333333336
-50.0   30.0   33.333333333333336
-50.0   60.0   33.333333333333336
0.0   60.0   33.333333333333336
-50.0   60.0   16.666666666666668
-50.0   30.0   33.333333333333336
0.0   60.0   33.333333333333336
0.0   30.0   33.333333333333336
0.0   30.0   16.666666666666668
-50.0   30.0   33.333333333333336
0.0   60.0   33.333333333333336
0.0   30.0   16.666666666666668
-50.0   60.0   16.666666666666668
-50.0   30.0   33.333333333333336
0.0   30.0   33.333333333333336
-50.0   60.0   33.333333333333336
-50.0   30.0   50.0
0.0   30.0   33.333333333333336
0.0   60.0   33.333333333333336
-50.0   60.0   33.333333333333336
0.0   60.0   50.0
-50.0   30.0   50.0
-50.0   60.0   50.0
0.0   60.0   50.0
-50.0   60.0   33.333333333333336
-50.0   30.0   50.0
0.0   60.0   50.0
0.0   30.0   50.0
0.0   30.0   33.333333333333336
-50.0   30.0   50.0
0.0   60.0   50.0
0.0   30.0   33.333333333333336
-50.0   60.0   33.333333333333336
-50.0   60.0   0.0
0.0   60.0   0.0
-50.0   90.0   0.0
-50.0   60.0   16.666666666666668
0.0   60.0   0.0
0.0   90.0   0.0
-50.0   90.0   0.0
0.0   90.0   16.666666666666668
-50.0   60.0   16.666666666666668
-50.0   90.0   16.666666666666668
0.0   90.0   16.666666666666668
-50.0   90.0   0.0
-50.0   60.0   16.666666666666668
0.0   90.0   16.666666666666668
0.0   60.0   16.666666666666668
0.0   60.0   0.0
-50.0   60.0   16.666666666666668
0.0   90.0   16.666666666666668
0.0   60.0   0.0
-50.0   90.0   0.0
-50.0   60.0   16.666666666666668
0.0   60.0   16.666666666666668
-50.0   90.0   16.666666666666668
-50.0   60.0   33.333333333333336
0.0   60.0   16.666666666666668
0.0   90.0   16.666666666666668
-50.0   90.0   16.666666666666668
0.0   90.0   33.333333333333336
-50.0   60.0   33.333333333333336
-50.0   90.0   33.333333333333336
0.0   90.0   33.333333333333336
-50.0   90.0   16.666666666666668
-50.0   60.0   33.333333333333336
0.0   90.0   33.333333333333336
0.0   60.0   33.333333333333336
0.0   60.0   16.666666666666668
-50.0   60.0   33.333333333333336
0.0   90.0   33.333333333333336
0.0   60.0   16.666666666666668
-50.0   90.0   16.666666666666668
-50.0   60.0   33.333333333333336
0.0   60.0   33.333333333333336
-50.0   90.0   33.333333333333336
-50.0   60.0   50.0
0.0   60.0   33.333333333333336
0.0   90.0   33.333333333333336
-50.0   90.0   33.333333333333336
0.0   90.0   50.0
-50.0   60.0   50.0
-50.0   90.0   50.0
0.0   90.0   50.0
-50.0   90.0   33.333333333333336
-50.0   60.0   50.0
0.0   90.0   50.0
0.0   60.0   50.0
0.0   60.0   33.333333333333336
-50.0   60.0   50.0
0.0   90.0   50.0
0.0   60.0   33.333333333333336
-50.0   90.0   33.333333333333336
-50.0   90.0   0.0
0.0   90.0   0.0
-50.0   120.0   0.0
-50.0   90.0   16.666666666666668
0.0   90.0   0.0
0.0   120.0   0.0
-50.0   120.0   0.0
0.0   120.0   16.666666666666668
-50.0   90.0   16.666666666666668
-50.0   120.0   16.666666666666668
0.0   120.0   16.666666666666668
-50.0   120.0   0.0
-50.0   90.0   16.666666666666668
0.0   120.0   16.666666666666668
0.0   90.0   16.666666666666668
0.0   90.0   0.0
-50.0   90.0   16.666666666666668
0.0   120.0   16.666666666666668
0.0   90.0   0.0
-50.0   120.0   0.0
-50.0   90.0   16.666666666666668
0.0   90.0   16.666666666666668
-50.0   120.0   16.666666666666668
-50.0   90.0   33.333333333333336
0.0   90.0   16.666666666666668
0.0   120.0   16.666666666666668
-50.0   120.0   16.666666666666668
0.0   120.0   33.333333333333336
-50.0   90.0   33.333333333333336
-50.0   120.0   33.333333333333336
0.0   120.0   33.333333333333336
-50.0   120.0   16.666666666666668
-50.0   90.0   33.333333333333336
0.0   120.0   33.333333333333336
0.0   90.0   33.333333333333336
0.0   90.0   16.666666666666668
-50.0   90.0   33.333333333333336
0.0   120.0   33.333333333333336
0.0   90.0   16.666666666666668
-50.0   120.0   16.666666666666668
-50.0   90.0   33.333333333333336
0.0   90.0   33.333333333333336
-50.0   120.0   33.333333333333336
-50.0   90.0   50.0
0.0   90.0   33.333333333333336
0.0   120.0   33.333333333333336
-50.0   120.0   33.333333333333336
0.0   120.0   50.0
-50.0   90.0   50.0
-50.0   120.0   50.0
0.0   120.0   50.0
-50.0   120.0   33.333333333333336
-50.0   90.0   50.0
0.0   120.0   50.0
0.0   90.0   50.0
0.0   90.0   33.333333333333336
-50.0   90.0   50.0
0.0   120.0   50.0
0.0   90.0   33.333333333333336
-50.0   120.0   33.333333333333336
-50.0   120.0   0.0
0.0   120.0   0.0
-50.0   150.0   0.0
-50.0   120.0   16.666666666666668
0.0   120.0   0.0
0.0   150.0   0.0
-50.0   150.0   0.0
0.0   150.0   16.666666666666668
-50.0   120.0   16.666666666666668
-50.0   150.0   16.666666666666668
0.0   150.0   16.666666666666668
-50.0   150.0   0.0
-50.0   120.0   16.666666666666668
0.0   150.0   16.666666666666668
0.0   120.0   16.666666666666668
0.0   120.0   0.0
-50.0   120.0   16.666666666666668
0.0   150.0   16.666666666666668
0.0   120.0   0.0
-50.0   150.0   0.0
-50.0   120.0   16.666666666666668
0.0   120.0   16.666666666666668
-50.0   150.0   16.666666666666668
-50.0   120.0   33.333333333333336
0.0   120.0   16.666666666666668
0.0   150.0   16.666666666666668
-50.0   150.0   16.666666666666668
0.0   150.0   33.333333333333336
-50.0   120.0   33.333333333333336
-50.0   150.0   33.333333333333336
0.0   150.0   33.333333333333336
-50.0   150.0   16.666666666666668
-50.0   120.0   33.333333333333336
0.0   150.0   33.333333333333336
0.0   120.0   33.333333333333336
0.0   120.0   16.666666666666668
-50.0   120.0   33.333333333333336
0.0   150.0   33.333333333333336
0.0   120.0   16.666666666666668
-50.0   150.0   16.666666666666668
-50.0   120.0   33.333333333333336
0.0   120.0   33.333333333333336
-50.0   150.0   33.333333333333336
-50.0   120.0   50.0
0.0   120.0   33.333333333333336
0.0   150.0   33.333333333333336
-50.0   150.0   33.333333333333336
0.0   150.0   50.0
-50.0   120.0   50.0
-50.0   150.0   50.0
0.0   150.0   50.0
-50.0   150.0   33.333333333333336
-50.0   120.0   50.0
0.0   150.0   50.0
0.0   120.0   50.0
0.0   120.0   33.333333333333336
-50.0   120.0   50.0
0.0   150.0   50.0
0.0   120.0   33.333333333333336
-50.0   150.0   33.333333333333336
0.0   0.0   0.0
50.0   0.0   0.0
0.0   30.0   0.0
0.0   0.0   16.666666666666668
50.0   0.0   0.0
50.0   30.0   0.0
0.0   30.0   0.0
50.0   30.0   16.666666666666668
0.0   0.0   16.666666666666668
0.0   30.0   16.666666666666668
50.0   30.0   16.666666666666668
0.0   30.0   0.0
0.0   0.0   16.666666666666668
50.0   30.0   16.666666666666668
50.0   0.0   16.666666666666668
50.0   0.0   0.0
0.0   0.0   16.666666666666668
50.0   30.0   16.666666666666668
50.0   0.0   0.0
0.0   30.0   0.0
0.0   0.0   16.666666666666668
50.0   0.0   16.666666666666668
0.0   30.0   16.666666666666668
0.0   0.0   33.333333333333336
50.0   0.0   16.666666666666668
50.0   30.0   16.666666666666668
0.0   30.0   16.666666666666668
50.0   30.0   33.333333333333336
0.0   0.0   33.333333333333336
0.0   30.0   33.333333333333336
50.0   30.0   33.333333333333336
0.0   30.0   16.666666666666668
0.0   0.0   33.333333333333336
50.0   30.0   33.333333333333336
50.0   0.0   33.333333333333336
50.0   0.0   16.666666666666668
0.0   0.0   33.333333333333336
50.0   30.0   33.333333333333336
50.0   0.0   16.666666666666668
0.0   30.0   16.666666666666668
0.0   0.0   33.333333333333336
50.0   0.0   33.333333333333336
0.0   30.0   33.333333333333336
0.0   0.0   50.0
50.0   0.0   33.333333333333336
50.0   30.0   33.333333333333336
0.0   30.0   33.333333333333336
50.0   30.0   50.0
0.0   0.0   50.0
0.0   30.0   50.0
50.0   30.0   50.0
0.0   30.0   33.333333333333336
0.0   0.0   50.0
50.0   30.0   50.0
50.0   0.0   50.0
50.0   0.0   33.333333333333336
0.0   0.0   50.0
50.0   30.0   50.0
50.0   0.0   33.333333333333336
0.0   30.0   33.333333333333336
0.0   30.0   0.0
50.0   30.0   0.0
0.0   60.0   0.0
0.0   30.0   16.666666666666668
50.0   30.0   0.0
50.0   60.0   0.0
0.0   60.0   0.0
50.0   60.0   16.666666666666668
0.0   30.0   16.666666666666668
0.0   60.0   16.666666666666668
50.0   60.0   16.666666666666668
0.0   60.0   0.0
0.0   30.0   16.666666666666668
50.0   60.0   16.666666666666668
50.0   30.0   16.666666666666668
50.0   30.0   0.0
0.0   30.0   16.666666666666668
50.0   60.0   16.666666666666668
50.0   30.0   0.0
0.0   60.0   0.0
0.0   30.0   16.666666666666668
50.0   30.0   16.666666666666668
0.0   60.0   16.666666666666668
0.0   30.0   33.333333333333336
50.0   30.0   16.666666666666668
50.0   60.0   16.666666666666668
0.0   60.0   16.666666666666668
50.0   60.0   33.333333333333336
0.0   30.0   33.333333333333336
0.0   60.0   33.333333333333336
50.0   60.0   33.333333333333336
0.0   60.0   16.666666666666668
0.0   30.0   33.333333333333336
50.0   60.0   33.333333333333336
50.0   30.0   33.333333333333336
50.0   30.0   16.666666666666668
0.0   30.0   33.333333333333336
50.0   60.0   33.333333333333336
50.0   30.0   16.666666666666668
0.0   60.0   16.666666666666668
0.0   30.0   33.333333333333336
50.0   30.0   33.333333333333336
0.0   60.0   33.333333333333336
0.0   30.0   50.0
50.0   30.0   33.333333333333336
50.0   60.0   33.333333333333336
0.0   60.0   33.333333333333336
50.0   60.0   50.0
0.0   30.0   50.0
0.0   60.0   50.0
50.0   60.0   50.0
0.0   60.0   33.333333333333336
0.0   30.0   50.0
50.0   60.0   50.0
50.0   30.0   50.0
50.0   30.0   33.333333333333336
0.0   30.0   50.0
50.0   60.0   50.0
50.0   30.0   33.333333333333336
0.0   60.0   33.333333333333336
0.0   60.0   0.0
50.0   60.0   0.0
0.0   90.0   0.0
0.0   60.0   16.666666666666668
50.0   60.0   0.0
50.0   90.0   0.0
0.0   90.0   0.0
50.0   90.0   16.666666666666668
0.0   60.0   16.666666666666668
0.0   90.0   16.666666666666668
50.0   90.0   16.666666666666668
0.0   90.0   0.0
0.0   60.0   16.666666666666668
50.0   90.0   16.666666666666668
50.0   60.0   16.666666666666668
50.0   60.0   0.0
0.0   60.0   16.666666666666668
50.0   90.0   16.666666666666668
50.0   60.0   0.0
0.0   90.0   0.0
0.0   60.0   16.666666666666668
50.0   60.0   16.666666666666668
0.0   90.0   16.666666666666668
0.0   60.0   33.333333333333336
50.0   60.0   16.666666666666668
50.0   90.0   16.666666666666668
0.0   90.0   16.666666666666668
50.0   90.0   33.333333333333336
0.0   60.0   33.333333333333336
0.0   90.0   33.333333333333336
50.0   90.0   33.333333333333336
0.0   90.0   16.666666666666668
0.0   60.0   33.333333333333336
50.0   90.0   33.333333333333336
50.0   60.0   33.333333333333336
50.0   60.0   16.666666666666668
0.0   60.0   33.333333333333336
50.0   90.0   33.333333333333336
50.0   60.0   16.666666666666668
0.0   90.0   16.666666666666668
0.0   60.0   33.333333333333336
50.0   60.0   33.333333333333336
0.0   90.0   33.333333333333336
0.0   60.0   50.0
50.0   60.0   33.333333333333336
50.0   90.0   33.333333333333336
0.0   90.0   33.333333333333336
50.0   90.0   50.0
0.0   60.0   50.0
0.0   90.0   50.0
50.0   90.0   50.0
0.0   90.0   33.333333333333336
0.0   60.0   50.0
50.0   90.0   50.0
50.0   60.0   50.0
50.0   60.0   33.333333333333336
0.0   60.0   50.0
50.0   90.0   50.0
50.0   60.0   33.333333333333336
0.0   90.0   33.333333333333336
0.0   90.0   0.0
50.0   90.0   0.0
0.0   120.0   0.0
0.0   90.0   16.666666666666668
50.0   90.0   0.0
50.0   120.0   0.0
0.0   120.0   0.0
50.0   120.0   16.666666666666668
0.0   90.0   16.666666666666668
0.0   120.0   16.666666666666668
50.0   120.0   16.666666666666668
0.0   120.0   0.0
0.0   90.0   16.666666666666668
50.0   120.0   16.666666666666668
50.0   90.0   16.666666666666668
50.0   90.0   0.0
0.0   90.0   16.666666666666668
50.0   120.0   16.666666666666668
50.0   90.0   0.0
0.0   120.0   0.0
0.0   90.0   16.666666666666668
50.0   90.0   16.666666666666668
0.0   120.0   16.666666666666668
0.0   90.0   33.333333333333336
50.0   90.0   16.666666666666668
50.0   120.0   16.666666666666668
0.0   120.0   16.666666666666668
50.0   120.0   33.333333333333336
0.0   90.0   33.333333333333336
0.0   120.0   33.333333333333336
50.0   120.0   33.333333333333336
0.0   120.0   16.666666666666668
0.0   90.0   33.333333333333336
50.0   120.0   33.333333333333336
50.0   90.0   33.333333333333336
50.0   90.0   16.666666666666668
0.0   90.0   33.333333333333336
50.0   120.0   33.333333333333336
50.0   90.0   16.666666666666668
0.0   120.0   16.666666666666668
0.0   90.0   33.333333333333336
50.0   90.0   33.333333333333336
0.0   120.0   33.333333333333336
0.0   90.0   50.0
50.0   90.0   33.333333333333336
50.0   120.0   33.333333333333336
0.0   120.0   33.333333333333336
50.0   120.0   50.0
0.0   90.0   50.0
0.0   120.0   50.0
50.0   120.0   50.0
0.0   120.0   33.333333333333336
0.0   90.0   50.0
50.0   120.0   50.0
50.0   90.0   50.0
50.0   90.0   33.333333333333336
0.0   90.0   50.0
50.0   120.0   50.0
50.0   90.0   33.333333333333336
0.0   120.0   33.333333333333336
0.0   120.0   0.0
50.0   120.0   0.0
0.0   150.0   0.0
0.0   120.0   16.666666666666668
50.0   120.0   0.0
50.0   150.0   0.0
0.0   150.0   0.0
50.0   150.0   16.666666666666668
0.0   120.0   16.666666666666668
0.0   150.0   16.666666666666668
50.0   150.0   16.666666666666668
0.0   150.0   0.0
0.0   120.0   16.666666666666668
50.0   150.0   16.666666666666668
50.0   120.0   16.666666666666668
50.0   120.0   0.0
0.0   120.0   16.666666666666668
50.0   150.0   16.666666666666668
50.0   120.0   0.0
0.0   150.0   0.0
0.0   120.0   16.666666666666668
50.0   120.0   16.666666666666668
0.0   150.0   16.666666666666668
0.0   120.0   33.333333333333336
50.0   120.0   16.666666666666668
50.0   150.0   16.666666666666668
0.0   150.0   16.666666666666668
50.0   150.0   33.333333333333336
0.0   120.0   33.333333333333336
0.0   150.0   33.333333333333336
50.0   150.0   33.333333333333336
0.0   150.0   16.666666666666668
0.0   120.0   33.333333333333336
50.0   150.0   33.333333333333336
50.0   120.0   33.333333333333336
50.0   120.0   16.666666666666668
0.0   120.0   33.333333333333336
50.0   150.0   33.333333333333336
50.0   120.0   16.666666666666668
0.0   150.0   16.666666666666668
0.0   120.0   33.333333333333336
50.0   120.0   33.333333333333336
0.0   150.0   33.333333333333336
0.0   120.0   50.0
50.0   120.0   33.333333333333336
50.0   150.0   33.333333333333336
0.0   150.0   33.333333333333336
50.0   150.0   50.0
0.0   120.0   50.0
0.0   150.0   50.0
50.0   150.0   50.0
0.0   150.0   33.333333333333336
0.0   120.0   50.0
50.0   150.0   50.0
50.0   120.0   50.0
50.0   120.0   33.333333333333336
0.0   120.0   50.0
50.0   150.0   50.0
50.0   120.0   33.333333333333336
0.0   150.0   33.333333333333336
50.0   0.0   0.0
100.0   0.0   0.0
50.0   30.0   0.0
50.0   0.0   16.666666666666668
100.0   0.0   0.0
100.0   30.0   0.0
50.0   30.0   0.0
100.0   30.0   16.666666666666668
50.0   0.0   16.666666666666668
50.0   30.0   16.666666666666668
100.0   30.0   16.666666666666668
50.0   30.0   0.0
50.0   0.0   16.666666666666668
100.0   30.0   16.666666666666668
100.0   0.0   16.666666666666668
100.0   0.0   0.0
50.0   0.0   16.666666666666668
100.0   30.0   16.666666666666668
100.0   0.0   0.0
50.0   30.0   0.0
50.0   0.0   16.666666666666668
100.0   0.0   16.666666666666668
50.0   30.0   16.666666666666668
50.0   0.0   33.333333333333336
100.0   0.0   16.666666666666668
100.0   30.0   16.666666666666668
50.0   30.0   16.666666666666668
100.0   30.0   33.333333333333336
50.0   0.0   33.333333333333336
50.0   30.0   33.333333333333336
100.0   30.0   33.333333333333336
50.0   30.0   16.666666666666668
50.0   0.0   33.333333333333336
100.0   30.0   33.333333333333336
100.0   0.0   33.333333333333336
100.0   0.0   16.666666666666668
50.0   0.0   33.333333333333336
100.0   30.0   33.333333333333336
100.0   0.0   16.666666666666668
50.0   30.0   16.666666666666668
50.0   0.0   33.333333333333336
100.0   0.0   33.333333333333336
50.0   30.0   33.333333333333336
50.0   0.0   50.0
100.0   0.0   33.333333333333336
100.0   30.0   33.333333333333336
50.0   30.0   33.333333333333336
100.0   30.0   50.0
50.0   0.0   50.0
50.0   30.0   50.0
100.0   30.0   50.0
50.0   30.0   33.333333333333336
50.0   0.0   50.0
100.0   30.0   50.0
100.0   0.0   50.0
100.0   0.0   33.333333333333336
50.0   0.0   50.0
100.0   30.0   50.0
100.0   0.0   33.333333333333336
50.0   30.0   33.333333333333336
50.0   30.0   0.0
100.0   30.0   0.0
50.0   60.0   0.0
50.0   30.0   16.666666666666668
100.0   30.0   0.0
100.0   60.0   0.0
50.0   60.0   0.0
100.0   60.0   16.666666666666668
50.0   30.0   16.666666666666668
50.0   60.0   16.666666666666668
100.0   60.0   16.666666666666668
50.0   60.0   0.0
50.0   30.0   16.666666666666668
100.0   60.0   16.666666666666668
100.0   30.0   16.666666666666668
100.0   30.0   0.0
50.0   30.0   16.666666666666668
100.0   60.0   16.666666666666668
100.0   30.0   0.0
50.0   60.0   0.0
50.0   30.0   16.666666666666668
100.0   30.0   16.666666666666668
50.0   60.0   16.666666666666668
50.0   30.0   33.333333333333336
100.0   30.0   16.666666666666668
100.0   60.0   16.666666666666668
50.0   60.0   16.666666666666668
100.0   60.0   33.333333333333336
50.0   30.0   33.333333333333336
50.0   60.0   33.333333333333336
100.0   60.0   33.333333333333336
50.0   60.0   16.666666666666668
50.0   30.0   33.333333333333336
100.0   60.0   33.333333333333336
100.0   30.0   33.333333333333336
100.0   30.0   16.666666666666668
50.0   30.0   33.333333333333336
100.0   60.0   33.333333333333336
100.0   30.0   16.666666666666668
50.0   60.0   16.666666666666668
50.0   30.0   33.333333333333336
100.0   30.0   33.333333333333336
50.0   60.0   33.333333333333336
50.0   30.0   50.0
100.0   30.0   33.333333333333336
100.0   60.0   33.333333333333336
50.0   60.0   33.333333333333336
100.0   60.0   50.0
50.0   30.0   50.0
50.0   60.0   50.0
100.0   60.0   50.0
50.0   60.0   33.333333333333336
50.0   30.0   50.0
100.0   60.0   50.0
100.0   30.0   50.0
100.0   30.0   33.333333333333336
50.0   30.0   50.0
100.0   60.0   50.0
100.0   30.0   33.333333333333336
50.0   60.0   33.333333333333336
50.0   60.0   0.0
100.0   60.0   0.0
50.0   90.0   0.0
50.0   60.0   16.666666666666668
100.0   60.0   0.0
100.0   90.0   0.0
50.0   90.0   0.0
100.0   90.0   16.666666666666668
50.0   60.0   16.666666666666668
50.0   90.0   16.666666666666668
100.0   90.0   16.666666666666668
50.0   90.0   0.0
50.0   60.0   16.666666666666668
100.0   90.0   16.666666666666668
100.0   60.0   16.666666666666668
100.0   60.0   0.0
50.0   60.0   16.666666666666668
100.0   90.0   16.666666666666668
100.0   60.0   0.0
50.0   90.0   0.0
50.0   60.0   16.666666666666668
100.0   60.0   16.666666666666668
50.0   90.0   16.666666666666668
50.0   60.0   33.333333333333336
100.0   60.0   16.666666666666668
100.0   90.0   16.666666666666668
50.0   90.0   16.666666666666668
100.0   90.0   33.333333333333336
50.0   60.0   33.333333333333336
50.0   90.0   33.333333333333336
100.0   90.0   33.333333333333336
50.0   90.0   16.666666666666668
50.0   60.0   33.333333333333336
100.0   90.0   33.333333333333336
100.0   60.0   33.333333333333336
100.0   60.0   16.666666666666668
50.0   60.0   33.333333333333336
100.0   90.0   33.333333333333336
100.0   60.0   16.666666666666668
50.0   90.0   16.666666666666668
50.0   60.0   33.333333333333336
100.0   60.0   33.333333333333336
50.0   90.0   33.333333333333336
50.0   60.0   50.0
100.0   60.0   33.333333333333336
100.0   90.0   33.333333333333336
50.0   90.0   33.333333333333336
100.0   90.0   50.0
50.0   60.0   50.0
50.0   90.0   50.0
100.0   90.0   50.0
50.0   90.0   33.333333333333336
50.0   60.0   50.0
100.0   90.0   50.0
100.0   60.0   50.0
100.0   60.0   33.333333333333336
50.0   60.0   50.0
100.0   90.0   50.0
100.0   60.0   33.333333333333336
50.0   90.0   33.333333333333336
50.0   90.0   0.0
100.0   90.0   0.0
50.0   120.0   0.0
50.0   90.0   16.666666666666668
100.0   90.0   0.0
100.0   120.0   0.0
50.0   120.0   0.0
100.0   120.0   16.666666666666668
50.0   90.0   16.666666666666668
50.0   120.0   16.666666666666668
100.0   120.0   16.666666666666668
50.0   120.0   0.0
50.0   90.0   16.666666666666668
100.0   120.0   16.666666666666668
100.0   90.0   16.666666666666668
100.0   90.0   0.0
50.0   90.0   16.666666666666668
100.0   120.0   16.666666666666668
100.0   90.0   0.0
50.0   120.0   0.0
50.0   90.0   16.666666666666668
100.0   90.0   16.666666666666668
50.0   120.0   16.666666666666668
50.0   90.0   33.333333333333336
100.0   90.0   16.666666666666668
100.0   120.0   16.666666666666668
50.0   120.0   16.666666666666668
100.0   120.0   33.333333333333336
50.0   90.0   33.333333333333336
50.0   120.0   33.333333333333336
100.0   120.0   33.333333333333336
50.0   120.0   16.666666666666668
50.0   90.0   33.333333333333336
100.0   120.0   33.333333333333336
100.0   90.0   33.333333333333336
100.0   90.0   16.666666666666668
50.0   90.0   33.333333333333336
100.0   120.0   33.333333333333336
100.0   90.0   16.666666666666668
50.0   120.0   16.666666666666668
50.0   90.0   33.333333333333336
100.0   90.0   33.333333333333336
50.0   120.0   33.333333333333336
50.0   90.0   50.0
100.0   90.0   33.333333333333336
100.0   120.0   33.333333333333336
50.0   120.0   33.333333333333336
100.0   120.0   50.0
50.0   90.0   50.0
50.0   120.0   50.0
100.0   120.0   50.0
50.0   120.0   33.333333333333336
50.0   90.0   50.0
100.0   120.0   50.0
100.0   90.0   50.0
100.0   90.0   33.333333333333336
50.0   90.0   50.0
100.0   120.0   50.0
100.0   90.0   33.333333333333336
50.0   120.0   33.333333333333336
50.0   120.0   0.0
100.0   120.0   0.0
50.0   150.0   0.0
50.0   120.0   16.666666666666668
100.0   120.0   0.0
100.0   150.0   0.0
50.0   150.0   0.0
100.0   150.0   16.666666666666668
50.0   120.0   16.666666666666668
50.0   150.0   16.666666666666668
100.0   150.0   16.666666666666668
50.0   150.0   0.0
50.0   120.0   16.666666666666668
100.0   150.0   16.666666666666668
100.0   120.0   16.666666666666668
100.0   120.0   0.0
50.0   120.0   16.666666666666668
100.0   150.0   16.666666666666668
100.0   120.0   0.0
50.0   150.0   0.0
50.0   120.0   16.666666666666668
100.0   120.0   16.666666666666668
50.0   150.0   16.666666666666668
50.0   120.0   33.333333333333336
100.0   120.0   16.666666666666668
100.0   150.0   16.666666666666668
50.0   150.0   16.666666666666668
100.0   150.0   33.333333333333336
50.0   120.0   33.333333333333336
50.0   150.0   33.333333333333336
100.0   150.0   33.333333333333336
50.0   150.0   16.666666666666668
50.0   120.0   33.333333333333336
100.0   150.0   33.333333333333336
100.0   120.0   33.333333333333336
100.0   120.0   16.666666666666668
50.0   120.0   33.333333333333336
100.0   150.0   33.333333333333336
100.0   120.0   16.666666666666668
50.0   150.0   16.666666666666668
50.0   120.0   33.333333333333336
100.0   120.0   33.333333333333336
50.0   150.0   33.333333333333336
50.0   120.0   50.0
100.0   120.0   33.333333333333336
100.0   150.0   33.333333333333336
50.0   150.0   33.333333333333336
100.0   150.0   50.0
50.0   120.0   50.0
50.0   150.0   50.0
100.0   150.0   50.0
50.0   150.0   33.333333333333336
50.0   120.0   50.0
100.0   150.0   50.0
100.0   120.0   50.0
100.0   120.0   33.333333333333336
50.0   120.0   50.0
100.0   150.0   50.0
100.0   120.0   33.333333333333336
50.0   150.0   33.333333333333336
100.0   0.0   0.0
150.0   0.0   0.0
100.0   30.0   0.0
100.0   0.0   16.666666666666668
150.0   0.0   0.0
150.0   30.0   0.0
100.0   30.0   0.0
150.0   30.0   16.666666666666668
100.0   0.0   16.666666666666668
100.0   30.0   16.666666666666668
150.0   30.0   16.666666666666668
100.0   30.0   0.0
100.0   0.0   16.666666666666668
150.0   30.0   16.666666666666668
150.0   0.0   16.666666666666668
150.0   0.0   0.0
100.0   0.0   16.666666666666668
150.0   30.0   16.666666666666668
150.0   0.0   0.0
100.0   30.0   0.0
100.0   0.0   16.666666666666668
150.0   0.0   16.666666666666668
100.0   30.0   16.666666666666668
100.0   0.0   33.333333333333336
150.0   0.0   16.666666666666668
150.0   30.0   16.666666666666668
100.0   30.0   16.666666666666668
150.0   30.0   33.333333333333336
100.0   0.0   33.333333333333336
100.0   30.0   33.333333333333336
150.0   30.0   33.333333333333336
100.0   30.0   16.666666666666668
100.0   0.0   33.333333333333336
150.0   30.0   33.333333333333336
150.0   0.0   33.333333333333336
150.0   0.0   16.666666666666668
100.0   0.0   33.333333333333336
150.0   30.0   33.333333333333336
150.0   0.0   16.666666666666668
100.0   30.0   16.666666666666668
100.0   0.0   33.333333333333336
150.0   0.0   33.333333333333336
100.0   30.0   33.333333333333336
100.0   0.0   50.0
150.0   0.0   33.333333333333336
150.0   30.0   33.333333333333336
100.0   30.0   33.333333333333336
150.0   30.0   50.0
100.0   0.0   50.0
100.0   30.0   50.0
150.0   30.0   50.0
100.0   30.0   33.333333333333336
100.0   0.0   50.0
150.0   30.0   50.0
150.0   0.0   50.0
150.0   0.0   33.333333333333336
100.0   0.0   50.0
150.0   30.0   50.0
150.0   0.0   33.333333333333336
100.0   30.0   33.333333333333336
100.0   30.0   0.0
150.0   30.0   0.0
100.0   60.0   0.0
100.0   30.0   16.666666666666668
150.0   30.0   0.0
150.0   60.0   0.0
100.0   60.0   0.0
150.0   60.0   16.666666666666668
100.0   30.0   16.666666666666668
100.0   60.0   16.666666666666668
150.0   60.0   16.666666666666668
100.0   60.0   0.0
100.0   30.0   16.666666666666668
150.0   60.0   16.666666666666668
150.0   30.0   16.666666666666668
150.0   30.0   0.0
100.0   30.0   16.666666666666668
150.0   60.0   16.666666666666668
150.0   30.0   0.0
100.0   60.0   0.0
100.0   30.0   16.666666666666668
150.0   30.0   16.666666666666668
100.0   60.0   16.666666666666668
100.0   30.0   33.333333333333336
150.0   30.0   16.666666666666668
150.0   60.0   16.666666666666668
100.0   60.0   16.666666666666668
150.0   60.0   33.333333333333336
100.0   30.0   33.333333333333336
100.0   60.0   33.333333333333336
150.0   60.0   33.333333333333336
100.0   60.0   16.666666666666668
100.0   30.0   33.333333333333336
150.0   60.0   33.333333333333336
150.0   30.0   33.333333333333336
150.0   30.0   16.666666666666668
100.0   30.0   33.333333333333336
150.0   60.0   33.333333333333336
150.0   30.0   16.666666666666668
100.0   60.0   16.666666666666668
100.0   30.0   33.333333333333336
150.0   30.0   33.333333333333336
100.0   60.0   33.333333333333336
100.0   30.0   50.0
150.0   30.0   33.333333333333336
150.0   60.0   33.333333333333336
100.0   60.0   33.333333333333336
150.0   60.0   50.0
100.0   30.0   50.0
100.0   60.0   50.0
150.0   60.0   50.0
100.0   60.0   33.333333333333336
100.0   30.0   50.0
150.0   60.0   50.0
150.0   30.0   50.0
150.0   30.0   33.333333333333336
100.0   30.0   50.0
150.0   60.0   50.0
150.0   30.0   33.333333333333336
100.0   60.0   33.333333333333336
100.0   60.0   0.0
150.0   60.0   0.0
100.0   90.0   0.0
100.0   60.0   16.666666666666668
150.0   60.0   0.0
150.0   90.0   0.0
100.0   90.0   0.0
150.0   90.0   16.666666666666668
100.0   60.0   16.666666666666668
100.0   90.0   16.666666666666668
150.0   90.0   16.666666666666668
100.0   90.0   0.0
100.0   60.0   16.666666666666668
150.0   90.0   16.666666666666668
150.0   60.0   16.666666666666668
150.0   60.0   0.0
100.0   60.0   16.666666666666668
150.0   90.0   16.666666666666668
150.0   60.0   0.0
100.0   90.0   0.0
100.0   60.0   16.666666666666668
150.0   60.0   16.666666666666668
100.0   90.0   16.666666666666668
100.0   60.0   33.333333333333336
150.0   60.0   16.666666666666668
150.0   90.0   16.666666666666668
100.0   90.0   16.666666666666668
150.0   90.0   33.333333333333336
100.0   60.0   33.333333333333336
100.0   90.0   33.333333333333336
150.0   90.0   33.333333333333336
100.0   90.0   16.666666666666668
100.0   60.0   33.333333333333336
150.0   90.0   33.333333333333336
150.0   60.0   33.333333333333336
150.0   60.0   16.666666666666668
100.0   60.0   33.333333333333336
150.0   90.0   33.333333333333336
150.0   60.0   16.666666666666668
100.0   90.0   16.666666666666668
100.0   60.0   33.333333333333336
150.0   60.0   33.333333333333336
100.0   90.0   33.333333333333336
100.0   60.0   50.0
150.0   60.0   33.333333333333336
150.0   90.0   33.333333333333336
100.0   90.0   33.333333333333336
150.0   90.0   50.0
100.0   60.0   50.0
100.0   90.0   50.0
150.0   90.0   50.0
100.0   90.0   33.333333333333336
100.0   60.0   50.0
150.0   90.0   50.0
150.0   60.0   50.0
150.0   60.0   33.333333333333336
100.0   60.0   50.0
150.0   90.0   50.0
150.0   60.0   33.333333333333336
100.0   90.0   33.333333333333336
100.0   90.0   0.0
150.0   90.0   0.0
100.0   120.0   0.0
100.0   90.0   16.666666666666668
150.0   90.0   0.0
150.0   120.0   0.0
100.0   120.0   0.0
150.0   120.0   16.666666666666668
100.0   90.0   16.666666666666668
100.0   120.0   16.666666666666668
150.0   120.0   16.666666666666668
100.0   120.0   0.0
100.0   90.0   16.666666666666668
150.0   120.0   16.666666666666668
150.0   90.0   16.666666666666668
150.0   90.0   0.0
100.0   90.0   16.666666666666668
150.0   120.0   16.666666666666668
150.0   90.0   0.0
100.0   120.0   0.0
100.0   90.0   16.666666666666668
150.0   90.0   16.666666666666668
100.0   120.0   16.666666666666668
100.0   90.0   33.333333333333336
150.0   90.0   16.666666666666668
150.0   120.0   16.666666666666668
100.0   120.0   16.666666666666668
150.0   120.0   33.333333333333336
100.0   90.0   33.333333333333336
100.0   120.0   33.333333333333336
150.0   120.0   33.333333333333336
100.0   120.0   16.666666666666668
100.0   90.0   33.333333333333336
150.0   120.0   33.333333333333336
150.0   90.0   33.333333333333336
150.0   90.0   16.666666666666668
100.0   90.0   33.333333333333336
150.0   120.0   33.333333333333336
150.0   90.0   16.666666666666668
100.0   120.0   16.666666666666668
100.0   90.0   33.333333333333336
150.0   90.0   33.333333333333336
100.0   120.0   33.333333333333336
100.0   90.0   50.0
150.0   90.0   33.333333333333336
150.0   120.0   33.333333333333336
100.0   120.0   33.333333333333336
150.0   120.0   50.0
100.0   90.0   50.0
100.0   120.0   50.0
150.0   120.0   50.0
100.0   120.0   33.333333333333336
100.0   90.0   50.0
150.0   120.0   50.0
150.0   90.0   50.0
150.0   90.0   33.333333333333336
100.0   90.0   50.0
150.0   120.0   50.0
150.0   90.0   33.333333333333336
100.0   120.0   33.333333333333336
100.0   120.0   0.0
150.0   120.0   0.0
100.0   150.0   0.0
100.0   120.0   16.666666666666668
150.0   120.0   0.0
150.0   150.0   0.0
100.0   150.0   0.0
150.0   150.0   16.666666666666668
100.0   120.0   16.666666666666668
100.0   150.0   16.666666666666668
150.0   150.0   16.666666666666668
100.0   150.0   0.0
100.0   120.0   16.666666666666668
150.0   150.0   16.666666666666668
150.0   120.0   16.666666666666668
150.0   120.0   0.0
100.0   120.0   16.666666666666668
150.0   150.0   16.666666666666668
150.0   120.0   0.0
100.0   150.0   0.0
100.0   120.0   16.666666666666668
150.0   120.0   16.666666666666668
100.0   150.0   16.666666666666668
100.0   120.0   33.333333333333336
150.0   120.0   16.666666666666668
150.0   150.0   16.666666666666668
100.0   150.0   16.666666666666668
150.0   150.0   33.333333333333336
100.0   120.0   33.333333333333336
100.0   150.0   33.333333333333336
150.0   150.0   33.333333333333336
100.0   150.0   16.666666666666668
100.0   120.0   33.333333333333336
150.0   150.0   33.333333333333336
150.0   120.0   33.333333333333336
150.0   120.0   16.666666666666668
100.0   120.0   33.333333333333336
150.0   150.0   33.333333333333336
150.0   120.0   16.666666666666668
100.0   150.0   16.666666666666668
100.0   120.0   33.333333333333336
150.0   120.0   33.333333333333336
100.0   150.0   33.333333333333336
100.0   120.0   50.0
150.0   120.0   33.333333333333336
150.0   150.0   33.333333333333336
100.0   150.0   33.333333333333336
150.0   150.0   50.0
100.0   120.0   50.0
100.0   150.0   50.0
150.0   150.0   50.0
100.0   150.0   33.333333333333336
100.0   120.0   50.0
150.0   150.0   50.0
150.0   120.0   50.0
150.0   120.0   33.333333333333336
100.0   120.0   50.0
150.0   150.0   50.0
150.0   120.0   33.333333333333336
100.0   150.0   33.333333333333336
150.0   0.0   0.0
200.0   0.0   0.0
150.0   30.0   0.0
150.0   0.0   16.666666666666668
200.0   0.0   0.0
200.0   30.0   0.0
150.0   30.0   0.0
200.0   30.0   16.666666666666668
150.0   0.0   16.666666666666668
150.0   30.0   16.666666666666668
200.0   30.0   16.666666666666668
150.0   30.0   0.0
150.0   0.0   16.666666666666668
200.0   30.0   16.666666666666668
200.0   0.0   16.666666666666668
200.0   0.0   0.0
150.0   0.0   16.666666666666668
200.0   30.0   16.666666666666668
200.0   0.0   0.0
150.0   30.0   0.0
150.0   0.0   16.666666666666668
200.0   0.0   16.666666666666668
150.0   30.0   16.666666666666668
150.0   0.0   33.333333333333336
200.0   0.0   16.666666666666668
200.0   30.0   16.666666666666668
150.0   30.0   16.666666666666668
200.0   30.0   33.333333333333336
150.0   0.0   33.333333333333336
150.0   30.0   33.333333333333336
200.0   30.0   33.333333333333336
150.0   30.0   16.666666666666668
150.0   0.0   33.333333333333336
200.0   30.0   33.333333333333336
200.0   0.0   33.333333333333336
200.0   0.0   16.666666666666668
150.0   0.0   33.333333333333336
200.0   30.0   33.333333333333336
200.0   0.0   16.666666666666668
150.0   30.0   16.666666666666668
150.0   0.0   33.333333333333336
200.0   0.0   33.333333333333336
150.0   30.0   33.333333333333336
150.0   0.0   50.0
200.0   0.0   33.333333333333336
200.0   30.0   33.333333333333336
150.0   30.0   33.333333333333336
200.0   30.0   50.0
150.0   0.0   50.0
150.0   30.0   50.0
200.0   30.0   50.0
150.0   30.0   33.333333333333336
150.0   0.0   50.0
200.0   30.0   50.0
200.0   0.0   50.0
200.0   0.0   33.333333333333336
150.0   0.0   50.0
200.0   30.0   50.0
200.0   0.0   33.333333333333336
150.0   30.0   33.333333333333336
150.0   30.0   0.0
200.0   30.0   0.0
150.0   60.0   0.0
150.0   30.0   16.666666666666668
200.0   30.0   0.0
200.0   60.0   0.0
150.0   60.0   0.0
200.0   60.0   16.666666666666668
150.0   30.0   16.666666666666668
150.0   60.0   16.666666666666668
200.0   60.0   16.666666666666668
150.0   60.0   0.0
150.0   30.0   16.666666666666668
200.0   60.0   16.666666666666668
200.0   30.0   16.666666666666668
200.0   30.0   0.0
150.0   30.0   16.666666666666668
200.0   60.0   16.666666666666668
200.0   30.0   0.0
150.0   60.0   0.0
150.0   30.0   16.666666666666668
200.0   30.0   16.666666666666668
150.0   60.0   16.666666666666668
150.0   30.0   33.333333333333336
200.0   30.0   16.666666666666668
200.0   60.0   16.666666666666668
150.0   60.0   16.666666666666668
200.0   60.0   33.333333333333336
150.0   30.0   33.333333333333336
150.0   60.0   33.333333333333336
200.0   60.0   33.333333333333336
150.0   60.0   16.666666666666668
150.0   30.0   33.333333333333336
200.0   60.0   33.333333333333336
200.0   30.0   33.333333333333336
200.0   30.0   16.666666666666668
150.0   30.0   33.333333333333336
200.0   60.0   33.333333333333336
200.0   30.0   16.666666666666668
150.0   60.0   16.666666666666668
150.0   30.0   33.333333333333336
200.0   30.0   33.333333333333336
150.0   60.0   33.333333333333336
150.0   30.0   50.0
200.0   30.0   33.333333333333336
200.0   60.0   33.333333333333336
150.0   60.0   33.333333333333336
200.0   60.0   50.0
150.0   30.0   50.0
150.0   60.0   50.0
200.0   60.0   50.0
150.0   60.0   33.333333333333336
150.0   30.0   50.0
200.0   60.0   50.0
200.0   30.0   50.0
200.0   30.0   33.333333333333336
150.0   30.0   50.0
200.0   60.0   50.0
200.0   30.0   33.333333333333336
150.0   60.0   33.333333333333336
150.0   60.0   0.0
200.0   60.0   0.0
150.0   90.0   0.0
150.0   60.0   16.666666666666668
200.0   60.0   0.0
200.0   90.0   0.0
150.0   90.0   0.0
200.0   90.0   16.666666666666668
150.0   60.0   16.666666666666668
150.0   90.0   16.666666666666668
200.0   90.0   16.666666666666668
150.0   90.0   0.0
150.0   60.0   16.666666666666668
200.0   90.0   16.666666666666668
200.0   60.0   16.666666666666668
200.0   60.0   0.0
150.0   60.0   16.666666666666668
200.0   90.0   16.666666666666668
200.0   60.0   0.0
150.0   90.0   0.0
150.0   60.0   16.666666666666668
200.0   60.0   16.666666666666668
150.0   90.0   16.666666666666668
150.0   60.0   33.333333333333336
200.0   60.0   16.666666666666668
200.0   90.0   16.666666666666668
150.0   90.0   16.666666666666668
200.0   90.0   33.333333333333336
150.0   60.0   33.333333333333336
150.0   90.0   33.333333333333336
200.0   90.0   33.333333333333336
150.0   90.0   16.666666666666668
150.0   60.0   33.333333333333336
200.0   90.0   33.333333333333336
200.0   60.0   33.333333333333336
200.0   60.0   16.666666666666668
150.0   60.0   33.333333333333336
200.0   90.0   33.333333333333336
200.0   60.0   16.666666666666668
150.0   90.0   16.666666666666668
150.0   60.0   33.333333333333336
200.0   60.0   33.333333333333336
150.0   90.0   33.333333333333336
150.0   60.0   50.0
200.0   60.0   33.333333333333336
200.0   90.0   33.333333333333336
150.0   90.0   33.333333333333336
200.0   90.0   50.0
150.0   60.0   50.0
150.0   90.0   50.0
200.0   90.0   50.0
150.0   90.0   33.333333333333336
150.0   60.0   50.0
200.0   90.0   50.0
200.0   60.0   50.0
200.0   60.0   33.333333333333336
150.0   60.0   50.0
200.0   90.0   50.0
200.0   60.0   33.333333333333336
150.0   90.0   33.333333333333336
150.0   90.0   0.0
200.0   90.0   0.0
150.0   120.0   0.0
150.0   90.0   16.666666666666668
200.0   90.0   0.0
200.0   120.0   0.0
150.0   120.0   0.0
200.0   120.0   16.666666666666668
150.0   90.0   16.666666666666668
150.0   120.0   16.666666666666668
200.0   120.0   16.666666666666668
150.0   120.0   0.0
150.0   90.0   16.666666666666668
200.0   120.0   16.666666666666668
200.0   90.0   16.666666666666668
200.0   90.0   0.0
150.0   90.0   16.666666666666668
200.0   120.0   16.666666666666668
200.0   90.0   0.0
150.0   120.0   0.0
150.0   90.0   16.666666666666668
200.0   90.0   16.666666666666668
150.0   120.0   16.666666666666668
150.0   90.0   33.333333333333336
200.0   90.0   16.666666666666668
200.0   120.0   16.666666666666668
150.0   120.0   16.666666666666668
200.0   120.0   33.333333333333336
150.0   90.0   33.333333333333336
150.0   120.0   33.333333333333336
200.0   120.0   33.333333333333336
150.0   120.0   16.666666666666668
150.0   90.0   33.333333333333336
200.0   120.0   33.333333333333336
200.0   90.0   33.333333333333336
200.0   90.0   16.666666666666668
150.0   90.0   33.333333333333336
200.0   120.0   33.333333333333336
200.0   90.0   16.666666666666668
150.0   120.0   16.666666666666668
150.0   90.0   33.333333333333336
200.0   90.0   33.333333333333336
150.0   120.0   33.333333333333336
150.0   90.0   50.0
200.0   90.0   33.333333333333336
200.0   120.0   33.333333333333336
150.0   120.0   33.333333333333336
200.0   120.0   50.0
150.0   90.0   50.0
150.0   120.0   50.0
200.0   120.0   50.0
150.0   120.0   33.333333333333336
150.0   90.0   50.0
200.0   120.0   50.0
200.0   90.0   50.0
200.0   90.0   33.333333333333336
150.0   90.0   50.0
200.0   120.0   50.0
200.0   90.0   33.333333333333336
150.0   120.0   33.333333333333336
150.0   120.0   0.0
200.0   120.0   0.0
150.0   150.0   0.0
150.0   120.0   16.666666666666668
200.0   120.0   0.0
200.0   150.0   0.0
150.0   150.0   0.0
200.0   150.0   16.666666666666668
150.0   120.0   16.666666666666668
150.0   150.0   16.666666666666668
200.0   150.0   16.666666666666668
150.0   150.0   0.0
150.0   120.0   16.666666666666668
200.0   150.0   16.666666666666668
200.0   120.0   16.666666666666668
200.0   120.0   0.0
150.0   120.0   16.666666666666668
200.0   150.0   16.666666666666668
200.0   120.0   0.0
150.0   150.0   0.0
150.0   120.0   16.666666666666668
200.0   120.0   16.666666666666668
150.0   150.0   16.666666666666668
150.0   120.0   33.333333333333336
200.0   120.0   16.666666666666668
200.0   150.0   16.666666666666668
150.0   150.0   16.666666666666668
200.0   150.0   33.333333333333336
150.0   120.0   33.333333333333336
150.0   150.0   33.333333333333336
200.0   150.0   33.333333333333336
150.0   150.0   16.666666666666668
150.0   120.0   33.333333333333336
200.0   150.0   33.333333333333336
200.0   120.0   33.333333333333336
200.0   120.0   16.666666666666668
150.0   120.0   33.333333333333336
200.0   150.0   33.333333333333336
200.0   120.0   16.666666666666668
150.0   150.0   16.666666666666668
150.0   120.0   33.333333333333336
200.0   120.0   33.333333333333336
150.0   150.0   33.333333333333336
150.0   120.0   50.0
200.0   120.0   33.333333333333336
200.0   150.0   33.333333333333336
150.0   150.0   33.333333333333336
200.0   150.0   50.0
150.0   120.0   50.0
150.0   150.0   50.0
200.0   150.0   50.0
150.0   150.0   33.333333333333336
150.0   120.0   50.0
200.0   150.0   50.0
200.0   120.0   50.0
200.0   120.0   33.333333333333336
150.0   120.0   50.0
200.0   150.0   50.0
200.0   120.0   33.333333333333336
150.0   150.0   33.333333333333336
200.0   0.0   0.0
250.0   0.0   0.0
200.0   30.0   0.0
200.0   0.0   16.666666666666668
250.0   0.0   0.0
250.0   30.0   0.0
200.0   30.0   0.0
250.0   30.0   16.666666666666668
200.0   0.0   16.666666666666668
200.0   30.0   16.666666666666668
250.0   30.0   16.666666666666668
200.0   30.0   0.0
200.0   0.0   16.666666666666668
250.0   30.0   16.666666666666668
250.0   0.0   16.666666666666668
250.0   0.0   0.0
200.0   0.0   16.666666666666668
250.0   30.0   16.666666666666668
250.0   0.0   0.0
200.0   30.0   0.0
200.0   0.0   16.666666666666668
250.0   0.0   16.666666666666668
200.0   30.0   16.666666666666668
200.0   0.0   33.333333333333336
250.0   0.0   16.666666666666668
250.0   30.0   16.666666666666668
200.0   30.0   16.666666666666668
250.0   30.0   33.333333333333336
200.0   0.0   33.333333333333336
200.0   30.0   33.333333333333336
250.0   30.0   33.333333333333336
200.0   30.0   16.666666666666668
200.0   0.0   33.333333333333336
250.0   30.0   33.333333333333336
250.0   0.0   33.333333333333336
250.0   0.0   16.666666666666668
200.0   0.0   33.333333333333336
250.0   30.0   33.333333333333336
250.0   0.0   16.666666666666668
200.0   30.0   16.666666666666668
200.0   0.0   33.333333333333336
250.0   0.0   33.333333333333336
200.0   30.0   33.333333333333336
200.0   0.0   50.0
250.0   0.0   33.333333333333336
250.0   30.0   33.333333333333336
200.0   30.0   33.333333333333336
250.0   30.0   50.0
200.0   0.0   50.0
200.0   30.0   50.0
250.0   30.0   50.0
200.0   30.0   33.333333333333336
200.0   0.0   50.0
250.0   30.0   50.0
250.0   0.0   50.0
250.0   0.0   33.333333333333336
200.0   0.0   50.0
250.0   30.0   50.0
250.0   0.0   33.333333333333336
200.0   30.0   33.333333333333336
200.0   30.0   0.0
250.0   30.0   0.0
200.0   60.0   0.0
200.0   30.0   16.666666666666668
250.0   30.0   0.0
250.0   60.0   0.0
200.0   60.0   0.0
250.0   60.0   16.666666666666668
200.0   30.0   16.666666666666668
200.0   60.0   16.666666666666668
250.0   60.0   16.666666666666668
200.0   60.0   0.0
200.0   30.0   16.666666666666668
250.0   60.0   16.666666666666668
250.0   30.0   16.666666666666668
250.0   30.0   0.0
200.0   30.0   16.666666666666668
250.0   60.0   16.666666666666668
250.0   30.0   0.0
200.0   60.0   0.0
200.0   30.0   16.666666666666668
250.0   30.0   16.666666666666668
200.0   60.0   16.666666666666668
200.0   30.0   33.333333333333336
250.0   30.0   16.666666666666668
250.0   60.0   16.666666666666668
200.0   60.0   16.666666666666668
250.0   60.0   33.333333333333336
200.0   30.0   33.333333333333336
200.0   60.0   33.333333333333336
250.0   60.0   33.333333333333336
200.0   60.0   16.666666666666668
200.0   30.0   33.333333333333336
250.0   60.0   33.333333333333336
250.0   30.0   33.333333333333336
250.0   30.0   16.666666666666668
200.0   30.0   33.333333333333336
250.0   60.0   33.333333333333336
250.0   30.0   16.666666666666668
200.0   60.0   16.666666666666668
200.0   30.0   33.333333333333336
250.0   30.0   33.333333333333336
200.0   60.0   33.333333333333336
200.0   30.0   50.0
250.0   30.0   33.333333333333336
250.0   60.0   33.333333333333336
200.0   60.0   33.333333333333336
250.0   60.0   50.0
200.0   30.0   50.0
200.0   60.0   50.0
250.0   60.0   50.0
200.0   60.0   33.333333333333336
200.0   30.0   50.0
250.0   60.0   50.0
250.0   30.0   50.0
250.0   30.0   33.333333333333336
200.0   30.0   50.0
250.0   60.0   50.0
250.0   30.0   33.333333333333336
200.0   60.0   33.333333333333336
200.0   60.0   0.0
250.0   60.0   0.0
200.0   90.0   0.0
200.0   60.0   16.666666666666668
250.0   60.0   0.0
250.0   90.0   0.0
200.0   90.0   0.0
250.0   90.0   16.666666666666668
200.0   60.0   16.666666666666668
200.0   90.0   16.666666666666668
250.0   90.0   16.666666666666668
200.0   90.0   0.0
200.0   60.0   16.666666666666668
250.0   90.0   16.666666666666668
250.0   60.0   16.666666666666668
250.0   60.0   0.0
200.0   60.0   16.666666666666668
250.0   90.0   16.666666666666668
250.0   60.0   0.0
200.0   90.0   0.0
200.0   60.0   16.666666666666668
250.0   60.0   16.666666666666668
200.0   90.0   16.666666666666668
200.0   60.0   33.333333333333336
250.0   60.0   16.666666666666668
250.0   90.0   16.666666666666668
200.0   90.0   16.666666666666668
250.0   90.0   33.333333333333336
200.0   60.0   33.333333333333336
200.0   90.0   33.333333333333336
250.0   90.0   33.333333333333336
200.0   90.0   16.666666666666668
200.0   60.0   33.333333333333336
250.0   90.0   33.333333333333336
250.0   60.0   33.333333333333336
250.0   60.0   16.666666666666668
200.0   60.0   33.333333333333336
250.0   90.0   33.333333333333336
250.0   60.0   16.666666666666668
200.0   90.0   16.666666666666668
200.0   60.0   33.333333333333336
250.0   60.0   33.333333333333336
200.0   90.0   33.333333333333336
200.0   60.0   50.0
250.0   60.0   33.333333333333336
250.0   90.0   33.333333333333336
200.0   90.0   33.333333333333336
250.0   90.0   50.0
200.0   60.0   50.0
200.0   90.0   50.0
250.0   90.0   50.0
200.0   90.0   33.333333333333336
200.0   60.0   50.0
250.0   90.0   50.0
250.0   60.0   50.0
250.0   60.0   33.333333333333336
200.0   60.0   50.0
250.0   90.0   50.0
250.0   60.0   33.333333333333336
200.0   90.0   33.333333333333336
200.0   90.0   0.0
250.0   90.0   0.0
200.0   120.0   0.0
200.0   90.0   16.666666666666668
250.0   90.0   0.0
250.0   120.0   0.0
200.0   120.0   0.0
250.0   120.0   16.666666666666668
200.0   90.0   16.666666666666668
200.0   120.0   16.666666666666668
250.0   120.0   16.666666666666668
200.0   120.0   0.0
200.0   90.0   16.666666666666668
250.0   120.0   16.666666666666668
250.0   90.0   16.666666666666668
250.0   90.0   0.0
200.0   90.0   16.666666666666668
250.0   120.0   16.666666666666668
250.0   90.0   0.0
200.0   120.0   0.0
200.0   90.0   16.666666666666668
250.0   90.0   16.666666666666668
200.0   120.0   16.666666666666668
200.0   90.0   33.333333333333336
250.0   90.0   16.666666666666668
250.0   120.0   16.666666666666668
200.0   120.0   16.666666666666668
250.0   120.0   33.333333333333336
200.0   90.0   33.333333333333336
200.0   120.0   33.333333333333336
250.0   120.0   33.333333333333336
200.0   120.0   16.666666666666668
200.0   90.0   33.333333333333336
250.0   120.0   33.333333333333336
250.0   90.0   33.333333333333336
250.0   90.0   16.666666666666668
200.0   90.0   33.333333333333336
250.0   120.0   33.333333333333336
250.0   90.0   16.666666666666668
200.0   120.0   16.666666666666668
200.0   90.0   33.333333333333336
250.0   90.0   33.333333333333336
200.0   120.0   33.333333333333336
200.0   90.0   50.0
250.0   90.0   33.333333333333336
250.0   120.0   33.333333333333336
200.0   120.0   33.333333333333336
250.0   120.0   50.0
200.0   90.0   50.0
200.0   120.0   50.0
250.0   120.0   50.0
200.0   120.0   33.333333333333336
200.0   90.0   50.0
250.0   120.0   50.0
250.0   90.0   50.0
250.0   90.0   33.333333333333336
200.0   90.0   50.0
250.0   120.0   50.0
250.0   90.0   33.333333333333336
200.0   120.0   33.333333333333336
200.0   120.0   0.0
250.0   120.0   0.0
200.0   150.0   0.0
200.0   120.0   16.666666666666668
250.0   120.0   0.0
250.0   150.0   0.0
200.0   150.0   0.0
250.0   150.0   16.666666666666668
200.0   120.0   16.666666666666668
200.0   150.0   16.666666666666668
250.0   150.0   16.666666666666668
200.0   150.0   0.0
200.0   120.0   16.666666666666668
250.0   150.0   16.666666666666668
250.0   120.0   16.666666666666668
250.0   120.0   0.0
200.0   120.0   16.666666666666668
250.0   150.0   16.666666666666668
250.0   120.0   0.0
200.0   150.0   0.0
200.0   120.0   16.666666666666668
250.0   120.0   16.666666666666668
200.0   150.0   16.666666666666668
200.0   120.0   33.333333333333336
250.0   120.0   16.666666666666668
250.0   150.0   16.666666666666668
200.0   150.0   16.666666666666668
250.0   150.0   33.333333333333336
200.0   120.0   33.333333333333336
200.0   150.0   33.333333333333336
250.0   150.0   33.333333333333336
200.0   150.0   16.666666666666668
200.0   120.0   33.333333333333336
250.0   150.0   33.333333333333336
250.0   120.0   33.333333333333336
250.0   120.0   16.666666666666668
200.0   120.0   33.333333333333336
250.0   150.0   33.333333333333336
250.0   120.0   16.666666666666668
200.0   150.0   16.666666666666668
200.0   120.0   33.333333333333336
250.0   120.0   33.333333333333336
200.0   150.0   33.333333333333336
200.0   120.0   50.0
250.0   120.0   33.333333333333336
250.0   150.0   33.333333333333336
200.0   150.0   33.333333333333336
250.0   150.0   50.0
200.0   120.0   50.0
200.0   150.0   50.0
250.0   150.0   50.0
200.0   150.0   33.333333333333336
200.0   120.0   50.0
250.0   150.0   50.0
250.0   120.0   50.0
250.0   120.0   33.333333333333336
200.0   120.0   50.0
250.0   150.0   50.0
250.0   120.0   33.333333333333336
200.0   150.0   33.333333333333336
250.0   0.0   0.0
300.0   0.0   0.0
250.0   30.0   0.0
250.0   0.0   16.666666666666668
300.0   0.0   0.0
300.0   30.0   0.0
250.0   30.0   0.0
300.0   30.0   16.666666666666668
250.0   0.0   16.666666666666668
250.0   30.0   16.666666666666668
300.0   30.0   16.666666666666668
250.0   30.0   0.0
250.0   0.0   16.666666666666668
300.0   30.0   16.666666666666668
300.0   0.0   16.666666666666668
300.0   0.0   0.0
250.0   0.0   16.666666666666668
300.0   30.0   16.666666666666668
300.0   0.0   0.0
250.0   30.0   0.0
250.0   0.0   16.666666666666668
300.0   0.0   16.666666666666668
250.0   30.0   16.666666666666668
250.0   0.0   33.333333333333336
300.0   0.0   16.666666666666668
300.0   30.0   16.666666666666668
250.0   30.0   16.666666666666668
300.0   30.0   33.333333333333336
250.0   0.0   33.333333333333336
250.0   30.0   33.333333333333336
300.0   30.0   33.333333333333336
250.0   30.0   16.666666666666668
250.0   0.0   33.333333333333336
300.0   30.0   33.333333333333336
300.0   0.0   33.333333333333336
300.0   0.0   16.666666666666668
250.0   0.0   33.333333333333336
300.0   30.0   33.333333333333336
300.0   0.0   16.666666666666668
250.0   30.0   16.666666666666668
250.0   0.0   33.333333333333336
300.0   0.0   33.333333333333336
250.0   30.0   33.333333333333336
250.0   0.0   50.0
300.0   0.0   33.333333333333336
300.0   30.0   33.333333333333336
250.0   30.0   33.333333333333336
300.0   30.0   50.0
250.0   0.0   50.0
250.0   30.0   50.0
300.0   30.0   50.0
250.0   30.0   33.333333333333336
250.0   0.0   50.0
300.0   30.0   50.0
300.0   0.0   50.0
300.0   0.0   33.333333333333336
250.0   0.0   50.0
300.0   30.0   50.0
300.0   0.0   33.333333333333336
250.0   30.0   33.333333333333336
250.0   30.0   0.0
300.0   30.0   0.0
250.0   60.0   0.0
250.0   30.0   16.666666666666668
300.0   30.0   0.0
300.0   60.0   0.0
250.0   60.0   0.0
300.0   60.0   16.666666666666668
250.0   30.0   16.666666666666668
250.0   60.0   16.666666666666668
300.0   60.0   16.666666666666668
250.0   60.0   0.0
250.0   30.0   16.666666666666668
300.0   60.0   16.666666666666668
300.0   30.0   16.666666666666668
300.0   30.0   0.0
250.0   30.0   16.666666666666668
300.0   60.0   16.666666666666668
300.0   30.0   0.0
250.0   60.0   0.0
250.0   30.0   16.666666666666668
300.0   30.0   16.666666666666668
250.0   60.0   16.666666666666668
250.0   30.0   33.333333333333336
300.0   30.0   16.666666666666668
300.0   60.0   16.666666666666668
250.0   60.0   16.666666666666668
300.0   60.0   33.333333333333336
250.0   30.0   33.333333333333336
250.0   60.0   33.333333333333336
300.0   60.0   33.333333333333336
250.0   60.0   16.666666666666668
250.0   30.0   33.333333333333336
300.0   60.0   33.333333333333336
300.0   30.0   33.333333333333336
300.0   30.0   16.666666666666668
250.0   30.0   33.333333333333336
300.0   60.0   33.333333333333336
300.0   30.0   16.666666666666668
250.0   60.0   16.666666666666668
250.0   30.0   33.333333333333336
300.0   30.0   33.333333333333336
250.0   60.0   33.333333333333336
250.0   30.0   50.0
300.0   30.0   33.333333333333336
300.0   60.0   33.333333333333336
250.0   60.0   33.333333333333336
300.0   60.0   50.0
250.0   30.0   50.0
250.0   60.0   50.0
300.0   60.0   50.0
250.0   60.0   33.333333333333336
250.0   30.0   50.0
300.0   60.0   50.0
300.0   30.0   50.0
300.0   30.0   33.333333333333336
250.0   30.0   50.0
300.0   60.0   50.0
300.0   30.0   33.333333333333336
250.0   60.0   33.333333333333336
250.0   60.0   0.0
300.0   60.0   0.0
250.0   90.0   0.0
250.0   60.0   16.666666666666668
300.0   60.0   0.0
300.0   90.0   0.0
250.0   90.0   0.0
300.0   90.0   16.666666666666668
250.0   60.0   16.666666666666668
250.0   90.0   16.666666666666668
300.0   90.0   16.666666666666668
250.0   90.0   0.0
250.0   60.0   16.666666666666668
300.0   90.0   16.666666666666668
300.0   60.0   16.666666666666668
300.0   60.0   0.0
250.0   60.0   16.666666666666668
300.0   90.0   16.666666666666668
300.0   60.0   0.0
250.0   90.0   0.0
250.0   60.0   16.666666666666668
300.0   60.0   16.666666666666668
250.0   90.0   16.666666666666668
250.0   60.0   33.333333333333336
300.0   60.0   16.666666666666668
300.0   90.0   16.666666666666668
250.0   90.0   16.666666666666668
300.0   90.0   33.333333333333336
250.0   60.0   33.333333333333336
250.0   90.0   33.333333333333336
300.0   90.0   33.333333333333336
250.0   90.0   16.666666666666668
250.0   60.0   33.333333333333336
300.0   90.0   33.333333333333336
300.0   60.0   33.333333333333336
300.0   60.0   16.666666666666668
250.0   60.0   33.333333333333336
300.0   90.0   33.333333333333336
300.0   60.0   16.666666666666668
250.0   90.0   16.666666666666668
250.0   60.0   33.333333333333336
300.0   60.0   33.333333333333336
250.0   90.0   33.333333333333336
250.0   60.0   50.0
300.0   60.0   33.333333333333336
300.0   90.0   33.333333333333336
250.0   90.0   33.333333333333336
300.0   90.0   50.0
250.0   60.0   50.0
250.0   90.0   50.0
300.0   90.0   50.0
250.0   90.0   33.333333333333336
250.0   60.0   50.0
300.0   90.0   50.0
300.0   60.0   50.0
300.0   60.0   33.333333333333336
250.0   60.0   50.0
300.0   90.0   50.0
300.0   60.0   33.333333333333336
250.0   90.0   33.333333333333336
250.0   90.0   0.0
300.0   90.0   0.0
250.0   120.0   0.0
250.0   90.0   16.666666666666668
300.0   90.0   0.0
300.0   120.0   0.0
250.0   120.0   0.0
300.0   120.0   16.666666666666668
250.0   90.0   16.666666666666668
250.0   120.0   16.666666666666668
300.0   120.0   16.666666666666668
250.0   120.0   0.0
250.0   90.0   16.666666666666668
300.0   120.0   16.666666666666668
300.0   90.0   16.666666666666668
300.0   90.0   0.0
250.0   90.0   16.666666666666668
300.0   120.0   16.666666666666668
300.0   90.0   0.0
250.0   120.0   0.0
250.0   90.0   16.666666666666668
300.0   90.0   16.666666666666668
250.0   120.0   16.666666666666668
250.0   90.0   33.333333333333336
300.0   90.0   16.666666666666668
300.0   120.0   16.666666666666668
250.0   120.0   16.666666666666668
300.0   120.0   33.333333333333336
250.0   90.0   33.333333333333336
250.0   120.0   33.333333333333336
300.0   120.0   33.333333333333336
250.0   120.0   16.666666666666668
250.0   90.0   33.333333333333336
300.0   120.0   33.333333333333336
300.0   90.0   33.333333333333336
300.0   90.0   16.666666666666668
250.0   90.0   33.333333333333336
300.0   120.0   33.333333333333336
300.0   90.0   16.666666666666668
250.0   120.0   16.666666666666668
250.0   90.0   33.333333333333336
300.0   90.0   33.333333333333336
250.0   120.0   33.333333333333336
250.0   90.0   50.0
300.0   90.0   33.333333333333336
300.0   120.0   33.333333333333336
250.0   120.0   33.333333333333336
300.0   120.0   50.0
250.0   90.0   50.0
250.0   120.0   50.0
300.0   120.0   50.0
250.0   120.0   33.333333333333336
250.0   90.0   50.0
300.0   120.0   50.0
300.0   90.0   50.0
300.0   90.0   33.333333333333336
250.0   90.0   50.0
300.0   120.0   50.0
300.0   90.0   33.333333333333336
250.0   120.0   33.333333333333336
250.0   120.0   0.0
300.0   120.0   0.0
250.0   150.0   0.0
250.0   120.0   16.666666666666668
300.0   120.0   0.0
300.0   150.0   0.0
250.0   150.0   0.0
300.0   150.0   16.666666666666668
250.0   120.0   16.666666666666668
250.0   150.0   16.666666666666668
300.0   150.0   16.666666666666668
250.0   150.0   0.0
250.0   120.0   16.666666666666668
300.0   150.0   16.666666666666668
300.0   120.0   16.666666666666668
300.0   120.0   0.0
250.0   120.0   16.666666666666668
300.0   150.0   16.666666666666668
300.0   120.0   0.0
250.0   150.0   0.0
250.0   120.0   16.666666666666668
300.0   120.0   16.666666666666668
250.0   150.0   16.666666666666668
250.0   120.0   33.333333333333336
300.0   120.0   16.666666666666668
300.0   150.0   16.666666666666668
250.0   150.0   16.666666666666668
300.0   150.0   33.333333333333336
250.0   120.0   33.333333333333336
250.0   150.0   33.333333333333336
300.0   150.0   33.333333333333336
250.0   150.0   16.666666666666668
250.0   120.0   33.333333333333336
300.0   150.0   33.333333333333336
300.0   120.0   33.333333333333336
300.0   120.0   16.666666666666668
250.0   120.0   33.333333333333336
300.0   150.0   33.333333333333336
300.0   120.0   16.666666666666668
250.0   150.0   16.666666666666668
250.0   120.0   33.333333333333336
300.0   120.0   33.333333333333336
250.0   150.0   33.333333333333336
250.0   120.0   50.0
300.0   120.0   33.333333333333336
300.0   150.0   33.333333333333336
250.0   150.0   33.333333333333336
300.0   150.0   50.0
250.0   120.0   50.0
250.0   150.0   50.0
300.0   150.0   50.0
250.0   150.0   33.333333333333336
250.0   120.0   50.0
300.0   150.0   50.0
300.0   120.0   50.0
300.0   120.0   33.333333333333336
250.0   120.0   50.0
300.0   150.0   50.0
300.0   120.0   33.333333333333336
250.0   150.0   33.333333333333336
300.0   0.0   0.0
350.0   0.0   0.0
300.0   30.0   0.0
300.0   0.0   16.666666666666668
350.0   0.0   0.0
350.0   30.0   0.0
300.0   30.0   0.0
350.0   30.0   16.666666666666668
300.0   0.0   16.666666666666668
300.0   30.0   16.666666666666668
350.0   30.0   16.666666666666668
300.0   30.0   0.0
300.0   0.0   16.666666666666668
350.0   30.0   16.666666666666668
350.0   0.0   16.666666666666668
350.0   0.0   0.0
300.0   0.0   16.666666666666668
350.0   30.0   16.666666666666668
350.0   0.0   0.0
300.0   30.0   0.0
300.0   0.0   16.666666666666668
350.0   0.0   16.666666666666668
300.0   30.0   16.666666666666668
300.0   0.0   33.333333333333336
350.0   0.0   16.666666666666668
350.0   30.0   16.666666666666668
300.0   30.0   16.666666666666668
350.0   30.0   33.333333333333336
300.0   0.0   33.333333333333336
300.0   30.0   33.333333333333336
350.0   30.0   33.333333333333336
300.0   30.0   16.666666666666668
300.0   0.0   33.333333333333336
350.0   30.0   33.333333333333336
350.0   0.0   33.333333333333336
350.0   0.0   16.666666666666668
300.0   0.0   33.333333333333336
350.0   30.0   33.333333333333336
350.0   0.0   16.666666666666668
300.0   30.0   16.666666666666668
300.0   0.0   33.333333333333336
350.0   0.0   33.333333333333336
300.0   30.0   33.333333333333336
300.0   0.0   50.0
350.0   0.0   33.333333333333336
350.0   30.0   33.333333333333336
300.0   30.0   33.333333333333336
350.0   30.0   50.0
300.0   0.0   50.0
300.0   30.0   50.0
350.0   30.0   50.0
300.0   30.0   33.333333333333336
300.0   0.0   50.0
350.0   30.0   50.0
350.0   0.0   50.0
350.0   0.0   33.333333333333336
300.0   0.0   50.0
350.0   30.0   50.0
350.0   0.0   33.333333333333336
300.0   30.0   33.333333333333336
300.0   30.0   0.0
350.0   30.0   0.0
300.0   60.0   0.0
300.0   30.0   16.666666666666668
350.0   30.0   0.0
350.0   60.0   0.0
300.0   60.0   0.0
350.0   60.0   16.666666666666668
300.0   30.0   16.666666666666668
300.0   60.0   16.666666666666668
350.0   60.0   16.666666666666668
300.0   60.0   0.0
300.0   30.0   16.666666666666668
350.0   60.0   16.666666666666668
350.0   30.0   16.666666666666668
350.0   30.0   0.0
300.0   30.0   16.666666666666668
350.0   60.0   16.666666666666668
350.0   30.0   0.0
300.0   60.0   0.0
300.0   30.0   16.666666666666668
350.0   30.0   16.666666666666668
300.0   60.0   16.666666666666668
300.0   30.0   33.333333333333336
350.0   30.0   16.666666666666668
350.0   60.0   16.666666666666668
300.0   60.0   16.666666666666668
350.0   60.0   33.333333333333336
300.0   30.0   33.333333333333336
300.0   60.0   33.333333333333336
350.0   60.0   33.333333333333336
300.0   60.0   16.666666666666668
300.0   30.0   33.333333333333336
350.0   60.0   33.333333333333336
350.0   30.0   33.333333333333336
350.0   30.0   16.666666666666668
300.0   30.0   33.333333333333336
350.0   60.0   33.333333333333336
350.0   30.0   16.666666666666668
300.0   60.0   16.666666666666668
300.0   30.0   33.333333333333336
350.0   30.0   33.333333333333336
300.0   60.0   33.333333333333336
300.0   30.0   50.0
350.0   30.0   33.333333333333336
350.0   60.0   33.333333333333336
300.0   60.0   33.333333333333336
350.0   60.0   50.0
300.0   30.0   50.0
300.0   60.0   50.0
350.0   60.0   50.0
300.0   60.0   33.333333333333336
300.0   30.0   50.0
350.0   60.0   50.0
350.0   30.0   50.0
350.0   30.0   33.333333333333336
300.0   30.0   50.0
350.0   60.0   50.0
350.0   30.0   33.333333333333336
300.0   60.0   33.333333333333336
300.0   60.0   0.0
350.0   60.0   0.0
300.0   90.0   0.0
300.0   60.0   16.666666666666668
350.0   60.0   0.0
350.0   90.0   0.0
300.0   90.0   0.0
350.0   90.0   16.666666666666668
300.0   60.0   16.666666666666668
300.0   90.0   16.666666666666668
350.0   90.0   16.666666666666668
300.0   90.0   0.0
300.0   60.0   16.666666666666668
350.0   90.0   16.666666666666668
350.0   60.0   16.666666666666668
350.0   60.0   0.0
300.0   60.0   16.666666666666668
350.0   90.0   16.666666666666668
350.0   60.0   0.0
300.0   90.0   0.0
300.0   60.0   16.666666666666668
350.0   60.0   16.666666666666668
300.0   90.0   16.666666666666668
300.0   60.0   33.333333333333336
350.0   60.0   16.666666666666668
350.0   90.0   16.666666666666668
300.0   90.0   16.666666666666668
350.0   90.0   33.333333333333336
300.0   60.0   33.333333333333336
300.0   90.0   33.333333333333336
350.0   90.0   33.333333333333336
300.0   90.0   16.666666666666668
300.0   60.0   33.333333333333336
350.0   90.0   33.333333333333336
350.0   60.0   33.333333333333336
350.0   60.0   16.666666666666668
300.0   60.0   33.333333333333336
350.0   90.0   33.333333333333336
350.0   60.0   16.666666666666668
300.0   90.0   16.666666666666668
300.0   60.0   33.333333333333336
350.0   60.0   33.333333333333336
300.0   90.0   33.333333333333336
300.0   60.0   50.0
350.0   60.0   33.333333333333336
350.0   90.0   33.333333333333336
300.0   90.0   33.333333333333336
350.0   90.0   50.0
300.0   60.0   50.0
300.0   90.0   50.0
350.0   90.0   50.0
300.0   90.0   33.333333333333336
300.0   60.0   50.0
350.0   90.0   50.0
350.0   60.0   50.0
350.0   60.0   33.333333333333336
300.0   60.0   50.0
350.0   90.0   50.0
350.0   60.0   33.333333333333336
300.0   90.0   33.333333333333336
300.0   90.0   0.0
350.0   90.0   0.0
300.0   120.0   0.0
300.0   90.0   16.666666666666668
350.0   90.0   0.0
350.0   120.0   0.0
300.0   120.0   0.0
350.0   120.0   16.666666666666668
300.0   90.0   16.666666666666668
300.0   120.0   16.666666666666668
350.0   120.0   16.666666666666668
300.0   120.0   0.0
300.0   90.0   16.666666666666668
350.0   120.0   16.666666666666668
350.0   90.0   16.666666666666668
350.0   90.0   0.0
300.0   90.0   16.666666666666668
350.0   120.0   16.666666666666668
350.0   90.0   0.0
300.0   120.0   0.0
300.0   90.0   16.666666666666668
350.0   90.0   16.666666666666668
300.0   120.0   16.666666666666668
300.0   90.0   33.333333333333336
350.0   90.0   16.666666666666668
350.0   120.0   16.666666666666668
300.0   120.0   16.666666666666668
350.0   120.0   33.333333333333336
300.0   90.0   33.333333333333336
300.0   120.0   33.333333333333336
350.0   120.0   33.333333333333336
300.0   120.0   16.666666666666668
300.0   90.0   33.333333333333336
350.0   120.0   33.333333333333336
350.0   90.0   33.333333333333336
350.0   90.0   16.666666666666668
300.0   90.0   33.333333333333336
350.0   120.0   33.333333333333336
350.0   90.0   16.666666666666668
300.0   120.0   16.666666666666668
300.0   90.0   33.333333333333336
350.0   90.0   33.333333333333336
300.0   120.0   33.333333333333336
300.0   90.0   50.0
350.0   90.0   33.333333333333336
350.0   120.0   33.333333333333336
300.0   120.0   33.333333333333336
350.0   120.0   50.0
300.0   90.0   50.0
300.0   120.0   50.0
350.0   120.0   50.0
300.0   120.0   33.333333333333336
300.0   90.0   50.0
350.0   120.0   50.0
350.0   90.0   50.0
350.0   90.0   33.333333333333336
300.0   90.0   50.0
350.0   120.0   50.0
350.0   90.0   33.333333333333336
300.0   120.0   33.333333333333336
300.0   120.0   0.0
350.0   120.0   0.0
300.0   150.0   0.0
300.0   120.0   16.666666666666668
350.0   120.0   0.0
350.0   150.0   0.0
300.0   150.0   0.0
350.0   150.0   16.666666666666668
300.0   120.0   16.666666666666668
300.0   150.0   16.666666666666668
350.0   150.0   16.666666666666668
300.0   150.0   0.0
300.0   120.0   16.666666666666668
350.0   150.0   16.666666666666668
350.0   120.0   16.666666666666668
350.0   120.0   0.0
300.0   120.0   16.666666666666668
350.0   150.0   16.666666666666668
350.0   120.0   0.0
300.0   150.0   0.0
300.0   120.0   16.666666666666668
350.0   120.0   16.666666666666668
300.0   150.0   16.666666666666668
300.0   120.0   33.333333333333336
350.0   120.0   16.666666666666668
350.0   150.0   16.666666666666668
300.0   150.0   16.666666666666668
350.0   150.0   33.333333333333336
300.0   120.0   33.333333333333336
300.0   150.0   33.333333333333336
350.0   150.0   33.333333333333336
300.0   150.0   16.666666666666668
300.0   120.0   33.333333333333336
350.0   150.0   33.333333333333336
350.0   120.0   33.333333333333336
350.0   120.0   16.666666666666668
300.0   120.0   33.333333333333336
350.0   150.0   33.333333333333336
350.0   120.0   16.666666666666668
300.0   150.0   16.666666666666668
300.0   120.0   33.333333333333336
350.0   120.0   33.333333333333336
300.0   150.0   33.333333333333336
300.0   120.0   50.0
350.0   120.0   33.333333333333336
350.0   150.0   33.333333333333336
300.0   150.0   33.333333333333336
350.0   150.0   50.0
300.0   120.0   50.0
300.0   150.0   50.0
350.0   150.0   50.0
300.0   150.0   33.333333333333336
300.0   120.0   50.0
350.0   150.0   50.0
350.0   120.0   50.0
350.0   120.0   33.333333333333336
300.0   120.0   50.0
350.0   150.0   50.0
350.0   120.0   33.333333333333336
300.0   150.0   33.333333333333336
350.0   0.0   0.0
400.0   0.0   0.0
350.0   30.0   0.0
350.0   0.0   16.666666666666668
400.0   0.0   0.0
400.0   30.0   0.0
350.0   30.0   0.0
400.0   30.0   16.666666666666668
350.0   0.0   16.666666666666668
350.0   30.0   16.666666666666668
400.0   30.0   16.666666666666668
350.0   30.0   0.0
350.0   0.0   16.666666666666668
400.0   30.0   16.666666666666668
400.0   0.0   16.666666666666668
400.0   0.0   0.0
350.0   0.0   16.666666666666668
400.0   30.0   16.666666666666668
400.0   0.0   0.0
350.0   30.0   0.0
350.0   0.0   16.666666666666668
400.0   0.0   16.666666666666668
350.0   30.0   16.666666666666668
350.0   0.0   33.333333333333336
400.0   0.0   16.666666666666668
400.0   30.0   16.666666666666668
350.0   30.0   16.666666666666668
400.0   30.0   33.333333333333336
350.0   0.0   33.333333333333336
350.0   30.0   33.333333333333336
400.0   30.0   33.333333333333336
350.0   30.0   16.666666666666668
350.0   0.0   33.333333333333336
400.0   30.0   33.333333333333336
400.0   0.0   33.333333333333336
400.0   0.0   16.666666666666668
350.0   0.0   33.333333333333336
400.0   30.0   33.333333333333336
400.0   0.0   16.666666666666668
350.0   30.0   16.666666666666668
350.0   0.0   33.333333333333336
400.0   0.0   33.333333333333336
350.0   30.0   33.333333333333336
350.0   0.0   50.0
400.0   0.0   33.333333333333336
400.0   30.0   33.333333333333336
350.0   30.0   33.333333333333336
400.0   30.0   50.0
350.0   0.0   50.0
350.0   30.0   50.0
400.0   30.0   50.0
350.0   30.0   33.333333333333336
350.0   0.0   50.0
400.0   30.0   50.0
400.0   0.0   50.0
400.0   0.0   33.333333333333336
350.0   0.0   50.0
400.0   30.0   50.0
400.0   0.0   33.333333333333336
350.0   30.0   33.333333333333336
350.0   30.0   0.0
400.0   30.0   0.0
350.0   60.0   0.0
350.0   30.0   16.666666666666668
400.0   30.0   0.0
400.0   60.0   0.0
350.0   60.0   0.0
400.0   60.0   16.666666666666668
350.0   30.0   16.666666666666668
350.0   60.0   16.666666666666668
400.0   60.0   16.666666666666668
350.0   60.0   0.0
350.0   30.0   16.666666666666668
400.0   60.0   16.666666666666668
400.0   30.0   16.666666666666668
400.0   30.0   0.0
350.0   30.0   16.666666666666668
400.0   60.0   16.666666666666668
400.0   30.0   0.0
350.0   60.0   0.0
350.0   30.0   16.666666666666668
400.0   30.0   16.666666666666668
350.0   60.0   16.666666666666668
350.0   30.0   33.333333333333336
400.0   30.0   16.666666666666668
400.0   60.0   16.666666666666668
350.0   60.0   16.666666666666668
400.0   60.0   33.333333333333336
350.0   30.0   33.333333333333336
350.0   60.0   33.333333333333336
400.0   60.0   33.333333333333336
350.0   60.0   16.666666666666668
350.0   30.0   33.333333333333336
400.0   60.0   33.333333333333336
400.0   30.0   33.333333333333336
400.0   30.0   16.666666666666668
350.0   30.0   33.333333333333336
400.0   60.0   33.333333333333336
400.0   30.0   16.666666666666668
350.0   60.0   16.666666666666668
350.0   30.0   33.333333333333336
400.0   30.0   33.333333333333336
350.0   60.0   33.333333333333336
350.0   30.0   50.0
400.0   30.0   33.333333333333336
400.0   60.0   33.333333333333336
350.0   60.0   33.333333333333336
400.0   60.0   50.0
350.0   30.0   50.0
350.0   60.0   50.0
400.0   60.0   50.0
350.0   60.0   33.333333333333336
350.0   30.0   50.0
400.0   60.0   50.0
400.0   30.0   50.0
400.0   30.0   33.333333333333336
350.0   30.0   50.0
400.0   60.0   50.0
400.0   30.0   33.333333333333336
350.0   60.0   33.333333333333336
350.0   60.0   0.0
400.0   60.0   0.0
350.0   90.0   0.0
350.0   60.0   16.666666666666668
400.0   60.0   0.0
400.0   90.0   0.0
350.0   90.0   0.0
400.0   90.0   16.666666666666668
350.0   60.0   16.666666666666668
350.0   90.0   16.666666666666668
400.0   90.0   16.666666666666668
350.0   90.0   0.0
350.0   60.0   16.666666666666668
400.0   90.0   16.666666666666668
400.0   60.0   16.666666666666668
400.0   60.0   0.0
350.0   60.0   16.666666666666668
400.0   90.0   16.666666666666668
400.0   60.0   0.0
350.0   90.0   0.0
350.0   60.0   16.666666666666668
400.0   60.0   16.666666666666668
350.0   90.0   16.666666666666668
350.0   60.0   33.333333333333336
400.0   60.0   16.666666666666668
400.0   90.0   16.666666666666668
350.0   90.0   16.666666666666668
400.0   90.0   33.333333333333336
350.0   60.0   33.333333333333336
350.0   90.0   33.333333333333336
400.0   90.0   33.333333333333336
350.0   90.0   16.666666666666668
350.0   60.0   33.333333333333336
400.0   90.0   33.333333333333336
400.0   60.0   33.333333333333336
400.0   60.0   16.666666666666668
350.0   60.0   33.333333333333336
400.0   90.0   33.333333333333336
400.0   60.0   16.666666666666668
350.0   90.0   16.666666666666668
350.0   60.0   33.333333333333336
400.0   60.0   33.333333333333336
350.0   90.0   33.333333333333336
350.0   60.0   50.0
400.0   60.0   33.333333333333336
400.0   90.0   33.333333333333336
350.0   90.0   33.333333333333336
400.0   90.0   50.0
350.0   60.0   50.0
350.0   90.0   50.0
400.0   90.0   50.0
350.0   90.0   33.333333333333336
350.0   60.0   50.0
400.0   90.0   50.0
400.0   60.0   50.0
400.0   60.0   33.333333333333336
350.0   60.0   50.0
400.0   90.0   50.0
400.0   60.0   33.333333333333336
350.0   90.0   33.333333333333336
350.0   90.0   0.0
400.0   90.0   0.0
350.0   120.0   0.0
350.0   90.0   16.666666666666668
400.0   90.0   0.0
400.0   120.0   0.0
350.0   120.0   0.0
400.0   120.0   16.666666666666668
350.0   90.0   16.666666666666668
350.0   120.0   16.666666666666668
400.0   120.0   16.666666666666668
350.0   120.0   0.0
350.0   90.0   16.666666666666668
400.0   120.0   16.666666666666668
400.0   90.0   16.666666666666668
400.0   90.0   0.0
350.0   90.0   16.666666666666668
400.0   120.0   16.666666666666668
400.0   90.0   0.0
350.0   120.0   0.0
350.0   90.0   16.666666666666668
400.0   90.0   16.666666666666668
350.0   120.0   16.666666666666668
350.0   90.0   33.333333333333336
400.0   90.0   16.666666666666668
400.0   120.0   16.666666666666668
350.0   120.0   16.666666666666668
400.0   120.0   33.333333333333336
350.0   90.0   33.333333333333336
350.0   120.0   33.333333333333336
400.0   120.0   33.333333333333336
350.0   120.0   16.666666666666668
350.0   90.0   33.333333333333336
400.0   120.0   33.333333333333336
400.0   90.0   33.333333333333336
400.0   90.0   16.666666666666668
350.0   90.0   33.333333333333336
400.0   120.0   33.333333333333336
400.0   90.0   16.666666666666668
350.0   120.0   16.666666666666668
350.0   90.0   33.333333333333336
400.0   90.0   33.333333333333336
350.0   120.0   33.333333333333336
350.0   90.0   50.0
400.0   90.0   33.333333333333336
400.0   120.0   33.333333333333336
350.0   120.0   33.333333333333336
400.0   120.0   50.0
350.0   90.0   50.0
350.0   120.0   50.0
400.0   120.0   50.0
350.0   120.0   33.333333333333336
350.0   90.0   50.0
400.0   120.0   50.0
400.0   90.0   50.0
400.0   90.0   33.333333333333336
350.0   90.0   50.0
400.0   120.0   50.0
400.0   90.0   33.333333333333336
350.0   120.0   33.333333333333336
350.0   120.0   0.0
400.0   120.0   0.0
350.0   150.0   0.0
350.0   120.0   16.666666666666668
400.0   120.0   0.0
400.0   150.0   0.0
350.0   150.0   0.0
400.0   150.0   16.666666666666668
350.0   120.0   16.666666666666668
350.0   150.0   16.666666666666668
400.0   150.0   16.666666666666668
350.0   150.0   0.0
350.0   120.0   16.666666666666668
400.0   150.0   16.666666666666668
400.0   120.0   16.666666666666668
400.0   120.0   0.0
350.0   120.0   16.666666666666668
400.0   150.0   16.666666666666668
400.0   120.0   0.0
350.0   150.0   0.0
350.0   120.0   16.666666666666668
400.0   120.0   16.666666666666668
350.0   150.0   16.666666666666668
350.0   120.0   33.333333333333336
400.0   120.0   16.666666666666668
400.0   150.0   16.666666666666668
350.0   150.0   16.666666666666668
400.0   150.0   33.333333333333336
350.0   120.0   33.333333333333336
350.0   150.0   33.333333333333336
400.0   150.0   33.333333333333336
350.0   150.0   16.666666666666668
350.0   120.0   33.333333333333336
400.0   150.0   33.333333333333336
400.0   120.0   33.333333333333336
400.0   120.0   16.666666666666668
350.0   120.0   33.333333333333336
400.0   150.0   33.333333333333336
400.0   120.0   16.666666666666668
350.0   150.0   16.666666666666668
350.0   120.0   33.333333333333336
400.0   120.0   33.333333333333336
350.0   150.0   33.333333333333336
350.0   120.0   50.0
400.0   120.0   33.333333333333336
400.0   150.0   33.333333333333336
350.0   150.0   33.333333333333336
400.0   150.0   50.0
350.0   120.0   50.0
350.0   150.0   50.0
400.0   150.0   50.0
350.0   150.0   33.333333333333336
350.0   120.0   50.0
400.0   150.0   50.0
400.0   120.0   50.0
400.0   120.0   33.333333333333336
350.0   120.0   50.0
400.0   150.0   50.0
400.0   120.0   33.333333333333336
350.0   150.0   33.333333333333336
400.0   0.0   0.0
450.0   0.0   0.0
400.0   30.0   0.0
400.0   0.0   16.666666666666668
450.0   0.0   0.0
450.0   30.0   0.0
400.0   30.0   0.0
450.0   30.0   16.666666666666668
400.0   0.0   16.666666666666668
400.0   30.0   16.666666666666668
450.0   30.0   16.666666666666668
400.0   30.0   0.0
400.0   0.0   16.666666666666668
450.0   30.0   16.666666666666668
450.0   0.0   16.666666666666668
450.0   0.0   0.0
400.0   0.0   16.666666666666668
450.0   30.0   16.666666666666668
450.0   0.0   0.0
400.0   30.0   0.0
400.0   0.0   16.666666666666668
450.0   0.0   16.666666666666668
400.0   30.0   16.666666666666668
400.0   0.0   33.333333333333336
450.0   0.0   16.666666666666668
450.0   30.0   16.666666666666668
400.0   30.0   16.666666666666668
450.0   30.0   33.333333333333336
400.0   0.0   33.333333333333336
400.0   30.0   33.333333333333336
450.0   30.0   33.333333333333336
400.0   30.0   16.666666666666668
400.0   0.0   33.333333333333336
450.0   30.0   33.333333333333336
450.0   0.0   33.333333333333336
450.0   0.0   16.666666666666668
400.0   0.0   33.333333333333336
450.0   30.0   33.333333333333336
450.0   0.0   16.666666666666668
400.0   30.0   16.666666666666668
400.0   0.0   33.333333333333336
450.0   0.0   33.333333333333336
400.0   30.0   33.333333333333336
400.0   0.0   50.0
450.0   0.0   33.333333333333336
450.0   30.0   33.333333333333336
400.0   30.0   33.333333333333336
450.0   30.0   50.0
400.0   0.0   50.0
400.0   30.0   50.0
450.0   30.0   50.0
400.0   30.0   33.333333333333336
400.0   0.0   50.0
450.0   30.0   50.0
450.0   0.0   50.0
450.0   0.0   33.333333333333336
400.0   0.0   50.0
450.0   30.0   50.0
450.0   0.0   33.333333333333336
400.0   30.0   33.333333333333336
400.0   30.0   0.0
450.0   30.0   0.0
400.0   60.0   0.0
400.0   30.0   16.666666666666668
450.0   30.0   0.0
450.0   60.0   0.0
400.0   60.0   0.0
450.0   60.0   16.666666666666668
400.0   30.0   16.666666666666668
400.0   60.0   16.666666666666668
450.0   60.0   16.666666666666668
400.0   60.0   0.0
400.0   30.0   16.666666666666668
450.0   60.0   16.666666666666668
450.0   30.0   16.666666666666668
450.0   30.0   0.0
400.0   30.0   16.666666666666668
450.0   60.0   16.666666666666668
450.0   30.0   0.0
400.0   60.0   0.0
400.0   30.0   16.666666666666668
450.0   30.0   16.666666666666668
400.0   60.0   16.666666666666668
400.0   30.0   33.333333333333336
450.0   30.0   16.666666666666668
450.0   60.0   16.666666666666668
400.0   60.0   16.666666666666668
450.0   60.0   33.333333333333336
400.0   30.0   33.333333333333336
400.0   60.0   33.333333333333336
450.0   60.0   33.333333333333336
400.0   60.0   16.666666666666668
400.0   30.0   33.333333333333336
450.0   60.0   33.333333333333336
450.0   30.0   33.333333333333336
450.0   30.0   16.666666666666668
400.0   30.0   33.333333333333336
450.0   60.0   33.333333333333336
450.0   30.0   16.666666666666668
400.0   60.0   16.666666666666668
400.0   30.0   33.333333333333336
450.0   30.0   33.333333333333336
400.0   60.0   33.333333333333336
400.0   30.0   50.0
450.0   30.0   33.333333333333336
450.0   60.0   33.333333333333336
400.0   60.0   33.333333333333336
450.0   60.0   50.0
400.0   30.0   50.0
400.0   60.0   50.0
450.0   60.0   50.0
400.0   60.0   33.333333333333336
400.0   30.0   50.0
450.0   60.0   50.0
450.0   30.0   50.0
450.0   30.0   33.333333333333336
400.0   30.0   50.0
450.0   60.0   50.0
450.0   30.0   33.333333333333336
400.0   60.0   33.333333333333336
400.0   60.0   0.0
450.0   60.0   0.0
400.0   90.0   0.0
400.0   60.0   16.666666666666668
450.0   60.0   0.0
450.0   90.0   0.0
400.0   90.0   0.0
450.0   90.0   16.666666666666668
400.0   60.0   16.666666666666668
400.0   90.0   16.666666666666668
450.0   90.0   16.666666666666668
400.0   90.0   0.0
400.0   60.0   16.666666666666668
450.0   90.0   16.666666666666668
450.0   60.0   16.666666666666668
450.0   60.0   0.0
400.0   60.0   16.666666666666668
450.0   90.0   16.666666666666668
450.0   60.0   0.0
400.0   90.0   0.0
400.0   60.0   16.666666666666668
450.0   60.0   16.666666666666668
400.0   90.0   16.666666666666668
400.0   60.0   33.333333333333336
450.0   60.0   16.666666666666668
450.0   90.0   16.666666666666668
400.0   90.0   16.666666666666668
450.0   90.0   33.333333333333336
400.0   60.0   33.333333333333336
400.0   90.0   33.333333333333336
450.0   90.0   33.333333333333336
400.0   90.0   16.666666666666668
400.0   60.0   33.333333333333336
450.0   90.0   33.333333333333336
450.0   60.0   33.333333333333336
450.0   60.0   16.666666666666668
400.0   60.0   33.333333333333336
450.0   90.0   33.333333333333336
450.0   60.0   16.666666666666668
400.0   90.0   16.666666666666668
400.0   60.0   33.333333333333336
450.0   60.0   33.333333333333336
400.0   90.0   33.333333333333336
400.0   60.0   50.0
450.0   60.0   33.333333333333336
450.0   90.0   33.333333333333336
400.0   90.0   33.333333333333336
450.0   90.0   50.0
400.0   60.0   50.0
400.0   90.0   50.0
450.0   90.0   50.0
400.0   90.0   33.333333333333336
400.0   60.0   50.0
450.0   90.0   50.0
450.0   60.0   50.0
450.0   60.0   33.333333333333336
400.0   60.0   50.0
450.0   90.0   50.0
450.0   60.0   33.333333333333336
400.0   90.0   33.333333333333336
400.0   90.0   0.0
450.0   90.0   0.0
400.0   120.0   0.0
400.0   90.0   16.666666666666668
450.0   90.0   0.0
450.0   120.0   0.0
400.0   120.0   0.0
450.0   120.0   16.666666666666668
400.0   90.0   16.666666666666668
400.0   120.0   16.666666666666668
450.0   120.0   16.666666666666668
400.0   120.0   0.0
400.0   90.0   16.666666666666668
450.0   120.0   16.666666666666668
450.0   90.0   16.666666666666668
450.0   90.0   0.0
400.0   90.0   16.666666666666668
450.0   120.0   16.666666666666668
450.0   90.0   0.0
400.0   120.0   0.0
400.0   90.0   16.666666666666668
450.0   90.0   16.666666666666668
400.0   120.0   16.666666666666668
400.0   90.0   33.333333333333336
450.0   90.0   16.666666666666668
450.0   120.0   16.666666666666668
400.0   120.0   16.666666666666668
450.0   120.0   33.333333333333336
400.0   90.0   33.333333333333336
400.0   120.0   33.333333333333336
450.0   120.0   33.333333333333336
400.0   120.0   16.666666666666668
400.0   90.0   33.333333333333336
450.0   120.0   33.333333333333336
450.0   90.0   33.333333333333336
450.0   90.0   16.666666666666668
400.0   90.0   33.333333333333336
450.0   120.0   33.333333333333336
450.0   90.0   16.666666666666668
400.0   120.0   16.666666666666668
400.0   90.0   33.333333333333336
450.0   90.0   33.333333333333336
400.0   120.0   33.333333333333336
400.0   90.0   50.0
450.0   90.0   33.333333333333336
450.0   120.0   33.333333333333336
400.0   120.0   33.333333333333336
450.0   120.0   50.0
400.0   90.0   50.0
400.0   120.0   50.0
450.0   120.0   50.0
400.0   120.0   33.333333333333336
400.0   90.0   50.0
450.0   120.0   50.0
450.0   90.0   50.0
450.0   90.0   33.333333333333336
400.0   90.0   50.0
450.0   120.0   50.0
450.0   90.0   33.333333333333336
400.0   120.0   33.333333333333336
400.0   120.0   0.0
450.0   120.0   0.0
400.0   150.0   0.0
400.0   120.0   16.666666666666668
450.0   120.0   0.0
450.0   150.0   0.0
400.0   150.0   0.0
450.0   150.0   16.666666666666668
400.0   120.0   16.666666666666668
400.0   150.0   16.666666666666668
450.0   150.0   16.666666666666668
400.0   150.0   0.0
400.0   120.0   16.666666666666668
450.0   150.0   16.666666666666668
450.0   120.0   16.666666666666668
450.0   120.0   0.0
400.0   120.0   16.666666666666668
450.0   150.0   16.666666666666668
450.0   120.0   0.0
400.0   150.0   0.0
400.0   120.0   16.666666666666668
450.0   120.0   16.666666666666668
400.0   150.0   16.666666666666668
400.0   120.0   33.333333333333336
450.0   120.0   16.666666666666668
450.0   150.0   16.666666666666668
400.0   150.0   16.666666666666668
450.0   150.0   33.333333333333336
400.0   120.0   33.333333333333336
400.0   150.0   33.333333333333336
450.0   150.0   33.333333333333336
400.0   150.0   16.666666666666668
400.0   120.0   33.333333333333336
450.0   150.0   33.333333333333336
450.0   120.0   33.333333333333336
450.0   120.0   16.666666666666668
400.0   120.0   33.333333333333336
450.0   150.0   33.333333333333336
450.0   120.0   16.666666666666668
400.0   150.0   16.666666666666668
400.0   120.0   33.333333333333336
450.0   120.0   33.333333333333336
400.0   150.0   33.333333333333336
400.0   120.0   50.0
450.0   120.0   33.333333333333336
450.0   150.0   33.333333333333336
400.0   150.0   33.333333333333336
450.0   150.0   50.0
400.0   120.0   50.0
400.0   150.0   50.0
450.0   150.0   50.0
400.0   150.0   33.333333333333336
400.0   120.0   50.0
450.0   150.0   50.0
450.0   120.0   50.0
450.0   120.0   33.333333333333336
400.0   120.0   50.0
450.0   150.0   50.0
450.0   120.0   33.333333333333336
400.0   150.0   33.333333333333336
450.0   0.0   0.0
500.0   0.0   0.0
450.0   30.0   0.0
450.0   0.0   16.666666666666668
500.0   0.0   0.0
500.0   30.0   0.0
450.0   30.0   0.0
500.0   30.0   16.666666666666668
450.0   0.0   16.666666666666668
450.0   30.0   16.666666666666668
500.0   30.0   16.666666666666668
450.0   30.0   0.0
450.0   0.0   16.666666666666668
500.0   30.0   16.666666666666668
500.0   0.0   16.666666666666668
500.0   0.0   0.0
450.0   0.0   16.666666666666668
500.0   30.0   16.666666666666668
500.0   0.0   0.0
450.0   30.0   0.0
450.0   0.0   16.666666666666668
500.0   0.0   16.666666666666668
450.0   30.0   16.666666666666668
450.0   0.0   33.333333333333336
500.0   0.0   16.666666666666668
500.0   30.0   16.666666666666668
450.0   30.0   16.666666666666668
500.0   30.0   33.333333333333336
450.0   0.0   33.333333333333336
450.0   30.0   33.333333333333336
500.0   30.0   33.333333333333336
450.0   30.0   16.666666666666668
450.0   0.0   33.333333333333336
500.0   30.0   33.333333333333336
500.0   0.0   33.333333333333336
500.0   0.0   16.666666666666668
450.0   0.0   33.333333333333336
500.0   30.0   33.333333333333336
500.0   0.0   16.666666666666668
450.0   30.0   16.666666666666668
450.0   0.0   33.333333333333336
500.0   0.0   33.333333333333336
450.0   30.0   33.333333333333336
450.0   0.0   50.0
500.0   0.0   33.333333333333336
500.0   30.0   33.333333333333336
450.0   30.0   33.333333333333336
500.0   30.0   50.0
450.0   0.0   50.0
450.0   30.0   50.0
500.0   30.0   50.0
450.0   30.0   33.333333333333336
450.0   0.0   50.0
500.0   30.0   50.0
500.0   0.0   50.0
500.0   0.0   33.333333333333336
450.0   0.0   50.0
500.0   30.0   50.0
500.0   0.0   33.333333333333336
450.0   30.0   33.333333333333336
450.0   30.0   0.0
500.0   30.0   0.0
450.0   60.0   0.0
450.0   30.0   16.666666666666668
500.0   30.0   0.0
500.0   60.0   0.0
450.0   60.0   0.0
500.0   60.0   16.666666666666668
450.0   30.0   16.666666666666668
450.0   60.0   16.666666666666668
500.0   60.0   16.666666666666668
450.0   60.0   0.0
450.0   30.0   16.666666666666668
500.0   60.0   16.666666666666668
500.0   30.0   16.666666666666668
500.0   30.0   0.0
450.0   30.0   16.666666666666668
500.0   60.0   16.666666666666668
500.0   30.0   0.0
450.0   60.0   0.0
450.0   30.0   16.666666666666668
500.0   30.0   16.666666666666668
450.0   60.0   16.666666666666668
450.0   30.0   33.333333333333336
500.0   30.0   16.666666666666668
500.0   60.0   16.666666666666668
450.0   60.0   16.666666666666668
500.0   60.0   33.333333333333336
450.0   30.0   33.333333333333336
450.0   60.0   33.333333333333336
500.0   60.0   33.333333333333336
450.0   60.0   16.666666666666668
450.0   30.0   33.333333333333336
500.0   60.0   33.333333333333336
500.0   30.0   33.333333333333336
500.0   30.0   16.666666666666668
450.0   30.0   33.333333333333336
500.0   60.0   33.333333333333336
500.0   30.0   16.666666666666668
450.0   60.0   16.666666666666668
450.0   30.0   33.333333333333336
500.0   30.0   33.333333333333336
450.0   60.0   33.333333333333336
450.0   30.0   50.0
500.0   30.0   33.333333333333336
500.0   60.0   33.333333333333336
450.0   60.0   33.333333333333336
500.0   60.0   50.0
450.0   30.0   50.0
450.0   60.0   50.0
500.0   60.0   50.0
450.0   60.0   33.333333333333336
450.0   30.0   50.0
500.0   60.0   50.0
500.0   30.0   50.0
500.0   30.0   33.333333333333336
450.0   30.0   50.0
500.0   60.0   50.0
500.0   30.0   33.333333333333336
450.0   60.0   33.333333333333336
450.0   60.0   0.0
500.0   60.0   0.0
450.0   90.0   0.0
450.0   60.0   16.666666666666668
500.0   60.0   0.0
500.0   90.0   0.0
450.0   90.0   0.0
500.0   90.0   16.666666666666668
450.0   60.0   16.666666666666668
450.0   90.0   16.666666666666668
500.0   90.0   16.666666666666668
450.0   90.0   0.0
450.0   60.0   16.666666666666668
500.0   90.0   16.666666666666668
500.0   60.0   16.666666666666668
500.0   60.0   0.0
450.0   60.0   16.666666666666668
500.0   90.0   16.666666666666668
500.0   60.0   0.0
450.0   90.0   0.0
450.0   60.0   16.666666666666668
500.0   60.0   16.666666666666668
450.0   90.0   16.666666666666668
450.0   60.0   33.333333333333336
500.0   60.0   16.666666666666668
500.0   90.0   16.666666666666668
450.0   90.0   16.666666666666668
500.0   90.0   33.333333333333336
450.0   60.0   33.333333333333336
450.0   90.0   33.333333333333336
500.0   90.0   33.333333333333336
450.0   90.0   16.666666666666668
450.0   60.0   33.333333333333336
500.0   90.0   33.333333333333336
500.0   60.0   33.333333333333336
500.0   60.0   16.666666666666668
450.0   60.0   33.333333333333336
500.0   90.0   33.333333333333336
500.0   60.0   16.666666666666668
450.0   90.0   16.666666666666668
450.0   60.0   33.333333333333336
500.0   60.0   33.333333333333336
450.0   90.0   33.333333333333336
450.0   60.0   50.0
500.0   60.0   33.333333333333336
500.0   90.0   33.333333333333336
450.0   90.0   33.333333333333336
500.0   90.0   50.0
450.0   60.0   50.0
450.0   90.0   50.0
500.0   90.0   50.0
450.0   90.0   33.333333333333336
450.0   60.0   50.0
500.0   90.0   50.0
500.0   60.0   50.0
500.0   60.0   33.333333333333336
450.0   60.0   50.0
500.0   90.0   50.0
500.0   60.0   33.333333333333336
450.0   90.0   33.333333333333336
450.0   90.0   0.0
500.0   90.0   0.0
450.0   120.0   0.0
450.0   90.0   16.666666666666668
500.0   90.0   0.0
500.0   120.0   0.0
450.0   120.0   0.0
500.0   120.0   16.666666666666668
450.0   90.0   16.666666666666668
450.0   120.0   16.666666666666668
500.0   120.0   16.666666666666668
450.0   120.0   0.0
450.0   90.0   16.666666666666668
500.0   120.0   16.666666666666668
500.0   90.0   16.666666666666668
500.0   90.0   0.0
450.0   90.0   16.666666666666668
500.0   120.0   16.666666666666668
500.0   90.0   0.0
450.0   120.0   0.0
450.0   90.0   16.666666666666668
500.0   90.0   16.666666666666668
450.0   120.0   16.666666666666668
450.0   90.0   33.333333333333336
500.0   90.0   16.666666666666668
500.0   120.0   16.666666666666668
450.0   120.0   16.666666666666668
500.0   120.0   33.333333333333336
450.0   90.0   33.333333333333336
450.0   120.0   33.333333333333336
500.0   120.0   33.333333333333336
450.0   120.0   16.666666666666668
450.0   90.0   33.333333333333336
500.0   120.0   33.333333333333336
500.0   90.0   33.333333333333336
500.0   90.0   16.666666666666668
450.0   90.0   33.333333333333336
500.0   120.0   33.333333333333336
500.0   90.0   16.666666666666668
450.0   120.0   16.666666666666668
450.0   90.0   33.333333333333336
500.0   90.0   33.333333333333336
450.0   120.0   33.333333333333336
450.0   90.0   50.0
500.0   90.0   33.333333333333336
500.0   120.0   33.333333333333336
450.0   120.0   33.333333333333336
500.0   120.0   50.0
450.0   90.0   50.0
450.0   120.0   50.0
500.0   120.0   50.0
450.0   120.0   33.333333333333336
450.0   90.0   50.0
500.0   120.0   50.0
500.0   90.0   50.0
500.0   90.0   33.333333333333336
450.0   90.0   50.0
500.0   120.0   50.0
500.0   90.0   33.333333333333336
450.0   120.0   33.333333333333336
450.0   120.0   0.0
500.0   120.0   0.0
450.0   150.0   0.0
450.0   120.0   16.666666666666668
500.0   120.0   0.0
500.0   150.0   0.0
450.0   150.0   0.0
500.0   150.0   16.666666666666668
450.0   120.0   16.666666666666668
450.0   150.0   16.666666666666668
500.0   150.0   16.666666666666668
450.0   150.0   0.0
450.0   120.0   16.666666666666668
500.0   150.0   16.666666666666668
500.0   120.0   16.666666666666668
500.0   120.0   0.0
450.0   120.0   16.666666666666668
500.0   150.0   16.666666666666668
500.0   120.0   0.0
450.0   150.0   0.0
450.0   120.0   16.666666666666668
500.0   120.0   16.666666666666668
450.0   150.0   16.666666666666668
450.0   120.0   33.333333333333336
500.0   120.0   16.666666666666668
500.0   150.0   16.666666666666668
450.0   150.0   16.666666666666668
500.0   150.0   33.333333333333336
450.0   120.0   33.333333333333336
450.0   150.0   33.333333333333336
500.0   150.0   33.333333333333336
450.0   150.0   16.666666666666668
450.0   120.0   33.333333333333336
500.0   150.0   33.333333333333336
500.0   120.0   33.333333333333336
500.0   120.0   16.666666666666668
450.0   120.0   33.333333333333336
500.0   150.0   33.333333333333336
500.0   120.0   16.666666666666668
450.0   150.0   16.666666666666668
450.0   120.0   33.333333333333336
500.0   120.0   33.333333333333336
450.0   150.0   33.333333333333336
450.0   120.0   50.0
500.0   120.0   33.333333333333336
500.0   150.0   33.333333333333336
450.0   150.0   33.333333333333336
500.0   150.0   50.0
450.0   120.0   50.0
450.0   150.0   50.0
500.0   150.0   50.0
450.0   150.0   33.333333333333336
450.0   120.0   50.0
500.0   150.0   50.0
500.0   120.0   50.0
500.0   120.0   33.333333333333336
450.0   120.0   50.0
500.0   150.0   50.0
500.0   120.0   33.333333333333336
450.0   150.0   33.333333333333336
             </DataArray>   
          </Points>  
          <Cells>  
             <DataArray type="Int32" Name="connectivity" format="ascii">   
0   1   2   3
4   5   6   7
8   9   10   11
12   13   14   15
16   17   18   19
20   21   22   23
24   25   26   27
28   29   30   31
32   33   34   35
36   37   38   39
40   41   42   43
44   45   46   47
48   49   50   51
52   53   54   55
56   57   58   59
60   61   62   63
64   65   66   67
68   69   70   71
72   73   74   75
76   77   78   79
80   81   82   83
84   85   86   87
88   89   90   91
92   93   94   95
96   97   98   99
100   101   102   103
104   105   106   107
108   109   110   111
112   113   114   115
116   117   118   119
120   121   122   123
124   125   126   127
128   129   130   131
132   133   134   135
136   137   138   139
140   141   142   143
144   145   146   147
148   149   150   151
152   153   154   155
156   157   158   159
160   161   162   163
164   165   166   167
168   169   170   171
172   173   174   175
176   177   178   179
180   181   182   183
184   185   186   187
188   189   190   191
192   193   194   195
196   197   198   199
200   201   202   203
204   205   206   207
208   209   210   211
212   213   214   215
216   217   218   219
220   221   222   223
224   225   226   227
228   229   230   231
232   233   234   235
236   237   238   239
240   241   242   243
244   245   246   247
248   249   250   251
252   253   254   255
256   257   258   259
260   261   262   263
264   265   266   267
268   269   270   271
272   273   274   275
276   277   278   279
280   281   282   283
284   285   286   287
288   289   290   291
292   293   294   295
296   297   298   299
300   301   302   303
304   305   306   307
308   309   310   311
312   313   314   315
316   317   318   319
320   321   322   323
324   325   326   327
328   329   330   331
332   333   334   335
336   337   338   339
340   341   342   343
344   345   346   347
348   349   350   351
352   353   354   355
356   357   358   359
360   361   362   363
364   365   366   367
368   369   370   371
372   373   374   375
376   377   378   379
380   381   382   383
384   385   386   387
388   389   390   391
392   393   394   395
396   397   398   399
400   401   402   403
404   405   406   407
408   409   410   411
412   413   414   415
416   417   418   419
420   421   422   423
424   425   426   427
428   429   430   431
432   433   434   435
436   437   438   439
440   441   442   443
444   445   446   447
448   449   450   451
452   453   454   455
456   457   458   459
460   461   462   463
464   465   466   467
468   469   470   471
472   473   474   475
476   477   478   479
480   481   482   483
484   485   486   487
488   489   490   491
492   493   494   495
496   497   498   499
500   501   502   503
504   505   506   507
508   509   510   511
512   513   514   515
516   517   518   519
520   521   522   523
524   525   526   527
528   529   530   531
532   533   534   535
536   537   538   539
540   541   542   543
544   545   546   547
548   549   550   551
552   553   554   555
556   557   558   559
560   561   562   563
564   565   566   567
568   569   570   571
572   573   574   575
576   577   578   579
580   581   582   583
584   585   586   587
588   589   590   591
592   593   594   595
596   597   598   599
600   601   602   603
604   605   606   607
608   609   610   611
612   613   614   615
616   617   618   619
620   621   622   623
624   625   626   627
628   629   630   631
632   633   634   635
636   637   638   639
640   641   642   643
644   645   646   647
648   649   650   651
652   653   654   655
656   657   658   659
660   661   662   663
664   665   666   667
668   669   670   671
672   673   674   675
676   677   678   679
680   681   682   683
684   685   686   687
688   689   690   691
692   693   694   695
696   697   698   699
700   701   702   703
704   705   706   707
708   709   710   711
712   713   714   715
716   717   718   719
720   721   722   723
724   725   726   727
728   729   730   731
732   733   734   735
736   737   738   739
740   741   742   743
744   745   746   747
748   749   750   751
752   753   754   755
756   757   758   759
760   761   762   763
764   765   766   767
768   769   770   771
772   773   774   775
776   777   778   779
780   781   782   783
784   785   786   787
788   789   790   791
792   793   794   795
796   797   798   799
800   801   802   803
804   805   806   807
808   809   810   811
812   813   814   815
816   817   818   819
820   821   822   823
824   825   826   827
828   829   830   831
832   833   834   835
836   837   838   839
840   841   842   843
844   845   846   847
848   849   850   851
852   853   854   855
856   857   858   859
860   861   862   863
864   865   866   867
868   869   870   871
872   873   874   875
876   877   878   879
880   881   882   883
884   885   886   887
888   889   890   891
892   893   894   895
896   897   898   899
900   901   902   903
904   905   906   907
908   909   910   911
912   913   914   915
916   917   918   919
920   921   922   923
924   925   926   927
928   929   930   931
932   933   934   935
936   937   938   939
940   941   942   943
944   945   946   947
948   949   950   951
952   953   954   955
956   957   958   959
960   961   962   963
964   965   966   967
968   969   970   971
972   973   974   975
976   977   978   979
980   981   982   983
984   985   986   987
988   989   990   991
992   993   994   995
996   997   998   999
1000   1001   1002   1003
1004   1005   1006   1007
1008   1009   1010   1011
1012   1013   1014   1015
1016   1017   1018   1019
1020   1021   1022   1023
1024   1025   1026   1027
1028   1029   1030   1031
1032   1033   1034   1035
1036   1037   1038   1039
1040   1041   1042   1043
1044   1045   1046   1047
1048   1049   1050   1051
1052   1053   1054   1055
1056   1057   1058   1059
1060   1061   1062   1063
1064   1065   1066   1067
1068   1069   1070   1071
1072   1073   1074   1075
1076   1077   1078   1079
1080   1081   1082   1083
1084   1085   1086   1087
1088   1089   1090   1091
1092   1093   1094   1095
1096   1097   1098   1099
1100   1101   1102   1103
1104   1105   1106   1107
1108   1109   1110   1111
1112   1113   1114   1115
1116   1117   1118   1119
1120   1121   1122   1123
1124   1125   1126   1127
1128   1129   1130   1131
1132   1133   1134   1135
1136   1137   1138   1139
1140   1141   1142   1143
1144   1145   1146   1147
1148   1149   1150   1151
1152   1153   1154   1155
1156   1157   1158   1159
1160   1161   1162   1163
1164   1165   1166   1167
1168   1169   1170   1171
1172   1173   1174   1175
1176   1177   1178   1179
1180   1181   1182   1183
1184   1185   1186   1187
1188   1189   1190   1191
1192   1193   1194   1195
1196   1197   1198   1199
1200   1201   1202   1203
1204   1205   1206   1207
1208   1209   1210   1211
1212   1213   1214   1215
1216   1217   1218   1219
1220   1221   1222   1223
1224   1225   1226   1227
1228   1229   1230   1231
1232   1233   1234   1235
1236   1237   1238   1239
1240   1241   1242   1243
1244   1245   1246   1247
1248   1249   1250   1251
1252   1253   1254   1255
1256   1257   1258   1259
1260   1261   1262   1263
1264   1265   1266   1267
1268   1269   1270   1271
1272   1273   1274   1275
1276   1277   1278   1279
1280   1281   1282   1283
1284   1285   1286   1287
1288   1289   1290   1291
1292   1293   1294   1295
1296   1297   1298   1299
1300   1301   1302   1303
1304   1305   1306   1307
1308   1309   1310   1311
1312   1313   1314   1315
1316   1317   1318   1319
1320   1321   1322   1323
1324   1325   1326   1327
1328   1329   1330   1331
1332   1333   1334   1335
1336   1337   1338   1339
1340   1341   1342   1343
1344   1345   1346   1347
1348   1349   1350   1351
1352   1353   1354   1355
1356   1357   1358   1359
1360   1361   1362   1363
1364   1365   1366   1367
1368   1369   1370   1371
1372   1373   1374   1375
1376   1377   1378   1379
1380   1381   1382   1383
1384   1385   1386   1387
1388   1389   1390   1391
1392   1393   1394   1395
1396   1397   1398   1399
1400   1401   1402   1403
1404   1405   1406   1407
1408   1409   1410   1411
1412   1413   1414   1415
1416   1417   1418   1419
1420   1421   1422   1423
1424   1425   1426   1427
1428   1429   1430   1431
1432   1433   1434   1435
1436   1437   1438   1439
1440   1441   1442   1443
1444   1445   1446   1447
1448   1449   1450   1451
1452   1453   1454   1455
1456   1457   1458   1459
1460   1461   1462   1463
1464   1465   1466   1467
1468   1469   1470   1471
1472   1473   1474   1475
1476   1477   1478   1479
1480   1481   1482   1483
1484   1485   1486   1487
1488   1489   1490   1491
1492   1493   1494   1495
1496   1497   1498   1499
1500   1501   1502   1503
1504   1505   1506   1507
1508   1509   1510   1511
1512   1513   1514   1515
1516   1517   1518   1519
1520   1521   1522   1523
1524   1525   1526   1527
1528   1529   1530   1531
1532   1533   1534   1535
1536   1537   1538   1539
1540   1541   1542   1543
1544   1545   1546   1547
1548   1549   1550   1551
1552   1553   1554   1555
1556   1557   1558   1559
1560   1561   1562   1563
1564   1565   1566   1567
1568   1569   1570   1571
1572   1573   1574   1575
1576   1577   1578   1579
1580   1581   1582   1583
1584   1585   1586   1587
1588   1589   1590   1591
1592   1593   1594   1595
1596   1597   1598   1599
1600   1601   1602   1603
1604   1605   1606   1607
1608   1609   1610   1611
1612   1613   1614   1615
1616   1617   1618   1619
1620   1621   1622   1623
1624   1625   1626   1627
1628   1629   1630   1631
1632   1633   1634   1635
1636   1637   1638   1639
1640   1641   1642   1643
1644   1645   1646   1647
1648   1649   1650   1651
1652   1653   1654   1655
1656   1657   1658   1659
1660   1661   1662   1663
1664   1665   1666   1667
1668   1669   1670   1671
1672   1673   1674   1675
1676   1677   1678   1679
1680   1681   1682   1683
1684   1685   1686   1687
1688   1689   1690   1691
1692   1693   1694   1695
1696   1697   1698   1699
1700   1701   1702   1703
1704   1705   1706   1707
1708   1709   1710   1711
1712   1713   1714   1715
1716   1717   1718   1719
1720   1721   1722   1723
1724   1725   1726   1727
1728   1729   1730   1731
1732   1733   1734   1735
1736   1737   1738   1739
1740   1741   1742   1743
1744   1745   1746   1747
1748   1749   1750   1751
1752   1753   1754   1755
1756   1757   1758   1759
1760   1761   1762   1763
1764   1765   1766   1767
1768   1769   1770   1771
1772   1773   1774   1775
1776   1777   1778   1779
1780   1781   1782   1783
1784   1785   1786   1787
1788   1789   1790   1791
1792   1793   1794   1795
1796   1797   1798   1799
1800   1801   1802   1803
1804   1805   1806   1807
1808   1809   1810   1811
1812   1813   1814   1815
1816   1817   1818   1819
1820   1821   1822   1823
1824   1825   1826   1827
1828   1829   1830   1831
1832   1833   1834   1835
1836   1837   1838   1839
1840   1841   1842   1843
1844   1845   1846   1847
1848   1849   1850   1851
1852   1853   1854   1855
1856   1857   1858   1859
1860   1861   1862   1863
1864   1865   1866   1867
1868   1869   1870   1871
1872   1873   1874   1875
1876   1877   1878   1879
1880   1881   1882   1883
1884   1885   1886   1887
1888   1889   1890   1891
1892   1893   1894   1895
1896   1897   1898   1899
1900   1901   1902   1903
1904   1905   1906   1907
1908   1909   1910   1911
1912   1913   1914   1915
1916   1917   1918   1919
1920   1921   1922   1923
1924   1925   1926   1927
1928   1929   1930   1931
1932   1933   1934   1935
1936   1937   1938   1939
1940   1941   1942   1943
1944   1945   1946   1947
1948   1949   1950   1951
1952   1953   1954   1955
1956   1957   1958   1959
1960   1961   1962   1963
1964   1965   1966   1967
1968   1969   1970   1971
1972   1973   1974   1975
1976   1977   1978   1979
1980   1981   1982   1983
1984   1985   1986   1987
1988   1989   1990   1991
1992   1993   1994   1995
1996   1997   1998   1999
2000   2001   2002   2003
2004   2005   2006   2007
2008   2009   2010   2011
2012   2013   2014   2015
2016   2017   2018   2019
2020   2021   2022   2023
2024   2025   2026   2027
2028   2029   2030   2031
2032   2033   2034   2035
2036   2037   2038   2039
2040   2041   2042   2043
2044   2045   2046   2047
2048   2049   2050   2051
2052   2053   2054   2055
2056   2057   2058   2059
2060   2061   2062   2063
2064   2065   2066   2067
2068   2069   2070   2071
2072   2073   2074   2075
2076   2077   2078   2079
2080   2081   2082   2083
2084   2085   2086   2087
2088   2089   2090   2091
2092   2093   2094   2095
2096   2097   2098   2099
2100   2101   2102   2103
2104   2105   2106   2107
2108   2109   2110   2111
2112   2113   2114   2115
2116   2117   2118   2119
2120   2121   2122   2123
2124   2125   2126   2127
2128   2129   2130   2131
2132   2133   2134   2135
2136   2137   2138   2139
2140   2141   2142   2143
2144   2145   2146   2147
2148   2149   2150   2151
2152   2153   2154   2155
2156   2157   2158   2159
2160   2161   2162   2163
2164   2165   2166   2167
2168   2169   2170   2171
2172   2173   2174   2175
2176   2177   2178   2179
2180   2181   2182   2183
2184   2185   2186   2187
2188   2189   2190   2191
2192   2193   2194   2195
2196   2197   2198   2199
2200   2201   2202   2203
2204   2205   2206   2207
2208   2209   2210   2211
2212   2213   2214   2215
2216   2217   2218   2219
2220   2221   2222   2223
2224   2225   2226   2227
2228   2229   2230   2231
2232   2233   2234   2235
2236   2237   2238   2239
2240   2241   2242   2243
2244   2245   2246   2247
2248   2249   2250   2251
2252   2253   2254   2255
2256   2257   2258   2259
2260   2261   2262   2263
2264   2265   2266   2267
2268   2269   2270   2271
2272   2273   2274   2275
2276   2277   2278   2279
2280   2281   2282   2283
2284   2285   2286   2287
2288   2289   2290   2291
2292   2293   2294   2295
2296   2297   2298   2299
2300   2301   2302   2303
2304   2305   2306   2307
2308   2309   2310   2311
2312   2313   2314   2315
2316   2317   2318   2319
2320   2321   2322   2323
2324   2325   2326   2327
2328   2329   2330   2331
2332   2333   2334   2335
2336   2337   2338   2339
2340   2341   2342   2343
2344   2345   2346   2347
2348   2349   2350   2351
2352   2353   2354   2355
2356   2357   2358   2359
2360   2361   2362   2363
2364   2365   2366   2367
2368   2369   2370   2371
2372   2373   2374   2375
2376   2377   2378   2379
2380   2381   2382   2383
2384   2385   2386   2387
2388   2389   2390   2391
2392   2393   2394   2395
2396   2397   2398   2399
2400   2401   2402   2403
2404   2405   2406   2407
2408   2409   2410   2411
2412   2413   2414   2415
2416   2417   2418   2419
2420   2421   2422   2423
2424   2425   2426   2427
2428   2429   2430   2431
2432   2433   2434   2435
2436   2437   2438   2439
2440   2441   2442   2443
2444   2445   2446   2447
2448   2449   2450   2451
2452   2453   2454   2455
2456   2457   2458   2459
2460   2461   2462   2463
2464   2465   2466   2467
2468   2469   2470   2471
2472   2473   2474   2475
2476   2477   2478   2479
2480   2481   2482   2483
2484   2485   2486   2487
2488   2489   2490   2491
2492   2493   2494   2495
2496   2497   2498   2499
2500   2501   2502   2503
2504   2505   2506   2507
2508   2509   2510   2511
2512   2513   2514   2515
2516   2517   2518   2519
2520   2521   2522   2523
2524   2525   2526   2527
2528   2529   2530   2531
2532   2533   2534   2535
2536   2537   2538   2539
2540   2541   2542   2543
2544   2545   2546   2547
2548   2549   2550   2551
2552   2553   2554   2555
2556   2557   2558   2559
2560   2561   2562   2563
2564   2565   2566   2567
2568   2569   2570   2571
2572   2573   2574   2575
2576   2577   2578   2579
2580   2581   2582   2583
2584   2585   2586   2587
2588   2589   2590   2591
2592   2593   2594   2595
2596   2597   2598   2599
2600   2601   2602   2603
2604   2605   2606   2607
2608   2609   2610   2611
2612   2613   2614   2615
2616   2617   2618   2619
2620   2621   2622   2623
2624   2625   2626   2627
2628   2629   2630   2631
2632   2633   2634   2635
2636   2637   2638   2639
2640   2641   2642   2643
2644   2645   2646   2647
2648   2649   2650   2651
2652   2653   2654   2655
2656   2657   2658   2659
2660   2661   2662   2663
2664   2665   2666   2667
2668   2669   2670   2671
2672   2673   2674   2675
2676   2677   2678   2679
2680   2681   2682   2683
2684   2685   2686   2687
2688   2689   2690   2691
2692   2693   2694   2695
2696   2697   2698   2699
2700   2701   2702   2703
2704   2705   2706   2707
2708   2709   2710   2711
2712   2713   2714   2715
2716   2717   2718   2719
2720   2721   2722   2723
2724   2725   2726   2727
2728   2729   2730   2731
2732   2733   2734   2735
2736   2737   2738   2739
2740   2741   2742   2743
2744   2745   2746   2747
2748   2749   2750   2751
2752   2753   2754   2755
2756   2757   2758   2759
2760   2761   2762   2763
2764   2765   2766   2767
2768   2769   2770   2771
2772   2773   2774   2775
2776   2777   2778   2779
2780   2781   2782   2783
2784   2785   2786   2787
2788   2789   2790   2791
2792   2793   2794   2795
2796   2797   2798   2799
2800   2801   2802   2803
2804   2805   2806   2807
2808   2809   2810   2811
2812   2813   2814   2815
2816   2817   2818   2819
2820   2821   2822   2823
2824   2825   2826   2827
2828   2829   2830   2831
2832   2833   2834   2835
2836   2837   2838   2839
2840   2841   2842   2843
2844   2845   2846   2847
2848   2849   2850   2851
2852   2853   2854   2855
2856   2857   2858   2859
2860   2861   2862   2863
2864   2865   2866   2867
2868   2869   2870   2871
2872   2873   2874   2875
2876   2877   2878   2879
2880   2881   2882   2883
2884   2885   2886   2887
2888   2889   2890   2891
2892   2893   2894   2895
2896   2897   2898   2899
2900   2901   2902   2903
2904   2905   2906   2907
2908   2909   2910   2911
2912   2913   2914   2915
2916   2917   2918   2919
2920   2921   2922   2923
2924   2925   2926   2927
2928   2929   2930   2931
2932   2933   2934   2935
2936   2937   2938   2939
2940   2941   2942   2943
2944   2945   2946   2947
2948   2949   2950   2951
2952   2953   2954   2955
2956   2957   2958   2959
2960   2961   2962   2963
2964   2965   2966   2967
2968   2969   2970   2971
2972   2973   2974   2975
2976   2977   2978   2979
2980   2981   2982   2983
2984   2985   2986   2987
2988   2989   2990   2991
2992   2993   2994   2995
2996   2997   2998   2999
3000   3001   3002   3003
3004   3005   3006   3007
3008   3009   3010   3011
3012   3013   3014   3015
3016   3017   3018   3019
3020   3021   3022   3023
3024   3025   3026   3027
3028   3029   3030   3031
3032   3033   3034   3035
3036   3037   3038   3039
3040   3041   3042   3043
3044   3045   3046   3047
3048   3049   3050   3051
3052   3053   3054   3055
3056   3057   3058   3059
3060   3061   3062   3063
3064   3065   3066   3067
3068   3069   3070   3071
3072   3073   3074   3075
3076   3077   3078   3079
3080   3081   3082   3083
3084   3085   3086   3087
3088   3089   3090   3091
3092   3093   3094   3095
3096   3097   3098   3099
3100   3101   3102   3103
3104   3105   3106   3107
3108   3109   3110   3111
3112   3113   3114   3115
3116   3117   3118   3119
3120   3121   3122   3123
3124   3125   3126   3127
3128   3129   3130   3131
3132   3133   3134   3135
3136   3137   3138   3139
3140   3141   3142   3143
3144   3145   3146   3147
3148   3149   3150   3151
3152   3153   3154   3155
3156   3157   3158   3159
3160   3161   3162   3163
3164   3165   3166   3167
3168   3169   3170   3171
3172   3173   3174   3175
3176   3177   3178   3179
3180   3181   3182   3183
3184   3185   3186   3187
3188   3189   3190   3191
3192   3193   3194   3195
3196   3197   3198   3199
3200   3201   3202   3203
3204   3205   3206   3207
3208   3209   3210   3211
3212   3213   3214   3215
3216   3217   3218   3219
3220   3221   3222   3223
3224   3225   3226   3227
3228   3229   3230   3231
3232   3233   3234   3235
3236   3237   3238   3239
3240   3241   3242   3243
3244   3245   3246   3247
3248   3249   3250   3251
3252   3253   3254   3255
3256   3257   3258   3259
3260   3261   3262   3263
3264   3265   3266   3267
3268   3269   3270   3271
3272   3273   3274   3275
3276   3277   3278   3279
3280   3281   3282   3283
3284   3285   3286   3287
3288   3289   3290   3291
3292   3293   3294   3295
3296   3297   3298   3299
3300   3301   3302   3303
3304   3305   3306   3307
3308   3309   3310   3311
3312   3313   3314   3315
3316   3317   3318   3319
3320   3321   3322   3323
3324   3325   3326   3327
3328   3329   3330   3331
3332   3333   3334   3335
3336   3337   3338   3339
3340   3341   3342   3343
3344   3345   3346   3347
3348   3349   3350   3351
3352   3353   3354   3355
3356   3357   3358   3359
3360   3361   3362   3363
3364   3365   3366   3367
3368   3369   3370   3371
3372   3373   3374   3375
3376   3377   3378   3379
3380   3381   3382   3383
3384   3385   3386   3387
3388   3389   3390   3391
3392   3393   3394   3395
3396   3397   3398   3399
3400   3401   3402   3403
3404   3405   3406   3407
3408   3409   3410   3411
3412   3413   3414   3415
3416   3417   3418   3419
3420   3421   3422   3423
3424   3425   3426   3427
3428   3429   3430   3431
3432   3433   3434   3435
3436   3437   3438   3439
3440   3441   3442   3443
3444   3445   3446   3447
3448   3449   3450   3451
3452   3453   3454   3455
3456   3457   3458   3459
3460   3461   3462   3463
3464   3465   3466   3467
3468   3469   3470   3471
3472   3473   3474   3475
3476   3477   3478   3479
3480   3481   3482   3483
3484   3485   3486   3487
3488   3489   3490   3491
3492   3493   3494   3495
3496   3497   3498   3499
3500   3501   3502   3503
3504   3505   3506   3507
3508   3509   3510   3511
3512   3513   3514   3515
3516   3517   3518   3519
3520   3521   3522   3523
3524   3525   3526   3527
3528   3529   3530   3531
3532   3533   3534   3535
3536   3537   3538   3539
3540   3541   3542   3543
3544   3545   3546   3547
3548   3549   3550   3551
3552   3553   3554   3555
3556   3557   3558   3559
3560   3561   3562   3563
3564   3565   3566   3567
3568   3569   3570   3571
3572   3573   3574   3575
3576   3577   3578   3579
3580   3581   3582   3583
3584   3585   3586   3587
3588   3589   3590   3591
3592   3593   3594   3595
3596   3597   3598   3599
3600   3601   3602   3603
3604   3605   3606   3607
3608   3609   3610   3611
3612   3613   3614   3615
3616   3617   3618   3619
3620   3621   3622   3623
3624   3625   3626   3627
3628   3629   3630   3631
3632   3633   3634   3635
3636   3637   3638   3639
3640   3641   3642   3643
3644   3645   3646   3647
3648   3649   3650   3651
3652   3653   3654   3655
3656   3657   3658   3659
3660   3661   3662   3663
3664   3665   3666   3667
3668   3669   3670   3671
3672   3673   3674   3675
3676   3677   3678   3679
3680   3681   3682   3683
3684   3685   3686   3687
3688   3689   3690   3691
3692   3693   3694   3695
3696   3697   3698   3699
3700   3701   3702   3703
3704   3705   3706   3707
3708   3709   3710   3711
3712   3713   3714   3715
3716   3717   3718   3719
3720   3721   3722   3723
3724   3725   3726   3727
3728   3729   3730   3731
3732   3733   3734   3735
3736   3737   3738   3739
3740   3741   3742   3743
3744   3745   3746   3747
3748   3749   3750   3751
3752   3753   3754   3755
3756   3757   3758   3759
3760   3761   3762   3763
3764   3765   3766   3767
3768   3769   3770   3771
3772   3773   3774   3775
3776   3777   3778   3779
3780   3781   3782   3783
3784   3785   3786   3787
3788   3789   3790   3791
3792   3793   3794   3795
3796   3797   3798   3799
3800   3801   3802   3803
3804   3805   3806   3807
3808   3809   3810   3811
3812   3813   3814   3815
3816   3817   3818   3819
3820   3821   3822   3823
3824   3825   3826   3827
3828   3829   3830   3831
3832   3833   3834   3835
3836   3837   3838   3839
3840   3841   3842   3843
3844   3845   3846   3847
3848   3849   3850   3851
3852   3853   3854   3855
3856   3857   3858   3859
3860   3861   3862   3863
3864   3865   3866   3867
3868   3869   3870   3871
3872   3873   3874   3875
3876   3877   3878   3879
3880   3881   3882   3883
3884   3885   3886   3887
3888   3889   3890   3891
3892   3893   3894   3895
3896   3897   3898   3899
3900   3901   3902   3903
3904   3905   3906   3907
3908   3909   3910   3911
3912   3913   3914   3915
3916   3917   3918   3919
3920   3921   3922   3923
3924   3925   3926   3927
3928   3929   3930   3931
3932   3933   3934   3935
3936   3937   3938   3939
3940   3941   3942   3943
3944   3945   3946   3947
3948   3949   3950   3951
3952   3953   3954   3955
3956   3957   3958   3959
3960   3961   3962   3963
3964   3965   3966   3967
3968   3969   3970   3971
3972   3973   3974   3975
3976   3977   3978   3979
3980   3981   3982   3983
3984   3985   3986   3987
3988   3989   3990   3991
3992   3993   3994   3995
3996   3997   3998   3999
4000   4001   4002   4003
4004   4005   4006   4007
4008   4009   4010   4011
4012   4013   4014   4015
4016   4017   4018   4019
4020   4021   4022   4023
4024   4025   4026   4027
4028   4029   4030   4031
4032   4033   4034   4035
4036   4037   4038   4039
4040   4041   4042   4043
4044   4045   4046   4047
4048   4049   4050   4051
4052   4053   4054   4055
4056   4057   4058   4059
4060   4061   4062   4063
4064   4065   4066   4067
4068   4069   4070   4071
4072   4073   4074   4075
4076   4077   4078   4079
4080   4081   4082   4083
4084   4085   4086   4087
4088   4089   4090   4091
4092   4093   4094   4095
4096   4097   4098   4099
4100   4101   4102   4103
4104   4105   4106   4107
4108   4109   4110   4111
4112   4113   4114   4115
4116   4117   4118   4119
4120   4121   4122   4123
4124   4125   4126   4127
4128   4129   4130   4131
4132   4133   4134   4135
4136   4137   4138   4139
4140   4141   4142   4143
4144   4145   4146   4147
4148   4149   4150   4151
4152   4153   4154   4155
4156   4157   4158   4159
4160   4161   4162   4163
4164   4165   4166   4167
4168   4169   4170   4171
4172   4173   4174   4175
4176   4177   4178   4179
4180   4181   4182   4183
4184   4185   4186   4187
4188   4189   4190   4191
4192   4193   4194   4195
4196   4197   4198   4199
4200   4201   4202   4203
4204   4205   4206   4207
4208   4209   4210   4211
4212   4213   4214   4215
4216   4217   4218   4219
4220   4221   4222   4223
4224   4225   4226   4227
4228   4229   4230   4231
4232   4233   4234   4235
4236   4237   4238   4239
4240   4241   4242   4243
4244   4245   4246   4247
4248   4249   4250   4251
4252   4253   4254   4255
4256   4257   4258   4259
4260   4261   4262   4263
4264   4265   4266   4267
4268   4269   4270   4271
4272   4273   4274   4275
4276   4277   4278   4279
4280   4281   4282   4283
4284   4285   4286   4287
4288   4289   4290   4291
4292   4293   4294   4295
4296   4297   4298   4299
4300   4301   4302   4303
4304   4305   4306   4307
4308   4309   4310   4311
4312   4313   4314   4315
4316   4317   4318   4319
4320   4321   4322   4323
4324   4325   4326   4327
4328   4329   4330   4331
4332   4333   4334   4335
4336   4337   4338   4339
4340   4341   4342   4343
4344   4345   4346   4347
4348   4349   4350   4351
4352   4353   4354   4355
4356   4357   4358   4359
4360   4361   4362   4363
4364   4365   4366   4367
4368   4369   4370   4371
4372   4373   4374   4375
4376   4377   4378   4379
4380   4381   4382   4383
4384   4385   4386   4387
4388   4389   4390   4391
4392   4393   4394   4395
4396   4397   4398   4399
4400   4401   4402   4403
4404   4405   4406   4407
4408   4409   4410   4411
4412   4413   4414   4415
4416   4417   4418   4419
4420   4421   4422   4423
4424   4425   4426   4427
4428   4429   4430   4431
4432   4433   4434   4435
4436   4437   4438   4439
4440   4441   4442   4443
4444   4445   4446   4447
4448   4449   4450   4451
4452   4453   4454   4455
4456   4457   4458   4459
4460   4461   4462   4463
4464   4465   4466   4467
4468   4469   4470   4471
4472   4473   4474   4475
4476   4477   4478   4479
4480   4481   4482   4483
4484   4485   4486   4487
4488   4489   4490   4491
4492   4493   4494   4495
4496   4497   4498   4499
4500   4501   4502   4503
4504   4505   4506   4507
4508   4509   4510   4511
4512   4513   4514   4515
4516   4517   4518   4519
4520   4521   4522   4523
4524   4525   4526   4527
4528   4529   4530   4531
4532   4533   4534   4535
4536   4537   4538   4539
4540   4541   4542   4543
4544   4545   4546   4547
4548   4549   4550   4551
4552   4553   4554   4555
4556   4557   4558   4559
4560   4561   4562   4563
4564   4565   4566   4567
4568   4569   4570   4571
4572   4573   4574   4575
4576   4577   4578   4579
4580   4581   4582   4583
4584   4585   4586   4587
4588   4589   4590   4591
4592   4593   4594   4595
4596   4597   4598   4599
4600   4601   4602   4603
4604   4605   4606   4607
4608   4609   4610   4611
4612   4613   4614   4615
4616   4617   4618   4619
4620   4621   4622   4623
4624   4625   4626   4627
4628   4629   4630   4631
4632   4633   4634   4635
4636   4637   4638   4639
4640   4641   4642   4643
4644   4645   4646   4647
4648   4649   4650   4651
4652   4653   4654   4655
4656   4657   4658   4659
4660   4661   4662   4663
4664   4665   4666   4667
4668   4669   4670   4671
4672   4673   4674   4675
4676   4677   4678   4679
4680   4681   4682   4683
4684   4685   4686   4687
4688   4689   4690   4691
4692   4693   4694   4695
4696   4697   4698   4699
4700   4701   4702   4703
4704   4705   4706   4707
4708   4709   4710   4711
4712   4713   4714   4715
4716   4717   4718   4719
4720   4721   4722   4723
4724   4725   4726   4727
4728   4729   4730   4731
4732   4733   4734   4735
4736   4737   4738   4739
4740   4741   4742   4743
4744   4745   4746   4747
4748   4749   4750   4751
4752   4753   4754   4755
4756   4757   4758   4759
4760   4761   4762   4763
4764   4765   4766   4767
4768   4769   4770   4771
4772   4773   4774   4775
4776   4777   4778   4779
4780   4781   4782   4783
4784   4785   4786   4787
4788   4789   4790   4791
4792   4793   4794   4795
4796   4797   4798   4799
4800   4801   4802   4803
4804   4805   4806   4807
4808   4809   4810   4811
4812   4813   4814   4815
4816   4817   4818   4819
4820   4821   4822   4823
4824   4825   4826   4827
4828   4829   4830   4831
4832   4833   4834   4835
4836   4837   4838   4839
4840   4841   4842   4843
4844   4845   4846   4847
4848   4849   4850   4851
4852   4853   4854   4855
4856   4857   4858   4859
4860   4861   4862   4863
4864   4865   4866   4867
4868   4869   4870   4871
4872   4873   4874   4875
4876   4877   4878   4879
4880   4881   4882   4883
4884   4885   4886   4887
4888   4889   4890   4891
4892   4893   4894   4895
4896   4897   4898   4899
4900   4901   4902   4903
4904   4905   4906   4907
4908   4909   4910   4911
4912   4913   4914   4915
4916   4917   4918   4919
4920   4921   4922   4923
4924   4925   4926   4927
4928   4929   4930   4931
4932   4933   4934   4935
4936   4937   4938   4939
4940   4941   4942   4943
4944   4945   4946   4947
4948   4949   4950   4951
4952   4953   4954   4955
4956   4957   4958   4959
4960   4961   4962   4963
4964   4965   4966   4967
4968   4969   4970   4971
4972   4973   4974   4975
4976   4977   4978   4979
4980   4981   4982   4983
4984   4985   4986   4987
4988   4989   4990   4991
4992   4993   4994   4995
4996   4997   4998   4999
5000   5001   5002   5003
5004   5005   5006   5007
5008   5009   5010   5011
5012   5013   5014   5015
5016   5017   5018   5019
5020   5021   5022   5023
5024   5025   5026   5027
5028   5029   5030   5031
5032   5033   5034   5035
5036   5037   5038   5039
5040   5041   5042   5043
5044   5045   5046   5047
5048   5049   5050   5051
5052   5053   5054   5055
5056   5057   5058   5059
5060   5061   5062   5063
5064   5065   5066   5067
5068   5069   5070   5071
5072   5073   5074   5075
5076   5077   5078   5079
5080   5081   5082   5083
5084   5085   5086   5087
5088   5089   5090   5091
5092   5093   5094   5095
5096   5097   5098   5099
5100   5101   5102   5103
5104   5105   5106   5107
5108   5109   5110   5111
5112   5113   5114   5115
5116   5117   5118   5119
5120   5121   5122   5123
5124   5125   5126   5127
5128   5129   5130   5131
5132   5133   5134   5135
5136   5137   5138   5139
5140   5141   5142   5143
5144   5145   5146   5147
5148   5149   5150   5151
5152   5153   5154   5155
5156   5157   5158   5159
5160   5161   5162   5163
5164   5165   5166   5167
5168   5169   5170   5171
5172   5173   5174   5175
5176   5177   5178   5179
5180   5181   5182   5183
5184   5185   5186   5187
5188   5189   5190   5191
5192   5193   5194   5195
5196   5197   5198   5199
5200   5201   5202   5203
5204   5205   5206   5207
5208   5209   5210   5211
5212   5213   5214   5215
5216   5217   5218   5219
5220   5221   5222   5223
5224   5225   5226   5227
5228   5229   5230   5231
5232   5233   5234   5235
5236   5237   5238   5239
5240   5241   5242   5243
5244   5245   5246   5247
5248   5249   5250   5251
5252   5253   5254   5255
5256   5257   5258   5259
5260   5261   5262   5263
5264   5265   5266   5267
5268   5269   5270   5271
5272   5273   5274   5275
5276   5277   5278   5279
5280   5281   5282   5283
5284   5285   5286   5287
5288   5289   5290   5291
5292   5293   5294   5295
5296   5297   5298   5299
5300   5301   5302   5303
5304   5305   5306   5307
5308   5309   5310   5311
5312   5313   5314   5315
5316   5317   5318   5319
5320   5321   5322   5323
5324   5325   5326   5327
5328   5329   5330   5331
5332   5333   5334   5335
5336   5337   5338   5339
5340   5341   5342   5343
5344   5345   5346   5347
5348   5349   5350   5351
5352   5353   5354   5355
5356   5357   5358   5359
5360   5361   5362   5363
5364   5365   5366   5367
5368   5369   5370   5371
5372   5373   5374   5375
5376   5377   5378   5379
5380   5381   5382   5383
5384   5385   5386   5387
5388   5389   5390   5391
5392   5393   5394   5395
5396   5397   5398   5399
5400   5401   5402   5403
5404   5405   5406   5407
5408   5409   5410   5411
5412   5413   5414   5415
5416   5417   5418   5419
5420   5421   5422   5423
5424   5425   5426   5427
5428   5429   5430   5431
5432   5433   5434   5435
5436   5437   5438   5439
5440   5441   5442   5443
5444   5445   5446   5447
5448   5449   5450   5451
5452   5453   5454   5455
5456   5457   5458   5459
5460   5461   5462   5463
5464   5465   5466   5467
5468   5469   5470   5471
5472   5473   5474   5475
5476   5477   5478   5479
5480   5481   5482   5483
5484   5485   5486   5487
5488   5489   5490   5491
5492   5493   5494   5495
5496   5497   5498   5499
5500   5501   5502   5503
5504   5505   5506   5507
5508   5509   5510   5511
5512   5513   5514   5515
5516   5517   5518   5519
5520   5521   5522   5523
5524   5525   5526   5527
5528   5529   5530   5531
5532   5533   5534   5535
5536   5537   5538   5539
5540   5541   5542   5543
5544   5545   5546   5547
5548   5549   5550   5551
5552   5553   5554   5555
5556   5557   5558   5559
5560   5561   5562   5563
5564   5565   5566   5567
5568   5569   5570   5571
5572   5573   5574   5575
5576   5577   5578   5579
5580   5581   5582   5583
5584   5585   5586   5587
5588   5589   5590   5591
5592   5593   5594   5595
5596   5597   5598   5599
5600   5601   5602   5603
5604   5605   5606   5607
5608   5609   5610   5611
5612   5613   5614   5615
5616   5617   5618   5619
5620   5621   5622   5623
5624   5625   5626   5627
5628   5629   5630   5631
5632   5633   5634   5635
5636   5637   5638   5639
5640   5641   5642   5643
5644   5645   5646   5647
5648   5649   5650   5651
5652   5653   5654   5655
5656   5657   5658   5659
5660   5661   5662   5663
5664   5665   5666   5667
5668   5669   5670   5671
5672   5673   5674   5675
5676   5677   5678   5679
5680   5681   5682   5683
5684   5685   5686   5687
5688   5689   5690   5691
5692   5693   5694   5695
5696   5697   5698   5699
5700   5701   5702   5703
5704   5705   5706   5707
5708   5709   5710   5711
5712   5713   5714   5715
5716   5717   5718   5719
5720   5721   5722   5723
5724   5725   5726   5727
5728   5729   5730   5731
5732   5733   5734   5735
5736   5737   5738   5739
5740   5741   5742   5743
5744   5745   5746   5747
5748   5749   5750   5751
5752   5753   5754   5755
5756   5757   5758   5759
5760   5761   5762   5763
5764   5765   5766   5767
5768   5769   5770   5771
5772   5773   5774   5775
5776   5777   5778   5779
5780   5781   5782   5783
5784   5785   5786   5787
5788   5789   5790   5791
5792   5793   5794   5795
5796   5797   5798   5799
5800   5801   5802   5803
5804   5805   5806   5807
5808   5809   5810   5811
5812   5813   5814   5815
5816   5817   5818   5819
5820   5821   5822   5823
5824   5825   5826   5827
5828   5829   5830   5831
5832   5833   5834   5835
5836   5837   5838   5839
5840   5841   5842   5843
5844   5845   5846   5847
5848   5849   5850   5851
5852   5853   5854   5855
5856   5857   5858   5859
5860   5861   5862   5863
5864   5865   5866   5867
5868   5869   5870   5871
5872   5873   5874   5875
5876   5877   5878   5879
5880   5881   5882   5883
5884   5885   5886   5887
5888   5889   5890   5891
5892   5893   5894   5895
5896   5897   5898   5899
5900   5901   5902   5903
5904   5905   5906   5907
5908   5909   5910   5911
5912   5913   5914   5915
5916   5917   5918   5919
5920   5921   5922   5923
5924   5925   5926   5927
5928   5929   5930   5931
5932   5933   5934   5935
5936   5937   5938   5939
5940   5941   5942   5943
5944   5945   5946   5947
5948   5949   5950   5951
5952   5953   5954   5955
5956   5957   5958   5959
5960   5961   5962   5963
5964   5965   5966   5967
5968   5969   5970   5971
5972   5973   5974   5975
5976   5977   5978   5979
5980   5981   5982   5983
5984   5985   5986   5987
5988   5989   5990   5991
5992   5993   5994   5995
5996   5997   5998   5999
              </DataArray>   
              <DataArray type="Int32" Name="offsets" format="ascii">   
4
8
12
16
20
24
28
32
36
40
44
48
52
56
60
64
68
72
76
80
84
88
92
96
100
104
108
112
116
120
124
128
132
136
140
144
148
152
156
160
164
168
172
176
180
184
188
192
196
200
204
208
212
216
220
224
228
232
236
240
244
248
252
256
260
264
268
272
276
280
284
288
292
296
300
304
308
312
316
320
324
328
332
336
340
344
348
352
356
360
364
368
372
376
380
384
388
392
396
400
404
408
412
416
420
424
428
432
436
440
444
448
452
456
460
464
468
472
476
480
484
488
492
496
500
504
508
512
516
520
524
528
532
536
540
544
548
552
556
560
564
568
572
576
580
584
588
592
596
600
604
608
612
616
620
624
628
632
636
640
644
648
652
656
660
664
668
672
676
680
684
688
692
696
700
704
708
712
716
720
724
728
732
736
740
744
748
752
756
760
764
768
772
776
780
784
788
792
796
800
804
808
812
816
820
824
828
832
836
840
844
848
852
856
860
864
868
872
876
880
884
888
892
896
900
904
908
912
916
920
924
928
932
936
940
944
948
952
956
960
964
968
972
976
980
984
988
992
996
1000
1004
1008
1012
1016
1020
1024
1028
1032
1036
1040
1044
1048
1052
1056
1060
1064
1068
1072
1076
1080
1084
1088
1092
1096
1100
1104
1108
1112
1116
1120
1124
1128
1132
1136
1140
1144
1148
1152
1156
1160
1164
1168
1172
1176
1180
1184
1188
1192
1196
1200
1204
1208
1212
1216
1220
1224
1228
1232
1236
1240
1244
1248
1252
1256
1260
1264
1268
1272
1276
1280
1284
1288
1292
1296
1300
1304
1308
1312
1316
1320
1324
1328
1332
1336
1340
1344
1348
1352
1356
1360
1364
1368
1372
1376
1380
1384
1388
1392
1396
1400
1404
1408
1412
1416
1420
1424
1428
1432
1436
1440
1444
1448
1452
1456
1460
1464
1468
1472
1476
1480
1484
1488
1492
1496
1500
1504
1508
1512
1516
1520
1524
1528
1532
1536
1540
1544
1548
1552
1556
1560
1564
1568
1572
1576
1580
1584
1588
1592
1596
1600
1604
1608
1612
1616
1620
1624
1628
1632
1636
1640
1644
1648
1652
1656
1660
1664
1668
1672
1676
1680
1684
1688
1692
1696
1700
1704
1708
1712
1716
1720
1724
1728
1732
1736
1740
1744
1748
1752
1756
1760
1764
1768
1772
1776
1780
1784
1788
1792
1796
1800
1804
1808
1812
1816
1820
1824
1828
1832
1836
1840
1844
1848
1852
1856
1860
1864
1868
1872
1876
1880
1884
1888
1892
1896
1900
1904
1908
1912
1916
1920
1924
1928
1932
1936
1940
1944
1948
1952
1956
1960
1964
1968
1972
1976
1980
1984
1988
1992
1996
2000
2004
2008
2012
2016
2020
2024
2028
2032
2036
2040
2044
2048
2052
2056
2060
2064
2068
2072
2076
2080
2084
2088
2092
2096
2100
2104
2108
2112
2116
2120
2124
2128
2132
2136
2140
2144
2148
2152
2156
2160
2164
2168
2172
2176
2180
2184
2188
2192
2196
2200
2204
2208
2212
2216
2220
2224
2228
2232
2236
2240
2244
2248
2252
2256
2260
2264
2268
2272
2276
2280
2284
2288
2292
2296
2300
2304
2308
2312
2316
2320
2324
2328
2332
2336
2340
2344
2348
2352
2356
2360
2364
2368
2372
2376
2380
2384
2388
2392
2396
2400
2404
2408
2412
2416
2420
2424
2428
2432
2436
2440
2444
2448
2452
2456
2460
2464
2468
2472
2476
2480
2484
2488
2492
2496
2500
2504
2508
2512
2516
2520
2524
2528
2532
2536
2540
2544
2548
2552
2556
2560
2564
2568
2572
2576
2580
2584
2588
2592
2596
2600
2604
2608
2612
2616
2620
2624
2628
2632
2636
2640
2644
2648
2652
2656
2660
2664
2668
2672
2676
2680
2684
2688
2692
2696
2700
2704
2708
2712
2716
2720
2724
2728
2732
2736
2740
2744
2748
2752
2756
2760
2764
2768
2772
2776
2780
2784
2788
2792
2796
2800
2804
2808
2812
2816
2820
2824
2828
2832
2836
2840
2844
2848
2852
2856
2860
2864
2868
2872
2876
2880
2884
2888
2892
2896
2900
2904
2908
2912
2916
2920
2924
2928
2932
2936
2940
2944
2948
2952
2956
2960
2964
2968
2972
2976
2980
2984
2988
2992
2996
3000
3004
3008
3012
3016
3020
3024
3028
3032
3036
3040
3044
3048
3052
3056
3060
3064
3068
3072
3076
3080
3084
3088
3092
3096
3100
3104
3108
3112
3116
3120
3124
3128
3132
3136
3140
3144
3148
3152
3156
3160
3164
3168
3172
3176
3180
3184
3188
3192
3196
3200
3204
3208
3212
3216
3220
3224
3228
3232
3236
3240
3244
3248
3252
3256
3260
3264
3268
3272
3276
3280
3284
3288
3292
3296
3300
3304
3308
3312
3316
3320
3324
3328
3332
3336
3340
3344
3348
3352
3356
3360
3364
3368
3372
3376
3380
3384
3388
3392
3396
3400
3404
3408
3412
3416
3420
3424
3428
3432
3436
3440
3444
3448
3452
3456
3460
3464
3468
3472
3476
3480
3484
3488
3492
3496
3500
3504
3508
3512
3516
3520
3524
3528
3532
3536
3540
3544
3548
3552
3556
3560
3564
3568
3572
3576
3580
3584
3588
3592
3596
3600
3604
3608
3612
3616
3620
3624
3628
3632
3636
3640
3644
3648
3652
3656
3660
3664
3668
3672
3676
3680
3684
3688
3692
3696
3700
3704
3708
3712
3716
3720
3724
3728
3732
3736
3740
3744
3748
3752
3756
3760
3764
3768
3772
3776
3780
3784
3788
3792
3796
3800
3804
3808
3812
3816
3820
3824
3828
3832
3836
3840
3844
3848
3852
3856
3860
3864
3868
3872
3876
3880
3884
3888
3892
3896
3900
3904
3908
3912
3916
3920
3924
3928
3932
3936
3940
3944
3948
3952
3956
3960
3964
3968
3972
3976
3980
3984
3988
3992
3996
4000
4004
4008
4012
4016
4020
4024
4028
4032
4036
4040
4044
4048
4052
4056
4060
4064
4068
4072
4076
4080
4084
4088
4092
4096
4100
4104
4108
4112
4116
4120
4124
4128
4132
4136
4140
4144
4148
4152
4156
4160
4164
4168
4172
4176
4180
4184
4188
4192
4196
4200
4204
4208
4212
4216
4220
4224
4228
4232
4236
4240
4244
4248
4252
4256
4260
4264
4268
4272
4276
4280
4284
4288
4292
4296
4300
4304
4308
4312
4316
4320
4324
4328
4332
4336
4340
4344
4348
4352
4356
4360
4364
4368
4372
4376
4380
4384
4388
4392
4396
4400
4404
4408
4412
4416
4420
4424
4428
4432
4436
4440
4444
4448
4452
4456
4460
4464
4468
4472
4476
4480
4484
4488
4492
4496
4500
4504
4508
4512
4516
4520
4524
4528
4532
4536
4540
4544
4548
4552
4556
4560
4564
4568
4572
4576
4580
4584
4588
4592
4596
4600
4604
4608
4612
4616
4620
4624
4628
4632
4636
4640
4644
4648
4652
4656
4660
4664
4668
4672
4676
4680
4684
4688
4692
4696
4700
4704
4708
4712
4716
4720
4724
4728
4732
4736
4740
4744
4748
4752
4756
4760
4764
4768
4772
4776
4780
4784
4788
4792
4796
4800
4804
4808
4812
4816
4820
4824
4828
4832
4836
4840
4844
4848
4852
4856
4860
4864
4868
4872
4876
4880
4884
4888
4892
4896
4900
4904
4908
4912
4916
4920
4924
4928
4932
4936
4940
4944
4948
4952
4956
4960
4964
4968
4972
4976
4980
4984
4988
4992
4996
5000
5004
5008
5012
5016
5020
5024
5028
5032
5036
5040
5044
5048
5052
5056
5060
5064
5068
5072
5076
5080
5084
5088
5092
5096
5100
5104
5108
5112
5116
5120
5124
5128
5132
5136
5140
5144
5148
5152
5156
5160
5164
5168
5172
5176
5180
5184
5188
5192
5196
5200
5204
5208
5212
5216
5220
5224
5228
5232
5236
5240
5244
5248
5252
5256
5260
5264
5268
5272
5276
5280
5284
5288
5292
5296
5300
5304
5308
5312
5316
5320
5324
5328
5332
5336
5340
5344
5348
5352
5356
5360
5364
5368
5372
5376
5380
5384
5388
5392
5396
5400
5404
5408
5412
5416
5420
5424
5428
5432
5436
5440
5444
5448
5452
5456
5460
5464
5468
5472
5476
5480
5484
5488
5492
5496
5500
5504
5508
5512
5516
5520
5524
5528
5532
5536
5540
5544
5548
5552
5556
5560
5564
5568
5572
5576
5580
5584
5588
5592
5596
5600
5604
5608
5612
5616
5620
5624
5628
5632
5636
5640
5644
5648
5652
5656
5660
5664
5668
5672
5676
5680
5684
5688
5692
5696
5700
5704
5708
5712
5716
5720
5724
5728
5732
5736
5740
5744
5748
5752
5756
5760
5764
5768
5772
5776
5780
5784
5788
5792
5796
5800
5804
5808
5812
5816
5820
5824
5828
5832
5836
5840
5844
5848
5852
5856
5860
5864
5868
5872
5876
5880
5884
5888
5892
5896
5900
5904
5908
5912
5916
5920
5924
5928
5932
5936
5940
5944
5948
5952
5956
5960
5964
5968
5972
5976
5980
5984
5988
5992
5996
6000
              </DataArray>   
              <DataArray type="UInt8" Name="types" format="ascii">   
10
10
10
10
10
10
10
10
10
10
10
10
10
10
10
10
10
10
10
10
10
10
10
10
10
10
10
10
10
10
10
10
10
10
10
10
10
10
10
10
10
10
10
10
10
10
10
10
10
10
10
10
10
10
10
10
10
10
10
10
10
10
10
10
10
10
10
10
10
10
10
10
10
10
10
10
10
10
10
10
10
10
10
10
10
10
10
10
10
10
10
10
10
10
10
10
10
10
10
10
10
10
10
10
10
10
10
10
10
10
10
10
10
10
10
10
10
10
10
10
10
10
10
10
10
10
10
10
10
10
10
10
10
10
10
10
10
10
10
10
10
10
10
10
10
10
10
10
10
10
10
10
10
10
10
10
10
10
10
10
10
10
10
10
10
10
10
10
10
10
10
10
10
10
10
10
10
10
10
10
10
10
10
10
10
10
10
10
10
10
10
10
10
10
10
10
10
10
10
10
10
10
10
10
10
10
10
10
10
10
10
10
10
10
10
10
10
10
10
10
10
10
10
10
10
10
10
10
10
10
10
10
10
10
10
10
10
10
10
10
10
10
10
10
10
10
10
10
10
10
10
10
10
10
10
10
10
10
10
10
10
10
10
10
10
10
10
10
10
10
10
10
10
10
10
10
10
10
10
10
10
10
10
10
10
10
10
10
10
10
10
10
10
10
10
10
10
10
10
10
10
10
10
10
10
10
10
10
10
10
10
10
10
10
10
10
10
10
10
10
10
10
10
10
10
10
10
10
10
10
10
10
10
10
10
10
10
10
10
10
10
10
10
10
10
10
10
10
10
10
10
10
10
10
10
10
10
10
10
10
10
10
10
10
10
10
10
10
10
10
10
10
10
10
10
10
10
10
10
10
10
10
10
10
10
10
10
10
10
10
10
10
10
10
10
10
10
10
10
10
10
10
10
10
10
10
10
10
10
10
10
10
10
10
10
10
10
10
10
10
10
10
10
10
10
10
10
10
10
10
10
10
10
10
10
10
10
10
10
10
10
10
10
10
10
10
10
10
10
10
10
10
10
10
10
10
10
10
10
10
10
10
10
10
10
10
10
10
10
10
10
10
10
10
10
10
10
10
10
10
10
10
10
10
10
10
10
10
10
10
10
10
10
10
10
10
10
10
10
10
10
10
10
10
10
10
10
10
10
10
10
10
10
10
10
10
10
10
10
10
10
10
10
10
10
10
10
10
10
10
10
10
10
10
10
10
10
10
10
10
10
10
10
10
10
10
10
10
10
10
10
10
10
10
10
10
10
10
10
10
10
10
10
10
10
10
10
10
10
10
10
10
10
10
10
10
10
10
10
10
10
10
10
10
10
10
10
10
10
10
10
10
10
10
10
10
10
10
10
10
10
10
10
10
10
10
10
10
10
10
10
10
10
10
10
10
10
10
10
10
10
10
10
10
10
10
10
10
10
10
10
10
10
10
10
10
10
10
10
10
10
10
10
10
10
10
10
10
10
10
10
10
10
10
10
10
10
10
10
10
10
10
10
10
10
10
10
10
10
10
10
10
10
10
10
10
10
10
10
10
10
10
10
10
10
10
10
10
10
10
10
10
10
10
10
10
10
10
10
10
10
10
10
10
10
10
10
10
10
10
10
10
10
10
10
10
10
10
10
10
10
10
10
10
10
10
10
10
10
10
10
10
10
10
10
10
10
10
10
10
10
10
10
10
10
10
10
10
10
10
10
10
10
10
10
10
10
10
10
10
10
10
10
10
10
10
10
10
10
10
10
10
10
10
10
10
10
10
10
10
10
10
10
10
10
10
10
10
10
10
10
10
10
10
10
10
10
10
10
10
10
10
10
10
10
10
10
10
10
10
10
10
10
10
10
10
10
10
10
10
10
10
10
10
10
10
10
10
10
10
10
10
10
10
10
10
10
10
10
10
10
10
10
10
10
10
10
10
10
10
10
10
10
10
10
10
10
10
10
10
10
10
10
10
10
10
10
10
10
10
10
10
10
10
10
10
10
10
10
10
10
10
10
10
10
10
10
10
10
10
10
10
10
10
10
10
10
10
10
10
10
10
10
10
10
10
10
10
10
10
10
10
10
10
10
10
10
10
10
10
10
10
10
10
10
10
10
10
10
10
10
10
10
10
10
10
10
10
10
10
10
10
10
10
10
10
10
10
10
10
10
10
10
10
10
10
10
10
10
10
10
10
10
10
10
10
10
10
10
10
10
10
10
10
10
10
10
10
10
10
10
10
10
10
10
10
10
10
10
10
10
10
10
10
10
10
10
10
10
10
10
10
10
10
10
10
10
10
10
10
10
10
10
10
10
10
10
10
10
10
10
10
10
10
10
10
10
10
10
10
10
10
10
10
10
10
10
10
10
10
10
10
10
10
10
10
10
10
10
10
10
10
10
10
10
10
10
10
10
10
10
10
10
10
10
10
10
10
10
10
10
10
10
10
10
10
10
10
10
10
10
10
10
10
10
10
10
10
10
10
10
10
10
10
10
10
10
10
10
10
10
10
10
10
10
10
10
10
10
10
10
10
10
10
10
10
10
10
10
10
10
10
10
10
10
10
10
10
10
10
10
10
10
10
10
10
10
10
10
10
10
10
10
10
10
10
10
10
10
10
10
10
10
10
10
10
10
10
10
10
10
10
10
10
10
10
10
10
10
10
10
10
10
10
10
10
10
10
10
10
10
10
10
10
10
10
10
10
10
10
10
10
10
10
10
10
10
10
10
10
10
10
10
10
10
10
10
10
10
10
10
10
10
10
10
10
10
10
10
10
10
10
10
10
10
10
10
10
10
10
10
10
10
10
10
10
10
10
10
10
10
10
10
10
10
10
10
10
10
10
10
10
10
10
10
10
10
10
10
10
10
10
10
10
10
10
10
10
10
10
10
10
10
10
10
10
10
10
10
10
10
10
10
10
10
10
10
10
10
10
10
10
10
10
10
10
10
10
10
10
10
10
10
10
10
10
10
10
10
10
10
10
10
10
10
10
10
10
10
10
10
10
10
10
10
10
10
10
10
10
10
10
10
10
10
10
10
10
10
10
10
10
10
10
10
10
10
10
10
10
10
10
10
10
10
10
10
10
10
10
10
10
10
10
10
10
10
10
10
10
10
10
10
10
10
10
10
10
10
10
10
10
10
10
10
10
10
10
10
10
10
10
10
10
10
10
10
10
10
10
10
10
10
10
10
10
10
10
10
10
10
10
10
10
10
10
10
10
10
10
10
10
10
10
10
10
10
10
10
10
10
10
10
10
10
10
10
10
10
10
10
10
10
10
10
10
10
10
10
10
10
10
10
10
10
10
10
10
10
10
10
10
10
10
10
10
10
10
10
10
10
10
10
10
10
10
10
10
10
10
10
10
10
10
10
10
10
10
10
10
10
10
10
10
10
10
10
10
10
10
              </DataArray>   
          </Cells>  
          <PointData>  
             <DataArray type="Float64" NumberOfComponents="3" Name="Strains" format="ascii">   
-6.308032811912498e-05   0.0   -4.14868802866512e-05
-6.308032811912498e-05   0.0   -4.14868802866512e-05
-6.308032811912498e-05   0.0   -4.14868802866512e-05
-6.308032811912498e-05   0.0   -4.14868802866512e-05
-4.013061422964666e-05   6.976526895806264e-06   9.485589999629957e-07
-4.013061422964666e-05   6.976526895806264e-06   9.485589999629957e-07
-4.013061422964666e-05   6.976526895806264e-06   9.485589999629957e-07
-4.013061422964666e-05   6.976526895806264e-06   9.485589999629957e-07
-3.933111155235578e-05   0.0   -3.916690832647998e-05
-3.933111155235578e-05   0.0   -3.916690832647998e-05
-3.933111155235578e-05   0.0   -3.916690832647998e-05
-3.933111155235578e-05   0.0   -3.916690832647998e-05
-6.600931584814851e-05   8.377704899691682e-06   2.70142560026388e-07
-6.600931584814851e-05   8.377704899691682e-06   2.70142560026388e-07
-6.600931584814851e-05   8.377704899691682e-06   2.70142560026388e-07
-6.600931584814851e-05   8.377704899691682e-06   2.70142560026388e-07
-5.120571983574029e-05   1.933309966809344e-06   -2.053588050092453e-05
-5.120571983574029e-05   1.933309966809344e-06   -2.053588050092453e-05
-5.120571983574029e-05   1.933309966809344e-06   -2.053588050092453e-05
-5.120571983574029e-05   1.933309966809344e-06   -2.053588050092453e-05
-6.600931584814862e-05   0.0   -4.4193531266295e-05
-6.600931584814862e-05   0.0   -4.4193531266295e-05
-6.600931584814862e-05   0.0   -4.4193531266295e-05
-6.600931584814862e-05   0.0   -4.4193531266295e-05
-3.933111155235578e-05   8.377704899691695e-06   5.296765499841424e-06
-3.933111155235578e-05   8.377704899691695e-06   5.296765499841424e-06
-3.933111155235578e-05   8.377704899691695e-06   5.296765499841424e-06
-3.933111155235578e-05   8.377704899691695e-06   5.296765499841424e-06
-3.9435707561972356e-05   0.0   -4.012387426150059e-05
-3.9435707561972356e-05   0.0   -4.012387426150059e-05
-3.9435707561972356e-05   0.0   -4.012387426150059e-05
-3.9435707561972356e-05   0.0   -4.012387426150059e-05
-6.806341169408842e-05   8.97695060833298e-06   2.202795593693238e-06
-6.806341169408842e-05   8.97695060833298e-06   2.202795593693238e-06
-6.806341169408842e-05   8.97695060833298e-06   2.202795593693238e-06
-6.806341169408842e-05   8.97695060833298e-06   2.202795593693238e-06
-5.27225117050604e-05   3.391380837328675e-06   -2.0014029192084197e-05
-5.27225117050604e-05   3.391380837328675e-06   -2.0014029192084197e-05
-5.27225117050604e-05   3.391380837328675e-06   -2.0014029192084197e-05
-5.27225117050604e-05   3.391380837328675e-06   -2.0014029192084197e-05
-6.806341169408854e-05   0.0   -4.5510044626500394e-05
-6.806341169408854e-05   0.0   -4.5510044626500394e-05
-6.806341169408854e-05   0.0   -4.5510044626500394e-05
-6.806341169408854e-05   0.0   -4.5510044626500394e-05
-3.9435707561972356e-05   8.976950608333007e-06   7.5889659586930475e-06
-3.9435707561972356e-05   8.976950608333007e-06   7.5889659586930475e-06
-3.9435707561972356e-05   8.976950608333007e-06   7.5889659586930475e-06
-3.9435707561972356e-05   8.976950608333007e-06   7.5889659586930475e-06
-3.940784959683488e-05   0.0   -4.0370773676896096e-05
-3.940784959683488e-05   0.0   -4.0370773676896096e-05
-3.940784959683488e-05   0.0   -4.0370773676896096e-05
-3.940784959683488e-05   0.0   -4.0370773676896096e-05
-7.249477659330584e-05   1.0231278383703897e-05   8.635337620333357e-06
-7.249477659330584e-05   1.0231278383703897e-05   8.635337620333357e-06
-7.249477659330584e-05   1.0231278383703897e-05   8.635337620333357e-06
-7.249477659330584e-05   1.0231278383703897e-05   8.635337620333357e-06
-5.373563064546162e-05   4.282725791336913e-06   -1.9060774070653472e-05
-5.373563064546162e-05   4.282725791336913e-06   -1.9060774070653472e-05
-5.373563064546162e-05   4.282725791336913e-06   -1.9060774070653472e-05
-5.373563064546162e-05   4.282725791336913e-06   -1.9060774070653472e-05
-4.0130614229646736e-05   0.0   -3.730096414916744e-05
-4.0130614229646736e-05   0.0   -3.730096414916744e-05
-4.0130614229646736e-05   0.0   -3.730096414916744e-05
-4.0130614229646736e-05   0.0   -3.730096414916744e-05
-1.8283012766766544e-05   2.5564845813159313e-06   6.455957044224169e-07
-1.8283012766766544e-05   2.5564845813159313e-06   6.455957044224169e-07
-1.8283012766766544e-05   2.5564845813159313e-06   6.455957044224169e-07
-1.8283012766766544e-05   2.5564845813159313e-06   6.455957044224169e-07
-1.7578178744414764e-05   0.0   -3.698083739319562e-05
-1.7578178744414764e-05   0.0   -3.698083739319562e-05
-1.7578178744414764e-05   0.0   -3.698083739319562e-05
-1.7578178744414764e-05   0.0   -3.698083739319562e-05
-3.933111155235578e-05   3.64345155547394e-06   -2.912020313244971e-06
-3.933111155235578e-05   3.64345155547394e-06   -2.912020313244971e-06
-3.933111155235578e-05   3.64345155547394e-06   -2.912020313244971e-06
-3.933111155235578e-05   3.64345155547394e-06   -2.912020313244971e-06
-2.88543964870307e-05   2.66772296643175e-07   -1.8347204533488174e-05
-2.88543964870307e-05   2.66772296643175e-07   -1.8347204533488174e-05
-2.88543964870307e-05   2.66772296643175e-07   -1.8347204533488174e-05
-2.88543964870307e-05   2.66772296643175e-07   -1.8347204533488174e-05
-3.9331111552355745e-05   0.0   -3.916690832647995e-05
-3.9331111552355745e-05   0.0   -3.916690832647995e-05
-3.9331111552355745e-05   0.0   -3.916690832647995e-05
-3.9331111552355745e-05   0.0   -3.916690832647995e-05
-1.7578178744414764e-05   3.64345155547394e-06   -7.259493799606029e-07
-1.7578178744414764e-05   3.64345155547394e-06   -7.259493799606029e-07
-1.7578178744414764e-05   3.64345155547394e-06   -7.259493799606029e-07
-1.7578178744414764e-05   3.64345155547394e-06   -7.259493799606029e-07
-1.7179736883791883e-05   0.0   -3.7443738716745185e-05
-1.7179736883791883e-05   0.0   -3.7443738716745185e-05
-1.7179736883791883e-05   0.0   -3.7443738716745185e-05
-1.7179736883791883e-05   0.0   -3.7443738716745185e-05
-3.9435707561972356e-05   4.466892574592343e-06   -3.0305897978664736e-06
-3.9435707561972356e-05   4.466892574592343e-06   -3.0305897978664736e-06
-3.9435707561972356e-05   4.466892574592343e-06   -3.0305897978664736e-06
-3.9435707561972356e-05   4.466892574592343e-06   -3.0305897978664736e-06
-2.8255424218073775e-05   1.4359746747789922e-06   -1.984584463114261e-05
-2.8255424218073775e-05   1.4359746747789922e-06   -1.984584463114261e-05
-2.8255424218073775e-05   1.4359746747789922e-06   -1.984584463114261e-05
-2.8255424218073775e-05   1.4359746747789922e-06   -1.984584463114261e-05
-3.9435707561972356e-05   0.0   -4.012387426150059e-05
-3.9435707561972356e-05   0.0   -4.012387426150059e-05
-3.9435707561972356e-05   0.0   -4.012387426150059e-05
-3.9435707561972356e-05   0.0   -4.012387426150059e-05
-1.7179736883791883e-05   4.466892574592343e-06   -3.5045425311107e-07
-1.7179736883791883e-05   4.466892574592343e-06   -3.5045425311107e-07
-1.7179736883791883e-05   4.466892574592343e-06   -3.5045425311107e-07
-1.7179736883791883e-05   4.466892574592343e-06   -3.5045425311107e-07
-1.6815879558098495e-05   0.0   -3.725122304629081e-05
-1.6815879558098495e-05   0.0   -3.725122304629081e-05
-1.6815879558098495e-05   0.0   -3.725122304629081e-05
-1.6815879558098495e-05   0.0   -3.725122304629081e-05
-3.9407849596834776e-05   5.199251051008746e-06   -2.7174902790021106e-06
-3.9407849596834776e-05   5.199251051008746e-06   -2.7174902790021106e-06
-3.9407849596834776e-05   5.199251051008746e-06   -2.7174902790021106e-06
-3.9407849596834776e-05   5.199251051008746e-06   -2.7174902790021106e-06
-2.8125793560035415e-05   2.3938760126747963e-06   -1.983769198400081e-05
-2.8125793560035415e-05   2.3938760126747963e-06   -1.983769198400081e-05
-2.8125793560035415e-05   2.3938760126747963e-06   -1.983769198400081e-05
-2.8125793560035415e-05   2.3938760126747963e-06   -1.983769198400081e-05
-1.8283012766766574e-05   0.0   -3.5767073400377876e-05
-1.8283012766766574e-05   0.0   -3.5767073400377876e-05
-1.8283012766766574e-05   0.0   -3.5767073400377876e-05
-1.8283012766766574e-05   0.0   -3.5767073400377876e-05
2.353461134120933e-06   -3.2920251855942734e-07   -1.570471743367648e-06
2.353461134120933e-06   -3.2920251855942734e-07   -1.570471743367648e-06
2.353461134120933e-06   -3.2920251855942734e-07   -1.570471743367648e-06
2.353461134120933e-06   -3.2920251855942734e-07   -1.570471743367648e-06
2.806287373370582e-06   0.0   -3.6592835923826515e-05
2.806287373370582e-06   0.0   -3.6592835923826515e-05
2.806287373370582e-06   0.0   -3.6592835923826515e-05
2.806287373370582e-06   0.0   -3.6592835923826515e-05
-1.7578178744414764e-05   6.466691156149662e-07   -3.0067271968866965e-06
-1.7578178744414764e-05   6.466691156149662e-07   -3.0067271968866965e-06
-1.7578178744414764e-05   6.466691156149662e-07   -3.0067271968866965e-06
-1.7578178744414764e-05   6.466691156149662e-07   -3.0067271968866965e-06
-7.738362696697979e-06   -6.881354362073008e-07   -1.8605537878654576e-05
-7.738362696697979e-06   -6.881354362073008e-07   -1.8605537878654576e-05
-7.738362696697979e-06   -6.881354362073008e-07   -1.8605537878654576e-05
-7.738362696697979e-06   -6.881354362073008e-07   -1.8605537878654576e-05
-1.7578178744414764e-05   0.0   -3.698083739319562e-05
-1.7578178744414764e-05   0.0   -3.698083739319562e-05
-1.7578178744414764e-05   0.0   -3.698083739319562e-05
-1.7578178744414764e-05   0.0   -3.698083739319562e-05
2.8062873733705866e-06   6.46669115614973e-07   -2.6187257275177115e-06
2.8062873733705866e-06   6.46669115614973e-07   -2.6187257275177115e-06
2.8062873733705866e-06   6.46669115614973e-07   -2.6187257275177115e-06
2.8062873733705866e-06   6.46669115614973e-07   -2.6187257275177115e-06
3.1645225062731915e-06   0.0   -3.653999865922488e-05
3.1645225062731915e-06   0.0   -3.653999865922488e-05
3.1645225062731915e-06   0.0   -3.653999865922488e-05
3.1645225062731915e-06   0.0   -3.653999865922488e-05
-1.7179736883791852e-05   1.506233429200403e-06   -3.536639733303388e-06
-1.7179736883791852e-05   1.506233429200403e-06   -3.536639733303388e-06
-1.7179736883791852e-05   1.506233429200403e-06   -3.536639733303388e-06
-1.7179736883791852e-05   1.506233429200403e-06   -3.536639733303388e-06
-7.206828119070783e-06   3.673656116422305e-07   -1.947483365063697e-05
-7.206828119070783e-06   3.673656116422305e-07   -1.947483365063697e-05
-7.206828119070783e-06   3.673656116422305e-07   -1.947483365063697e-05
-7.206828119070783e-06   3.673656116422305e-07   -1.947483365063697e-05
-1.7179736883791883e-05   0.0   -3.7443738716745185e-05
-1.7179736883791883e-05   0.0   -3.7443738716745185e-05
-1.7179736883791883e-05   0.0   -3.7443738716745185e-05
-1.7179736883791883e-05   0.0   -3.7443738716745185e-05
3.164522506273197e-06   1.5062334292003962e-06   -2.632899675783151e-06
3.164522506273197e-06   1.5062334292003962e-06   -2.632899675783151e-06
3.164522506273197e-06   1.5062334292003962e-06   -2.632899675783151e-06
3.164522506273197e-06   1.5062334292003962e-06   -2.632899675783151e-06
3.6444300714148434e-06   0.0   -3.575035188804125e-05
3.6444300714148434e-06   0.0   -3.575035188804125e-05
3.6444300714148434e-06   0.0   -3.575035188804125e-05
3.6444300714148434e-06   0.0   -3.575035188804125e-05
-1.681587955809848e-05   2.501451930415876e-06   -3.150706997101903e-06
-1.681587955809848e-05   2.501451930415876e-06   -3.150706997101903e-06
-1.681587955809848e-05   2.501451930415876e-06   -3.150706997101903e-06
-1.681587955809848e-05   2.501451930415876e-06   -3.150706997101903e-06
-6.767653406188505e-06   1.4111556905865628e-06   -1.9243572839720925e-05
-6.767653406188505e-06   1.4111556905865628e-06   -1.9243572839720925e-05
-6.767653406188505e-06   1.4111556905865628e-06   -1.9243572839720925e-05
-6.767653406188505e-06   1.4111556905865628e-06   -1.9243572839720925e-05
2.3534611341209367e-06   0.0   -3.596459491151353e-05
2.3534611341209367e-06   0.0   -3.596459491151353e-05
2.3534611341209367e-06   0.0   -3.596459491151353e-05
2.3534611341209367e-06   0.0   -3.596459491151353e-05
2.475942219273506e-05   -2.90406065317672e-06   -3.6376287239600803e-07
2.475942219273506e-05   -2.90406065317672e-06   -3.6376287239600803e-07
2.475942219273506e-05   -2.90406065317672e-06   -3.6376287239600803e-07
2.475942219273506e-05   -2.90406065317672e-06   -3.6376287239600803e-07
2.481101523705501e-05   0.0   -3.790533273574568e-05
2.481101523705501e-05   0.0   -3.790533273574568e-05
2.481101523705501e-05   0.0   -3.790533273574568e-05
2.481101523705501e-05   0.0   -3.790533273574568e-05
2.8062873733705917e-06   -2.1874946865317328e-06   8.171051564738614e-08
2.8062873733705917e-06   -2.1874946865317328e-06   8.171051564738614e-08
2.8062873733705917e-06   -2.1874946865317328e-06   8.171051564738614e-08
2.8062873733705917e-06   -2.1874946865317328e-06   8.171051564738614e-08
1.3582238185587972e-05   -1.6172815201934569e-06   -1.8220335404517865e-05
1.3582238185587972e-05   -1.6172815201934569e-06   -1.8220335404517865e-05
1.3582238185587972e-05   -1.6172815201934569e-06   -1.8220335404517865e-05
1.3582238185587972e-05   -1.6172815201934569e-06   -1.8220335404517865e-05
2.8062873733705917e-06   0.0   -3.659283592382664e-05
2.8062873733705917e-06   0.0   -3.659283592382664e-05
2.8062873733705917e-06   0.0   -3.659283592382664e-05
2.8062873733705917e-06   0.0   -3.659283592382664e-05
2.481101523705501e-05   -2.1874946865317328e-06   -1.2307862962716574e-06
2.481101523705501e-05   -2.1874946865317328e-06   -1.2307862962716574e-06
2.481101523705501e-05   -2.1874946865317328e-06   -1.2307862962716574e-06
2.481101523705501e-05   -2.1874946865317328e-06   -1.2307862962716574e-06
2.471127403164013e-05   0.0   -3.736411310442011e-05
2.471127403164013e-05   0.0   -3.736411310442011e-05
2.471127403164013e-05   0.0   -3.736411310442011e-05
2.471127403164013e-05   0.0   -3.736411310442011e-05
3.164522506273197e-06   -1.3735240753252596e-06   -6.287461169467266e-07
3.164522506273197e-06   -1.3735240753252596e-06   -6.287461169467266e-07
3.164522506273197e-06   -1.3735240753252596e-06   -6.287461169467266e-07
3.164522506273197e-06   -1.3735240753252596e-06   -6.287461169467266e-07
1.3758780702505362e-05   -6.427309838278892e-07   -1.872431896556541e-05
1.3758780702505362e-05   -6.427309838278892e-07   -1.872431896556541e-05
1.3758780702505362e-05   -6.427309838278892e-07   -1.872431896556541e-05
1.3758780702505362e-05   -6.427309838278892e-07   -1.872431896556541e-05
3.164522506273194e-06   0.0   -3.653999865922491e-05
3.164522506273194e-06   0.0   -3.653999865922491e-05
3.164522506273194e-06   0.0   -3.653999865922491e-05
3.164522506273194e-06   0.0   -3.653999865922491e-05
2.471127403164013e-05   -1.3735240753252596e-06   -1.452860562141884e-06
2.471127403164013e-05   -1.3735240753252596e-06   -1.452860562141884e-06
2.471127403164013e-05   -1.3735240753252596e-06   -1.452860562141884e-06
2.471127403164013e-05   -1.3735240753252596e-06   -1.452860562141884e-06
2.519612265091234e-05   0.0   -3.5918427898397566e-05
2.519612265091234e-05   0.0   -3.5918427898397566e-05
2.519612265091234e-05   0.0   -3.5918427898397566e-05
2.519612265091234e-05   0.0   -3.5918427898397566e-05
3.6444300714148498e-06   -2.801266839270856e-07   1.691357444544957e-07
3.6444300714148498e-06   -2.801266839270856e-07   1.691357444544957e-07
3.6444300714148498e-06   -2.801266839270856e-07   1.691357444544957e-07
3.6444300714148498e-06   -2.801266839270856e-07   1.691357444544957e-07
1.4180322578592757e-05   5.179756340228185e-07   -1.7869546491611944e-05
1.4180322578592757e-05   5.179756340228185e-07   -1.7869546491611944e-05
1.4180322578592757e-05   5.179756340228185e-07   -1.7869546491611944e-05
1.4180322578592757e-05   5.179756340228185e-07   -1.7869546491611944e-05
2.475942219273506e-05   0.0   -3.770703130341957e-05
2.475942219273506e-05   0.0   -3.770703130341957e-05
2.475942219273506e-05   0.0   -3.770703130341957e-05
2.475942219273506e-05   0.0   -3.770703130341957e-05
5.593793887633744e-05   -7.366870710387631e-06   9.837040743018789e-06
5.593793887633744e-05   -7.366870710387631e-06   9.837040743018789e-06
5.593793887633744e-05   -7.366870710387631e-06   9.837040743018789e-06
5.593793887633744e-05   -7.366870710387631e-06   9.837040743018789e-06
5.2544580286261165e-05   0.0   -4.1663755663200014e-05
5.2544580286261165e-05   0.0   -4.1663755663200014e-05
5.2544580286261165e-05   0.0   -4.1663755663200014e-05
5.2544580286261165e-05   0.0   -4.1663755663200014e-05
2.481101523705501e-05   -6.264038212423886e-06   8.317275679597906e-06
2.481101523705501e-05   -6.264038212423886e-06   8.317275679597906e-06
2.481101523705501e-05   -6.264038212423886e-06   8.317275679597906e-06
2.481101523705501e-05   -6.264038212423886e-06   8.317275679597906e-06
3.865200123949811e-05   -3.29727029981704e-06   -1.653109507203802e-05
3.865200123949811e-05   -3.29727029981704e-06   -1.653109507203802e-05
3.865200123949811e-05   -3.29727029981704e-06   -1.653109507203802e-05
3.865200123949811e-05   -3.29727029981704e-06   -1.653109507203802e-05
2.4811015237054985e-05   0.0   -3.790533273574565e-05
2.4811015237054985e-05   0.0   -3.790533273574565e-05
2.4811015237054985e-05   0.0   -3.790533273574565e-05
2.4811015237054985e-05   0.0   -3.790533273574565e-05
5.254458028626098e-05   -6.264038212423859e-06   4.5588527521435765e-06
5.254458028626098e-05   -6.264038212423859e-06   4.5588527521435765e-06
5.254458028626098e-05   -6.264038212423859e-06   4.5588527521435765e-06
5.254458028626098e-05   -6.264038212423859e-06   4.5588527521435765e-06
5.098271232647946e-05   0.0   -4.079761486280807e-05
5.098271232647946e-05   0.0   -4.079761486280807e-05
5.098271232647946e-05   0.0   -4.079761486280807e-05
5.098271232647946e-05   0.0   -4.079761486280807e-05
2.471127403164013e-05   -5.722502930646616e-06   6.421617386978758e-06
2.471127403164013e-05   -5.722502930646616e-06   6.421617386978758e-06
2.471127403164013e-05   -5.722502930646616e-06   6.421617386978758e-06
2.471127403164013e-05   -5.722502930646616e-06   6.421617386978758e-06
3.7896863781767214e-05   -2.4102351058853273e-06   -1.7541726224756465e-05
3.7896863781767214e-05   -2.4102351058853273e-06   -1.7541726224756465e-05
3.7896863781767214e-05   -2.4102351058853273e-06   -1.7541726224756465e-05
3.7896863781767214e-05   -2.4102351058853273e-06   -1.7541726224756465e-05
2.471127403164013e-05   0.0   -3.736411310442011e-05
2.471127403164013e-05   0.0   -3.736411310442011e-05
2.471127403164013e-05   0.0   -3.736411310442011e-05
2.471127403164013e-05   0.0   -3.736411310442011e-05
5.098271232647928e-05   -5.722502930646589e-06   2.9881156285907874e-06
5.098271232647928e-05   -5.722502930646589e-06   2.9881156285907874e-06
5.098271232647928e-05   -5.722502930646589e-06   2.9881156285907874e-06
5.098271232647928e-05   -5.722502930646589e-06   2.9881156285907874e-06
4.865297260384684e-05   0.0   -3.85842097233731e-05
4.865297260384684e-05   0.0   -3.85842097233731e-05
4.865297260384684e-05   0.0   -3.85842097233731e-05
4.865297260384684e-05   0.0   -3.85842097233731e-05
2.519612265091234e-05   -4.442969708292684e-06   3.176322023160075e-06
2.519612265091234e-05   -4.442969708292684e-06   3.176322023160075e-06
2.519612265091234e-05   -4.442969708292684e-06   3.176322023160075e-06
2.519612265091234e-05   -4.442969708292684e-06   3.176322023160075e-06
3.668212331774353e-05   -1.0167471824608937e-06   -1.802274593705763e-05
3.668212331774353e-05   -1.0167471824608937e-06   -1.802274593705763e-05
3.668212331774353e-05   -1.0167471824608937e-06   -1.802274593705763e-05
3.668212331774353e-05   -1.0167471824608937e-06   -1.802274593705763e-05
-5.4666632596671696e-05   6.976526895806237e-06   -3.592633094148585e-05
-5.4666632596671696e-05   6.976526895806237e-06   -3.592633094148585e-05
-5.4666632596671696e-05   6.976526895806237e-06   -3.592633094148585e-05
-5.4666632596671696e-05   6.976526895806237e-06   -3.592633094148585e-05
-3.5019333373230725e-05   6.269964815418792e-06   -3.604769483983369e-06
-3.5019333373230725e-05   6.269964815418792e-06   -3.604769483983369e-06
-3.5019333373230725e-05   6.269964815418792e-06   -3.604769483983369e-06
-3.5019333373230725e-05   6.269964815418792e-06   -3.604769483983369e-06
-3.589714516537881e-05   8.377704899691682e-06   -3.017784830695397e-05
-3.589714516537881e-05   8.377704899691682e-06   -3.017784830695397e-05
-3.589714516537881e-05   8.377704899691682e-06   -3.017784830695397e-05
-3.589714516537881e-05   8.377704899691682e-06   -3.017784830695397e-05
-5.525151555971725e-05   7.528937406489698e-06   2.5886961795313778e-06
-5.525151555971725e-05   7.528937406489698e-06   2.5886961795313778e-06
-5.525151555971725e-05   7.528937406489698e-06   2.5886961795313778e-06
-5.525151555971725e-05   7.528937406489698e-06   2.5886961795313778e-06
-4.341764367786804e-05   7.289059195533055e-06   -1.6990496696976936e-05
-4.341764367786804e-05   7.289059195533055e-06   -1.6990496696976936e-05
-4.341764367786804e-05   7.289059195533055e-06   -1.6990496696976936e-05
-4.341764367786804e-05   7.289059195533055e-06   -1.6990496696976936e-05
-5.525151555971725e-05   8.377704899691682e-06   -2.9668587811032767e-05
-5.525151555971725e-05   8.377704899691682e-06   -2.9668587811032767e-05
-5.525151555971725e-05   8.377704899691682e-06   -2.9668587811032767e-05
-5.525151555971725e-05   8.377704899691682e-06   -2.9668587811032767e-05
-3.589714516537894e-05   7.528937406489725e-06   2.079435683610193e-06
-3.589714516537894e-05   7.528937406489725e-06   2.079435683610193e-06
-3.589714516537894e-05   7.528937406489725e-06   2.079435683610193e-06
-3.589714516537894e-05   7.528937406489725e-06   2.079435683610193e-06
-3.607757101982557e-05   8.97695060833298e-06   -2.713561631960076e-05
-3.607757101982557e-05   8.97695060833298e-06   -2.713561631960076e-05
-3.607757101982557e-05   8.97695060833298e-06   -2.713561631960076e-05
-3.607757101982557e-05   8.97695060833298e-06   -2.713561631960076e-05
-5.563440972260948e-05   8.097283780829118e-06   5.986914948207862e-06
-5.563440972260948e-05   8.097283780829118e-06   5.986914948207862e-06
-5.563440972260948e-05   8.097283780829118e-06   5.986914948207862e-06
-5.563440972260948e-05   8.097283780829118e-06   5.986914948207862e-06
-4.4689793371609815e-05   8.080498668645511e-06   -1.2244041236147933e-05
-4.4689793371609815e-05   8.080498668645511e-06   -1.2244041236147933e-05
-4.4689793371609815e-05   8.080498668645511e-06   -1.2244041236147933e-05
-4.4689793371609815e-05   8.080498668645511e-06   -1.2244041236147933e-05
-5.563440972260937e-05   8.97695060833298e-06   -2.6607816223098473e-05
-5.563440972260937e-05   8.97695060833298e-06   -2.6607816223098473e-05
-5.563440972260937e-05   8.97695060833298e-06   -2.6607816223098473e-05
-5.563440972260937e-05   8.97695060833298e-06   -2.6607816223098473e-05
-3.6077571019825635e-05   8.097283780829118e-06   5.459114851705542e-06
-3.6077571019825635e-05   8.097283780829118e-06   5.459114851705542e-06
-3.6077571019825635e-05   8.097283780829118e-06   5.459114851705542e-06
-3.6077571019825635e-05   8.097283780829118e-06   5.459114851705542e-06
-3.58687766466346e-05   1.0231278383703883e-05   -2.0062271325942886e-05
-3.58687766466346e-05   1.0231278383703883e-05   -2.0062271325942886e-05
-3.58687766466346e-05   1.0231278383703883e-05   -2.0062271325942886e-05
-3.58687766466346e-05   1.0231278383703883e-05   -2.0062271325942886e-05
-5.408299002639236e-05   8.551123842485563e-06   1.1302843698384222e-05
-5.408299002639236e-05   8.551123842485563e-06   1.1302843698384222e-05
-5.408299002639236e-05   8.551123842485563e-06   1.1302843698384222e-05
-5.408299002639236e-05   8.551123842485563e-06   1.1302843698384222e-05
-4.3521981752444625e-05   8.865370154266305e-06   -6.487384545263749e-06
-4.3521981752444625e-05   8.865370154266305e-06   -6.487384545263749e-06
-4.3521981752444625e-05   8.865370154266305e-06   -6.487384545263749e-06
-4.3521981752444625e-05   8.865370154266305e-06   -6.487384545263749e-06
-3.5019333373230725e-05   2.556484581315938e-06   -3.818712223404848e-05
-3.5019333373230725e-05   2.556484581315938e-06   -3.818712223404848e-05
-3.5019333373230725e-05   2.556484581315938e-06   -3.818712223404848e-05
-3.5019333373230725e-05   2.556484581315938e-06   -3.818712223404848e-05
-1.660449844778623e-05   2.9176337840998944e-06   -7.279041169970539e-06
-1.660449844778623e-05   2.9176337840998944e-06   -7.279041169970539e-06
-1.660449844778623e-05   2.9176337840998944e-06   -7.279041169970539e-06
-1.660449844778623e-05   2.9176337840998944e-06   -7.279041169970539e-06
-1.69977076286814e-05   3.6434515554739264e-06   -3.8127550714479454e-05
-1.69977076286814e-05   3.6434515554739264e-06   -3.8127550714479454e-05
-1.69977076286814e-05   3.6434515554739264e-06   -3.8127550714479454e-05
-1.69977076286814e-05   3.6434515554739264e-06   -3.8127550714479454e-05
-3.589714516537881e-05   4.075257231408704e-06   -6.887571558877853e-06
-3.589714516537881e-05   4.075257231408704e-06   -6.887571558877853e-06
-3.589714516537881e-05   4.075257231408704e-06   -6.887571558877853e-06
-3.589714516537881e-05   4.075257231408704e-06   -6.887571558877853e-06
-2.6055854828425676e-05   3.281095244340136e-06   -2.28132249282255e-05
-2.6055854828425676e-05   3.281095244340136e-06   -2.28132249282255e-05
-2.6055854828425676e-05   3.281095244340136e-06   -2.28132249282255e-05
-2.6055854828425676e-05   3.281095244340136e-06   -2.28132249282255e-05
-3.5897145165378774e-05   3.6434515554739264e-06   -3.838663412004026e-05
-3.5897145165378774e-05   3.6434515554739264e-06   -3.838663412004026e-05
-3.5897145165378774e-05   3.6434515554739264e-06   -3.838663412004026e-05
-3.5897145165378774e-05   3.6434515554739264e-06   -3.838663412004026e-05
-1.6997707628681424e-05   4.075257231408704e-06   -6.628488153317022e-06
-1.6997707628681424e-05   4.075257231408704e-06   -6.628488153317022e-06
-1.6997707628681424e-05   4.075257231408704e-06   -6.628488153317022e-06
-1.6997707628681424e-05   4.075257231408704e-06   -6.628488153317022e-06
-1.7118801242894713e-05   4.466892574592329e-06   -3.7414974619689334e-05
-1.7118801242894713e-05   4.466892574592329e-06   -3.7414974619689334e-05
-1.7118801242894713e-05   4.466892574592329e-06   -3.7414974619689334e-05
-1.7118801242894713e-05   4.466892574592329e-06   -3.7414974619689334e-05
-3.607757101982557e-05   5.033888335377227e-06   -6.157222447942189e-06
-3.607757101982557e-05   5.033888335377227e-06   -6.157222447942189e-06
-3.607757101982557e-05   5.033888335377227e-06   -6.157222447942189e-06
-3.607757101982557e-05   5.033888335377227e-06   -6.157222447942189e-06
-2.625645426901707e-05   4.166224606659742e-06   -2.2005152128725833e-05
-2.625645426901707e-05   4.166224606659742e-06   -2.2005152128725833e-05
-2.625645426901707e-05   4.166224606659742e-06   -2.2005152128725833e-05
-2.625645426901707e-05   4.166224606659742e-06   -2.2005152128725833e-05
-3.607757101982557e-05   4.466892574592329e-06   -3.775517207616027e-05
-3.607757101982557e-05   4.466892574592329e-06   -3.775517207616027e-05
-3.607757101982557e-05   4.466892574592329e-06   -3.775517207616027e-05
-3.607757101982557e-05   4.466892574592329e-06   -3.775517207616027e-05
-1.7118801242894777e-05   5.033888335377227e-06   -5.817024991471297e-06
-1.7118801242894777e-05   5.033888335377227e-06   -5.817024991471297e-06
-1.7118801242894777e-05   5.033888335377227e-06   -5.817024991471297e-06
-1.7118801242894777e-05   5.033888335377227e-06   -5.817024991471297e-06
-1.7073735128928536e-05   5.199251051008746e-06   -3.703399833852533e-05
-1.7073735128928536e-05   5.199251051008746e-06   -3.703399833852533e-05
-1.7073735128928536e-05   5.199251051008746e-06   -3.703399833852533e-05
-1.7073735128928536e-05   5.199251051008746e-06   -3.703399833852533e-05
-3.5868776646634566e-05   6.0656975793009135e-06   -6.228797059323893e-06
-3.5868776646634566e-05   6.0656975793009135e-06   -6.228797059323893e-06
-3.5868776646634566e-05   6.0656975793009135e-06   -6.228797059323893e-06
-3.5868776646634566e-05   6.0656975793009135e-06   -6.228797059323893e-06
-2.6407653394099134e-05   4.9673841489464125e-06   -2.1338347755337064e-05
-2.6407653394099134e-05   4.9673841489464125e-06   -2.1338347755337064e-05
-2.6407653394099134e-05   4.9673841489464125e-06   -2.1338347755337064e-05
-2.6407653394099134e-05   4.9673841489464125e-06   -2.1338347755337064e-05
-1.6604498447786198e-05   -3.2920251855942734e-07   -3.9988978649032524e-05
-1.6604498447786198e-05   -3.2920251855942734e-07   -3.9988978649032524e-05
-1.6604498447786198e-05   -3.2920251855942734e-07   -3.9988978649032524e-05
-1.6604498447786198e-05   -3.2920251855942734e-07   -3.9988978649032524e-05
1.5774459694238592e-06   -8.793277527757823e-08   -9.5409761077133e-06
1.5774459694238592e-06   -8.793277527757823e-08   -9.5409761077133e-06
1.5774459694238592e-06   -8.793277527757823e-08   -9.5409761077133e-06
1.5774459694238592e-06   -8.793277527757823e-08   -9.5409761077133e-06
1.5058002393203027e-06   6.466691156149798e-07   -4.0209021440013306e-05
1.5058002393203027e-06   6.466691156149798e-07   -4.0209021440013306e-05
1.5058002393203027e-06   6.466691156149798e-07   -4.0209021440013306e-05
1.5058002393203027e-06   6.466691156149798e-07   -4.0209021440013306e-05
-1.69977076286814e-05   9.788476012687975e-07   -9.569148751402637e-06
-1.69977076286814e-05   9.788476012687975e-07   -9.569148751402637e-06
-1.69977076286814e-05   9.788476012687975e-07   -9.569148751402637e-06
-1.69977076286814e-05   9.788476012687975e-07   -9.569148751402637e-06
-7.675352995784028e-06   3.253751159078939e-07   -2.4714322981681812e-05
-7.675352995784028e-06   3.253751159078939e-07   -2.4714322981681812e-05
-7.675352995784028e-06   3.253751159078939e-07   -2.4714322981681812e-05
-7.675352995784028e-06   3.253751159078939e-07   -2.4714322981681812e-05
-1.69977076286814e-05   6.46669115614973e-07   -4.0408328531405554e-05
-1.69977076286814e-05   6.46669115614973e-07   -4.0408328531405554e-05
-1.69977076286814e-05   6.46669115614973e-07   -4.0408328531405554e-05
-1.69977076286814e-05   6.46669115614973e-07   -4.0408328531405554e-05
1.5058002393203027e-06   9.788476012688246e-07   -9.369841660010355e-06
1.5058002393203027e-06   9.788476012688246e-07   -9.369841660010355e-06
1.5058002393203027e-06   9.788476012688246e-07   -9.369841660010355e-06
1.5058002393203027e-06   9.788476012688246e-07   -9.369841660010355e-06
1.4074216188737006e-06   1.506233429200403e-06   -4.029212291460853e-05
1.4074216188737006e-06   1.506233429200403e-06   -4.029212291460853e-05
1.4074216188737006e-06   1.506233429200403e-06   -4.029212291460853e-05
1.4074216188737006e-06   1.506233429200403e-06   -4.029212291460853e-05
-1.7118801242894713e-05   2.0212954046555708e-06   -9.724121996934321e-06
-1.7118801242894713e-05   2.0212954046555708e-06   -9.724121996934321e-06
-1.7118801242894713e-05   2.0212954046555708e-06   -9.724121996934321e-06
-1.7118801242894713e-05   2.0212954046555708e-06   -9.724121996934321e-06
-7.815246368763986e-06   1.2291319637945447e-06   -2.475474872263547e-05
-7.815246368763986e-06   1.2291319637945447e-06   -2.475474872263547e-05
-7.815246368763986e-06   1.2291319637945447e-06   -2.475474872263547e-05
-7.815246368763986e-06   1.2291319637945447e-06   -2.475474872263547e-05
-1.7118801242894713e-05   1.506233429200403e-06   -4.060116009988166e-05
-1.7118801242894713e-05   1.506233429200403e-06   -4.060116009988166e-05
-1.7118801242894713e-05   1.506233429200403e-06   -4.060116009988166e-05
-1.7118801242894713e-05   1.506233429200403e-06   -4.060116009988166e-05
1.4074216188737036e-06   2.021295404655598e-06   -9.415084811661224e-06
1.4074216188737036e-06   2.021295404655598e-06   -9.415084811661224e-06
1.4074216188737036e-06   2.021295404655598e-06   -9.415084811661224e-06
1.4074216188737036e-06   2.021295404655598e-06   -9.415084811661224e-06
1.2055086085395778e-06   2.501451930415869e-06   -4.0223270233558794e-05
1.2055086085395778e-06   2.501451930415869e-06   -4.0223270233558794e-05
1.2055086085395778e-06   2.501451930415869e-06   -4.0223270233558794e-05
1.2055086085395778e-06   2.501451930415869e-06   -4.0223270233558794e-05
-1.707373512892855e-05   3.107277686535193e-06   -1.0121359458116877e-05
-1.707373512892855e-05   3.107277686535193e-06   -1.0121359458116877e-05
-1.707373512892855e-05   3.107277686535193e-06   -1.0121359458116877e-05
-1.707373512892855e-05   3.107277686535193e-06   -1.0121359458116877e-05
-7.89862119745343e-06   2.1575700136212104e-06   -2.484339140682701e-05
-7.89862119745343e-06   2.1575700136212104e-06   -2.484339140682701e-05
-7.89862119745343e-06   2.1575700136212104e-06   -2.484339140682701e-05
-7.89862119745343e-06   2.1575700136212104e-06   -2.484339140682701e-05
1.5774459694238592e-06   -2.90406065317672e-06   -3.6895071540185734e-05
1.5774459694238592e-06   -2.90406065317672e-06   -3.6895071540185734e-05
1.5774459694238592e-06   -2.90406065317672e-06   -3.6895071540185734e-05
1.5774459694238592e-06   -2.90406065317672e-06   -3.6895071540185734e-05
2.0314050468755862e-05   -2.985357345068032e-06   -5.716175389767174e-06
2.0314050468755862e-05   -2.985357345068032e-06   -5.716175389767174e-06
2.0314050468755862e-05   -2.985357345068032e-06   -5.716175389767174e-06
2.0314050468755862e-05   -2.985357345068032e-06   -5.716175389767174e-06
2.0484385814117978e-05   -2.187494686531726e-06   -3.740529817895546e-05
2.0484385814117978e-05   -2.187494686531726e-06   -3.740529817895546e-05
2.0484385814117978e-05   -2.187494686531726e-06   -3.740529817895546e-05
2.0484385814117978e-05   -2.187494686531726e-06   -3.740529817895546e-05
1.5058002393203027e-06   -2.01534965671069e-06   -5.877609238851898e-06
1.5058002393203027e-06   -2.01534965671069e-06   -5.877609238851898e-06
1.5058002393203027e-06   -2.01534965671069e-06   -5.877609238851898e-06
1.5058002393203027e-06   -2.01534965671069e-06   -5.877609238851898e-06
1.083029929430608e-05   -2.4136982092044746e-06   -2.1179431865665294e-05
1.083029929430608e-05   -2.4136982092044746e-06   -2.1179431865665294e-05
1.083029929430608e-05   -2.4136982092044746e-06   -2.1179431865665294e-05
1.083029929430608e-05   -2.4136982092044746e-06   -2.1179431865665294e-05
1.5058002393202998e-06   -2.1874946865317396e-06   -3.750858519684814e-05
1.5058002393202998e-06   -2.1874946865317396e-06   -3.750858519684814e-05
1.5058002393202998e-06   -2.1874946865317396e-06   -3.750858519684814e-05
1.5058002393202998e-06   -2.1874946865317396e-06   -3.750858519684814e-05
2.0484385814118008e-05   -2.015349656710663e-06   -5.774322220959254e-06
2.0484385814118008e-05   -2.015349656710663e-06   -5.774322220959254e-06
2.0484385814118008e-05   -2.015349656710663e-06   -5.774322220959254e-06
2.0484385814118008e-05   -2.015349656710663e-06   -5.774322220959254e-06
2.0387136817132557e-05   -1.3735240753252596e-06   -3.8103237104461456e-05
2.0387136817132557e-05   -1.3735240753252596e-06   -3.8103237104461456e-05
2.0387136817132557e-05   -1.3735240753252596e-06   -3.8103237104461456e-05
2.0387136817132557e-05   -1.3735240753252596e-06   -3.8103237104461456e-05
1.4074216188737006e-06   -1.0656369898075983e-06   -6.655110692007334e-06
1.4074216188737006e-06   -1.0656369898075983e-06   -6.655110692007334e-06
1.4074216188737006e-06   -1.0656369898075983e-06   -6.655110692007334e-06
1.4074216188737006e-06   -1.0656369898075983e-06   -6.655110692007334e-06
1.0717480359067707e-05   -1.6399743896097448e-06   -2.1827272819115985e-05
1.0717480359067707e-05   -1.6399743896097448e-06   -2.1827272819115985e-05
1.0717480359067707e-05   -1.6399743896097448e-06   -2.1827272819115985e-05
1.0717480359067707e-05   -1.6399743896097448e-06   -2.1827272819115985e-05
1.4074216188737002e-06   -1.3735240753252664e-06   -3.828796935577205e-05
1.4074216188737002e-06   -1.3735240753252664e-06   -3.828796935577205e-05
1.4074216188737002e-06   -1.3735240753252664e-06   -3.828796935577205e-05
1.4074216188737002e-06   -1.3735240753252664e-06   -3.828796935577205e-05
2.0387136817132632e-05   -1.0656369898076254e-06   -6.47037844069676e-06
2.0387136817132632e-05   -1.0656369898076254e-06   -6.47037844069676e-06
2.0387136817132632e-05   -1.0656369898076254e-06   -6.47037844069676e-06
2.0387136817132632e-05   -1.0656369898076254e-06   -6.47037844069676e-06
1.979386892604229e-05   -2.801266839270788e-07   -3.817114122184349e-05
1.979386892604229e-05   -2.801266839270788e-07   -3.817114122184349e-05
1.979386892604229e-05   -2.801266839270788e-07   -3.817114122184349e-05
1.979386892604229e-05   -2.801266839270788e-07   -3.817114122184349e-05
1.2055086085395778e-06   1.0846903008687042e-07   -7.423698121080703e-06
1.2055086085395778e-06   1.0846903008687042e-07   -7.423698121080703e-06
1.2055086085395778e-06   1.0846903008687042e-07   -7.423698121080703e-06
1.2055086085395778e-06   1.0846903008687042e-07   -7.423698121080703e-06
1.060311579952329e-05   -7.363311765336939e-07   -2.257949664874786e-05
1.060311579952329e-05   -7.363311765336939e-07   -2.257949664874786e-05
1.060311579952329e-05   -7.363311765336939e-07   -2.257949664874786e-05
1.060311579952329e-05   -7.363311765336939e-07   -2.257949664874786e-05
2.0314050468755862e-05   -7.366870710387631e-06   -2.2322923513673162e-05
2.0314050468755862e-05   -7.366870710387631e-06   -2.2322923513673162e-05
2.0314050468755862e-05   -7.366870710387631e-06   -2.2322923513673162e-05
2.0314050468755862e-05   -7.366870710387631e-06   -2.2322923513673162e-05
3.8798870842897946e-05   -5.545402664324493e-06   9.577991270868103e-06
3.8798870842897946e-05   -5.545402664324493e-06   9.577991270868103e-06
3.8798870842897946e-05   -5.545402664324493e-06   9.577991270868103e-06
3.8798870842897946e-05   -5.545402664324493e-06   9.577991270868103e-06
4.028321191091836e-05   -6.264038212423886e-06   -2.7115278103664528e-05
4.028321191091836e-05   -6.264038212423886e-06   -2.7115278103664528e-05
4.028321191091836e-05   -6.264038212423886e-06   -2.7115278103664528e-05
4.028321191091836e-05   -6.264038212423886e-06   -2.7115278103664528e-05
2.0484385814118045e-05   -5.027441380054743e-06   5.140807291581262e-06
2.0484385814118045e-05   -5.027441380054743e-06   5.140807291581262e-06
2.0484385814118045e-05   -5.027441380054743e-06   5.140807291581262e-06
2.0484385814118045e-05   -5.027441380054743e-06   5.140807291581262e-06
2.8576155372638928e-05   -6.024428238625803e-06   -7.747283190810976e-06
2.8576155372638928e-05   -6.024428238625803e-06   -7.747283190810976e-06
2.8576155372638928e-05   -6.024428238625803e-06   -7.747283190810976e-06
2.8576155372638928e-05   -6.024428238625803e-06   -7.747283190810976e-06
2.0484385814117988e-05   -6.264038212423859e-06   -2.78572362030859e-05
2.0484385814117988e-05   -6.264038212423859e-06   -2.78572362030859e-05
2.0484385814117988e-05   -6.264038212423859e-06   -2.78572362030859e-05
2.0484385814117988e-05   -6.264038212423859e-06   -2.78572362030859e-05
4.028321191091836e-05   -5.027441380054743e-06   5.88276539100277e-06
4.028321191091836e-05   -5.027441380054743e-06   5.88276539100277e-06
4.028321191091836e-05   -5.027441380054743e-06   5.88276539100277e-06
4.028321191091836e-05   -5.027441380054743e-06   5.88276539100277e-06
4.0137456747859666e-05   -5.722502930646602e-06   -2.9483855960095136e-05
4.0137456747859666e-05   -5.722502930646602e-06   -2.9483855960095136e-05
4.0137456747859666e-05   -5.722502930646602e-06   -2.9483855960095136e-05
4.0137456747859666e-05   -5.722502930646602e-06   -2.9483855960095136e-05
2.0387136817132632e-05   -4.480997605236928e-06   2.6884407292040936e-06
2.0387136817132632e-05   -4.480997605236928e-06   2.6884407292040936e-06
2.0387136817132632e-05   -4.480997605236928e-06   2.6884407292040936e-06
2.0387136817132632e-05   -4.480997605236928e-06   2.6884407292040936e-06
2.95798579038054e-05   -5.318055432422194e-06   -1.2130526385606036e-05
2.95798579038054e-05   -5.318055432422194e-06   -1.2130526385606036e-05
2.95798579038054e-05   -5.318055432422194e-06   -1.2130526385606036e-05
2.95798579038054e-05   -5.318055432422194e-06   -1.2130526385606036e-05
2.0387136817132595e-05   -5.722502930646589e-06   -3.0228759155340874e-05
2.0387136817132595e-05   -5.722502930646589e-06   -3.0228759155340874e-05
2.0387136817132595e-05   -5.722502930646589e-06   -3.0228759155340874e-05
2.0387136817132595e-05   -5.722502930646589e-06   -3.0228759155340874e-05
4.0137456747859666e-05   -4.480997605236928e-06   3.433343924449879e-06
4.0137456747859666e-05   -4.480997605236928e-06   3.433343924449879e-06
4.0137456747859666e-05   -4.480997605236928e-06   3.433343924449879e-06
4.0137456747859666e-05   -4.480997605236928e-06   3.433343924449879e-06
3.99005696701017e-05   -4.442969708292677e-06   -3.431332242116749e-05
3.99005696701017e-05   -4.442969708292677e-06   -3.431332242116749e-05
3.99005696701017e-05   -4.442969708292677e-06   -3.431332242116749e-05
3.99005696701017e-05   -4.442969708292677e-06   -3.431332242116749e-05
1.9793868926042357e-05   -3.3053755222688488e-06   -1.4847110260162507e-06
1.9793868926042357e-05   -3.3053755222688488e-06   -1.4847110260162507e-06
1.9793868926042357e-05   -3.3053755222688488e-06   -1.4847110260162507e-06
1.9793868926042357e-05   -3.3053755222688488e-06   -1.4847110260162507e-06
2.8736559072664798e-05   -4.577388566124067e-06   -1.5625986777407155e-05
2.8736559072664798e-05   -4.577388566124067e-06   -1.5625986777407155e-05
2.8736559072664798e-05   -4.577388566124067e-06   -1.5625986777407155e-05
2.8736559072664798e-05   -4.577388566124067e-06   -1.5625986777407155e-05
-4.3493854533634526e-05   6.269964815418792e-06   -3.0060755707151675e-05
-4.3493854533634526e-05   6.269964815418792e-06   -3.0060755707151675e-05
-4.3493854533634526e-05   6.269964815418792e-06   -3.0060755707151675e-05
-4.3493854533634526e-05   6.269964815418792e-06   -3.0060755707151675e-05
-2.8527012502680294e-05   4.78627508832761e-06   -6.006232825149334e-06
-2.8527012502680294e-05   4.78627508832761e-06   -6.006232825149334e-06
-2.8527012502680294e-05   4.78627508832761e-06   -6.006232825149334e-06
-2.8527012502680294e-05   4.78627508832761e-06   -6.006232825149334e-06
-2.8663069711943662e-05   7.528937406489698e-06   -2.4961902610484558e-05
-2.8663069711943662e-05   7.528937406489698e-06   -2.4961902610484558e-05
-2.8663069711943662e-05   7.528937406489698e-06   -2.4961902610484558e-05
-2.8663069711943662e-05   7.528937406489698e-06   -2.4961902610484558e-05
-4.282938355450865e-05   5.792518312687056e-06   -3.0952808326140504e-07
-4.282938355450865e-05   5.792518312687056e-06   -3.0952808326140504e-07
-4.282938355450865e-05   5.792518312687056e-06   -3.0952808326140504e-07
-4.282938355450865e-05   5.792518312687056e-06   -3.0952808326140504e-07
-3.436068133418315e-05   6.3768820564934865e-06   -1.477465003008784e-05
-3.436068133418315e-05   6.3768820564934865e-06   -1.477465003008784e-05
-3.436068133418315e-05   6.3768820564934865e-06   -1.477465003008784e-05
-3.436068133418315e-05   6.3768820564934865e-06   -1.477465003008784e-05
-4.282938355450865e-05   7.528937406489698e-06   -2.3920051154202986e-05
-4.282938355450865e-05   7.528937406489698e-06   -2.3920051154202986e-05
-4.282938355450865e-05   7.528937406489698e-06   -2.3920051154202986e-05
-4.282938355450865e-05   7.528937406489698e-06   -2.3920051154202986e-05
-2.8663069711943662e-05   5.792518312687056e-06   -1.3513795395428548e-06
-2.8663069711943662e-05   5.792518312687056e-06   -1.3513795395428548e-06
-2.8663069711943662e-05   5.792518312687056e-06   -1.3513795395428548e-06
-2.8663069711943662e-05   5.792518312687056e-06   -1.3513795395428548e-06
-2.8632060759795815e-05   8.097283780829118e-06   -2.1356966106077615e-05
-2.8632060759795815e-05   8.097283780829118e-06   -2.1356966106077615e-05
-2.8632060759795815e-05   8.097283780829118e-06   -2.1356966106077615e-05
-2.8632060759795815e-05   8.097283780829118e-06   -2.1356966106077615e-05
-4.2182747002452445e-05   6.235056937897157e-06   2.344847070775871e-06
-4.2182747002452445e-05   6.235056937897157e-06   2.344847070775871e-06
-4.2182747002452445e-05   6.235056937897157e-06   2.344847070775871e-06
-4.2182747002452445e-05   6.235056937897157e-06   2.344847070775871e-06
-3.465473808476787e-05   6.960170154918612e-06   -1.0636902388911002e-05
-3.465473808476787e-05   6.960170154918612e-06   -1.0636902388911002e-05
-3.465473808476787e-05   6.960170154918612e-06   -1.0636902388911002e-05
-3.465473808476787e-05   6.960170154918612e-06   -1.0636902388911002e-05
-4.2182747002452445e-05   8.097283780829118e-06   -2.0239630000318427e-05
-4.2182747002452445e-05   8.097283780829118e-06   -2.0239630000318427e-05
-4.2182747002452445e-05   8.097283780829118e-06   -2.0239630000318427e-05
-4.2182747002452445e-05   8.097283780829118e-06   -2.0239630000318427e-05
-2.8632060759795856e-05   6.235056937897211e-06   1.227510965016914e-06
-2.8632060759795856e-05   6.235056937897211e-06   1.227510965016914e-06
-2.8632060759795856e-05   6.235056937897211e-06   1.227510965016914e-06
-2.8632060759795856e-05   6.235056937897211e-06   1.227510965016914e-06
-2.8659786596566133e-05   8.551123842485563e-06   -1.631244444857689e-05
-2.8659786596566133e-05   8.551123842485563e-06   -1.631244444857689e-05
-2.8659786596566133e-05   8.551123842485563e-06   -1.631244444857689e-05
-2.8659786596566133e-05   8.551123842485563e-06   -1.631244444857689e-05
-4.133985084569871e-05   6.672088329737235e-06   5.948417274292842e-06
-4.133985084569871e-05   6.672088329737235e-06   5.948417274292842e-06
-4.133985084569871e-05   6.672088329737235e-06   5.948417274292842e-06
-4.133985084569871e-05   6.672088329737235e-06   5.948417274292842e-06
-3.386296802884492e-05   7.268250741818908e-06   -6.870751534378641e-06
-3.386296802884492e-05   7.268250741818908e-06   -6.870751534378641e-06
-3.386296802884492e-05   7.268250741818908e-06   -6.870751534378641e-06
-3.386296802884492e-05   7.268250741818908e-06   -6.870751534378641e-06
-2.8527012502680294e-05   2.9176337840998673e-06   -3.484193075106396e-05
-2.8527012502680294e-05   2.9176337840998673e-06   -3.484193075106396e-05
-2.8527012502680294e-05   2.9176337840998673e-06   -3.484193075106396e-05
-2.8527012502680294e-05   2.9176337840998673e-06   -3.484193075106396e-05
-1.4533156459639066e-05   2.3883287663088596e-06   -1.1836420356669869e-05
-1.4533156459639066e-05   2.3883287663088596e-06   -1.1836420356669869e-05
-1.4533156459639066e-05   2.3883287663088596e-06   -1.1836420356669869e-05
-1.4533156459639066e-05   2.3883287663088596e-06   -1.1836420356669869e-05
-1.4708179021200345e-05   4.075257231408704e-06   -3.434706453782474e-05
-1.4708179021200345e-05   4.075257231408704e-06   -3.434706453782474e-05
-1.4708179021200345e-05   4.075257231408704e-06   -3.434706453782474e-05
-1.4708179021200345e-05   4.075257231408704e-06   -3.434706453782474e-05
-2.8663069711943622e-05   3.378332756655137e-06   -1.0670758701733767e-05
-2.8663069711943622e-05   3.378332756655137e-06   -1.0670758701733767e-05
-2.8663069711943622e-05   3.378332756655137e-06   -1.0670758701733767e-05
-2.8663069711943622e-05   3.378332756655137e-06   -1.0670758701733767e-05
-2.1422628783783446e-05   3.3672590794623074e-06   -2.2731516042351737e-05
-2.1422628783783446e-05   3.3672590794623074e-06   -2.2731516042351737e-05
-2.1422628783783446e-05   3.3672590794623074e-06   -2.2731516042351737e-05
-2.1422628783783446e-05   3.3672590794623074e-06   -2.2731516042351737e-05
-2.866306971194365e-05   4.075257231408704e-06   -3.392890985297252e-05
-2.866306971194365e-05   4.075257231408704e-06   -3.392890985297252e-05
-2.866306971194365e-05   4.075257231408704e-06   -3.392890985297252e-05
-2.866306971194365e-05   4.075257231408704e-06   -3.392890985297252e-05
-1.4708179021200366e-05   3.378332756655191e-06   -1.108891338658582e-05
-1.4708179021200366e-05   3.378332756655191e-06   -1.108891338658582e-05
-1.4708179021200366e-05   3.378332756655191e-06   -1.108891338658582e-05
-1.4708179021200366e-05   3.378332756655191e-06   -1.108891338658582e-05
-1.482116261815205e-05   5.033888335377227e-06   -3.3438581446026744e-05
-1.482116261815205e-05   5.033888335377227e-06   -3.3438581446026744e-05
-1.482116261815205e-05   5.033888335377227e-06   -3.3438581446026744e-05
-1.482116261815205e-05   5.033888335377227e-06   -3.3438581446026744e-05
-2.8632060759795815e-05   4.258424934874762e-06   -9.955139836319196e-06
-2.8632060759795815e-05   4.258424934874762e-06   -9.955139836319196e-06
-2.8632060759795815e-05   4.258424934874762e-06   -9.955139836319196e-06
-2.8632060759795815e-05   4.258424934874762e-06   -9.955139836319196e-06
-2.14609311098114e-05   4.182110191302299e-06   -2.1861233740149306e-05
-2.14609311098114e-05   4.182110191302299e-06   -2.1861233740149306e-05
-2.14609311098114e-05   4.182110191302299e-06   -2.1861233740149306e-05
-2.14609311098114e-05   4.182110191302299e-06   -2.1861233740149306e-05
-2.8632060759795815e-05   5.033888335377227e-06   -3.2973303405725346e-05
-2.8632060759795815e-05   5.033888335377227e-06   -3.2973303405725346e-05
-2.8632060759795815e-05   5.033888335377227e-06   -3.2973303405725346e-05
-2.8632060759795815e-05   5.033888335377227e-06   -3.2973303405725346e-05
-1.4821162618152098e-05   4.258424934874762e-06   -1.0420417876620526e-05
-1.4821162618152098e-05   4.258424934874762e-06   -1.0420417876620526e-05
-1.4821162618152098e-05   4.258424934874762e-06   -1.0420417876620526e-05
-1.4821162618152098e-05   4.258424934874762e-06   -1.0420417876620526e-05
-1.4967916121518484e-05   6.065697579300941e-06   -3.3358283836142945e-05
-1.4967916121518484e-05   6.065697579300941e-06   -3.3358283836142945e-05
-1.4967916121518484e-05   6.065697579300941e-06   -3.3358283836142945e-05
-1.4967916121518484e-05   6.065697579300941e-06   -3.3358283836142945e-05
-2.8659786596566106e-05   5.195211988319416e-06   -1.0016208356474605e-05
-2.8659786596566106e-05   5.195211988319416e-06   -1.0016208356474605e-05
-2.8659786596566106e-05   5.195211988319416e-06   -1.0016208356474605e-05
-2.8659786596566106e-05   5.195211988319416e-06   -1.0016208356474605e-05
-2.1713852889991562e-05   4.989710513475802e-06   -2.146946364919245e-05
-2.1713852889991562e-05   4.989710513475802e-06   -2.146946364919245e-05
-2.1713852889991562e-05   4.989710513475802e-06   -2.146946364919245e-05
-2.1713852889991562e-05   4.989710513475802e-06   -2.146946364919245e-05
-1.4533156459639045e-05   -8.793277527757823e-08   -3.7566210545450445e-05
-1.4533156459639045e-05   -8.793277527757823e-08   -3.7566210545450445e-05
-1.4533156459639045e-05   -8.793277527757823e-08   -3.7566210545450445e-05
-1.4533156459639045e-05   -8.793277527757823e-08   -3.7566210545450445e-05
-6.942459957866291e-07   1.2749709454016635e-07   -1.4372101850472396e-05
-6.942459957866291e-07   1.2749709454016635e-07   -1.4372101850472396e-05
-6.942459957866291e-07   1.2749709454016635e-07   -1.4372101850472396e-05
-6.942459957866291e-07   1.2749709454016635e-07   -1.4372101850472396e-05
-8.344895708001466e-07   9.788476012687975e-07   -3.721351994933028e-05
-8.344895708001466e-07   9.788476012687975e-07   -3.721351994933028e-05
-8.344895708001466e-07   9.788476012687975e-07   -3.721351994933028e-05
-8.344895708001466e-07   9.788476012687975e-07   -3.721351994933028e-05
-1.4708179021200345e-05   1.1025229122354888e-06   -1.4164909385243387e-05
-1.4708179021200345e-05   1.1025229122354888e-06   -1.4164909385243387e-05
-1.4708179021200345e-05   1.1025229122354888e-06   -1.4164909385243387e-05
-1.4708179021200345e-05   1.1025229122354888e-06   -1.4164909385243387e-05
-7.649045181374857e-06   6.427611490824811e-07   -2.5654275393727403e-05
-7.649045181374857e-06   6.427611490824811e-07   -2.5654275393727403e-05
-7.649045181374857e-06   6.427611490824811e-07   -2.5654275393727403e-05
-7.649045181374857e-06   6.427611490824811e-07   -2.5654275393727403e-05
-1.4708179021200345e-05   9.788476012687975e-07   -3.7287725135910354e-05
-1.4708179021200345e-05   9.788476012687975e-07   -3.7287725135910354e-05
-1.4708179021200345e-05   9.788476012687975e-07   -3.7287725135910354e-05
-1.4708179021200345e-05   9.788476012687975e-07   -3.7287725135910354e-05
-8.344895708001483e-07   1.1025229122354888e-06   -1.4090704198663312e-05
-8.344895708001483e-07   1.1025229122354888e-06   -1.4090704198663312e-05
-8.344895708001483e-07   1.1025229122354888e-06   -1.4090704198663312e-05
-8.344895708001483e-07   1.1025229122354888e-06   -1.4090704198663312e-05
-9.353078385785892e-07   2.0212954046555708e-06   -3.7313638498405244e-05
-9.353078385785892e-07   2.0212954046555708e-06   -3.7313638498405244e-05
-9.353078385785892e-07   2.0212954046555708e-06   -3.7313638498405244e-05
-9.353078385785892e-07   2.0212954046555708e-06   -3.7313638498405244e-05
-1.482116261815207e-05   2.0746953264632034e-06   -1.4202587152200812e-05
-1.482116261815207e-05   2.0746953264632034e-06   -1.4202587152200812e-05
-1.482116261815207e-05   2.0746953264632034e-06   -1.4202587152200812e-05
-1.482116261815207e-05   2.0746953264632034e-06   -1.4202587152200812e-05
-7.830489296866244e-06   1.5027711091521309e-06   -2.5510554823956985e-05
-7.830489296866244e-06   1.5027711091521309e-06   -2.5510554823956985e-05
-7.830489296866244e-06   1.5027711091521309e-06   -2.5510554823956985e-05
-7.830489296866244e-06   1.5027711091521309e-06   -2.5510554823956985e-05
-1.482116261815207e-05   2.021295404655598e-06   -3.734567845148987e-05
-1.482116261815207e-05   2.021295404655598e-06   -3.734567845148987e-05
-1.482116261815207e-05   2.021295404655598e-06   -3.734567845148987e-05
-1.482116261815207e-05   2.021295404655598e-06   -3.734567845148987e-05
-9.353078385785913e-07   2.0746953264632034e-06   -1.4170547199116105e-05
-9.353078385785913e-07   2.0746953264632034e-06   -1.4170547199116105e-05
-9.353078385785913e-07   2.0746953264632034e-06   -1.4170547199116105e-05
-9.353078385785913e-07   2.0746953264632034e-06   -1.4170547199116105e-05
-1.0945647369835857e-06   3.107277686535193e-06   -3.77934341801439e-05
-1.0945647369835857e-06   3.107277686535193e-06   -3.77934341801439e-05
-1.0945647369835857e-06   3.107277686535193e-06   -3.77934341801439e-05
-1.0945647369835857e-06   3.107277686535193e-06   -3.77934341801439e-05
-1.496791612151847e-05   3.0694109728139065e-06   -1.4648461844353152e-05
-1.496791612151847e-05   3.0694109728139065e-06   -1.4648461844353152e-05
-1.496791612151847e-05   3.0694109728139065e-06   -1.4648461844353152e-05
-1.496791612151847e-05   3.0694109728139065e-06   -1.4648461844353152e-05
-8.023328119993833e-06   2.3730024451227845e-06   -2.5804930063612584e-05
-8.023328119993833e-06   2.3730024451227845e-06   -2.5804930063612584e-05
-8.023328119993833e-06   2.3730024451227845e-06   -2.5804930063612584e-05
-8.023328119993833e-06   2.3730024451227845e-06   -2.5804930063612584e-05
-6.942459957866303e-07   -2.985357345068032e-06   -3.356337389047884e-05
-6.942459957866303e-07   -2.985357345068032e-06   -3.356337389047884e-05
-6.942459957866303e-07   -2.985357345068032e-06   -3.356337389047884e-05
-6.942459957866303e-07   -2.985357345068032e-06   -3.356337389047884e-05
1.3071624864781978e-05   -1.9987512051598344e-06   -1.0028292105586335e-05
1.3071624864781978e-05   -1.9987512051598344e-06   -1.0028292105586335e-05
1.3071624864781978e-05   -1.9987512051598344e-06   -1.0028292105586335e-05
1.3071624864781978e-05   -1.9987512051598344e-06   -1.0028292105586335e-05
1.3063080063023099e-05   -2.01534965671069e-06   -3.3174648298985666e-05
1.3063080063023099e-05   -2.01534965671069e-06   -3.3174648298985666e-05
1.3063080063023099e-05   -2.01534965671069e-06   -3.3174648298985666e-05
1.3063080063023099e-05   -2.01534965671069e-06   -3.3174648298985666e-05
-8.344895708001483e-07   -1.1042842747334544e-06   -1.0558671471799911e-05
-8.344895708001483e-07   -1.1042842747334544e-06   -1.0558671471799911e-05
-8.344895708001483e-07   -1.1042842747334544e-06   -1.0558671471799911e-05
-8.344895708001483e-07   -1.1042842747334544e-06   -1.0558671471799911e-05
6.104790973886218e-06   -1.955232008722771e-06   -2.1613570405883596e-05
6.104790973886218e-06   -1.955232008722771e-06   -2.1613570405883596e-05
6.104790973886218e-06   -1.955232008722771e-06   -2.1613570405883596e-05
6.104790973886218e-06   -1.955232008722771e-06   -2.1613570405883596e-05
-8.344895708001483e-07   -2.015349656710663e-06   -3.372128752817191e-05
-8.344895708001483e-07   -2.015349656710663e-06   -3.372128752817191e-05
-8.344895708001483e-07   -2.015349656710663e-06   -3.372128752817191e-05
-8.344895708001483e-07   -2.015349656710663e-06   -3.372128752817191e-05
1.3063080063023099e-05   -1.1042842747335086e-06   -1.0012032242613525e-05
1.3063080063023099e-05   -1.1042842747335086e-06   -1.0012032242613525e-05
1.3063080063023099e-05   -1.1042842747335086e-06   -1.0012032242613525e-05
1.3063080063023099e-05   -1.1042842747335086e-06   -1.0012032242613525e-05
1.3127102020747886e-05   -1.0656369898075983e-06   -3.4049871869805545e-05
1.3127102020747886e-05   -1.0656369898075983e-06   -3.4049871869805545e-05
1.3127102020747886e-05   -1.0656369898075983e-06   -3.4049871869805545e-05
1.3127102020747886e-05   -1.0656369898075983e-06   -3.4049871869805545e-05
-9.353078385785926e-07   -2.259828082310845e-07   -1.1116314613207419e-05
-9.353078385785926e-07   -2.259828082310845e-07   -1.1116314613207419e-05
-9.353078385785926e-07   -2.259828082310845e-07   -1.1116314613207419e-05
-9.353078385785926e-07   -2.259828082310845e-07   -1.1116314613207419e-05
5.917882867545708e-06   -1.1798042817643133e-06   -2.1966006239294474e-05
5.917882867545708e-06   -1.1798042817643133e-06   -2.1966006239294474e-05
5.917882867545708e-06   -1.1798042817643133e-06   -2.1966006239294474e-05
5.917882867545708e-06   -1.1798042817643133e-06   -2.1966006239294474e-05
-9.353078385785904e-07   -1.0656369898076254e-06   -3.455366437875132e-05
-9.353078385785904e-07   -1.0656369898076254e-06   -3.455366437875132e-05
-9.353078385785904e-07   -1.0656369898076254e-06   -3.455366437875132e-05
-9.353078385785904e-07   -1.0656369898076254e-06   -3.455366437875132e-05
1.3127102020747886e-05   -2.259828082310845e-07   -1.0612522104261367e-05
1.3127102020747886e-05   -2.259828082310845e-07   -1.0612522104261367e-05
1.3127102020747886e-05   -2.259828082310845e-07   -1.0612522104261367e-05
1.3127102020747886e-05   -2.259828082310845e-07   -1.0612522104261367e-05
1.3028021600459022e-05   1.0846903008687042e-07   -3.504417340506316e-05
1.3028021600459022e-05   1.0846903008687042e-07   -3.504417340506316e-05
1.3028021600459022e-05   1.0846903008687042e-07   -3.504417340506316e-05
1.3028021600459022e-05   1.0846903008687042e-07   -3.504417340506316e-05
-1.0945647369835874e-06   8.00293849613986e-07   -1.1921624401041786e-05
-1.0945647369835874e-06   8.00293849613986e-07   -1.1921624401041786e-05
-1.0945647369835874e-06   8.00293849613986e-07   -1.1921624401041786e-05
-1.0945647369835874e-06   8.00293849613986e-07   -1.1921624401041786e-05
5.853149967627395e-06   -3.5065563147330123e-07   -2.281057922007424e-05
5.853149967627395e-06   -3.5065563147330123e-07   -2.281057922007424e-05
5.853149967627395e-06   -3.5065563147330123e-07   -2.281057922007424e-05
5.853149967627395e-06   -3.5065563147330123e-07   -2.281057922007424e-05
1.3071624864781951e-05   -5.545402664324493e-06   -1.8770124373536506e-05
1.3071624864781951e-05   -5.545402664324493e-06   -1.8770124373536506e-05
1.3071624864781951e-05   -5.545402664324493e-06   -1.8770124373536506e-05
1.3071624864781951e-05   -5.545402664324493e-06   -1.8770124373536506e-05
2.5948474883397365e-05   -3.620376705538151e-06   3.846307899427637e-06
2.5948474883397365e-05   -3.620376705538151e-06   3.846307899427637e-06
2.5948474883397365e-05   -3.620376705538151e-06   3.846307899427637e-06
2.5948474883397365e-05   -3.620376705538151e-06   3.846307899427637e-06
2.6829657824591887e-05   -5.027441380054743e-06   -2.1105317286614444e-05
2.6829657824591887e-05   -5.027441380054743e-06   -2.1105317286614444e-05
2.6829657824591887e-05   -5.027441380054743e-06   -2.1105317286614444e-05
2.6829657824591887e-05   -5.027441380054743e-06   -2.1105317286614444e-05
1.3063080063023072e-05   -3.103772213670355e-06   6.847774828363536e-07
1.3063080063023072e-05   -3.103772213670355e-06   6.847774828363536e-07
1.3063080063023072e-05   -3.103772213670355e-06   6.847774828363536e-07
1.3063080063023072e-05   -3.103772213670355e-06   6.847774828363536e-07
1.8885168388817853e-05   -4.272769016784865e-06   -8.317304978286232e-06
1.8885168388817853e-05   -4.272769016784865e-06   -8.317304978286232e-06
1.8885168388817853e-05   -4.272769016784865e-06   -8.317304978286232e-06
1.8885168388817853e-05   -4.272769016784865e-06   -8.317304978286232e-06
1.3063080063023058e-05   -5.027441380054743e-06   -2.2259518786444974e-05
1.3063080063023058e-05   -5.027441380054743e-06   -2.2259518786444974e-05
1.3063080063023058e-05   -5.027441380054743e-06   -2.2259518786444974e-05
1.3063080063023058e-05   -5.027441380054743e-06   -2.2259518786444974e-05
2.6829657824591887e-05   -3.103772213670355e-06   1.8389789826670053e-06
2.6829657824591887e-05   -3.103772213670355e-06   1.8389789826670053e-06
2.6829657824591887e-05   -3.103772213670355e-06   1.8389789826670053e-06
2.6829657824591887e-05   -3.103772213670355e-06   1.8389789826670053e-06
2.750818875453412e-05   -4.480997605236928e-06   -2.379968434630168e-05
2.750818875453412e-05   -4.480997605236928e-06   -2.379968434630168e-05
2.750818875453412e-05   -4.480997605236928e-06   -2.379968434630168e-05
2.750818875453412e-05   -4.480997605236928e-06   -2.379968434630168e-05
1.3127102020747839e-05   -2.6620503492319546e-06   -9.225748102610371e-07
1.3127102020747839e-05   -2.6620503492319546e-06   -9.225748102610371e-07
1.3127102020747839e-05   -2.6620503492319546e-06   -9.225748102610371e-07
1.3127102020747839e-05   -2.6620503492319546e-06   -9.225748102610371e-07
1.9530317948558487e-05   -3.939589514137109e-06   -1.0828077857668851e-05
1.9530317948558487e-05   -3.939589514137109e-06   -1.0828077857668851e-05
1.9530317948558487e-05   -3.939589514137109e-06   -1.0828077857668851e-05
1.9530317948558487e-05   -3.939589514137109e-06   -1.0828077857668851e-05
1.3127102020747859e-05   -4.480997605236928e-06   -2.489105269990465e-05
1.3127102020747859e-05   -4.480997605236928e-06   -2.489105269990465e-05
1.3127102020747859e-05   -4.480997605236928e-06   -2.489105269990465e-05
1.3127102020747859e-05   -4.480997605236928e-06   -2.489105269990465e-05
2.750818875453408e-05   -2.6620503492319546e-06   1.687935433421911e-07
2.750818875453408e-05   -2.6620503492319546e-06   1.687935433421911e-07
2.750818875453408e-05   -2.6620503492319546e-06   1.687935433421911e-07
2.750818875453408e-05   -2.6620503492319546e-06   1.687935433421911e-07
2.823231447863577e-05   -3.3053755222688488e-06   -2.8386848577395264e-05
2.823231447863577e-05   -3.3053755222688488e-06   -2.8386848577395264e-05
2.823231447863577e-05   -3.3053755222688488e-06   -2.8386848577395264e-05
2.823231447863577e-05   -3.3053755222688488e-06   -2.8386848577395264e-05
1.3028021600458982e-05   -1.7195502539159606e-06   -3.99785560811254e-06
1.3028021600458982e-05   -1.7195502539159606e-06   -3.99785560811254e-06
1.3028021600458982e-05   -1.7195502539159606e-06   -3.99785560811254e-06
1.3028021600458982e-05   -1.7195502539159606e-06   -3.99785560811254e-06
1.94506044854056e-05   -3.3921726719776386e-06   -1.3698586965519758e-05
1.94506044854056e-05   -3.3921726719776386e-06   -1.3698586965519758e-05
1.94506044854056e-05   -3.3921726719776386e-06   -1.3698586965519758e-05
1.94506044854056e-05   -3.3921726719776386e-06   -1.3698586965519758e-05
-3.1209206900080516e-05   4.78627508832761e-06   -2.3773795216313687e-05
-3.1209206900080516e-05   4.78627508832761e-06   -2.3773795216313687e-05
-3.1209206900080516e-05   4.78627508832761e-06   -2.3773795216313687e-05
-3.1209206900080516e-05   4.78627508832761e-06   -2.3773795216313687e-05
-2.12683705536388e-05   3.040310235806823e-06   -8.253313550423287e-06
-2.12683705536388e-05   3.040310235806823e-06   -8.253313550423287e-06
-2.12683705536388e-05   3.040310235806823e-06   -8.253313550423287e-06
-2.12683705536388e-05   3.040310235806823e-06   -8.253313550423287e-06
-2.1190595954624725e-05   5.792518312687056e-06   -2.0197691674136813e-05
-2.1190595954624725e-05   5.792518312687056e-06   -2.0197691674136813e-05
-2.1190595954624725e-05   5.792518312687056e-06   -2.0197691674136813e-05
-2.1190595954624725e-05   5.792518312687056e-06   -2.0197691674136813e-05
-3.027142150586348e-05   3.872210534106241e-06   -3.910797754923788e-06
-3.027142150586348e-05   3.872210534106241e-06   -3.910797754923788e-06
-3.027142150586348e-05   3.872210534106241e-06   -3.910797754923788e-06
-3.027142150586348e-05   3.872210534106241e-06   -3.910797754923788e-06
-2.488238473294122e-05   4.60971439006743e-06   -1.3335028023370957e-05
-2.488238473294122e-05   4.60971439006743e-06   -1.3335028023370957e-05
-2.488238473294122e-05   4.60971439006743e-06   -1.3335028023370957e-05
-2.488238473294122e-05   4.60971439006743e-06   -1.3335028023370957e-05
-3.027142150586348e-05   5.792518312687056e-06   -1.9045507006988427e-05
-3.027142150586348e-05   5.792518312687056e-06   -1.9045507006988427e-05
-3.027142150586348e-05   5.792518312687056e-06   -1.9045507006988427e-05
-3.027142150586348e-05   5.792518312687056e-06   -1.9045507006988427e-05
-2.1190595954624752e-05   3.8722105341063495e-06   -5.062982422072336e-06
-2.1190595954624752e-05   3.8722105341063495e-06   -5.062982422072336e-06
-2.1190595954624752e-05   3.8722105341063495e-06   -5.062982422072336e-06
-2.1190595954624752e-05   3.8722105341063495e-06   -5.062982422072336e-06
-2.1029650511761392e-05   6.235056937897157e-06   -1.7612631539587736e-05
-2.1029650511761392e-05   6.235056937897157e-06   -1.7612631539587736e-05
-2.1029650511761392e-05   6.235056937897157e-06   -1.7612631539587736e-05
-2.1029650511761392e-05   6.235056937897157e-06   -1.7612631539587736e-05
-2.9571168782832998e-05   4.2604549617105206e-06   -2.1920065687563712e-06
-2.9571168782832998e-05   4.2604549617105206e-06   -2.1920065687563712e-06
-2.9571168782832998e-05   4.2604549617105206e-06   -2.1920065687563712e-06
-2.9571168782832998e-05   4.2604549617105206e-06   -2.1920065687563712e-06
-2.4882365736382277e-05   5.074044202486546e-06   -1.0494831857306696e-05
-2.4882365736382277e-05   5.074044202486546e-06   -1.0494831857306696e-05
-2.4882365736382277e-05   5.074044202486546e-06   -1.0494831857306696e-05
-2.4882365736382277e-05   5.074044202486546e-06   -1.0494831857306696e-05
-2.9571168782832998e-05   6.235056937897157e-06   -1.6427870353875732e-05
-2.9571168782832998e-05   6.235056937897157e-06   -1.6427870353875732e-05
-2.9571168782832998e-05   6.235056937897157e-06   -1.6427870353875732e-05
-2.9571168782832998e-05   6.235056937897157e-06   -1.6427870353875732e-05
-2.1029650511761433e-05   4.2604549617105206e-06   -3.3767677544683746e-06
-2.1029650511761433e-05   4.2604549617105206e-06   -3.3767677544683746e-06
-2.1029650511761433e-05   4.2604549617105206e-06   -3.3767677544683746e-06
-2.1029650511761433e-05   4.2604549617105206e-06   -3.3767677544683746e-06
-2.0965724475610173e-05   6.672088329737289e-06   -1.4036627265557136e-05
-2.0965724475610173e-05   6.672088329737289e-06   -1.4036627265557136e-05
-2.0965724475610173e-05   6.672088329737289e-06   -1.4036627265557136e-05
-2.0965724475610173e-05   6.672088329737289e-06   -1.4036627265557136e-05
-2.8655837859209248e-05   4.749650152356829e-06   -6.630871979702293e-08
-2.8655837859209248e-05   4.749650152356829e-06   -6.630871979702293e-08
-2.8655837859209248e-05   4.749650152356829e-06   -6.630871979702293e-08
-2.8655837859209248e-05   4.749650152356829e-06   -6.630871979702293e-08
-2.414545885531928e-05   5.326864724354129e-06   -7.92993580281203e-06
-2.414545885531928e-05   5.326864724354129e-06   -7.92993580281203e-06
-2.414545885531928e-05   5.326864724354129e-06   -7.92993580281203e-06
-2.414545885531928e-05   5.326864724354129e-06   -7.92993580281203e-06
-2.1268370553638758e-05   2.3883287663088596e-06   -3.033397864867201e-05
-2.1268370553638758e-05   2.3883287663088596e-06   -3.033397864867201e-05
-2.1268370553638758e-05   2.3883287663088596e-06   -3.033397864867201e-05
-2.1268370553638758e-05   2.3883287663088596e-06   -3.033397864867201e-05
-1.2252283170807234e-05   1.5748375044728454e-06   -1.57952611010544e-05
-1.2252283170807234e-05   1.5748375044728454e-06   -1.57952611010544e-05
-1.2252283170807234e-05   1.5748375044728454e-06   -1.57952611010544e-05
-1.2252283170807234e-05   1.5748375044728454e-06   -1.57952611010544e-05
-1.2258409788808508e-05   3.378332756655137e-06   -3.007194757466441e-05
-1.2258409788808508e-05   3.378332756655137e-06   -3.007194757466441e-05
-1.2258409788808508e-05   3.378332756655137e-06   -3.007194757466441e-05
-1.2258409788808508e-05   3.378332756655137e-06   -3.007194757466441e-05
-2.1190595954624725e-05   2.4535381927606736e-06   -1.4630093893300646e-05
-2.1190595954624725e-05   2.4535381927606736e-06   -1.4630093893300646e-05
-2.1190595954624725e-05   2.4535381927606736e-06   -1.4630093893300646e-05
-2.1190595954624725e-05   2.4535381927606736e-06   -1.4630093893300646e-05
-1.658790586921574e-05   2.614233595355311e-06   -2.2397661277205773e-05
-1.658790586921574e-05   2.614233595355311e-06   -2.2397661277205773e-05
-1.658790586921574e-05   2.614233595355311e-06   -2.2397661277205773e-05
-1.658790586921574e-05   2.614233595355311e-06   -2.2397661277205773e-05
-2.1190595954624698e-05   3.378332756655137e-06   -2.9517070836327617e-05
-2.1190595954624698e-05   3.378332756655137e-06   -2.9517070836327617e-05
-2.1190595954624698e-05   3.378332756655137e-06   -2.9517070836327617e-05
-2.1190595954624698e-05   3.378332756655137e-06   -2.9517070836327617e-05
-1.2258409788808508e-05   2.4535381927606736e-06   -1.5184970631637357e-05
-1.2258409788808508e-05   2.4535381927606736e-06   -1.5184970631637357e-05
-1.2258409788808508e-05   2.4535381927606736e-06   -1.5184970631637357e-05
-1.2258409788808508e-05   2.4535381927606736e-06   -1.5184970631637357e-05
-1.224959344122226e-05   4.258424934874762e-06   -2.939809507092236e-05
-1.224959344122226e-05   4.258424934874762e-06   -2.939809507092236e-05
-1.224959344122226e-05   4.258424934874762e-06   -2.939809507092236e-05
-1.224959344122226e-05   4.258424934874762e-06   -2.939809507092236e-05
-2.1029650511761392e-05   3.253737051543649e-06   -1.4161853890025177e-05
-2.1029650511761392e-05   3.253737051543649e-06   -1.4161853890025177e-05
-2.1029650511761392e-05   3.253737051543649e-06   -1.4161853890025177e-05
-2.1029650511761392e-05   3.253737051543649e-06   -1.4161853890025177e-05
-1.6510905917236805e-05   3.3364453705842672e-06   -2.1742719872323613e-05
-1.6510905917236805e-05   3.3364453705842672e-06   -2.1742719872323613e-05
-1.6510905917236805e-05   3.3364453705842672e-06   -2.1742719872323613e-05
-1.6510905917236805e-05   3.3364453705842672e-06   -2.1742719872323613e-05
-2.1029650511761392e-05   4.258424934874762e-06   -2.8795282340923696e-05
-2.1029650511761392e-05   4.258424934874762e-06   -2.8795282340923696e-05
-2.1029650511761392e-05   4.258424934874762e-06   -2.8795282340923696e-05
-2.1029650511761392e-05   4.258424934874762e-06   -2.8795282340923696e-05
-1.224959344122228e-05   3.253737051543649e-06   -1.4764666620023772e-05
-1.224959344122228e-05   3.253737051543649e-06   -1.4764666620023772e-05
-1.224959344122228e-05   3.253737051543649e-06   -1.4764666620023772e-05
-1.224959344122228e-05   3.253737051543649e-06   -1.4764666620023772e-05
-1.2259759146514882e-05   5.195211988319416e-06   -2.951681198480339e-05
-1.2259759146514882e-05   5.195211988319416e-06   -2.951681198480339e-05
-1.2259759146514882e-05   5.195211988319416e-06   -2.951681198480339e-05
-1.2259759146514882e-05   5.195211988319416e-06   -2.951681198480339e-05
-2.09657244756102e-05   4.123577994773219e-06   -1.4363889373516738e-05
-2.09657244756102e-05   4.123577994773219e-06   -1.4363889373516738e-05
-2.09657244756102e-05   4.123577994773219e-06   -1.4363889373516738e-05
-2.09657244756102e-05   4.123577994773219e-06   -1.4363889373516738e-05
-1.661808311177059e-05   4.051594543454215e-06   -2.156676824245803e-05
-1.661808311177059e-05   4.051594543454215e-06   -2.156676824245803e-05
-1.661808311177059e-05   4.051594543454215e-06   -2.156676824245803e-05
-1.661808311177059e-05   4.051594543454215e-06   -2.156676824245803e-05
-1.2252283170807207e-05   1.2749709454016635e-07   -3.348701282146688e-05
-1.2252283170807207e-05   1.2749709454016635e-07   -3.348701282146688e-05
-1.2252283170807207e-05   1.2749709454016635e-07   -3.348701282146688e-05
-1.2252283170807207e-05   1.2749709454016635e-07   -3.348701282146688e-05
-3.358726232642573e-06   2.7299363088476546e-07   -1.857712000271906e-05
-3.358726232642573e-06   2.7299363088476546e-07   -1.857712000271906e-05
-3.358726232642573e-06   2.7299363088476546e-07   -1.857712000271906e-05
-3.358726232642573e-06   2.7299363088476546e-07   -1.857712000271906e-05
-3.365398231081067e-06   1.1025229122354888e-06   -3.311517840986231e-05
-3.365398231081067e-06   1.1025229122354888e-06   -3.311517840986231e-05
-3.365398231081067e-06   1.1025229122354888e-06   -3.311517840986231e-05
-3.365398231081067e-06   1.1025229122354888e-06   -3.311517840986231e-05
-1.225840978880848e-05   1.1571315180014616e-06   -1.8326257643776187e-05
-1.225840978880848e-05   1.1571315180014616e-06   -1.8326257643776187e-05
-1.225840978880848e-05   1.1571315180014616e-06   -1.8326257643776187e-05
-1.225840978880848e-05   1.1571315180014616e-06   -1.8326257643776187e-05
-7.756673373825507e-06   7.799627710621069e-07   -2.560285042058421e-05
-7.756673373825507e-06   7.799627710621069e-07   -2.560285042058421e-05
-7.756673373825507e-06   7.799627710621069e-07   -2.560285042058421e-05
-7.756673373825507e-06   7.799627710621069e-07   -2.560285042058421e-05
-1.225840978880848e-05   1.1025229122354888e-06   -3.314794357332185e-05
-1.225840978880848e-05   1.1025229122354888e-06   -3.314794357332185e-05
-1.225840978880848e-05   1.1025229122354888e-06   -3.314794357332185e-05
-1.225840978880848e-05   1.1025229122354888e-06   -3.314794357332185e-05
-3.365398231081067e-06   1.1571315180014616e-06   -1.82934924803166e-05
-3.365398231081067e-06   1.1571315180014616e-06   -1.82934924803166e-05
-3.365398231081067e-06   1.1571315180014616e-06   -1.82934924803166e-05
-3.365398231081067e-06   1.1571315180014616e-06   -1.82934924803166e-05
-3.3538700979685513e-06   2.074695326463149e-06   -3.319861769669595e-05
-3.3538700979685513e-06   2.074695326463149e-06   -3.319861769669595e-05
-3.3538700979685513e-06   2.074695326463149e-06   -3.319861769669595e-05
-3.3538700979685513e-06   2.074695326463149e-06   -3.319861769669595e-05
-1.224959344122226e-05   2.0441064094740965e-06   -1.835405877441301e-05
-1.224959344122226e-05   2.0441064094740965e-06   -1.835405877441301e-05
-1.224959344122226e-05   2.0441064094740965e-06   -1.835405877441301e-05
-1.224959344122226e-05   2.0441064094740965e-06   -1.835405877441301e-05
-7.808803145778653e-06   1.5537784676212607e-06   -2.5461179168374018e-05
-7.808803145778653e-06   1.5537784676212607e-06   -2.5461179168374018e-05
-7.808803145778653e-06   1.5537784676212607e-06   -2.5461179168374018e-05
-7.808803145778653e-06   1.5537784676212607e-06   -2.5461179168374018e-05
-1.224959344122226e-05   2.0746953264632034e-06   -3.318026434650251e-05
-1.224959344122226e-05   2.0746953264632034e-06   -3.318026434650251e-05
-1.224959344122226e-05   2.0746953264632034e-06   -3.318026434650251e-05
-1.224959344122226e-05   2.0746953264632034e-06   -3.318026434650251e-05
-3.353870097968557e-06   2.0441064094740965e-06   -1.8372412124606393e-05
-3.353870097968557e-06   2.0441064094740965e-06   -1.8372412124606393e-05
-3.353870097968557e-06   2.0441064094740965e-06   -1.8372412124606393e-05
-3.353870097968557e-06   2.0441064094740965e-06   -1.8372412124606393e-05
-3.3592329064675797e-06   3.0694109728139607e-06   -3.370046742522787e-05
-3.3592329064675797e-06   3.0694109728139607e-06   -3.370046742522787e-05
-3.3592329064675797e-06   3.0694109728139607e-06   -3.370046742522787e-05
-3.3592329064675797e-06   3.0694109728139607e-06   -3.370046742522787e-05
-1.2259759146514869e-05   2.946588794255846e-06   -1.879256371801406e-05
-1.2259759146514869e-05   2.946588794255846e-06   -1.879256371801406e-05
-1.2259759146514869e-05   2.946588794255846e-06   -1.879256371801406e-05
-1.2259759146514869e-05   2.946588794255846e-06   -1.879256371801406e-05
-7.87612931379022e-06   2.3377620838822616e-06   -2.573331741299766e-05
-7.87612931379022e-06   2.3377620838822616e-06   -2.573331741299766e-05
-7.87612931379022e-06   2.3377620838822616e-06   -2.573331741299766e-05
-7.87612931379022e-06   2.3377620838822616e-06   -2.573331741299766e-05
-3.3587262326425672e-06   -1.9987512051598344e-06   -2.9647868838718902e-05
-3.3587262326425672e-06   -1.9987512051598344e-06   -2.9647868838718902e-05
-3.3587262326425672e-06   -1.9987512051598344e-06   -2.9647868838718902e-05
-3.3587262326425672e-06   -1.9987512051598344e-06   -2.9647868838718902e-05
5.4011185364005485e-06   -9.170787428280317e-07   -1.4399124079581308e-05
5.4011185364005485e-06   -9.170787428280317e-07   -1.4399124079581308e-05
5.4011185364005485e-06   -9.170787428280317e-07   -1.4399124079581308e-05
5.4011185364005485e-06   -9.170787428280317e-07   -1.4399124079581308e-05
5.472488414334412e-06   -1.1042842747334544e-06   -2.897075550942305e-05
5.472488414334412e-06   -1.1042842747334544e-06   -2.897075550942305e-05
5.472488414334412e-06   -1.1042842747334544e-06   -2.897075550942305e-05
5.472488414334412e-06   -1.1042842747334544e-06   -2.897075550942305e-05
-3.365398231081067e-06   -8.363398544054042e-08   -1.4853334607306318e-05
-3.365398231081067e-06   -8.363398544054042e-08   -1.4853334607306318e-05
-3.365398231081067e-06   -8.363398544054042e-08   -1.4853334607306318e-05
-3.365398231081067e-06   -8.363398544054042e-08   -1.4853334607306318e-05
1.0431044177412498e-06   -9.489880957982348e-07   -2.1681626555795593e-05
1.0431044177412498e-06   -9.489880957982348e-07   -2.1681626555795593e-05
1.0431044177412498e-06   -9.489880957982348e-07   -2.1681626555795593e-05
1.0431044177412498e-06   -9.489880957982348e-07   -2.1681626555795593e-05
-3.365398231081067e-06   -1.1042842747334544e-06   -2.958314568299886e-05
-3.365398231081067e-06   -1.1042842747334544e-06   -2.958314568299886e-05
-3.365398231081067e-06   -1.1042842747334544e-06   -2.958314568299886e-05
-3.365398231081067e-06   -1.1042842747334544e-06   -2.958314568299886e-05
5.472488414334439e-06   -8.363398544054042e-08   -1.4240944433730602e-05
5.472488414334439e-06   -8.363398544054042e-08   -1.4240944433730602e-05
5.472488414334439e-06   -8.363398544054042e-08   -1.4240944433730602e-05
5.472488414334439e-06   -8.363398544054042e-08   -1.4240944433730602e-05
5.64177757670218e-06   -2.259828082310845e-07   -2.9578268804803984e-05
5.64177757670218e-06   -2.259828082310845e-07   -2.9578268804803984e-05
5.64177757670218e-06   -2.259828082310845e-07   -2.9578268804803984e-05
5.64177757670218e-06   -2.259828082310845e-07   -2.9578268804803984e-05
-3.353870097968557e-06   7.175443684074613e-07   -1.5151638986335918e-05
-3.353870097968557e-06   7.175443684074613e-07   -1.5151638986335918e-05
-3.353870097968557e-06   7.175443684074613e-07   -1.5151638986335918e-05
-3.353870097968557e-06   7.175443684074613e-07   -1.5151638986335918e-05
9.921864281340276e-07   -2.555049077740141e-07   -2.181123696413132e-05
9.921864281340276e-07   -2.555049077740141e-07   -2.181123696413132e-05
9.921864281340276e-07   -2.555049077740141e-07   -2.181123696413132e-05
9.921864281340276e-07   -2.555049077740141e-07   -2.181123696413132e-05
-3.353870097968554e-06   -2.259828082310845e-07   -3.0144385110787052e-05
-3.353870097968554e-06   -2.259828082310845e-07   -3.0144385110787052e-05
-3.353870097968554e-06   -2.259828082310845e-07   -3.0144385110787052e-05
-3.353870097968554e-06   -2.259828082310845e-07   -3.0144385110787052e-05
5.641777576702194e-06   7.175443684074613e-07   -1.4585522680352731e-05
5.641777576702194e-06   7.175443684074613e-07   -1.4585522680352731e-05
5.641777576702194e-06   7.175443684074613e-07   -1.4585522680352731e-05
5.641777576702194e-06   7.175443684074613e-07   -1.4585522680352731e-05
5.724906013488369e-06   8.002938496139318e-07   -3.045002151067739e-05
5.724906013488369e-06   8.002938496139318e-07   -3.045002151067739e-05
5.724906013488369e-06   8.002938496139318e-07   -3.045002151067739e-05
5.724906013488369e-06   8.002938496139318e-07   -3.045002151067739e-05
-3.3592329064675737e-06   1.6351079212910923e-06   -1.5810678420423727e-05
-3.3592329064675737e-06   1.6351079212910923e-06   -1.5810678420423727e-05
-3.3592329064675737e-06   1.6351079212910923e-06   -1.5810678420423727e-05
-3.3592329064675737e-06   1.6351079212910923e-06   -1.5810678420423727e-05
1.0223992835051567e-06   4.855659492682368e-07   -2.2423673553831178e-05
1.0223992835051567e-06   4.855659492682368e-07   -2.2423673553831178e-05
1.0223992835051567e-06   4.855659492682368e-07   -2.2423673553831178e-05
1.0223992835051567e-06   4.855659492682368e-07   -2.2423673553831178e-05
5.401118536400542e-06   -3.620376705538097e-06   -1.627928093157768e-05
5.401118536400542e-06   -3.620376705538097e-06   -1.627928093157768e-05
5.401118536400542e-06   -3.620376705538097e-06   -1.627928093157768e-05
5.401118536400542e-06   -3.620376705538097e-06   -1.627928093157768e-05
1.3164961548123633e-05   -1.6813311532165153e-06   -2.176115247312779e-06
1.3164961548123633e-05   -1.6813311532165153e-06   -2.176115247312779e-06
1.3164961548123633e-05   -1.6813311532165153e-06   -2.176115247312779e-06
1.3164961548123633e-05   -1.6813311532165153e-06   -2.176115247312779e-06
1.409286892969526e-05   -3.103772213670355e-06   -1.7081251293118118e-05
1.409286892969526e-05   -3.103772213670355e-06   -1.7081251293118118e-05
1.409286892969526e-05   -3.103772213670355e-06   -1.7081251293118118e-05
1.409286892969526e-05   -3.103772213670355e-06   -1.7081251293118118e-05
5.4724884143344326e-06   -1.1159480622451295e-06   -3.906644925038544e-06
5.4724884143344326e-06   -1.1159480622451295e-06   -3.906644925038544e-06
5.4724884143344326e-06   -1.1159480622451295e-06   -3.906644925038544e-06
5.4724884143344326e-06   -1.1159480622451295e-06   -3.906644925038544e-06
9.126384648655521e-06   -2.306468970909078e-06   -9.282159437042016e-06
9.126384648655521e-06   -2.306468970909078e-06   -9.282159437042016e-06
9.126384648655521e-06   -2.306468970909078e-06   -9.282159437042016e-06
9.126384648655521e-06   -2.306468970909078e-06   -9.282159437042016e-06
5.472488414334419e-06   -3.103772213670355e-06   -1.8273945783973023e-05
5.472488414334419e-06   -3.103772213670355e-06   -1.8273945783973023e-05
5.472488414334419e-06   -3.103772213670355e-06   -1.8273945783973023e-05
5.472488414334419e-06   -3.103772213670355e-06   -1.8273945783973023e-05
1.4092868929695178e-05   -1.115948062245238e-06   -2.7139504341833947e-06
1.4092868929695178e-05   -1.115948062245238e-06   -2.7139504341833947e-06
1.4092868929695178e-05   -1.115948062245238e-06   -2.7139504341833947e-06
1.4092868929695178e-05   -1.115948062245238e-06   -2.7139504341833947e-06
1.4807807146152482e-05   -2.6620503492319003e-06   -1.872693343634391e-05
1.4807807146152482e-05   -2.6620503492319003e-06   -1.872693343634391e-05
1.4807807146152482e-05   -2.6620503492319003e-06   -1.872693343634391e-05
1.4807807146152482e-05   -2.6620503492319003e-06   -1.872693343634391e-05
5.641777576702194e-06   -7.264035584658799e-07   -4.611605561719774e-06
5.641777576702194e-06   -7.264035584658799e-07   -4.611605561719774e-06
5.641777576702194e-06   -7.264035584658799e-07   -4.611605561719774e-06
5.641777576702194e-06   -7.264035584658799e-07   -4.611605561719774e-06
9.69208580613203e-06   -2.015784397006292e-06   -1.0588490774311884e-05
9.69208580613203e-06   -2.015784397006292e-06   -1.0588490774311884e-05
9.69208580613203e-06   -2.015784397006292e-06   -1.0588490774311884e-05
9.69208580613203e-06   -2.015784397006292e-06   -1.0588490774311884e-05
5.641777576702187e-06   -2.6620503492319003e-06   -1.988832151080352e-05
5.641777576702187e-06   -2.6620503492319003e-06   -1.988832151080352e-05
5.641777576702187e-06   -2.6620503492319003e-06   -1.988832151080352e-05
5.641777576702187e-06   -2.6620503492319003e-06   -1.988832151080352e-05
1.4807807146152401e-05   -7.264035584659883e-07   -3.450217487260083e-06
1.4807807146152401e-05   -7.264035584659883e-07   -3.450217487260083e-06
1.4807807146152401e-05   -7.264035584659883e-07   -3.450217487260083e-06
1.4807807146152401e-05   -7.264035584659883e-07   -3.450217487260083e-06
1.5758932187856373e-05   -1.7195502539159606e-06   -2.188687225104697e-05
1.5758932187856373e-05   -1.7195502539159606e-06   -2.188687225104697e-05
1.5758932187856373e-05   -1.7195502539159606e-06   -2.188687225104697e-05
1.5758932187856373e-05   -1.7195502539159606e-06   -2.188687225104697e-05
5.724906013488396e-06   3.79086767798029e-08   -6.217970652184427e-06
5.724906013488396e-06   3.79086767798029e-08   -6.217970652184427e-06
5.724906013488396e-06   3.79086767798029e-08   -6.217970652184427e-06
5.724906013488396e-06   3.79086767798029e-08   -6.217970652184427e-06
9.882854190188317e-06   -1.5854239959685627e-06   -1.2173884676368654e-05
9.882854190188317e-06   -1.5854239959685627e-06   -1.2173884676368654e-05
9.882854190188317e-06   -1.5854239959685627e-06   -1.2173884676368654e-05
9.882854190188317e-06   -1.5854239959685627e-06   -1.2173884676368654e-05
-1.8850028718369856e-05   3.040310235806823e-06   -1.7693503327570752e-05
-1.8850028718369856e-05   3.040310235806823e-06   -1.7693503327570752e-05
-1.8850028718369856e-05   3.040310235806823e-06   -1.7693503327570752e-05
-1.8850028718369856e-05   3.040310235806823e-06   -1.7693503327570752e-05
-1.394382114881893e-05   1.2344863468287176e-06   -1.059998504503954e-05
-1.394382114881893e-05   1.2344863468287176e-06   -1.059998504503954e-05
-1.394382114881893e-05   1.2344863468287176e-06   -1.059998504503954e-05
-1.394382114881893e-05   1.2344863468287176e-06   -1.059998504503954e-05
-1.3740143210645993e-05   3.872210534106241e-06   -1.560903147783876e-05
-1.3740143210645993e-05   3.872210534106241e-06   -1.560903147783876e-05
-1.3740143210645993e-05   3.872210534106241e-06   -1.560903147783876e-05
-1.3740143210645993e-05   3.872210534106241e-06   -1.560903147783876e-05
-1.78226443285911e-05   1.925806377174946e-06   -7.63702045377128e-06
-1.78226443285911e-05   1.925806377174946e-06   -7.63702045377128e-06
-1.78226443285911e-05   1.925806377174946e-06   -7.63702045377128e-06
-1.78226443285911e-05   1.925806377174946e-06   -7.63702045377128e-06
-1.540757466769804e-05   2.7280111019273388e-06   -1.2143459390111992e-05
-1.540757466769804e-05   2.7280111019273388e-06   -1.2143459390111992e-05
-1.540757466769804e-05   2.7280111019273388e-06   -1.2143459390111992e-05
-1.540757466769804e-05   2.7280111019273388e-06   -1.2143459390111992e-05
-1.78226443285911e-05   3.872210534106241e-06   -1.4441188983679908e-05
-1.78226443285911e-05   3.872210534106241e-06   -1.4441188983679908e-05
-1.78226443285911e-05   3.872210534106241e-06   -1.4441188983679908e-05
-1.78226443285911e-05   3.872210534106241e-06   -1.4441188983679908e-05
-1.374014321064602e-05   1.925806377174946e-06   -8.804862947930188e-06
-1.374014321064602e-05   1.925806377174946e-06   -8.804862947930188e-06
-1.374014321064602e-05   1.925806377174946e-06   -8.804862947930188e-06
-1.374014321064602e-05   1.925806377174946e-06   -8.804862947930188e-06
-1.3449014601228768e-05   4.260454961710412e-06   -1.3937425226199086e-05
-1.3449014601228768e-05   4.260454961710412e-06   -1.3937425226199086e-05
-1.3449014601228768e-05   4.260454961710412e-06   -1.3937425226199086e-05
-1.3449014601228768e-05   4.260454961710412e-06   -1.3937425226199086e-05
-1.7004399644548264e-05   2.275894133954093e-06   -6.821046990679476e-06
-1.7004399644548264e-05   2.275894133954093e-06   -6.821046990679476e-06
-1.7004399644548264e-05   2.275894133954093e-06   -6.821046990679476e-06
-1.7004399644548264e-05   2.275894133954093e-06   -6.821046990679476e-06
-1.5137312832563335e-05   3.1013674559575172e-06   -1.0428142337189658e-05
-1.5137312832563335e-05   3.1013674559575172e-06   -1.0428142337189658e-05
-1.5137312832563335e-05   3.1013674559575172e-06   -1.0428142337189658e-05
-1.5137312832563335e-05   3.1013674559575172e-06   -1.0428142337189658e-05
-1.7004399644548237e-05   4.260454961710412e-06   -1.2746688729545295e-05
-1.7004399644548237e-05   4.260454961710412e-06   -1.2746688729545295e-05
-1.7004399644548237e-05   4.260454961710412e-06   -1.2746688729545295e-05
-1.7004399644548237e-05   4.260454961710412e-06   -1.2746688729545295e-05
-1.3449014601228795e-05   2.275894133954093e-06   -8.011783487333268e-06
-1.3449014601228795e-05   2.275894133954093e-06   -8.011783487333268e-06
-1.3449014601228795e-05   2.275894133954093e-06   -8.011783487333268e-06
-1.3449014601228795e-05   2.275894133954093e-06   -8.011783487333268e-06
-1.3251807472562514e-05   4.74965015235672e-06   -1.1794703135058725e-05
-1.3251807472562514e-05   4.74965015235672e-06   -1.1794703135058725e-05
-1.3251807472562514e-05   4.74965015235672e-06   -1.1794703135058725e-05
-1.3251807472562514e-05   4.74965015235672e-06   -1.1794703135058725e-05
-1.5962790692568095e-05   2.8308415972051184e-06   -6.125112635291556e-06
-1.5962790692568095e-05   2.8308415972051184e-06   -6.125112635291556e-06
-1.5962790692568095e-05   2.8308415972051184e-06   -6.125112635291556e-06
-1.5962790692568095e-05   2.8308415972051184e-06   -6.125112635291556e-06
-1.4430818228389363e-05   3.3614701908666125e-06   -8.99677723178679e-06
-1.4430818228389363e-05   3.3614701908666125e-06   -8.99677723178679e-06
-1.4430818228389363e-05   3.3614701908666125e-06   -8.99677723178679e-06
-1.4430818228389363e-05   3.3614701908666125e-06   -8.99677723178679e-06
-1.394382114881893e-05   1.5748375044728454e-06   -2.583085045448723e-05
-1.394382114881893e-05   1.5748375044728454e-06   -2.583085045448723e-05
-1.394382114881893e-05   1.5748375044728454e-06   -2.583085045448723e-05
-1.394382114881893e-05   1.5748375044728454e-06   -2.583085045448723e-05
-9.954338311754716e-06   7.130459468205176e-07   -1.96987873273049e-05
-9.954338311754716e-06   7.130459468205176e-07   -1.96987873273049e-05
-9.954338311754716e-06   7.130459468205176e-07   -1.96987873273049e-05
-9.954338311754716e-06   7.130459468205176e-07   -1.96987873273049e-05
-9.821949825441009e-06   2.4535381927605652e-06   -2.574455309575915e-05
-9.821949825441009e-06   2.4535381927605652e-06   -2.574455309575915e-05
-9.821949825441009e-06   2.4535381927605652e-06   -2.574455309575915e-05
-9.821949825441009e-06   2.4535381927605652e-06   -2.574455309575915e-05
-1.374014321064602e-05   1.5061879482740998e-06   -1.8645820640391953e-05
-1.374014321064602e-05   1.5061879482740998e-06   -1.8645820640391953e-05
-1.374014321064602e-05   1.5061879482740998e-06   -1.8645820640391953e-05
-1.374014321064602e-05   1.5061879482740998e-06   -1.8645820640391953e-05
-1.1749351793629728e-05   1.7151753878333863e-06   -2.2089198799155263e-05
-1.1749351793629728e-05   1.7151753878333863e-06   -2.2089198799155263e-05
-1.1749351793629728e-05   1.7151753878333863e-06   -2.2089198799155263e-05
-1.1749351793629728e-05   1.7151753878333863e-06   -2.2089198799155263e-05
-1.3740143210645966e-05   2.4535381927606736e-06   -2.5176142949067044e-05
-1.3740143210645966e-05   2.4535381927606736e-06   -2.5176142949067044e-05
-1.3740143210645966e-05   2.4535381927606736e-06   -2.5176142949067044e-05
-1.3740143210645966e-05   2.4535381927606736e-06   -2.5176142949067044e-05
-9.821949825441009e-06   1.5061879482740998e-06   -1.9214230787083952e-05
-9.821949825441009e-06   1.5061879482740998e-06   -1.9214230787083952e-05
-9.821949825441009e-06   1.5061879482740998e-06   -1.9214230787083952e-05
-9.821949825441009e-06   1.5061879482740998e-06   -1.9214230787083952e-05
-9.67560588536547e-06   3.253737051543649e-06   -2.5328140185036782e-05
-9.67560588536547e-06   3.253737051543649e-06   -2.5328140185036782e-05
-9.67560588536547e-06   3.253737051543649e-06   -2.5328140185036782e-05
-9.67560588536547e-06   3.253737051543649e-06   -2.5328140185036782e-05
-1.3449014601228822e-05   2.2443556794089813e-06   -1.8433496835316857e-05
-1.3449014601228822e-05   2.2443556794089813e-06   -1.8433496835316857e-05
-1.3449014601228822e-05   2.2443556794089813e-06   -1.8433496835316857e-05
-1.3449014601228822e-05   2.2443556794089813e-06   -1.8433496835316857e-05
-1.1574750314957607e-05   2.357183722599557e-06   -2.1624967471683016e-05
-1.1574750314957607e-05   2.357183722599557e-06   -2.1624967471683016e-05
-1.1574750314957607e-05   2.357183722599557e-06   -2.1624967471683016e-05
-1.1574750314957607e-05   2.357183722599557e-06   -2.1624967471683016e-05
-1.3449014601228768e-05   3.253737051543649e-06   -2.4722511361755862e-05
-1.3449014601228768e-05   3.253737051543649e-06   -2.4722511361755862e-05
-1.3449014601228768e-05   3.253737051543649e-06   -2.4722511361755862e-05
-1.3449014601228768e-05   3.253737051543649e-06   -2.4722511361755862e-05
-9.675605885365457e-06   2.2443556794089813e-06   -1.9039125658597695e-05
-9.675605885365457e-06   2.2443556794089813e-06   -1.9039125658597695e-05
-9.675605885365457e-06   2.2443556794089813e-06   -1.9039125658597695e-05
-9.675605885365457e-06   2.2443556794089813e-06   -1.9039125658597695e-05
-9.545838609302868e-06   4.123577994773219e-06   -2.557382189072614e-05
-9.545838609302868e-06   4.123577994773219e-06   -2.557382189072614e-05
-9.545838609302868e-06   4.123577994773219e-06   -2.557382189072614e-05
-9.545838609302868e-06   4.123577994773219e-06   -2.557382189072614e-05
-1.325180747256254e-05   3.065242980813108e-06   -1.8762206110250443e-05
-1.325180747256254e-05   3.065242980813108e-06   -1.8762206110250443e-05
-1.325180747256254e-05   3.065242980813108e-06   -1.8762206110250443e-05
-1.325180747256254e-05   3.065242980813108e-06   -1.8762206110250443e-05
-1.1507850758620192e-05   3.0081880638896386e-06   -2.1634567683333884e-05
-1.1507850758620192e-05   3.0081880638896386e-06   -2.1634567683333884e-05
-1.1507850758620192e-05   3.0081880638896386e-06   -2.1634567683333884e-05
-1.1507850758620192e-05   3.0081880638896386e-06   -2.1634567683333884e-05
-9.954338311754689e-06   2.7299363088476546e-07   -2.921708221255003e-05
-9.954338311754689e-06   2.7299363088476546e-07   -2.921708221255003e-05
-9.954338311754689e-06   2.7299363088476546e-07   -2.921708221255003e-05
-9.954338311754689e-06   2.7299363088476546e-07   -2.921708221255003e-05
-6.064117574880431e-06   4.115165713083728e-07   -2.2650267220172186e-05
-6.064117574880431e-06   4.115165713083728e-07   -2.2650267220172186e-05
-6.064117574880431e-06   4.115165713083728e-07   -2.2650267220172186e-05
-6.064117574880431e-06   4.115165713083728e-07   -2.2650267220172186e-05
-5.93532843909359e-06   1.1571315180014616e-06   -2.884805992781292e-05
-5.93532843909359e-06   1.1571315180014616e-06   -2.884805992781292e-05
-5.93532843909359e-06   1.1571315180014616e-06   -2.884805992781292e-05
-5.93532843909359e-06   1.1571315180014616e-06   -2.884805992781292e-05
-9.821949825441009e-06   1.2200984848099528e-06   -2.2408137797318687e-05
-9.821949825441009e-06   1.2200984848099528e-06   -2.2408137797318687e-05
-9.821949825441009e-06   1.2200984848099528e-06   -2.2408137797318687e-05
-9.821949825441009e-06   1.2200984848099528e-06   -2.2408137797318687e-05
-7.892938738524135e-06   8.784293758901498e-07   -2.5418154810162227e-05
-7.892938738524135e-06   8.784293758901498e-07   -2.5418154810162227e-05
-7.892938738524135e-06   8.784293758901498e-07   -2.5418154810162227e-05
-7.892938738524135e-06   8.784293758901498e-07   -2.5418154810162227e-05
-9.821949825440996e-06   1.1571315180014616e-06   -2.888584010789783e-05
-9.821949825440996e-06   1.1571315180014616e-06   -2.888584010789783e-05
-9.821949825440996e-06   1.1571315180014616e-06   -2.888584010789783e-05
-9.821949825440996e-06   1.1571315180014616e-06   -2.888584010789783e-05
-5.93532843909359e-06   1.2200984848099528e-06   -2.2370357617233804e-05
-5.93532843909359e-06   1.2200984848099528e-06   -2.2370357617233804e-05
-5.93532843909359e-06   1.2200984848099528e-06   -2.2370357617233804e-05
-5.93532843909359e-06   1.2200984848099528e-06   -2.2370357617233804e-05
-5.79000453004463e-06   2.044106409473988e-06   -2.892255847370285e-05
-5.79000453004463e-06   2.044106409473988e-06   -2.892255847370285e-05
-5.79000453004463e-06   2.044106409473988e-06   -2.892255847370285e-05
-5.79000453004463e-06   2.044106409473988e-06   -2.892255847370285e-05
-9.675605885365457e-06   2.0357295190124225e-06   -2.244153008055776e-05
-9.675605885365457e-06   2.0357295190124225e-06   -2.244153008055776e-05
-9.675605885365457e-06   2.0357295190124225e-06   -2.244153008055776e-05
-9.675605885365457e-06   2.0357295190124225e-06   -2.244153008055776e-05
-7.80728448736981e-06   1.5736517411974078e-06   -2.527815241052826e-05
-7.80728448736981e-06   1.5736517411974078e-06   -2.527815241052826e-05
-7.80728448736981e-06   1.5736517411974078e-06   -2.527815241052826e-05
-7.80728448736981e-06   1.5736517411974078e-06   -2.527815241052826e-05
-9.67560588536543e-06   2.0441064094740965e-06   -2.891753233942579e-05
-9.67560588536543e-06   2.0441064094740965e-06   -2.891753233942579e-05
-9.67560588536543e-06   2.0441064094740965e-06   -2.891753233942579e-05
-9.67560588536543e-06   2.0441064094740965e-06   -2.891753233942579e-05
-5.790004530044641e-06   2.0357295190124225e-06   -2.2446556214834792e-05
-5.790004530044641e-06   2.0357295190124225e-06   -2.2446556214834792e-05
-5.790004530044641e-06   2.0357295190124225e-06   -2.2446556214834792e-05
-5.790004530044641e-06   2.0357295190124225e-06   -2.2446556214834792e-05
-5.659565000892106e-06   2.946588794255846e-06   -2.9409243321103055e-05
-5.659565000892106e-06   2.946588794255846e-06   -2.9409243321103055e-05
-5.659565000892106e-06   2.946588794255846e-06   -2.9409243321103055e-05
-5.659565000892106e-06   2.946588794255846e-06   -2.9409243321103055e-05
-9.545838609302868e-06   2.863709657577253e-06   -2.2882393158411035e-05
-9.545838609302868e-06   2.863709657577253e-06   -2.2882393158411035e-05
-9.545838609302868e-06   2.863709657577253e-06   -2.2882393158411035e-05
-9.545838609302868e-06   2.863709657577253e-06   -2.2882393158411035e-05
-7.736900134677284e-06   2.278129260324213e-06   -2.5545942377768743e-05
-7.736900134677284e-06   2.278129260324213e-06   -2.5545942377768743e-05
-7.736900134677284e-06   2.278129260324213e-06   -2.5545942377768743e-05
-7.736900134677284e-06   2.278129260324213e-06   -2.5545942377768743e-05
-6.064117574880411e-06   -9.170787428280317e-07   -2.5604976002557183e-05
-6.064117574880411e-06   -9.170787428280317e-07   -2.5604976002557183e-05
-6.064117574880411e-06   -9.170787428280317e-07   -2.5604976002557183e-05
-6.064117574880411e-06   -9.170787428280317e-07   -2.5604976002557183e-05
-2.296575214921816e-06   1.8103900321746191e-07   -1.8666868088332257e-05
-2.296575214921816e-06   1.8103900321746191e-07   -1.8666868088332257e-05
-2.296575214921816e-06   1.8103900321746191e-07   -1.8666868088332257e-05
-2.296575214921816e-06   1.8103900321746191e-07   -1.8666868088332257e-05
-2.1031227221673113e-06   -8.363398544064884e-08   -2.4778803008790144e-05
-2.1031227221673113e-06   -8.363398544064884e-08   -2.4778803008790144e-05
-2.1031227221673113e-06   -8.363398544064884e-08   -2.4778803008790144e-05
-2.1031227221673113e-06   -8.363398544064884e-08   -2.4778803008790144e-05
-5.9353284390935794e-06   9.648644245800926e-07   -1.9020892526591856e-05
-5.9353284390935794e-06   9.648644245800926e-07   -1.9020892526591856e-05
-5.9353284390935794e-06   9.648644245800926e-07   -1.9020892526591856e-05
-5.9353284390935794e-06   9.648644245800926e-07   -1.9020892526591856e-05
-4.0583758834423535e-06   1.179981721113714e-07   -2.1641027034529764e-05
-4.0583758834423535e-06   1.179981721113714e-07   -2.1641027034529764e-05
-4.0583758834423535e-06   1.179981721113714e-07   -2.1641027034529764e-05
-4.0583758834423535e-06   1.179981721113714e-07   -2.1641027034529764e-05
-5.935328439093569e-06   -8.363398544054042e-08   -2.5407902054802513e-05
-5.935328439093569e-06   -8.363398544054042e-08   -2.5407902054802513e-05
-5.935328439093569e-06   -8.363398544054042e-08   -2.5407902054802513e-05
-5.935328439093569e-06   -8.363398544054042e-08   -2.5407902054802513e-05
-2.1031227221673113e-06   9.648644245800926e-07   -1.8391793480579616e-05
-2.1031227221673113e-06   9.648644245800926e-07   -1.8391793480579616e-05
-2.1031227221673113e-06   9.648644245800926e-07   -1.8391793480579616e-05
-2.1031227221673113e-06   9.648644245800926e-07   -1.8391793480579616e-05
-1.8142383160016102e-06   7.175443684074613e-07   -2.511055587324626e-05
-1.8142383160016102e-06   7.175443684074613e-07   -2.511055587324626e-05
-1.8142383160016102e-06   7.175443684074613e-07   -2.511055587324626e-05
-1.8142383160016102e-06   7.175443684074613e-07   -2.511055587324626e-05
-5.79000453004463e-06   1.7029268053840845e-06   -1.9075508312027123e-05
-5.79000453004463e-06   1.7029268053840845e-06   -1.9075508312027123e-05
-5.79000453004463e-06   1.7029268053840845e-06   -1.9075508312027123e-05
-5.79000453004463e-06   1.7029268053840845e-06   -1.9075508312027123e-05
-3.941906107596505e-06   7.511957040273179e-07   -2.158463368862666e-05
-3.941906107596505e-06   7.511957040273179e-07   -2.158463368862666e-05
-3.941906107596505e-06   7.511957040273179e-07   -2.158463368862666e-05
-3.941906107596505e-06   7.511957040273179e-07   -2.158463368862666e-05
-5.790004530044615e-06   7.175443684074613e-07   -2.5701785335432146e-05
-5.790004530044615e-06   7.175443684074613e-07   -2.5701785335432146e-05
-5.790004530044615e-06   7.175443684074613e-07   -2.5701785335432146e-05
-5.790004530044615e-06   7.175443684074613e-07   -2.5701785335432146e-05
-1.8142383160016102e-06   1.7029268053840845e-06   -1.8484278849841256e-05
-1.8142383160016102e-06   1.7029268053840845e-06   -1.8484278849841256e-05
-1.8142383160016102e-06   1.7029268053840845e-06   -1.8484278849841256e-05
-1.8142383160016102e-06   1.7029268053840845e-06   -1.8484278849841256e-05
-1.6128218848136355e-06   1.6351079212910923e-06   -2.5812681885176473e-05
-1.6128218848136355e-06   1.6351079212910923e-06   -2.5812681885176473e-05
-1.6128218848136355e-06   1.6351079212910923e-06   -2.5812681885176473e-05
-1.6128218848136355e-06   1.6351079212910923e-06   -2.5812681885176473e-05
-5.659565000892106e-06   2.536745973293151e-06   -1.9609092856246877e-05
-5.659565000892106e-06   2.536745973293151e-06   -1.9609092856246877e-05
-5.659565000892106e-06   2.536745973293151e-06   -1.9609092856246877e-05
-5.659565000892106e-06   2.536745973293151e-06   -1.9609092856246877e-05
-3.820286259041283e-06   1.4141152745402764e-06   -2.2000979006746554e-05
-3.820286259041283e-06   1.4141152745402764e-06   -2.2000979006746554e-05
-3.820286259041283e-06   1.4141152745402764e-06   -2.2000979006746554e-05
-3.820286259041283e-06   1.4141152745402764e-06   -2.2000979006746554e-05
-2.296575214921816e-06   -1.681331153216407e-06   -1.388652385405449e-05
-2.296575214921816e-06   -1.681331153216407e-06   -1.388652385405449e-05
-2.296575214921816e-06   -1.681331153216407e-06   -1.388652385405449e-05
-2.296575214921816e-06   -1.681331153216407e-06   -1.388652385405449e-05
4.68888839280277e-07   2.567857008149753e-07   -8.114546984632105e-06
4.68888839280277e-07   2.567857008149753e-07   -8.114546984632105e-06
4.68888839280277e-07   2.567857008149753e-07   -8.114546984632105e-06
4.68888839280277e-07   2.567857008149753e-07   -8.114546984632105e-06
1.5004253093726092e-06   -1.1159480622451295e-06   -1.3248713202660957e-05
1.5004253093726092e-06   -1.1159480622451295e-06   -1.3248713202660957e-05
1.5004253093726092e-06   -1.1159480622451295e-06   -1.3248713202660957e-05
1.5004253093726092e-06   -1.1159480622451295e-06   -1.3248713202660957e-05
-2.1031227221673113e-06   8.77035766816631e-07   -8.438590114197975e-06
-2.1031227221673113e-06   8.77035766816631e-07   -8.438590114197975e-06
-2.1031227221673113e-06   8.77035766816631e-07   -8.438590114197975e-06
-2.1031227221673113e-06   8.77035766816631e-07   -8.438590114197975e-06
-5.904152853481489e-07   -3.328520299768689e-07   -1.0233836497487416e-05
-5.904152853481489e-07   -3.328520299768689e-07   -1.0233836497487416e-05
-5.904152853481489e-07   -3.328520299768689e-07   -1.0233836497487416e-05
-5.904152853481489e-07   -3.328520299768689e-07   -1.0233836497487416e-05
-2.1031227221672978e-06   -1.1159480622451295e-06   -1.4444503500097964e-05
-2.1031227221672978e-06   -1.1159480622451295e-06   -1.4444503500097964e-05
-2.1031227221672978e-06   -1.1159480622451295e-06   -1.4444503500097964e-05
-2.1031227221672978e-06   -1.1159480622451295e-06   -1.4444503500097964e-05
1.5004253093726092e-06   8.77035766816631e-07   -7.242799816761076e-06
1.5004253093726092e-06   8.77035766816631e-07   -7.242799816761076e-06
1.5004253093726092e-06   8.77035766816631e-07   -7.242799816761076e-06
1.5004253093726092e-06   8.77035766816631e-07   -7.242799816761076e-06
2.3151724899510815e-06   -7.264035584658799e-07   -1.3965501400561267e-05
2.3151724899510815e-06   -7.264035584658799e-07   -1.3965501400561267e-05
2.3151724899510815e-06   -7.264035584658799e-07   -1.3965501400561267e-05
2.3151724899510815e-06   -7.264035584658799e-07   -1.3965501400561267e-05
-1.8142383160016102e-06   1.2254920316208395e-06   -8.254287411358702e-06
-1.8142383160016102e-06   1.2254920316208395e-06   -8.254287411358702e-06
-1.8142383160016102e-06   1.2254920316208395e-06   -8.254287411358702e-06
-1.8142383160016102e-06   1.2254920316208395e-06   -8.254287411358702e-06
-6.9212563174787e-08   -3.5236707778712496e-08   -1.0406226422430252e-05
-6.9212563174787e-08   -3.5236707778712496e-08   -1.0406226422430252e-05
-6.9212563174787e-08   -3.5236707778712496e-08   -1.0406226422430252e-05
-6.9212563174787e-08   -3.5236707778712496e-08   -1.0406226422430252e-05
-1.8142383160016102e-06   -7.264035584658799e-07   -1.5136638754613234e-05
-1.8142383160016102e-06   -7.264035584658799e-07   -1.5136638754613234e-05
-1.8142383160016102e-06   -7.264035584658799e-07   -1.5136638754613234e-05
-1.8142383160016102e-06   -7.264035584658799e-07   -1.5136638754613234e-05
2.3151724899510815e-06   1.2254920316207311e-06   -7.083150057306709e-06
2.3151724899510815e-06   1.2254920316207311e-06   -7.083150057306709e-06
2.3151724899510815e-06   1.2254920316207311e-06   -7.083150057306709e-06
2.3151724899510815e-06   1.2254920316207311e-06   -7.083150057306709e-06
3.3447404993448805e-06   3.790867677991132e-08   -1.5638586402301556e-05
3.3447404993448805e-06   3.790867677991132e-08   -1.5638586402301556e-05
3.3447404993448805e-06   3.790867677991132e-08   -1.5638586402301556e-05
3.3447404993448805e-06   3.790867677991132e-08   -1.5638586402301556e-05
-1.612821884813649e-06   1.8417022728497209e-06   -8.458258586345742e-06
-1.612821884813649e-06   1.8417022728497209e-06   -8.458258586345742e-06
-1.612821884813649e-06   1.8417022728497209e-06   -8.458258586345742e-06
-1.612821884813649e-06   1.8417022728497209e-06   -8.458258586345742e-06
3.817487020395225e-07   3.0274726839460853e-07   -1.0859169895094872e-05
3.817487020395225e-07   3.0274726839460853e-07   -1.0859169895094872e-05
3.817487020395225e-07   3.0274726839460853e-07   -1.0859169895094872e-05
3.817487020395225e-07   3.0274726839460853e-07   -1.0859169895094872e-05
-6.521445603749538e-06   1.2344863468287176e-06   -1.1758874828574225e-05
-6.521445603749538e-06   1.2344863468287176e-06   -1.1758874828574225e-05
-6.521445603749538e-06   1.2344863468287176e-06   -1.1758874828574225e-05
-6.521445603749538e-06   1.2344863468287176e-06   -1.1758874828574225e-05
-6.652958623566923e-06   -5.808263037817164e-07   -1.3067250785302913e-05
-6.652958623566923e-06   -5.808263037817164e-07   -1.3067250785302913e-05
-6.652958623566923e-06   -5.808263037817164e-07   -1.3067250785302913e-05
-6.652958623566923e-06   -5.808263037817164e-07   -1.3067250785302913e-05
-6.3222758019357175e-06   1.925806377174946e-06   -1.1049397474252902e-05
-6.3222758019357175e-06   1.925806377174946e-06   -1.1049397474252902e-05
-6.3222758019357175e-06   1.925806377174946e-06   -1.1049397474252902e-05
-6.3222758019357175e-06   1.925806377174946e-06   -1.1049397474252902e-05
-5.374451026955577e-06   -2.2437807333051257e-08   -1.1460158921848258e-05
-5.374451026955577e-06   -2.2437807333051257e-08   -1.1460158921848258e-05
-5.374451026955577e-06   -2.2437807333051257e-08   -1.1460158921848258e-05
-5.374451026955577e-06   -2.2437807333051257e-08   -1.1460158921848258e-05
-5.946202631835655e-06   8.501050711386864e-07   -1.103076530746506e-05
-5.946202631835655e-06   8.501050711386864e-07   -1.103076530746506e-05
-5.946202631835655e-06   8.501050711386864e-07   -1.103076530746506e-05
-5.946202631835655e-06   8.501050711386864e-07   -1.103076530746506e-05
-5.37445102695555e-06   1.925806377174946e-06   -9.880450963548222e-06
-5.37445102695555e-06   1.925806377174946e-06   -9.880450963548222e-06
-5.37445102695555e-06   1.925806377174946e-06   -9.880450963548222e-06
-5.37445102695555e-06   1.925806377174946e-06   -9.880450963548222e-06
-6.3222758019357175e-06   -2.2437807333051257e-08   -1.2629105432553263e-05
-6.3222758019357175e-06   -2.2437807333051257e-08   -1.2629105432553263e-05
-6.3222758019357175e-06   -2.2437807333051257e-08   -1.2629105432553263e-05
-6.3222758019357175e-06   -2.2437807333051257e-08   -1.2629105432553263e-05
-5.904608489474129e-06   2.2758941339542016e-06   -1.0253520377807466e-05
-5.904608489474129e-06   2.2758941339542016e-06   -1.0253520377807466e-05
-5.904608489474129e-06   2.2758941339542016e-06   -1.0253520377807466e-05
-5.904608489474129e-06   2.2758941339542016e-06   -1.0253520377807466e-05
-4.427431527124435e-06   2.9435498071915707e-07   -1.1526558489782508e-05
-4.427431527124435e-06   2.9435498071915707e-07   -1.1526558489782508e-05
-4.427431527124435e-06   2.9435498071915707e-07   -1.1526558489782508e-05
-4.427431527124435e-06   2.9435498071915707e-07   -1.1526558489782508e-05
-5.404571163181046e-06   1.1372963130320667e-06   -1.0403757229076238e-05
-5.404571163181046e-06   1.1372963130320667e-06   -1.0403757229076238e-05
-5.404571163181046e-06   1.1372963130320667e-06   -1.0403757229076238e-05
-5.404571163181046e-06   1.1372963130320667e-06   -1.0403757229076238e-05
-4.427431527124408e-06   2.2758941339542016e-06   -9.064596885866505e-06
-4.427431527124408e-06   2.2758941339542016e-06   -9.064596885866505e-06
-4.427431527124408e-06   2.2758941339542016e-06   -9.064596885866505e-06
-4.427431527124408e-06   2.2758941339542016e-06   -9.064596885866505e-06
-5.904608489474129e-06   2.943549807193739e-07   -1.2715481981723388e-05
-5.904608489474129e-06   2.943549807193739e-07   -1.2715481981723388e-05
-5.904608489474129e-06   2.943549807193739e-07   -1.2715481981723388e-05
-5.904608489474129e-06   2.943549807193739e-07   -1.2715481981723388e-05
-5.58007390302233e-06   2.83084159720501e-06   -9.515274669517253e-06
-5.58007390302233e-06   2.83084159720501e-06   -9.515274669517253e-06
-5.58007390302233e-06   2.83084159720501e-06   -9.515274669517253e-06
-5.58007390302233e-06   2.83084159720501e-06   -9.515274669517253e-06
-3.2581646024733226e-06   9.258584090594737e-07   -1.2242133590878034e-05
-3.2581646024733226e-06   9.258584090594737e-07   -1.2242133590878034e-05
-3.2581646024733226e-06   9.258584090594737e-07   -1.2242133590878034e-05
-3.2581646024733226e-06   9.258584090594737e-07   -1.2242133590878034e-05
-4.728668296564287e-06   1.4136796611230852e-06   -1.0083986851964816e-05
-4.728668296564287e-06   1.4136796611230852e-06   -1.0083986851964816e-05
-4.728668296564287e-06   1.4136796611230852e-06   -1.0083986851964816e-05
-4.728668296564287e-06   1.4136796611230852e-06   -1.0083986851964816e-05
-6.652958623566923e-06   7.130459468205176e-07   -2.1429789766614412e-05
-6.652958623566923e-06   7.130459468205176e-07   -2.1429789766614412e-05
-6.652958623566923e-06   7.130459468205176e-07   -2.1429789766614412e-05
-6.652958623566923e-06   7.130459468205176e-07   -2.1429789766614412e-05
-7.699532924762217e-06   -1.2281757894700394e-07   -2.367559838406709e-05
-7.699532924762217e-06   -1.2281757894700394e-07   -2.367559838406709e-05
-7.699532924762217e-06   -1.2281757894700394e-07   -2.367559838406709e-05
-7.699532924762217e-06   -1.2281757894700394e-07   -2.367559838406709e-05
-7.433333912391154e-06   1.5061879482742083e-06   -2.144467242854971e-05
-7.433333912391154e-06   1.5061879482742083e-06   -2.144467242854971e-05
-7.433333912391154e-06   1.5061879482742083e-06   -2.144467242854971e-05
-7.433333912391154e-06   1.5061879482742083e-06   -2.144467242854971e-05
-6.322275801935745e-06   5.823258452161001e-07   -2.2742118684140335e-05
-6.322275801935745e-06   5.823258452161001e-07   -2.2742118684140335e-05
-6.322275801935745e-06   5.823258452161001e-07   -2.2742118684140335e-05
-6.322275801935745e-06   5.823258452161001e-07   -2.2742118684140335e-05
-6.945257300408419e-06   8.253009304603261e-07   -2.1849601237832958e-05
-6.945257300408419e-06   8.253009304603261e-07   -2.1849601237832958e-05
-6.945257300408419e-06   8.253009304603261e-07   -2.1849601237832958e-05
-6.945257300408419e-06   8.253009304603261e-07   -2.1849601237832958e-05
-6.3222758019357175e-06   1.5061879482742083e-06   -2.0890355166714586e-05
-6.3222758019357175e-06   1.5061879482742083e-06   -2.0890355166714586e-05
-6.3222758019357175e-06   1.5061879482742083e-06   -2.0890355166714586e-05
-6.3222758019357175e-06   1.5061879482742083e-06   -2.0890355166714586e-05
-7.43333391239114e-06   5.823258452158833e-07   -2.3296435945975298e-05
-7.43333391239114e-06   5.823258452158833e-07   -2.3296435945975298e-05
-7.43333391239114e-06   5.823258452158833e-07   -2.3296435945975298e-05
-7.43333391239114e-06   5.823258452158833e-07   -2.3296435945975298e-05
-7.156387878533082e-06   2.244355679408873e-06   -2.1264750257871568e-05
-7.156387878533082e-06   2.244355679408873e-06   -2.1264750257871568e-05
-7.156387878533082e-06   2.244355679408873e-06   -2.1264750257871568e-05
-7.156387878533082e-06   2.244355679408873e-06   -2.1264750257871568e-05
-5.904608489474129e-06   1.2618281259410991e-06   -2.2761532707555796e-05
-5.904608489474129e-06   1.2618281259410991e-06   -2.2761532707555796e-05
-5.904608489474129e-06   1.2618281259410991e-06   -2.2761532707555796e-05
-5.904608489474129e-06   1.2618281259410991e-06   -2.2761532707555796e-05
-6.678599941857098e-06   1.394576186829091e-06   -2.1551195790117e-05
-6.678599941857098e-06   1.394576186829091e-06   -2.1551195790117e-05
-6.678599941857098e-06   1.394576186829091e-06   -2.1551195790117e-05
-6.678599941857098e-06   1.394576186829091e-06   -2.1551195790117e-05
-5.904608489474129e-06   2.244355679408873e-06   -2.0675233725790893e-05
-5.904608489474129e-06   2.244355679408873e-06   -2.0675233725790893e-05
-5.904608489474129e-06   2.244355679408873e-06   -2.0675233725790893e-05
-5.904608489474129e-06   2.244355679408873e-06   -2.0675233725790893e-05
-7.156387878533068e-06   1.261828125941316e-06   -2.3351049239636362e-05
-7.156387878533068e-06   1.261828125941316e-06   -2.3351049239636362e-05
-7.156387878533068e-06   1.261828125941316e-06   -2.3351049239636362e-05
-7.156387878533068e-06   1.261828125941316e-06   -2.3351049239636362e-05
-6.895899383873292e-06   3.0652429808132164e-06   -2.161720690525273e-05
-6.895899383873292e-06   3.0652429808132164e-06   -2.161720690525273e-05
-6.895899383873292e-06   3.0652429808132164e-06   -2.161720690525273e-05
-6.895899383873292e-06   3.0652429808132164e-06   -2.161720690525273e-05
-5.5800739030223575e-06   2.038369824367307e-06   -2.3194125479470004e-05
-5.5800739030223575e-06   2.038369824367307e-06   -2.3194125479470004e-05
-5.5800739030223575e-06   2.038369824367307e-06   -2.3194125479470004e-05
-5.5800739030223575e-06   2.038369824367307e-06   -2.3194125479470004e-05
-6.444398016329918e-06   1.9924441240490916e-06   -2.1726029870433047e-05
-6.444398016329918e-06   1.9924441240490916e-06   -2.1726029870433047e-05
-6.444398016329918e-06   1.9924441240490916e-06   -2.1726029870433047e-05
-6.444398016329918e-06   1.9924441240490916e-06   -2.1726029870433047e-05
-7.699532924762176e-06   4.115165713082644e-07   -2.4965901539196218e-05
-7.699532924762176e-06   4.115165713082644e-07   -2.4965901539196218e-05
-7.699532924762176e-06   4.115165713082644e-07   -2.4965901539196218e-05
-7.699532924762176e-06   4.115165713082644e-07   -2.4965901539196218e-05
-8.796951713105813e-06   5.889352011430229e-07   -2.6688481675201596e-05
-8.796951713105813e-06   5.889352011430229e-07   -2.6688481675201596e-05
-8.796951713105813e-06   5.889352011430229e-07   -2.6688481675201596e-05
-8.796951713105813e-06   5.889352011430229e-07   -2.6688481675201596e-05
-8.535574678223908e-06   1.2200984848098444e-06   -2.4579513360230027e-05
-8.535574678223908e-06   1.2200984848098444e-06   -2.4579513360230027e-05
-8.535574678223908e-06   1.2200984848098444e-06   -2.4579513360230027e-05
-8.535574678223908e-06   1.2200984848098444e-06   -2.4579513360230027e-05
-7.433333912391154e-06   1.3185419490673728e-06   -2.6475647381839088e-05
-7.433333912391154e-06   1.3185419490673728e-06   -2.6475647381839088e-05
-7.433333912391154e-06   1.3185419490673728e-06   -2.6475647381839088e-05
-7.433333912391154e-06   1.3185419490673728e-06   -2.6475647381839088e-05
-8.067458839856458e-06   9.986450059845968e-07   -2.5226834336880758e-05
-8.067458839856458e-06   9.986450059845968e-07   -2.5226834336880758e-05
-8.067458839856458e-06   9.986450059845968e-07   -2.5226834336880758e-05
-8.067458839856458e-06   9.986450059845968e-07   -2.5226834336880758e-05
-7.433333912391113e-06   1.2200984848098444e-06   -2.4638579438784392e-05
-7.433333912391113e-06   1.2200984848098444e-06   -2.4638579438784392e-05
-7.433333912391113e-06   1.2200984848098444e-06   -2.4638579438784392e-05
-7.433333912391113e-06   1.2200984848098444e-06   -2.4638579438784392e-05
-8.535574678223923e-06   1.3185419490673728e-06   -2.6416581303284614e-05
-8.535574678223923e-06   1.3185419490673728e-06   -2.6416581303284614e-05
-8.535574678223923e-06   1.3185419490673728e-06   -2.6416581303284614e-05
-8.535574678223923e-06   1.3185419490673728e-06   -2.6416581303284614e-05
-8.260311913967283e-06   2.0357295190124225e-06   -2.465015419592315e-05
-8.260311913967283e-06   2.0357295190124225e-06   -2.465015419592315e-05
-8.260311913967283e-06   2.0357295190124225e-06   -2.465015419592315e-05
-8.260311913967283e-06   2.0357295190124225e-06   -2.465015419592315e-05
-7.156387878533082e-06   2.0640636588602733e-06   -2.650702807222187e-05
-7.156387878533082e-06   2.0640636588602733e-06   -2.650702807222187e-05
-7.156387878533082e-06   2.0640636588602733e-06   -2.650702807222187e-05
-7.156387878533082e-06   2.0640636588602733e-06   -2.650702807222187e-05
-7.84864023831951e-06   1.6233164963517718e-06   -2.5088825841739856e-05
-7.84864023831951e-06   1.6233164963517718e-06   -2.5088825841739856e-05
-7.84864023831951e-06   1.6233164963517718e-06   -2.5088825841739856e-05
-7.84864023831951e-06   1.6233164963517718e-06   -2.5088825841739856e-05
-7.156387878533068e-06   2.0357295190124225e-06   -2.4667154679831524e-05
-7.156387878533068e-06   2.0357295190124225e-06   -2.4667154679831524e-05
-7.156387878533068e-06   2.0357295190124225e-06   -2.4667154679831524e-05
-7.156387878533068e-06   2.0357295190124225e-06   -2.4667154679831524e-05
-8.260311913967283e-06   2.0640636588602733e-06   -2.6490027588313306e-05
-8.260311913967283e-06   2.0640636588602733e-06   -2.6490027588313306e-05
-8.260311913967283e-06   2.0640636588602733e-06   -2.6490027588313306e-05
-8.260311913967283e-06   2.0640636588602733e-06   -2.6490027588313306e-05
-8.000793965213543e-06   2.8637096575771445e-06   -2.5128640801098186e-05
-8.000793965213543e-06   2.8637096575771445e-06   -2.5128640801098186e-05
-8.000793965213543e-06   2.8637096575771445e-06   -2.5128640801098186e-05
-8.000793965213543e-06   2.8637096575771445e-06   -2.5128640801098186e-05
-6.895899383873306e-06   2.819963230808742e-06   -2.6943883913937435e-05
-6.895899383873306e-06   2.819963230808742e-06   -2.6943883913937435e-05
-6.895899383873306e-06   2.819963230808742e-06   -2.6943883913937435e-05
-6.895899383873306e-06   2.819963230808742e-06   -2.6943883913937435e-05
-7.647569486876853e-06   2.2567549455825703e-06   -2.53531754377958e-05
-7.647569486876853e-06   2.2567549455825703e-06   -2.53531754377958e-05
-7.647569486876853e-06   2.2567549455825703e-06   -2.53531754377958e-05
-7.647569486876853e-06   2.2567549455825703e-06   -2.53531754377958e-05
-8.796951713105783e-06   1.8103900321746191e-07   -2.1534921877082946e-05
-8.796951713105783e-06   1.8103900321746191e-07   -2.1534921877082946e-05
-8.796951713105783e-06   1.8103900321746191e-07   -2.1534921877082946e-05
-8.796951713105783e-06   1.8103900321746191e-07   -2.1534921877082946e-05
-9.959039571124457e-06   1.3073071357741495e-06   -2.279597409424682e-05
-9.959039571124457e-06   1.3073071357741495e-06   -2.279597409424682e-05
-9.959039571124457e-06   1.3073071357741495e-06   -2.279597409424682e-05
-9.959039571124457e-06   1.3073071357741495e-06   -2.279597409424682e-05
-9.642085942618189e-06   9.64864424580201e-07   -2.0585092360142802e-05
-9.642085942618189e-06   9.64864424580201e-07   -2.0585092360142802e-05
-9.642085942618189e-06   9.64864424580201e-07   -2.0585092360142802e-05
-9.642085942618189e-06   9.64864424580201e-07   -2.0585092360142802e-05
-8.535574678223908e-06   2.039790940322689e-06   -2.307423371024531e-05
-8.535574678223908e-06   2.039790940322689e-06   -2.307423371024531e-05
-8.535574678223908e-06   2.039790940322689e-06   -2.307423371024531e-05
-8.535574678223908e-06   2.039790940322689e-06   -2.307423371024531e-05
-9.161942884296657e-06   1.2045431347782387e-06   -2.152913801679774e-05
-9.161942884296657e-06   1.2045431347782387e-06   -2.152913801679774e-05
-9.161942884296657e-06   1.2045431347782387e-06   -2.152913801679774e-05
-9.161942884296657e-06   1.2045431347782387e-06   -2.152913801679774e-05
-8.535574678223893e-06   9.64864424580201e-07   -2.1230048269588208e-05
-8.535574678223893e-06   9.64864424580201e-07   -2.1230048269588208e-05
-8.535574678223893e-06   9.64864424580201e-07   -2.1230048269588208e-05
-8.535574678223893e-06   9.64864424580201e-07   -2.1230048269588208e-05
-9.642085942618189e-06   2.039790940322689e-06   -2.242927780079986e-05
-9.642085942618189e-06   2.039790940322689e-06   -2.242927780079986e-05
-9.642085942618189e-06   2.039790940322689e-06   -2.242927780079986e-05
-9.642085942618189e-06   2.039790940322689e-06   -2.242927780079986e-05
-9.230891633754858e-06   1.702926805384193e-06   -2.0671851531693783e-05
-9.230891633754858e-06   1.702926805384193e-06   -2.0671851531693783e-05
-9.230891633754858e-06   1.702926805384193e-06   -2.0671851531693783e-05
-9.230891633754858e-06   1.702926805384193e-06   -2.0671851531693783e-05
-8.260311913967269e-06   2.715018074420138e-06   -2.289673915942789e-05
-8.260311913967269e-06   2.715018074420138e-06   -2.289673915942789e-05
-8.260311913967269e-06   2.715018074420138e-06   -2.289673915942789e-05
-8.260311913967269e-06   2.715018074420138e-06   -2.289673915942789e-05
-8.878575637479917e-06   1.786122011811827e-06   -2.1308961982675586e-05
-8.878575637479917e-06   1.786122011811827e-06   -2.1308961982675586e-05
-8.878575637479917e-06   1.786122011811827e-06   -2.1308961982675586e-05
-8.878575637479917e-06   1.786122011811827e-06   -2.1308961982675586e-05
-8.260311913967245e-06   1.7029268053840845e-06   -2.127910629311534e-05
-8.260311913967245e-06   1.7029268053840845e-06   -2.127910629311534e-05
-8.260311913967245e-06   1.7029268053840845e-06   -2.127910629311534e-05
-8.260311913967245e-06   1.7029268053840845e-06   -2.127910629311534e-05
-9.230891633754878e-06   2.715018074420138e-06   -2.2289484398006505e-05
-9.230891633754878e-06   2.715018074420138e-06   -2.2289484398006505e-05
-9.230891633754878e-06   2.715018074420138e-06   -2.2289484398006505e-05
-9.230891633754878e-06   2.715018074420138e-06   -2.2289484398006505e-05
-8.908263856783302e-06   2.536745973293151e-06   -2.1245088778837232e-05
-8.908263856783302e-06   2.536745973293151e-06   -2.1245088778837232e-05
-8.908263856783302e-06   2.536745973293151e-06   -2.1245088778837232e-05
-8.908263856783302e-06   2.536745973293151e-06   -2.1245088778837232e-05
-8.000793965213543e-06   3.470953036776008e-06   -2.3318062836209654e-05
-8.000793965213543e-06   3.470953036776008e-06   -2.3318062836209654e-05
-8.000793965213543e-06   3.470953036776008e-06   -2.3318062836209654e-05
-8.000793965213543e-06   3.470953036776008e-06   -2.3318062836209654e-05
-8.667672485969702e-06   2.379808208443691e-06   -2.155191173794996e-05
-8.667672485969702e-06   2.379808208443691e-06   -2.155191173794996e-05
-8.667672485969702e-06   2.379808208443691e-06   -2.155191173794996e-05
-8.667672485969702e-06   2.379808208443691e-06   -2.155191173794996e-05
-9.959039571124417e-06   2.567857008149753e-07   -1.14697100062676e-05
-9.959039571124417e-06   2.567857008149753e-07   -1.14697100062676e-05
-9.959039571124417e-06   2.567857008149753e-07   -1.14697100062676e-05
-9.959039571124417e-06   2.567857008149753e-07   -1.14697100062676e-05
-1.209114356894882e-05   2.199929631456054e-06   -1.3857330310923619e-05
-1.209114356894882e-05   2.199929631456054e-06   -1.3857330310923619e-05
-1.209114356894882e-05   2.199929631456054e-06   -1.3857330310923619e-05
-1.209114356894882e-05   2.199929631456054e-06   -1.3857330310923619e-05
-1.0955169946856547e-05   8.77035766816631e-07   -9.439297081363608e-06
-1.0955169946856547e-05   8.77035766816631e-07   -9.439297081363608e-06
-1.0955169946856547e-05   8.77035766816631e-07   -9.439297081363608e-06
-1.0955169946856547e-05   8.77035766816631e-07   -9.439297081363608e-06
-9.642085942618168e-06   2.8646889541463286e-06   -1.2820362334158488e-05
-9.642085942618168e-06   2.8646889541463286e-06   -1.2820362334158488e-05
-9.642085942618168e-06   2.8646889541463286e-06   -1.2820362334158488e-05
-9.642085942618168e-06   2.8646889541463286e-06   -1.2820362334158488e-05
-1.023040310289511e-05   1.6291946820818238e-06   -1.1098537170458418e-05
-1.023040310289511e-05   1.6291946820818238e-06   -1.1098537170458418e-05
-1.023040310289511e-05   1.6291946820818238e-06   -1.1098537170458418e-05
-1.023040310289511e-05   1.6291946820818238e-06   -1.1098537170458418e-05
-9.642085942618141e-06   8.77035766816631e-07   -1.0631888993761134e-05
-9.642085942618141e-06   8.77035766816631e-07   -1.0631888993761134e-05
-9.642085942618141e-06   8.77035766816631e-07   -1.0631888993761134e-05
-9.642085942618141e-06   8.77035766816631e-07   -1.0631888993761134e-05
-1.0955169946856547e-05   2.8646889541463286e-06   -1.162777042176084e-05
-1.0955169946856547e-05   2.8646889541463286e-06   -1.162777042176084e-05
-1.0955169946856547e-05   2.8646889541463286e-06   -1.162777042176084e-05
-1.0955169946856547e-05   2.8646889541463286e-06   -1.162777042176084e-05
-1.0031215441442165e-05   1.2254920316208395e-06   -9.275755450611947e-06
-1.0031215441442165e-05   1.2254920316208395e-06   -9.275755450611947e-06
-1.0031215441442165e-05   1.2254920316208395e-06   -9.275755450611947e-06
-1.0031215441442165e-05   1.2254920316208395e-06   -9.275755450611947e-06
-9.230891633754858e-06   3.168999769286463e-06   -1.177573310602348e-05
-9.230891633754858e-06   3.168999769286463e-06   -1.177573310602348e-05
-9.230891633754858e-06   3.168999769286463e-06   -1.177573310602348e-05
-9.230891633754858e-06   3.168999769286463e-06   -1.177573310602348e-05
-9.748956751890453e-06   1.9377809070100956e-06   -1.0173559925098433e-05
-9.748956751890453e-06   1.9377809070100956e-06   -1.0173559925098433e-05
-9.748956751890453e-06   1.9377809070100956e-06   -1.0173559925098433e-05
-9.748956751890453e-06   1.9377809070100956e-06   -1.0173559925098433e-05
-9.230891633754844e-06   1.2254920316208395e-06   -1.0441860093211256e-05
-9.230891633754844e-06   1.2254920316208395e-06   -1.0441860093211256e-05
-9.230891633754844e-06   1.2254920316208395e-06   -1.0441860093211256e-05
-9.230891633754844e-06   1.2254920316208395e-06   -1.0441860093211256e-05
-1.0031215441442165e-05   3.168999769286463e-06   -1.0609628463424062e-05
-1.0031215441442165e-05   3.168999769286463e-06   -1.0609628463424062e-05
-1.0031215441442165e-05   3.168999769286463e-06   -1.0609628463424062e-05
-1.0031215441442165e-05   3.168999769286463e-06   -1.0609628463424062e-05
-8.899440713091601e-06   1.8417022728497209e-06   -9.55709127755896e-06
-8.899440713091601e-06   1.8417022728497209e-06   -9.55709127755896e-06
-8.899440713091601e-06   1.8417022728497209e-06   -9.55709127755896e-06
-8.899440713091601e-06   1.8417022728497209e-06   -9.55709127755896e-06
-8.908263856783289e-06   3.6386123771472902e-06   -1.062053210065102e-05
-8.908263856783289e-06   3.6386123771472902e-06   -1.062053210065102e-05
-8.908263856783289e-06   3.6386123771472902e-06   -1.062053210065102e-05
-8.908263856783289e-06   3.6386123771472902e-06   -1.062053210065102e-05
-9.03459277395241e-06   2.1859783889712197e-06   -9.538403512463612e-06
-9.03459277395241e-06   2.1859783889712197e-06   -9.538403512463612e-06
-9.03459277395241e-06   2.1859783889712197e-06   -9.538403512463612e-06
-9.03459277395241e-06   2.1859783889712197e-06   -9.538403512463612e-06
5.880432800129602e-06   -5.808263037817164e-07   -5.912941900790606e-06
5.880432800129602e-06   -5.808263037817164e-07   -5.912941900790606e-06
5.880432800129602e-06   -5.808263037817164e-07   -5.912941900790606e-06
5.880432800129602e-06   -5.808263037817164e-07   -5.912941900790606e-06
6.114421031964978e-07   -2.4244414113744686e-06   -1.5800762126901198e-05
6.114421031964978e-07   -2.4244414113744686e-06   -1.5800762126901198e-05
6.114421031964978e-07   -2.4244414113744686e-06   -1.5800762126901198e-05
6.114421031964978e-07   -2.4244414113744686e-06   -1.5800762126901198e-05
1.0641910898542828e-06   -2.2437807333051257e-08   -6.542172303682396e-06
1.0641910898542828e-06   -2.2437807333051257e-08   -6.542172303682396e-06
1.0641910898542828e-06   -2.2437807333051257e-08   -6.542172303682396e-06
1.0641910898542828e-06   -2.2437807333051257e-08   -6.542172303682396e-06
7.153580740507608e-06   -1.9934498375760897e-06   -1.5508547836625417e-05
7.153580740507608e-06   -1.9934498375760897e-06   -1.5508547836625417e-05
7.153580740507608e-06   -1.9934498375760897e-06   -1.5508547836625417e-05
7.153580740507608e-06   -1.9934498375760897e-06   -1.5508547836625417e-05
3.5398141384175244e-06   -1.013496817482782e-06   -1.0073575311864646e-05
3.5398141384175244e-06   -1.013496817482782e-06   -1.0073575311864646e-05
3.5398141384175244e-06   -1.013496817482782e-06   -1.0073575311864646e-05
3.5398141384175244e-06   -1.013496817482782e-06   -1.0073575311864646e-05
7.153580740507608e-06   -2.2437807333051257e-08   -5.359565085536551e-06
7.153580740507608e-06   -2.2437807333051257e-08   -5.359565085536551e-06
7.153580740507608e-06   -2.2437807333051257e-08   -5.359565085536551e-06
7.153580740507608e-06   -2.2437807333051257e-08   -5.359565085536551e-06
1.0641910898542828e-06   -1.9934498375760897e-06   -1.6691155054771424e-05
1.0641910898542828e-06   -1.9934498375760897e-06   -1.6691155054771424e-05
1.0641910898542828e-06   -1.9934498375760897e-06   -1.6691155054771424e-05
1.0641910898542828e-06   -1.9934498375760897e-06   -1.6691155054771424e-05
1.5983778856771842e-06   2.9435498071915707e-07   -6.595509917397668e-06
1.5983778856771842e-06   2.9435498071915707e-07   -6.595509917397668e-06
1.5983778856771842e-06   2.9435498071915707e-07   -6.595509917397668e-06
1.5983778856771842e-06   2.9435498071915707e-07   -6.595509917397668e-06
8.228150083107065e-06   -1.705052442634936e-06   -1.6445485792434893e-05
8.228150083107065e-06   -1.705052442634936e-06   -1.6445485792434893e-05
8.228150083107065e-06   -1.705052442634936e-06   -1.6445485792434893e-05
8.228150083107065e-06   -1.705052442634936e-06   -1.6445485792434893e-05
4.3462618144414126e-06   -8.114468324942666e-07   -1.0511835377410253e-05
4.3462618144414126e-06   -8.114468324942666e-07   -1.0511835377410253e-05
4.3462618144414126e-06   -8.114468324942666e-07   -1.0511835377410253e-05
4.3462618144414126e-06   -8.114468324942666e-07   -1.0511835377410253e-05
8.228150083107092e-06   2.9435498071915707e-07   -5.395865463385038e-06
8.228150083107092e-06   2.9435498071915707e-07   -5.395865463385038e-06
8.228150083107092e-06   2.9435498071915707e-07   -5.395865463385038e-06
8.228150083107092e-06   2.9435498071915707e-07   -5.395865463385038e-06
1.5983778856772113e-06   -1.705052442634936e-06   -1.764513024644736e-05
1.5983778856772113e-06   -1.705052442634936e-06   -1.764513024644736e-05
1.5983778856772113e-06   -1.705052442634936e-06   -1.764513024644736e-05
1.5983778856772113e-06   -1.705052442634936e-06   -1.764513024644736e-05
2.03690635951418e-06   9.258584090594737e-07   -7.235503645616932e-06
2.03690635951418e-06   9.258584090594737e-07   -7.235503645616932e-06
2.03690635951418e-06   9.258584090594737e-07   -7.235503645616932e-06
2.03690635951418e-06   9.258584090594737e-07   -7.235503645616932e-06
9.519113830920426e-06   -9.794005059963334e-07   -1.8562694082260812e-05
9.519113830920426e-06   -9.794005059963334e-07   -1.8562694082260812e-05
9.519113830920426e-06   -9.794005059963334e-07   -1.8562694082260812e-05
9.519113830920426e-06   -9.794005059963334e-07   -1.8562694082260812e-05
4.985246470720048e-06   -5.138091497751233e-07   -1.1285603295659887e-05
4.985246470720048e-06   -5.138091497751233e-07   -1.1285603295659887e-05
4.985246470720048e-06   -5.138091497751233e-07   -1.1285603295659887e-05
4.985246470720048e-06   -5.138091497751233e-07   -1.1285603295659887e-05
6.114421031964978e-07   -1.228175789467871e-07   -1.7125940448649833e-05
6.114421031964978e-07   -1.228175789467871e-07   -1.7125940448649833e-05
6.114421031964978e-07   -1.228175789467871e-07   -1.7125940448649833e-05
6.114421031964978e-07   -1.228175789467871e-07   -1.7125940448649833e-05
-5.517788407990052e-06   -9.546163312404432e-07   -2.7840403885336963e-05
-5.517788407990052e-06   -9.546163312404432e-07   -2.7840403885336963e-05
-5.517788407990052e-06   -9.546163312404432e-07   -2.7840403885336963e-05
-5.517788407990052e-06   -9.546163312404432e-07   -2.7840403885336963e-05
-5.121561655224737e-06   5.823258452158833e-07   -1.7222114906210312e-05
-5.121561655224737e-06   5.823258452158833e-07   -1.7222114906210312e-05
-5.121561655224737e-06   5.823258452158833e-07   -1.7222114906210312e-05
-5.121561655224737e-06   5.823258452158833e-07   -1.7222114906210312e-05
1.0641910898542828e-06   -3.625564063518272e-07   -2.696477346373469e-05
1.0641910898542828e-06   -3.625564063518272e-07   -2.696477346373469e-05
1.0641910898542828e-06   -3.625564063518272e-07   -2.696477346373469e-05
1.0641910898542828e-06   -3.625564063518272e-07   -2.696477346373469e-05
-2.1894127130735644e-06   -3.274420077832921e-08   -2.173998778219892e-05
-2.1894127130735644e-06   -3.274420077832921e-08   -2.173998778219892e-05
-2.1894127130735644e-06   -3.274420077832921e-08   -2.173998778219892e-05
-2.1894127130735644e-06   -3.274420077832921e-08   -2.173998778219892e-05
1.0641910898542828e-06   5.823258452161001e-07   -1.665518555526947e-05
1.0641910898542828e-06   5.823258452161001e-07   -1.665518555526947e-05
1.0641910898542828e-06   5.823258452161001e-07   -1.665518555526947e-05
1.0641910898542828e-06   5.823258452161001e-07   -1.665518555526947e-05
-5.121561655224737e-06   -3.625564063518272e-07   -2.75317028146754e-05
-5.121561655224737e-06   -3.625564063518272e-07   -2.75317028146754e-05
-5.121561655224737e-06   -3.625564063518272e-07   -2.75317028146754e-05
-5.121561655224737e-06   -3.625564063518272e-07   -2.75317028146754e-05
-4.723036626748023e-06   1.2618281259410991e-06   -1.724864537864146e-05
-4.723036626748023e-06   1.2618281259410991e-06   -1.724864537864146e-05
-4.723036626748023e-06   1.2618281259410991e-06   -1.724864537864146e-05
-4.723036626748023e-06   1.2618281259410991e-06   -1.724864537864146e-05
1.5983778856771842e-06   2.500202335884924e-07   -2.7177251497271956e-05
1.5983778856771842e-06   2.500202335884924e-07   -2.7177251497271956e-05
1.5983778856771842e-06   2.500202335884924e-07   -2.7177251497271956e-05
1.5983778856771842e-06   2.500202335884924e-07   -2.7177251497271956e-05
-1.8390515093713266e-06   4.5427363533617066e-07   -2.1570754546573116e-05
-1.8390515093713266e-06   4.5427363533617066e-07   -2.1570754546573116e-05
-1.8390515093713266e-06   4.5427363533617066e-07   -2.1570754546573116e-05
-1.8390515093713266e-06   4.5427363533617066e-07   -2.1570754546573116e-05
1.5983778856771842e-06   1.2618281259410991e-06   -1.664156064322994e-05
1.5983778856771842e-06   1.2618281259410991e-06   -1.664156064322994e-05
1.5983778856771842e-06   1.2618281259410991e-06   -1.664156064322994e-05
1.5983778856771842e-06   1.2618281259410991e-06   -1.664156064322994e-05
-4.723036626748023e-06   2.5002023358827556e-07   -2.7784336232683667e-05
-4.723036626748023e-06   2.5002023358827556e-07   -2.7784336232683667e-05
-4.723036626748023e-06   2.5002023358827556e-07   -2.7784336232683667e-05
-4.723036626748023e-06   2.5002023358827556e-07   -2.7784336232683667e-05
-4.342577230031833e-06   2.038369824367307e-06   -1.768190289514718e-05
-4.342577230031833e-06   2.038369824367307e-06   -1.768190289514718e-05
-4.342577230031833e-06   2.038369824367307e-06   -1.768190289514718e-05
-4.342577230031833e-06   2.038369824367307e-06   -1.768190289514718e-05
2.036906359514153e-06   9.760410346576313e-07   -2.7676978270564705e-05
2.036906359514153e-06   9.760410346576313e-07   -2.7676978270564705e-05
2.036906359514153e-06   9.760410346576313e-07   -2.7676978270564705e-05
2.036906359514153e-06   9.760410346576313e-07   -2.7676978270564705e-05
-1.4482667977295358e-06   9.947224473120814e-07   -2.1879565189418255e-05
-1.4482667977295358e-06   9.947224473120814e-07   -2.1879565189418255e-05
-1.4482667977295358e-06   9.947224473120814e-07   -2.1879565189418255e-05
-1.4482667977295358e-06   9.947224473120814e-07   -2.1879565189418255e-05
-5.517788407990038e-06   5.889352011430229e-07   -2.0744354169061324e-05
-5.517788407990038e-06   5.889352011430229e-07   -2.0744354169061324e-05
-5.517788407990038e-06   5.889352011430229e-07   -2.0744354169061324e-05
-5.517788407990038e-06   5.889352011430229e-07   -2.0744354169061324e-05
-1.1592112140930116e-05   7.42128855463816e-07   -3.07763108647023e-05
-1.1592112140930116e-05   7.42128855463816e-07   -3.07763108647023e-05
-1.1592112140930116e-05   7.42128855463816e-07   -3.07763108647023e-05
-1.1592112140930116e-05   7.42128855463816e-07   -3.07763108647023e-05
-1.1193275889753947e-05   1.3185419490675896e-06   -2.0370878747614195e-05
-1.1193275889753947e-05   1.3185419490675896e-06   -2.0370878747614195e-05
-1.1193275889753947e-05   1.3185419490675896e-06   -2.0370878747614195e-05
-1.1193275889753947e-05   1.3185419490675896e-06   -2.0370878747614195e-05
-5.121561655224737e-06   1.369287939834065e-06   -3.052085006628947e-05
-5.121561655224737e-06   1.369287939834065e-06   -3.052085006628947e-05
-5.121561655224737e-06   1.369287939834065e-06   -3.052085006628947e-05
-5.121561655224737e-06   1.369287939834065e-06   -3.052085006628947e-05
-8.307848175979995e-06   1.1325126127222779e-06   -2.5068307335430337e-05
-8.307848175979995e-06   1.1325126127222779e-06   -2.5068307335430337e-05
-8.307848175979995e-06   1.1325126127222779e-06   -2.5068307335430337e-05
-8.307848175979995e-06   1.1325126127222779e-06   -2.5068307335430337e-05
-5.121561655224737e-06   1.3185419490673728e-06   -2.04013263420741e-05
-5.121561655224737e-06   1.3185419490673728e-06   -2.04013263420741e-05
-5.121561655224737e-06   1.3185419490673728e-06   -2.04013263420741e-05
-5.121561655224737e-06   1.3185419490673728e-06   -2.04013263420741e-05
-1.1193275889753947e-05   1.3692879398338482e-06   -3.0490402471829614e-05
-1.1193275889753947e-05   1.3692879398338482e-06   -3.0490402471829614e-05
-1.1193275889753947e-05   1.3692879398338482e-06   -3.0490402471829614e-05
-1.1193275889753947e-05   1.3692879398338482e-06   -3.0490402471829614e-05
-1.0787738303744864e-05   2.0640636588602733e-06   -2.0423300957890978e-05
-1.0787738303744864e-05   2.0640636588602733e-06   -2.0423300957890978e-05
-1.0787738303744864e-05   2.0640636588602733e-06   -2.0423300957890978e-05
-1.0787738303744864e-05   2.0640636588602733e-06   -2.0423300957890978e-05
-4.723036626748037e-06   2.0329357477534907e-06   -3.0512460339555112e-05
-4.723036626748037e-06   2.0329357477534907e-06   -3.0512460339555112e-05
-4.723036626748037e-06   2.0329357477534907e-06   -3.0512460339555112e-05
-4.723036626748037e-06   2.0329357477534907e-06   -3.0512460339555112e-05
-7.957308939425808e-06   1.6803766239520748e-06   -2.4910471010811656e-05
-7.957308939425808e-06   1.6803766239520748e-06   -2.4910471010811656e-05
-7.957308939425808e-06   1.6803766239520748e-06   -2.4910471010811656e-05
-7.957308939425808e-06   1.6803766239520748e-06   -2.4910471010811656e-05
-4.723036626748037e-06   2.0640636588602733e-06   -2.0404624211226995e-05
-4.723036626748037e-06   2.0640636588602733e-06   -2.0404624211226995e-05
-4.723036626748037e-06   2.0640636588602733e-06   -2.0404624211226995e-05
-4.723036626748037e-06   2.0640636588602733e-06   -2.0404624211226995e-05
-1.0787738303744847e-05   2.0329357477537075e-06   -3.0531137086219204e-05
-1.0787738303744847e-05   2.0329357477537075e-06   -3.0531137086219204e-05
-1.0787738303744847e-05   2.0329357477537075e-06   -3.0531137086219204e-05
-1.0787738303744847e-05   2.0329357477537075e-06   -3.0531137086219204e-05
-1.0401089922461754e-05   2.819963230808742e-06   -2.088265980983812e-05
-1.0401089922461754e-05   2.819963230808742e-06   -2.088265980983812e-05
-1.0401089922461754e-05   2.819963230808742e-06   -2.088265980983812e-05
-1.0401089922461754e-05   2.819963230808742e-06   -2.088265980983812e-05
-4.342577230031833e-06   2.7080926073240735e-06   -3.091305858979711e-05
-4.342577230031833e-06   2.7080926073240735e-06   -3.091305858979711e-05
-4.342577230031833e-06   2.7080926073240735e-06   -3.091305858979711e-05
-4.342577230031833e-06   2.7080926073240735e-06   -3.091305858979711e-05
-7.631527112561456e-06   2.2366055514261383e-06   -2.5148583218709476e-05
-7.631527112561456e-06   2.2366055514261383e-06   -2.5148583218709476e-05
-7.631527112561456e-06   2.2366055514261383e-06   -2.5148583218709476e-05
-7.631527112561456e-06   2.2366055514261383e-06   -2.5148583218709476e-05
-1.1592112140930133e-05   1.3073071357741495e-06   -1.743569127504816e-05
-1.1592112140930133e-05   1.3073071357741495e-06   -1.743569127504816e-05
-1.1592112140930133e-05   1.3073071357741495e-06   -1.743569127504816e-05
-1.1592112140930133e-05   1.3073071357741495e-06   -1.743569127504816e-05
-1.7600695676871118e-05   2.3908704990928484e-06   -2.6799859150291802e-05
-1.7600695676871118e-05   2.3908704990928484e-06   -2.6799859150291802e-05
-1.7600695676871118e-05   2.3908704990928484e-06   -2.6799859150291802e-05
-1.7600695676871118e-05   2.3908704990928484e-06   -2.6799859150291802e-05
-1.71444698418017e-05   2.039790940322689e-06   -1.641618874319848e-05
-1.71444698418017e-05   2.039790940322689e-06   -1.641618874319848e-05
-1.71444698418017e-05   2.039790940322689e-06   -1.641618874319848e-05
-1.71444698418017e-05   2.039790940322689e-06   -1.641618874319848e-05
-1.1193275889753947e-05   3.060361625950147e-06   -2.694718774132118e-05
-1.1193275889753947e-05   3.060361625950147e-06   -2.694718774132118e-05
-1.1193275889753947e-05   3.060361625950147e-06   -2.694718774132118e-05
-1.1193275889753947e-05   3.060361625950147e-06   -2.694718774132118e-05
-1.4282926750988374e-05   2.286011591318615e-06   -2.1333159618485002e-05
-1.4282926750988374e-05   2.286011591318615e-06   -2.1333159618485002e-05
-1.4282926750988374e-05   2.286011591318615e-06   -2.1333159618485002e-05
-1.4282926750988374e-05   2.286011591318615e-06   -2.1333159618485002e-05
-1.1193275889753965e-05   2.039790940322689e-06   -1.7028531154575062e-05
-1.1193275889753965e-05   2.039790940322689e-06   -1.7028531154575062e-05
-1.1193275889753965e-05   2.039790940322689e-06   -1.7028531154575062e-05
-1.1193275889753965e-05   2.039790940322689e-06   -1.7028531154575062e-05
-1.7144469841801726e-05   3.060361625950147e-06   -2.6334845329944968e-05
-1.7144469841801726e-05   3.060361625950147e-06   -2.6334845329944968e-05
-1.7144469841801726e-05   3.060361625950147e-06   -2.6334845329944968e-05
-1.7144469841801726e-05   3.060361625950147e-06   -2.6334845329944968e-05
-1.6596782084764885e-05   2.715018074420138e-06   -1.626121915546271e-05
-1.6596782084764885e-05   2.715018074420138e-06   -1.626121915546271e-05
-1.6596782084764885e-05   2.715018074420138e-06   -1.626121915546271e-05
-1.6596782084764885e-05   2.715018074420138e-06   -1.626121915546271e-05
-1.0787738303744864e-05   3.6630070303252105e-06   -2.65117521640391e-05
-1.0787738303744864e-05   3.6630070303252105e-06   -2.65117521640391e-05
-1.0787738303744864e-05   3.6630070303252105e-06   -2.65117521640391e-05
-1.0787738303744864e-05   3.6630070303252105e-06   -2.65117521640391e-05
-1.3822405696446626e-05   2.815099809928747e-06   -2.09452288439654e-05
-1.3822405696446626e-05   2.815099809928747e-06   -2.09452288439654e-05
-1.3822405696446626e-05   2.815099809928747e-06   -2.09452288439654e-05
-1.3822405696446626e-05   2.815099809928747e-06   -2.09452288439654e-05
-1.0787738303744855e-05   2.715018074420138e-06   -1.6830012529005733e-05
-1.0787738303744855e-05   2.715018074420138e-06   -1.6830012529005733e-05
-1.0787738303744855e-05   2.715018074420138e-06   -1.6830012529005733e-05
-1.0787738303744855e-05   2.715018074420138e-06   -1.6830012529005733e-05
-1.6596782084764885e-05   3.6630070303252105e-06   -2.594295879049615e-05
-1.6596782084764885e-05   3.6630070303252105e-06   -2.594295879049615e-05
-1.6596782084764885e-05   3.6630070303252105e-06   -2.594295879049615e-05
-1.6596782084764885e-05   3.6630070303252105e-06   -2.594295879049615e-05
-1.614086091643858e-05   3.470953036776008e-06   -1.671132414952578e-05
-1.614086091643858e-05   3.470953036776008e-06   -1.671132414952578e-05
-1.614086091643858e-05   3.470953036776008e-06   -1.671132414952578e-05
-1.614086091643858e-05   3.470953036776008e-06   -1.671132414952578e-05
-1.0401089922461754e-05   4.336397580981992e-06   -2.6796875866010713e-05
-1.0401089922461754e-05   4.336397580981992e-06   -2.6796875866010713e-05
-1.0401089922461754e-05   4.336397580981992e-06   -2.6796875866010713e-05
-1.0401089922461754e-05   4.336397580981992e-06   -2.6796875866010713e-05
-1.35161292965772e-05   3.335863889846087e-06   -2.1004823361136734e-05
-1.35161292965772e-05   3.335863889846087e-06   -2.1004823361136734e-05
-1.35161292965772e-05   3.335863889846087e-06   -2.1004823361136734e-05
-1.35161292965772e-05   3.335863889846087e-06   -2.1004823361136734e-05
-1.7600695676871118e-05   2.199929631456054e-06   -9.012795832118495e-06
-1.7600695676871118e-05   2.199929631456054e-06   -9.012795832118495e-06
-1.7600695676871118e-05   2.199929631456054e-06   -9.012795832118495e-06
-1.7600695676871118e-05   2.199929631456054e-06   -9.012795832118495e-06
-2.4455808457723316e-05   4.1117406745238855e-06   -1.9290897174365005e-05
-2.4455808457723316e-05   4.1117406745238855e-06   -1.9290897174365005e-05
-2.4455808457723316e-05   4.1117406745238855e-06   -1.9290897174365005e-05
-2.4455808457723316e-05   4.1117406745238855e-06   -1.9290897174365005e-05
-2.3193002479952353e-05   2.8646889541463286e-06   -5.641568195162601e-06
-2.3193002479952353e-05   2.8646889541463286e-06   -5.641568195162601e-06
-2.3193002479952353e-05   2.8646889541463286e-06   -5.641568195162601e-06
-2.3193002479952353e-05   2.8646889541463286e-06   -5.641568195162601e-06
-1.71444698418017e-05   4.80753075647101e-06   -1.68881610068083e-05
-1.71444698418017e-05   4.80753075647101e-06   -1.68881610068083e-05
-1.71444698418017e-05   4.80753075647101e-06   -1.68881610068083e-05
-1.71444698418017e-05   4.80753075647101e-06   -1.68881610068083e-05
-1.976063742552334e-05   3.5744110655747032e-06   -1.178800988606792e-05
-1.976063742552334e-05   3.5744110655747032e-06   -1.178800988606792e-05
-1.976063742552334e-05   3.5744110655747032e-06   -1.178800988606792e-05
-1.976063742552334e-05   3.5744110655747032e-06   -1.178800988606792e-05
-1.714446984180172e-05   2.8646889541463286e-06   -6.807273276557258e-06
-1.714446984180172e-05   2.8646889541463286e-06   -6.807273276557258e-06
-1.714446984180172e-05   2.8646889541463286e-06   -6.807273276557258e-06
-1.714446984180172e-05   2.8646889541463286e-06   -6.807273276557258e-06
-2.319300247995227e-05   4.80753075647101e-06   -1.5722455925413657e-05
-2.319300247995227e-05   4.80753075647101e-06   -1.5722455925413657e-05
-2.319300247995227e-05   4.80753075647101e-06   -1.5722455925413657e-05
-2.319300247995227e-05   4.80753075647101e-06   -1.5722455925413657e-05
-2.214934220309753e-05   3.168999769286463e-06   -4.61462233686922e-06
-2.214934220309753e-05   3.168999769286463e-06   -4.61462233686922e-06
-2.214934220309753e-05   3.168999769286463e-06   -4.61462233686922e-06
-2.214934220309753e-05   3.168999769286463e-06   -4.61462233686922e-06
-1.6596782084764858e-05   5.057075646970827e-06   -1.5001734727367631e-05
-1.6596782084764858e-05   5.057075646970827e-06   -1.5001734727367631e-05
-1.6596782084764858e-05   5.057075646970827e-06   -1.5001734727367631e-05
-1.6596782084764858e-05   5.057075646970827e-06   -1.5001734727367631e-05
-1.930283198403436e-05   3.888292260302399e-06   -9.790381529917332e-06
-1.930283198403436e-05   3.888292260302399e-06   -9.790381529917332e-06
-1.930283198403436e-05   3.888292260302399e-06   -9.790381529917332e-06
-1.930283198403436e-05   3.888292260302399e-06   -9.790381529917332e-06
-1.6596782084764885e-05   3.168999769286463e-06   -5.747467863479686e-06
-1.6596782084764885e-05   3.168999769286463e-06   -5.747467863479686e-06
-1.6596782084764885e-05   3.168999769286463e-06   -5.747467863479686e-06
-1.6596782084764885e-05   3.168999769286463e-06   -5.747467863479686e-06
-2.214934220309749e-05   5.057075646970827e-06   -1.3868889200756968e-05
-2.214934220309749e-05   5.057075646970827e-06   -1.3868889200756968e-05
-2.214934220309749e-05   5.057075646970827e-06   -1.3868889200756968e-05
-2.214934220309749e-05   5.057075646970827e-06   -1.3868889200756968e-05
-2.0913233383095708e-05   3.6386123771472902e-06   -3.5346055177702803e-06
-2.0913233383095708e-05   3.6386123771472902e-06   -3.5346055177702803e-06
-2.0913233383095708e-05   3.6386123771472902e-06   -3.5346055177702803e-06
-2.0913233383095708e-05   3.6386123771472902e-06   -3.5346055177702803e-06
-1.614086091643858e-05   5.371465934291258e-06   -1.2528271763151885e-05
-1.614086091643858e-05   5.371465934291258e-06   -1.2528271763151885e-05
-1.614086091643858e-05   5.371465934291258e-06   -1.2528271763151885e-05
-1.614086091643858e-05   5.371465934291258e-06   -1.2528271763151885e-05
-1.831986085876993e-05   4.039116708084555e-06   -8.097195656875833e-06
-1.831986085876993e-05   4.039116708084555e-06   -8.097195656875833e-06
-1.831986085876993e-05   4.039116708084555e-06   -8.097195656875833e-06
-1.831986085876993e-05   4.039116708084555e-06   -8.097195656875833e-06
1.850449981495098e-05   -2.4244414113742518e-06   -7.038590246668391e-08
1.850449981495098e-05   -2.4244414113742518e-06   -7.038590246668391e-08
1.850449981495098e-05   -2.4244414113742518e-06   -7.038590246668391e-08
1.850449981495098e-05   -2.4244414113742518e-06   -7.038590246668391e-08
7.874205314279087e-06   -4.36417674055359e-06   -1.8951384601094152e-05
7.874205314279087e-06   -4.36417674055359e-06   -1.8951384601094152e-05
7.874205314279087e-06   -4.36417674055359e-06   -1.8951384601094152e-05
7.874205314279087e-06   -4.36417674055359e-06   -1.8951384601094152e-05
8.425972171582577e-06   -1.9934498375763065e-06   -2.016986306463235e-06
8.425972171582577e-06   -1.9934498375763065e-06   -2.016986306463235e-06
8.425972171582577e-06   -1.9934498375763065e-06   -2.016986306463235e-06
8.425972171582577e-06   -1.9934498375763065e-06   -2.016986306463235e-06
1.98936527533679e-05   -4.059759102602008e-06   -1.989000171709012e-05
1.98936527533679e-05   -4.059759102602008e-06   -1.989000171709012e-05
1.98936527533679e-05   -4.059759102602008e-06   -1.989000171709012e-05
1.98936527533679e-05   -4.059759102602008e-06   -1.989000171709012e-05
1.312253870983225e-05   -2.8791757293764823e-06   -9.313161668465992e-06
1.312253870983225e-05   -2.8791757293764823e-06   -9.313161668465992e-06
1.312253870983225e-05   -2.8791757293764823e-06   -9.313161668465992e-06
1.312253870983225e-05   -2.8791757293764823e-06   -9.313161668465992e-06
1.9893652753367953e-05   -1.9934498375763065e-06   -7.772007474479443e-07
1.9893652753367953e-05   -1.9934498375763065e-06   -7.772007474479443e-07
1.9893652753367953e-05   -1.9934498375763065e-06   -7.772007474479443e-07
1.9893652753367953e-05   -1.9934498375763065e-06   -7.772007474479443e-07
8.42597217158255e-06   -4.059759102602008e-06   -2.1129787276105575e-05
8.42597217158255e-06   -4.059759102602008e-06   -2.1129787276105575e-05
8.42597217158255e-06   -4.059759102602008e-06   -2.1129787276105575e-05
8.42597217158255e-06   -4.059759102602008e-06   -2.1129787276105575e-05
9.037544570287236e-06   -1.705052442634936e-06   -2.872265853329269e-06
9.037544570287236e-06   -1.705052442634936e-06   -2.872265853329269e-06
9.037544570287236e-06   -1.705052442634936e-06   -2.872265853329269e-06
9.037544570287236e-06   -1.705052442634936e-06   -2.872265853329269e-06
2.1059272387641525e-05   -3.7968380480436423e-06   -2.1653407519007747e-05
2.1059272387641525e-05   -3.7968380480436423e-06   -2.1653407519007747e-05
2.1059272387641525e-05   -3.7968380480436423e-06   -2.1653407519007747e-05
2.1059272387641525e-05   -3.7968380480436423e-06   -2.1653407519007747e-05
1.4165689889788306e-05   -2.762058806008794e-06   -1.078497090114004e-05
1.4165689889788306e-05   -2.762058806008794e-06   -1.078497090114004e-05
1.4165689889788306e-05   -2.762058806008794e-06   -1.078497090114004e-05
1.4165689889788306e-05   -2.762058806008794e-06   -1.078497090114004e-05
2.1059272387641552e-05   -1.705052442634936e-06   -1.61719449008385e-06
2.1059272387641552e-05   -1.705052442634936e-06   -1.61719449008385e-06
2.1059272387641552e-05   -1.705052442634936e-06   -1.61719449008385e-06
2.1059272387641552e-05   -1.705052442634936e-06   -1.61719449008385e-06
9.037544570287236e-06   -3.796838048043859e-06   -2.2908478882253274e-05
9.037544570287236e-06   -3.796838048043859e-06   -2.2908478882253274e-05
9.037544570287236e-06   -3.796838048043859e-06   -2.2908478882253274e-05
9.037544570287236e-06   -3.796838048043859e-06   -2.2908478882253274e-05
9.542014150192165e-06   -9.794005059963334e-07   -4.8419665382958e-06
9.542014150192165e-06   -9.794005059963334e-07   -4.8419665382958e-06
9.542014150192165e-06   -9.794005059963334e-07   -4.8419665382958e-06
9.542014150192165e-06   -9.794005059963334e-07   -4.8419665382958e-06
2.2412878596483627e-05   -2.966836219036803e-06   -2.510094585429025e-05
2.2412878596483627e-05   -2.966836219036803e-06   -2.510094585429025e-05
2.2412878596483627e-05   -2.966836219036803e-06   -2.510094585429025e-05
2.2412878596483627e-05   -2.966836219036803e-06   -2.510094585429025e-05
1.4727143881338101e-05   -2.436482660106952e-06   -1.260960013107278e-05
1.4727143881338101e-05   -2.436482660106952e-06   -1.260960013107278e-05
1.4727143881338101e-05   -2.436482660106952e-06   -1.260960013107278e-05
1.4727143881338101e-05   -2.436482660106952e-06   -1.260960013107278e-05
7.874205314279087e-06   -9.546163312404432e-07   -1.2774789607033956e-05
7.874205314279087e-06   -9.546163312404432e-07   -1.2774789607033956e-05
7.874205314279087e-06   -9.546163312404432e-07   -1.2774789607033956e-05
7.874205314279087e-06   -9.546163312404432e-07   -1.2774789607033956e-05
-3.3655871537395613e-06   -2.0370159106056045e-06   -3.215721680135074e-05
-3.3655871537395613e-06   -2.0370159106056045e-06   -3.215721680135074e-05
-3.3655871537395613e-06   -2.0370159106056045e-06   -3.215721680135074e-05
-3.3655871537395613e-06   -2.0370159106056045e-06   -3.215721680135074e-05
-2.8529664674397753e-06   -3.625564063518272e-07   -1.3040326030566121e-05
-2.8529664674397753e-06   -3.625564063518272e-07   -1.3040326030566121e-05
-2.8529664674397753e-06   -3.625564063518272e-07   -1.3040326030566121e-05
-2.8529664674397753e-06   -3.625564063518272e-07   -1.3040326030566121e-05
8.425972171582577e-06   -1.612091931584101e-06   -3.1088835780463905e-05
8.425972171582577e-06   -1.612091931584101e-06   -3.1088835780463905e-05
8.425972171582577e-06   -1.612091931584101e-06   -3.1088835780463905e-05
8.425972171582577e-06   -1.612091931584101e-06   -3.1088835780463905e-05
2.5480053694139826e-06   -9.83716571724023e-07   -2.166924965943249e-05
2.5480053694139826e-06   -9.83716571724023e-07   -2.166924965943249e-05
2.5480053694139826e-06   -9.83716571724023e-07   -2.166924965943249e-05
2.5480053694139826e-06   -9.83716571724023e-07   -2.166924965943249e-05
8.425972171582577e-06   -3.625564063518272e-07   -1.2290604715426692e-05
8.425972171582577e-06   -3.625564063518272e-07   -1.2290604715426692e-05
8.425972171582577e-06   -3.625564063518272e-07   -1.2290604715426692e-05
8.425972171582577e-06   -3.625564063518272e-07   -1.2290604715426692e-05
-2.8529664674397618e-06   -1.612091931584101e-06   -3.183855709560344e-05
-2.8529664674397618e-06   -1.612091931584101e-06   -3.183855709560344e-05
-2.8529664674397618e-06   -1.612091931584101e-06   -3.183855709560344e-05
-2.8529664674397618e-06   -1.612091931584101e-06   -3.183855709560344e-05
-2.363546897087029e-06   2.5002023358827556e-07   -1.3210125095139804e-05
-2.363546897087029e-06   2.5002023358827556e-07   -1.3210125095139804e-05
-2.363546897087029e-06   2.5002023358827556e-07   -1.3210125095139804e-05
-2.363546897087029e-06   2.5002023358827556e-07   -1.3210125095139804e-05
9.037544570287236e-06   -1.092876418055163e-06   -3.140620621644419e-05
9.037544570287236e-06   -1.092876418055163e-06   -3.140620621644419e-05
9.037544570287236e-06   -1.092876418055163e-06   -3.140620621644419e-05
9.037544570287236e-06   -1.092876418055163e-06   -3.140620621644419e-05
2.953753012650224e-06   -6.073694455936002e-07   -2.1557857803858853e-05
2.953753012650224e-06   -6.073694455936002e-07   -2.1557857803858853e-05
2.953753012650224e-06   -6.073694455936002e-07   -2.1557857803858853e-05
2.953753012650224e-06   -6.073694455936002e-07   -2.1557857803858853e-05
9.037544570287236e-06   2.500202335884924e-07   -1.2404387104153784e-05
9.037544570287236e-06   2.500202335884924e-07   -1.2404387104153784e-05
9.037544570287236e-06   2.500202335884924e-07   -1.2404387104153784e-05
9.037544570287236e-06   2.500202335884924e-07   -1.2404387104153784e-05
-2.363546897087029e-06   -1.0928764180549461e-06   -3.221194420743032e-05
-2.363546897087029e-06   -1.0928764180549461e-06   -3.221194420743032e-05
-2.363546897087029e-06   -1.0928764180549461e-06   -3.221194420743032e-05
-2.363546897087029e-06   -1.0928764180549461e-06   -3.221194420743032e-05
-1.9041078339442758e-06   9.760410346576313e-07   -1.3662199527999597e-05
-1.9041078339442758e-06   9.760410346576313e-07   -1.3662199527999597e-05
-1.9041078339442758e-06   9.760410346576313e-07   -1.3662199527999597e-05
-1.9041078339442758e-06   9.760410346576313e-07   -1.3662199527999597e-05
9.542014150192192e-06   -4.391325493979716e-07   -3.188996535112722e-05
9.542014150192192e-06   -4.391325493979716e-07   -3.188996535112722e-05
9.542014150192192e-06   -4.391325493979716e-07   -3.188996535112722e-05
9.542014150192192e-06   -4.391325493979716e-07   -3.188996535112722e-05
3.4615167040588657e-06   -1.4291954099202898e-07   -2.1933530745949002e-05
3.4615167040588657e-06   -1.4291954099202898e-07   -2.1933530745949002e-05
3.4615167040588657e-06   -1.4291954099202898e-07   -2.1933530745949002e-05
3.4615167040588657e-06   -1.4291954099202898e-07   -2.1933530745949002e-05
-3.365587153739575e-06   7.421288554635991e-07   -1.6452052526610907e-05
-3.365587153739575e-06   7.421288554635991e-07   -1.6452052526610907e-05
-3.365587153739575e-06   7.421288554635991e-07   -1.6452052526610907e-05
-3.365587153739575e-06   7.421288554635991e-07   -1.6452052526610907e-05
-1.4407352043438932e-05   3.8411727629802245e-07   -3.5069800956942466e-05
-1.4407352043438932e-05   3.8411727629802245e-07   -3.5069800956942466e-05
-1.4407352043438932e-05   3.8411727629802245e-07   -3.5069800956942466e-05
-1.4407352043438932e-05   3.8411727629802245e-07   -3.5069800956942466e-05
-1.3855691496178401e-05   1.3692879398338482e-06   -1.6333913266183592e-05
-1.3855691496178401e-05   1.3692879398338482e-06   -1.6333913266183592e-05
-1.3855691496178401e-05   1.3692879398338482e-06   -1.6333913266183592e-05
-1.3855691496178401e-05   1.3692879398338482e-06   -1.6333913266183592e-05
-2.8529664674397618e-06   8.618879664950424e-07   -3.436734833007807e-05
-2.8529664674397618e-06   8.618879664950424e-07   -3.436734833007807e-05
-2.8529664674397618e-06   8.618879664950424e-07   -3.436734833007807e-05
-2.8529664674397618e-06   8.618879664950424e-07   -3.436734833007807e-05
-8.561650602861542e-06   1.018077997734122e-06   -2.494658878978513e-05
-8.561650602861542e-06   1.018077997734122e-06   -2.494658878978513e-05
-8.561650602861542e-06   1.018077997734122e-06   -2.494658878978513e-05
-8.561650602861542e-06   1.018077997734122e-06   -2.494658878978513e-05
-2.8529664674397753e-06   1.369287939834065e-06   -1.6029473282180352e-05
-2.8529664674397753e-06   1.369287939834065e-06   -1.6029473282180352e-05
-2.8529664674397753e-06   1.369287939834065e-06   -1.6029473282180352e-05
-2.8529664674397753e-06   1.369287939834065e-06   -1.6029473282180352e-05
-1.3855691496178401e-05   8.618879664950424e-07   -3.467178831408134e-05
-1.3855691496178401e-05   8.618879664950424e-07   -3.467178831408134e-05
-1.3855691496178401e-05   8.618879664950424e-07   -3.467178831408134e-05
-1.3855691496178401e-05   8.618879664950424e-07   -3.467178831408134e-05
-1.3323426515496882e-05   2.0329357477537075e-06   -1.630937016460041e-05
-1.3323426515496882e-05   2.0329357477537075e-06   -1.630937016460041e-05
-1.3323426515496882e-05   2.0329357477537075e-06   -1.630937016460041e-05
-1.3323426515496882e-05   2.0329357477537075e-06   -1.630937016460041e-05
-2.363546897087029e-06   1.4144008101050869e-06   -3.420471523269447e-05
-2.363546897087029e-06   1.4144008101050869e-06   -3.420471523269447e-05
-2.363546897087029e-06   1.4144008101050869e-06   -3.420471523269447e-05
-2.363546897087029e-06   1.4144008101050869e-06   -3.420471523269447e-05
-8.087349172643137e-06   1.46551077837378e-06   -2.4695710754395395e-05
-8.087349172643137e-06   1.46551077837378e-06   -2.4695710754395395e-05
-8.087349172643137e-06   1.46551077837378e-06   -2.4695710754395395e-05
-8.087349172643137e-06   1.46551077837378e-06   -2.4695710754395395e-05
-2.363546897087029e-06   2.0329357477534907e-06   -1.5938249202011412e-05
-2.363546897087029e-06   2.0329357477534907e-06   -1.5938249202011412e-05
-2.363546897087029e-06   2.0329357477534907e-06   -1.5938249202011412e-05
-2.363546897087029e-06   2.0329357477534907e-06   -1.5938249202011412e-05
-1.3323426515496882e-05   1.4144008101050869e-06   -3.45758361952836e-05
-1.3323426515496882e-05   1.4144008101050869e-06   -3.45758361952836e-05
-1.3323426515496882e-05   1.4144008101050869e-06   -3.45758361952836e-05
-1.3323426515496882e-05   1.4144008101050869e-06   -3.45758361952836e-05
-1.2831615615829076e-05   2.7080926073238566e-06   -1.6694581224366853e-05
-1.2831615615829076e-05   2.7080926073238566e-06   -1.6694581224366853e-05
-1.2831615615829076e-05   2.7080926073238566e-06   -1.6694581224366853e-05
-1.2831615615829076e-05   2.7080926073238566e-06   -1.6694581224366853e-05
-1.9041078339442893e-06   1.9852615223896024e-06   -3.4473395543214264e-05
-1.9041078339442893e-06   1.9852615223896024e-06   -3.4473395543214264e-05
-1.9041078339442893e-06   1.9852615223896024e-06   -3.4473395543214264e-05
-1.9041078339442893e-06   1.9852615223896024e-06   -3.4473395543214264e-05
-7.663950602131153e-06   1.9245967857785e-06   -2.483725875426974e-05
-7.663950602131153e-06   1.9245967857785e-06   -2.483725875426974e-05
-7.663950602131153e-06   1.9245967857785e-06   -2.483725875426974e-05
-7.663950602131153e-06   1.9245967857785e-06   -2.483725875426974e-05
-1.4407352043438955e-05   2.3908704990928484e-06   -1.3340545777690868e-05
-1.4407352043438955e-05   2.3908704990928484e-06   -1.3340545777690868e-05
-1.4407352043438955e-05   2.3908704990928484e-06   -1.3340545777690868e-05
-1.4407352043438955e-05   2.3908704990928484e-06   -1.3340545777690868e-05
-2.5252320263251935e-05   2.8921501189923225e-06   -3.111472503877278e-05
-2.5252320263251935e-05   2.8921501189923225e-06   -3.111472503877278e-05
-2.5252320263251935e-05   2.8921501189923225e-06   -3.111472503877278e-05
-2.5252320263251935e-05   2.8921501189923225e-06   -3.111472503877278e-05
-2.4586907008289833e-05   3.060361625950147e-06   -1.2528163808899102e-05
-2.4586907008289833e-05   3.060361625950147e-06   -1.2528163808899102e-05
-2.4586907008289833e-05   3.060361625950147e-06   -1.2528163808899102e-05
-2.4586907008289833e-05   3.060361625950147e-06   -1.2528163808899102e-05
-1.3855691496178425e-05   3.4979195039106046e-06   -3.06760577225277e-05
-1.3855691496178425e-05   3.4979195039106046e-06   -3.06760577225277e-05
-1.3855691496178425e-05   3.4979195039106046e-06   -3.06760577225277e-05
-1.3855691496178425e-05   3.4979195039106046e-06   -3.06760577225277e-05
-1.9383070493540273e-05   3.0857703911700216e-06   -2.121646992594687e-05
-1.9383070493540273e-05   3.0857703911700216e-06   -2.121646992594687e-05
-1.9383070493540273e-05   3.0857703911700216e-06   -2.121646992594687e-05
-1.9383070493540273e-05   3.0857703911700216e-06   -2.121646992594687e-05
-1.3855691496178425e-05   3.060361625950147e-06   -1.2790698535675312e-05
-1.3855691496178425e-05   3.060361625950147e-06   -1.2790698535675312e-05
-1.3855691496178425e-05   3.060361625950147e-06   -1.2790698535675312e-05
-1.3855691496178425e-05   3.060361625950147e-06   -1.2790698535675312e-05
-2.4586907008289877e-05   3.4979195039106046e-06   -3.0413522995751383e-05
-2.4586907008289877e-05   3.4979195039106046e-06   -3.0413522995751383e-05
-2.4586907008289877e-05   3.4979195039106046e-06   -3.0413522995751383e-05
-2.4586907008289877e-05   3.4979195039106046e-06   -3.0413522995751383e-05
-2.384951599809598e-05   3.6630070303252105e-06   -1.2076111170047964e-05
-2.384951599809598e-05   3.6630070303252105e-06   -1.2076111170047964e-05
-2.384951599809598e-05   3.6630070303252105e-06   -1.2076111170047964e-05
-2.384951599809598e-05   3.6630070303252105e-06   -1.2076111170047964e-05
-1.332342651549691e-05   4.01946381761286e-06   -2.9833467713418895e-05
-1.332342651549691e-05   4.01946381761286e-06   -2.9833467713418895e-05
-1.332342651549691e-05   4.01946381761286e-06   -2.9833467713418895e-05
-1.332342651549691e-05   4.01946381761286e-06   -2.9833467713418895e-05
-1.8708905370810533e-05   3.558011643031017e-06   -2.0580798316480392e-05
-1.8708905370810533e-05   3.558011643031017e-06   -2.0580798316480392e-05
-1.8708905370810533e-05   3.558011643031017e-06   -2.0580798316480392e-05
-1.8708905370810533e-05   3.558011643031017e-06   -2.0580798316480392e-05
-1.3323426515496896e-05   3.6630070303252105e-06   -1.228998524242038e-05
-1.3323426515496896e-05   3.6630070303252105e-06   -1.228998524242038e-05
-1.3323426515496896e-05   3.6630070303252105e-06   -1.228998524242038e-05
-1.3323426515496896e-05   3.6630070303252105e-06   -1.228998524242038e-05
-2.384951599809598e-05   4.01946381761286e-06   -2.961959364104652e-05
-2.384951599809598e-05   4.01946381761286e-06   -2.961959364104652e-05
-2.384951599809598e-05   4.01946381761286e-06   -2.961959364104652e-05
-2.384951599809598e-05   4.01946381761286e-06   -2.961959364104652e-05
-2.322670590954994e-05   4.336397580981992e-06   -1.235570047692855e-05
-2.322670590954994e-05   4.336397580981992e-06   -1.235570047692855e-05
-2.322670590954994e-05   4.336397580981992e-06   -1.235570047692855e-05
-2.322670590954994e-05   4.336397580981992e-06   -1.235570047692855e-05
-1.2831615615829096e-05   4.595690330250462e-06   -2.9836426616024317e-05
-1.2831615615829096e-05   4.595690330250462e-06   -2.9836426616024317e-05
-1.2831615615829096e-05   4.595690330250462e-06   -2.9836426616024317e-05
-1.2831615615829096e-05   4.595690330250462e-06   -2.9836426616024317e-05
-1.8292259505487317e-05   3.992698757351648e-06   -2.0373558522854678e-05
-1.8292259505487317e-05   3.992698757351648e-06   -2.0373558522854678e-05
-1.8292259505487317e-05   3.992698757351648e-06   -2.0373558522854678e-05
-1.8292259505487317e-05   3.992698757351648e-06   -2.0373558522854678e-05
-2.5252320263251935e-05   4.1117406745238855e-06   -6.6779026556649124e-06
-2.5252320263251935e-05   4.1117406745238855e-06   -6.6779026556649124e-06
-2.5252320263251935e-05   4.1117406745238855e-06   -6.6779026556649124e-06
-2.5252320263251935e-05   4.1117406745238855e-06   -6.6779026556649124e-06
-3.668611209823179e-05   5.673370571155668e-06   -2.479724444265244e-05
-3.668611209823179e-05   5.673370571155668e-06   -2.479724444265244e-05
-3.668611209823179e-05   5.673370571155668e-06   -2.479724444265244e-05
-3.668611209823179e-05   5.673370571155668e-06   -2.479724444265244e-05
-3.5150182942487196e-05   4.80753075647101e-06   -2.0789674167427186e-06
-3.5150182942487196e-05   4.80753075647101e-06   -2.0789674167427186e-06
-3.5150182942487196e-05   4.80753075647101e-06   -2.0789674167427186e-06
-3.5150182942487196e-05   4.80753075647101e-06   -2.0789674167427186e-06
-2.4586907008289833e-05   6.478384204837298e-06   -2.068693937609151e-05
-2.4586907008289833e-05   6.478384204837298e-06   -2.068693937609151e-05
-2.4586907008289833e-05   6.478384204837298e-06   -2.068693937609151e-05
-2.4586907008289833e-05   6.478384204837298e-06   -2.068693937609151e-05
-2.9161749878630332e-05   5.404576958379379e-06   -1.241791691098243e-05
-2.9161749878630332e-05   5.404576958379379e-06   -1.241791691098243e-05
-2.9161749878630332e-05   5.404576958379379e-06   -1.241791691098243e-05
-2.9161749878630332e-05   5.404576958379379e-06   -1.241791691098243e-05
-2.458690700828985e-05   4.807530756470793e-06   -3.0814794857625567e-06
-2.458690700828985e-05   4.807530756470793e-06   -3.0814794857625567e-06
-2.458690700828985e-05   4.807530756470793e-06   -3.0814794857625567e-06
-2.458690700828985e-05   4.807530756470793e-06   -3.0814794857625567e-06
-3.515018294248713e-05   6.478384204837298e-06   -1.968442730707152e-05
-3.515018294248713e-05   6.478384204837298e-06   -1.968442730707152e-05
-3.515018294248713e-05   6.478384204837298e-06   -1.968442730707152e-05
-3.515018294248713e-05   6.478384204837298e-06   -1.968442730707152e-05
-3.3886431946836826e-05   5.057075646971044e-06   -1.5479727882177809e-07
-3.3886431946836826e-05   5.057075646971044e-06   -1.5479727882177809e-07
-3.3886431946836826e-05   5.057075646971044e-06   -1.5479727882177809e-07
-3.3886431946836826e-05   5.057075646971044e-06   -1.5479727882177809e-07
-2.384951599809598e-05   6.690558693800376e-06   -1.786308035482101e-05
-2.384951599809598e-05   6.690558693800376e-06   -1.786308035482101e-05
-2.384951599809598e-05   6.690558693800376e-06   -1.786308035482101e-05
-2.384951599809598e-05   6.690558693800376e-06   -1.786308035482101e-05
-2.8644609179239105e-05   5.726593101048694e-06   -9.292879030597652e-06
-2.8644609179239105e-05   5.726593101048694e-06   -9.292879030597652e-06
-2.8644609179239105e-05   5.726593101048694e-06   -9.292879030597652e-06
-2.8644609179239105e-05   5.726593101048694e-06   -9.292879030597652e-06
-2.384951599809598e-05   5.057075646971044e-06   -1.1348871069195724e-06
-2.384951599809598e-05   5.057075646971044e-06   -1.1348871069195724e-06
-2.384951599809598e-05   5.057075646971044e-06   -1.1348871069195724e-06
-2.384951599809598e-05   5.057075646971044e-06   -1.1348871069195724e-06
-3.388643194683672e-05   6.690558693800376e-06   -1.688299052672311e-05
-3.388643194683672e-05   6.690558693800376e-06   -1.688299052672311e-05
-3.388643194683672e-05   6.690558693800376e-06   -1.688299052672311e-05
-3.388643194683672e-05   6.690558693800376e-06   -1.688299052672311e-05
-3.2521140410306194e-05   5.371465934291258e-06   2.293369012051601e-06
-3.2521140410306194e-05   5.371465934291258e-06   2.293369012051601e-06
-3.2521140410306194e-05   5.371465934291258e-06   2.293369012051601e-06
-3.2521140410306194e-05   5.371465934291258e-06   2.293369012051601e-06
-2.322670590954994e-05   6.871019455366228e-06   -1.4097087268520475e-05
-2.322670590954994e-05   6.871019455366228e-06   -1.4097087268520475e-05
-2.322670590954994e-05   6.871019455366228e-06   -1.4097087268520475e-05
-2.322670590954994e-05   6.871019455366228e-06   -1.4097087268520475e-05
-2.7360087503202935e-05   5.778815609222641e-06   -6.552795638079591e-06
-2.7360087503202935e-05   5.778815609222641e-06   -6.552795638079591e-06
-2.7360087503202935e-05   5.778815609222641e-06   -6.552795638079591e-06
-2.7360087503202935e-05   5.778815609222641e-06   -6.552795638079591e-06
3.132579160973351e-05   -4.364176740553807e-06   6.278237783321756e-06
3.132579160973351e-05   -4.364176740553807e-06   6.278237783321756e-06
3.132579160973351e-05   -4.364176740553807e-06   6.278237783321756e-06
3.132579160973351e-05   -4.364176740553807e-06   6.278237783321756e-06
1.508121581882146e-05   -6.451831504159346e-06   -2.204864805969509e-05
1.508121581882146e-05   -6.451831504159346e-06   -2.204864805969509e-05
1.508121581882146e-05   -6.451831504159346e-06   -2.204864805969509e-05
1.508121581882146e-05   -6.451831504159346e-06   -2.204864805969509e-05
1.569229562606166e-05   -4.059759102601791e-06   3.063255934369815e-06
1.569229562606166e-05   -4.059759102601791e-06   3.063255934369815e-06
1.569229562606166e-05   -4.059759102601791e-06   3.063255934369815e-06
1.569229562606166e-05   -4.059759102601791e-06   3.063255934369815e-06
3.275043886714489e-05   -6.30236369726059e-06   -2.4021420043973663e-05
3.275043886714489e-05   -6.30236369726059e-06   -2.4021420043973663e-05
3.275043886714489e-05   -6.30236369726059e-06   -2.4021420043973663e-05
3.275043886714489e-05   -6.30236369726059e-06   -2.4021420043973663e-05
2.2747653293906295e-05   -4.776146340173008e-06   -8.2658411694952e-06
2.2747653293906295e-05   -4.776146340173008e-06   -8.2658411694952e-06
2.2747653293906295e-05   -4.776146340173008e-06   -8.2658411694952e-06
2.2747653293906295e-05   -4.776146340173008e-06   -8.2658411694952e-06
3.2750438867144946e-05   -4.059759102601791e-06   4.408818691165116e-06
3.2750438867144946e-05   -4.059759102601791e-06   4.408818691165116e-06
3.2750438867144946e-05   -4.059759102601791e-06   4.408818691165116e-06
3.2750438867144946e-05   -4.059759102601791e-06   4.408818691165116e-06
1.5692295626061647e-05   -6.30236369726059e-06   -2.53669828007688e-05
1.5692295626061647e-05   -6.30236369726059e-06   -2.53669828007688e-05
1.5692295626061647e-05   -6.30236369726059e-06   -2.53669828007688e-05
1.5692295626061647e-05   -6.30236369726059e-06   -2.53669828007688e-05
1.6300350324015175e-05   -3.796838048043859e-06   1.4875366683626302e-06
1.6300350324015175e-05   -3.796838048043859e-06   1.4875366683626302e-06
1.6300350324015175e-05   -3.796838048043859e-06   1.4875366683626302e-06
1.6300350324015175e-05   -3.796838048043859e-06   1.4875366683626302e-06
3.384304831727117e-05   -6.083157708155172e-06   -2.6378501524330553e-05
3.384304831727117e-05   -6.083157708155172e-06   -2.6378501524330553e-05
3.384304831727117e-05   -6.083157708155172e-06   -2.6378501524330553e-05
3.384304831727117e-05   -6.083157708155172e-06   -2.6378501524330553e-05
2.3948462205756316e-05   -4.760110289258983e-06   -1.0681353123143534e-05
2.3948462205756316e-05   -4.760110289258983e-06   -1.0681353123143534e-05
2.3948462205756316e-05   -4.760110289258983e-06   -1.0681353123143534e-05
2.3948462205756316e-05   -4.760110289258983e-06   -1.0681353123143534e-05
3.384304831727117e-05   -3.796838048043859e-06   2.8593284644293964e-06
3.384304831727117e-05   -3.796838048043859e-06   2.8593284644293964e-06
3.384304831727117e-05   -3.796838048043859e-06   2.8593284644293964e-06
3.384304831727117e-05   -3.796838048043859e-06   2.8593284644293964e-06
1.6300350324015175e-05   -6.083157708155172e-06   -2.7750293320397373e-05
1.6300350324015175e-05   -6.083157708155172e-06   -2.7750293320397373e-05
1.6300350324015175e-05   -6.083157708155172e-06   -2.7750293320397373e-05
1.6300350324015175e-05   -6.083157708155172e-06   -2.7750293320397373e-05
1.671231438417974e-05   -2.96683621903702e-06   -1.68153384704048e-06
1.671231438417974e-05   -2.96683621903702e-06   -1.68153384704048e-06
1.671231438417974e-05   -2.96683621903702e-06   -1.68153384704048e-06
1.671231438417974e-05   -2.96683621903702e-06   -1.68153384704048e-06
3.499875020054568e-05   -5.229623403861343e-06   -3.0801254563422376e-05
3.499875020054568e-05   -5.229623403861343e-06   -3.0801254563422376e-05
3.499875020054568e-05   -5.229623403861343e-06   -3.0801254563422376e-05
3.499875020054568e-05   -5.229623403861343e-06   -3.0801254563422376e-05
2.4279613648678146e-05   -4.393478776301262e-06   -1.3437713753513067e-05
2.4279613648678146e-05   -4.393478776301262e-06   -1.3437713753513067e-05
2.4279613648678146e-05   -4.393478776301262e-06   -1.3437713753513067e-05
2.4279613648678146e-05   -4.393478776301262e-06   -1.3437713753513067e-05
1.5081215818821487e-05   -2.0370159106056045e-06   -7.530747527479103e-06
1.5081215818821487e-05   -2.0370159106056045e-06   -7.530747527479103e-06
1.5081215818821487e-05   -2.0370159106056045e-06   -7.530747527479103e-06
1.5081215818821487e-05   -2.0370159106056045e-06   -7.530747527479103e-06
-9.396663337620648e-07   -4.1649779375188024e-06   -3.550899499793307e-05
-9.396663337620648e-07   -4.1649779375188024e-06   -3.550899499793307e-05
-9.396663337620648e-07   -4.1649779375188024e-06   -3.550899499793307e-05
-9.396663337620648e-07   -4.1649779375188024e-06   -3.550899499793307e-05
-3.129833405330441e-07   -1.6120919315843179e-06   -8.306544639609913e-06
-3.129833405330441e-07   -1.6120919315843179e-06   -8.306544639609913e-06
-3.129833405330441e-07   -1.6120919315843179e-06   -8.306544639609913e-06
-3.129833405330441e-07   -1.6120919315843179e-06   -8.306544639609913e-06
1.569229562606166e-05   -3.963345380953061e-06   -3.3571257514313104e-05
1.569229562606166e-05   -3.963345380953061e-06   -3.3571257514313104e-05
1.569229562606166e-05   -3.963345380953061e-06   -3.3571257514313104e-05
1.569229562606166e-05   -3.963345380953061e-06   -3.3571257514313104e-05
7.401929099636696e-06   -2.5205316825718804e-06   -2.0619668189300155e-05
7.401929099636696e-06   -2.5205316825718804e-06   -2.0619668189300155e-05
7.401929099636696e-06   -2.5205316825718804e-06   -2.0619668189300155e-05
7.401929099636696e-06   -2.5205316825718804e-06   -2.0619668189300155e-05
1.5692295626061647e-05   -1.6120919315843179e-06   -6.895792569988515e-06
1.5692295626061647e-05   -1.6120919315843179e-06   -6.895792569988515e-06
1.5692295626061647e-05   -1.6120919315843179e-06   -6.895792569988515e-06
1.5692295626061647e-05   -1.6120919315843179e-06   -6.895792569988515e-06
-3.129833405330441e-07   -3.963345380953061e-06   -3.4982009583934366e-05
-3.129833405330441e-07   -3.963345380953061e-06   -3.4982009583934366e-05
-3.129833405330441e-07   -3.963345380953061e-06   -3.4982009583934366e-05
-3.129833405330441e-07   -3.963345380953061e-06   -3.4982009583934366e-05
2.390207604235407e-07   -1.0928764180549461e-06   -8.50822005863945e-06
2.390207604235407e-07   -1.0928764180549461e-06   -8.50822005863945e-06
2.390207604235407e-07   -1.0928764180549461e-06   -8.50822005863945e-06
2.390207604235407e-07   -1.0928764180549461e-06   -8.50822005863945e-06
1.6300350324015175e-05   -3.5895920727400336e-06   -3.377907327181443e-05
1.6300350324015175e-05   -3.5895920727400336e-06   -3.377907327181443e-05
1.6300350324015175e-05   -3.5895920727400336e-06   -3.377907327181443e-05
1.6300350324015175e-05   -3.5895920727400336e-06   -3.377907327181443e-05
7.827122154469087e-06   -2.3113514187687173e-06   -2.042397071495326e-05
7.827122154469087e-06   -2.3113514187687173e-06   -2.042397071495326e-05
7.827122154469087e-06   -2.3113514187687173e-06   -2.042397071495326e-05
7.827122154469087e-06   -2.3113514187687173e-06   -2.042397071495326e-05
1.6300350324015175e-05   -1.0928764180549461e-06   -7.010190665828289e-06
1.6300350324015175e-05   -1.0928764180549461e-06   -7.010190665828289e-06
1.6300350324015175e-05   -1.0928764180549461e-06   -7.010190665828289e-06
1.6300350324015175e-05   -1.0928764180549461e-06   -7.010190665828289e-06
2.390207604235407e-07   -3.5895920727400336e-06   -3.527710266462551e-05
2.390207604235407e-07   -3.5895920727400336e-06   -3.527710266462551e-05
2.390207604235407e-07   -3.5895920727400336e-06   -3.527710266462551e-05
2.390207604235407e-07   -3.5895920727400336e-06   -3.527710266462551e-05
6.31536707294765e-07   -4.391325493977548e-07   -8.849231235421879e-06
6.31536707294765e-07   -4.391325493977548e-07   -8.849231235421879e-06
6.31536707294765e-07   -4.391325493977548e-07   -8.849231235421879e-06
6.31536707294765e-07   -4.391325493977548e-07   -8.849231235421879e-06
1.6712314384179753e-05   -3.057698081679371e-06   -3.407938804419466e-05
1.6712314384179753e-05   -3.057698081679371e-06   -3.407938804419466e-05
1.6712314384179753e-05   -3.057698081679371e-06   -3.407938804419466e-05
1.6712314384179753e-05   -3.057698081679371e-06   -3.407938804419466e-05
8.338226593161268e-06   -1.943769062572433e-06   -2.0790932470628404e-05
8.338226593161268e-06   -1.943769062572433e-06   -2.0790932470628404e-05
8.338226593161268e-06   -1.943769062572433e-06   -2.0790932470628404e-05
8.338226593161268e-06   -1.943769062572433e-06   -2.0790932470628404e-05
-9.396663337620648e-07   3.8411727629802245e-07   -1.1505301951719466e-05
-9.396663337620648e-07   3.8411727629802245e-07   -1.1505301951719466e-05
-9.396663337620648e-07   3.8411727629802245e-07   -1.1505301951719466e-05
-9.396663337620648e-07   3.8411727629802245e-07   -1.1505301951719466e-05
-1.6723961077705025e-05   -2.162127028856615e-06   -3.934020644138375e-05
-1.6723961077705025e-05   -2.162127028856615e-06   -3.934020644138375e-05
-1.6723961077705025e-05   -2.162127028856615e-06   -3.934020644138375e-05
-1.6723961077705025e-05   -2.162127028856615e-06   -3.934020644138375e-05
-1.5971841762963207e-05   8.618879664950424e-07   -1.250678033573962e-05
-1.5971841762963207e-05   8.618879664950424e-07   -1.250678033573962e-05
-1.5971841762963207e-05   8.618879664950424e-07   -1.250678033573962e-05
-1.5971841762963207e-05   8.618879664950424e-07   -1.250678033573962e-05
-3.129833405330441e-07   -1.923852802930082e-06   -3.69334332448014e-05
-3.129833405330441e-07   -1.923852802930082e-06   -3.69334332448014e-05
-3.129833405330441e-07   -1.923852802930082e-06   -3.69334332448014e-05
-3.129833405330441e-07   -1.923852802930082e-06   -3.69334332448014e-05
-8.387245395784818e-06   -4.018645113365669e-07   -2.4389522794338e-05
-8.387245395784818e-06   -4.018645113365669e-07   -2.4389522794338e-05
-8.387245395784818e-06   -4.018645113365669e-07   -2.4389522794338e-05
-8.387245395784818e-06   -4.018645113365669e-07   -2.4389522794338e-05
-3.129833405330441e-07   8.618879664952592e-07   -1.0835335874084459e-05
-3.129833405330441e-07   8.618879664952592e-07   -1.0835335874084459e-05
-3.129833405330441e-07   8.618879664952592e-07   -1.0835335874084459e-05
-3.129833405330441e-07   8.618879664952592e-07   -1.0835335874084459e-05
-1.5971841762963207e-05   -1.923852802930082e-06   -3.860487770645648e-05
-1.5971841762963207e-05   -1.923852802930082e-06   -3.860487770645648e-05
-1.5971841762963207e-05   -1.923852802930082e-06   -3.860487770645648e-05
-1.5971841762963207e-05   -1.923852802930082e-06   -3.860487770645648e-05
-1.5281837068604635e-05   1.4144008101050869e-06   -1.2282800011798956e-05
-1.5281837068604635e-05   1.4144008101050869e-06   -1.2282800011798956e-05
-1.5281837068604635e-05   1.4144008101050869e-06   -1.2282800011798956e-05
-1.5281837068604635e-05   1.4144008101050869e-06   -1.2282800011798956e-05
2.390207604235407e-07   -1.5552807363871345e-06   -3.636908746561726e-05
2.390207604235407e-07   -1.5552807363871345e-06   -3.636908746561726e-05
2.390207604235407e-07   -1.5552807363871345e-06   -3.636908746561726e-05
2.390207604235407e-07   -1.5552807363871345e-06   -3.636908746561726e-05
-7.775140180579261e-06   -1.2993690421086827e-07   -2.3867358863251812e-05
-7.775140180579261e-06   -1.2993690421086827e-07   -2.3867358863251812e-05
-7.775140180579261e-06   -1.2993690421086827e-07   -2.3867358863251812e-05
-7.775140180579261e-06   -1.2993690421086827e-07   -2.3867358863251812e-05
2.390207604235407e-07   1.4144008101050869e-06   -1.0500991083903623e-05
2.390207604235407e-07   1.4144008101050869e-06   -1.0500991083903623e-05
2.390207604235407e-07   1.4144008101050869e-06   -1.0500991083903623e-05
2.390207604235407e-07   1.4144008101050869e-06   -1.0500991083903623e-05
-1.5281837068604655e-05   -1.5552807363871345e-06   -3.8150896393512835e-05
-1.5281837068604655e-05   -1.5552807363871345e-06   -3.8150896393512835e-05
-1.5281837068604655e-05   -1.5552807363871345e-06   -3.8150896393512835e-05
-1.5281837068604655e-05   -1.5552807363871345e-06   -3.8150896393512835e-05
-1.4816798208181357e-05   1.9852615223896024e-06   -1.2497974219853646e-05
-1.4816798208181357e-05   1.9852615223896024e-06   -1.2497974219853646e-05
-1.4816798208181357e-05   1.9852615223896024e-06   -1.2497974219853646e-05
-1.4816798208181357e-05   1.9852615223896024e-06   -1.2497974219853646e-05
6.315367072947786e-07   -1.205433382240901e-06   -3.633078213620254e-05
6.315367072947786e-07   -1.205433382240901e-06   -3.633078213620254e-05
6.315367072947786e-07   -1.205433382240901e-06   -3.633078213620254e-05
6.315367072947786e-07   -1.205433382240901e-06   -3.633078213620254e-05
-7.339072151289482e-06   1.750769624286625e-07   -2.38747402453642e-05
-7.339072151289482e-06   1.750769624286625e-07   -2.38747402453642e-05
-7.339072151289482e-06   1.750769624286625e-07   -2.38747402453642e-05
-7.339072151289482e-06   1.750769624286625e-07   -2.38747402453642e-05
-1.672396107770499e-05   2.8921501189925394e-06   -9.37874038858214e-06
-1.672396107770499e-05   2.8921501189925394e-06   -9.37874038858214e-06
-1.672396107770499e-05   2.8921501189925394e-06   -9.37874038858214e-06
-1.672396107770499e-05   2.8921501189925394e-06   -9.37874038858214e-06
-3.273163043997805e-05   6.021761277414522e-07   -3.7432173720454475e-05
-3.273163043997805e-05   6.021761277414522e-07   -3.7432173720454475e-05
-3.273163043997805e-05   6.021761277414522e-07   -3.7432173720454475e-05
-3.273163043997805e-05   6.021761277414522e-07   -3.7432173720454475e-05
-3.166063943306031e-05   3.4979195039103878e-06   -9.986121852546305e-06
-3.166063943306031e-05   3.4979195039103878e-06   -9.986121852546305e-06
-3.166063943306031e-05   3.4979195039103878e-06   -9.986121852546305e-06
-3.166063943306031e-05   3.4979195039103878e-06   -9.986121852546305e-06
-1.597184176296318e-05   1.0394659899766283e-06   -3.465904586101459e-05
-1.597184176296318e-05   1.0394659899766283e-06   -3.465904586101459e-05
-1.597184176296318e-05   1.0394659899766283e-06   -3.465904586101459e-05
-1.597184176296318e-05   1.0394659899766283e-06   -3.465904586101459e-05
-2.4021364869207743e-05   2.2140630743289116e-06   -2.1947932267884877e-05
-2.4021364869207743e-05   2.2140630743289116e-06   -2.1947932267884877e-05
-2.4021364869207743e-05   2.2140630743289116e-06   -2.1947932267884877e-05
-2.4021364869207743e-05   2.2140630743289116e-06   -2.1947932267884877e-05
-1.597184176296318e-05   3.4979195039103878e-06   -8.511049744185984e-06
-1.597184176296318e-05   3.4979195039103878e-06   -8.511049744185984e-06
-1.597184176296318e-05   3.4979195039103878e-06   -8.511049744185984e-06
-1.597184176296318e-05   3.4979195039103878e-06   -8.511049744185984e-06
-3.1660639433060366e-05   1.0394659899766283e-06   -3.6134117969374995e-05
-3.1660639433060366e-05   1.0394659899766283e-06   -3.6134117969374995e-05
-3.1660639433060366e-05   1.0394659899766283e-06   -3.6134117969374995e-05
-3.1660639433060366e-05   1.0394659899766283e-06   -3.6134117969374995e-05
-3.062420438080251e-05   4.019463817612643e-06   -9.087105058887442e-06
-3.062420438080251e-05   4.019463817612643e-06   -9.087105058887442e-06
-3.062420438080251e-05   4.019463817612643e-06   -9.087105058887442e-06
-3.062420438080251e-05   4.019463817612643e-06   -9.087105058887442e-06
-1.5281837068604655e-05   1.4416746026910121e-06   -3.3111043716931065e-05
-1.5281837068604655e-05   1.4416746026910121e-06   -3.3111043716931065e-05
-1.5281837068604655e-05   1.4416746026910121e-06   -3.3111043716931065e-05
-1.5281837068604655e-05   1.4416746026910121e-06   -3.3111043716931065e-05
-2.305176168079999e-05   2.5945861455024376e-06   -2.0852916288958766e-05
-2.305176168079999e-05   2.5945861455024376e-06   -2.0852916288958766e-05
-2.305176168079999e-05   2.5945861455024376e-06   -2.0852916288958766e-05
-2.305176168079999e-05   2.5945861455024376e-06   -2.0852916288958766e-05
-1.5281837068604615e-05   4.019463817612643e-06   -7.540431529934289e-06
-1.5281837068604615e-05   4.019463817612643e-06   -7.540431529934289e-06
-1.5281837068604615e-05   4.019463817612643e-06   -7.540431529934289e-06
-1.5281837068604615e-05   4.019463817612643e-06   -7.540431529934289e-06
-3.062420438080256e-05   1.4416746026910121e-06   -3.4657717245884e-05
-3.062420438080256e-05   1.4416746026910121e-06   -3.4657717245884e-05
-3.062420438080256e-05   1.4416746026910121e-06   -3.4657717245884e-05
-3.062420438080256e-05   1.4416746026910121e-06   -3.4657717245884e-05
-2.983961573274577e-05   4.595690330250245e-06   -9.116023047359687e-06
-2.983961573274577e-05   4.595690330250245e-06   -9.116023047359687e-06
-2.983961573274577e-05   4.595690330250245e-06   -9.116023047359687e-06
-2.983961573274577e-05   4.595690330250245e-06   -9.116023047359687e-06
-1.4816798208181384e-05   1.7811629874897855e-06   -3.246533584931068e-05
-1.4816798208181384e-05   1.7811629874897855e-06   -3.246533584931068e-05
-1.4816798208181384e-05   1.7811629874897855e-06   -3.246533584931068e-05
-1.4816798208181384e-05   1.7811629874897855e-06   -3.246533584931068e-05
-2.2512420099199965e-05   2.860399971978643e-06   -2.028684155497296e-05
-2.2512420099199965e-05   2.860399971978643e-06   -2.028684155497296e-05
-2.2512420099199965e-05   2.860399971978643e-06   -2.028684155497296e-05
-2.2512420099199965e-05   2.860399971978643e-06   -2.028684155497296e-05
-3.273163043997805e-05   5.673370571155668e-06   -5.372222125191411e-06
-3.273163043997805e-05   5.673370571155668e-06   -5.372222125191411e-06
-3.273163043997805e-05   5.673370571155668e-06   -5.372222125191411e-06
-3.273163043997805e-05   5.673370571155668e-06   -5.372222125191411e-06
-4.946585124671182e-05   5.366472773765804e-06   -3.344672881484855e-05
-4.946585124671182e-05   5.366472773765804e-06   -3.344672881484855e-05
-4.946585124671182e-05   5.366472773765804e-06   -3.344672881484855e-05
-4.946585124671182e-05   5.366472773765804e-06   -3.344672881484855e-05
-4.734414120686685e-05   6.478384204837515e-06   -7.89618844408398e-08
-4.734414120686685e-05   6.478384204837515e-06   -7.89618844408398e-08
-4.734414120686685e-05   6.478384204837515e-06   -7.89618844408398e-08
-4.734414120686685e-05   6.478384204837515e-06   -7.89618844408398e-08
-3.166063943306026e-05   6.779344785580021e-06   -2.6398707855897433e-05
-3.166063943306026e-05   6.779344785580021e-06   -2.6398707855897433e-05
-3.166063943306026e-05   6.779344785580021e-06   -2.6398707855897433e-05
-3.166063943306026e-05   6.779344785580021e-06   -2.6398707855897433e-05
-3.856312614879194e-05   6.390372936870619e-06   -1.466118022045244e-05
-3.856312614879194e-05   6.390372936870619e-06   -1.466118022045244e-05
-3.856312614879194e-05   6.390372936870619e-06   -1.466118022045244e-05
-3.856312614879194e-05   6.390372936870619e-06   -1.466118022045244e-05
-3.166063943306034e-05   6.478384204837298e-06   -2.595382328863865e-07
-3.166063943306034e-05   6.478384204837298e-06   -2.595382328863865e-07
-3.166063943306034e-05   6.478384204837298e-06   -2.595382328863865e-07
-3.166063943306034e-05   6.478384204837298e-06   -2.595382328863865e-07
-4.734414120686685e-05   6.779344785580021e-06   -2.62181315074519e-05
-4.734414120686685e-05   6.779344785580021e-06   -2.62181315074519e-05
-4.734414120686685e-05   6.779344785580021e-06   -2.62181315074519e-05
-4.734414120686685e-05   6.779344785580021e-06   -2.62181315074519e-05
-4.558575609077322e-05   6.690558693800593e-06   2.9135838987305856e-06
-4.558575609077322e-05   6.690558693800593e-06   2.9135838987305856e-06
-4.558575609077322e-05   6.690558693800593e-06   2.9135838987305856e-06
-4.558575609077322e-05   6.690558693800593e-06   2.9135838987305856e-06
-3.062420438080251e-05   7.097518146121241e-06   -2.2266511289279835e-05
-3.062420438080251e-05   7.097518146121241e-06   -2.2266511289279835e-05
-3.062420438080251e-05   7.097518146121241e-06   -2.2266511289279835e-05
-3.062420438080251e-05   7.097518146121241e-06   -2.2266511289279835e-05
-3.776795747086424e-05   6.853072417187288e-06   -1.0213588701816074e-05
-3.776795747086424e-05   6.853072417187288e-06   -1.0213588701816074e-05
-3.776795747086424e-05   6.853072417187288e-06   -1.0213588701816074e-05
-3.776795747086424e-05   6.853072417187288e-06   -1.0213588701816074e-05
-3.062420438080256e-05   6.690558693800376e-06   2.6694082273380666e-06
-3.062420438080256e-05   6.690558693800376e-06   2.6694082273380666e-06
-3.062420438080256e-05   6.690558693800376e-06   2.6694082273380666e-06
-3.062420438080256e-05   6.690558693800376e-06   2.6694082273380666e-06
-4.558575609077314e-05   7.097518146121241e-06   -2.2022335617887445e-05
-4.558575609077314e-05   7.097518146121241e-06   -2.2022335617887445e-05
-4.558575609077314e-05   7.097518146121241e-06   -2.2022335617887445e-05
-4.558575609077314e-05   7.097518146121241e-06   -2.2022335617887445e-05
-4.3745307234086556e-05   6.871019455366011e-06   6.928947479095085e-06
-4.3745307234086556e-05   6.871019455366011e-06   6.928947479095085e-06
-4.3745307234086556e-05   6.871019455366011e-06   6.928947479095085e-06
-4.3745307234086556e-05   6.871019455366011e-06   6.928947479095085e-06
-2.983961573274577e-05   7.639697502886218e-06   -1.6708411851651656e-05
-2.983961573274577e-05   7.639697502886218e-06   -1.6708411851651656e-05
-2.983961573274577e-05   7.639697502886218e-06   -1.6708411851651656e-05
-2.983961573274577e-05   7.639697502886218e-06   -1.6708411851651656e-05
-3.598827438245417e-05   7.0068456038516365e-06   -6.080936296050419e-06
-3.598827438245417e-05   7.0068456038516365e-06   -6.080936296050419e-06
-3.598827438245417e-05   7.0068456038516365e-06   -6.080936296050419e-06
-3.598827438245417e-05   7.0068456038516365e-06   -6.080936296050419e-06
4.3005539220892396e-05   -6.451831504159346e-06   1.472473721461458e-05
4.3005539220892396e-05   -6.451831504159346e-06   1.472473721461458e-05
4.3005539220892396e-05   -6.451831504159346e-06   1.472473721461458e-05
4.3005539220892396e-05   -6.451831504159346e-06   1.472473721461458e-05
2.1600998723970695e-05   -8.151396586967338e-06   -2.196923599660631e-05
2.1600998723970695e-05   -8.151396586967338e-06   -2.196923599660631e-05
2.1600998723970695e-05   -8.151396586967338e-06   -2.196923599660631e-05
2.1600998723970695e-05   -8.151396586967338e-06   -2.196923599660631e-05
2.2123404015104064e-05   -6.3023636972608064e-06   1.057520887741718e-05
2.2123404015104064e-05   -6.3023636972608064e-06   1.057520887741718e-05
2.2123404015104064e-05   -6.3023636972608064e-06   1.057520887741718e-05
2.2123404015104064e-05   -6.3023636972608064e-06   1.057520887741718e-05
4.407022219097721e-05   -8.355367429720801e-06   -2.4771019176228595e-05
4.407022219097721e-05   -8.355367429720801e-06   -2.4771019176228595e-05
4.407022219097721e-05   -8.355367429720801e-06   -2.4771019176228595e-05
4.407022219097721e-05   -8.355367429720801e-06   -2.4771019176228595e-05
3.1396297568921356e-05   -6.590109967605229e-06   -4.706965950071387e-06
3.1396297568921356e-05   -6.590109967605229e-06   -4.706965950071387e-06
3.1396297568921356e-05   -6.590109967605229e-06   -4.706965950071387e-06
3.1396297568921356e-05   -6.590109967605229e-06   -4.706965950071387e-06
4.407022219097721e-05   -6.3023636972608064e-06   1.1807011116893285e-05
4.407022219097721e-05   -6.3023636972608064e-06   1.1807011116893285e-05
4.407022219097721e-05   -6.3023636972608064e-06   1.1807011116893285e-05
4.407022219097721e-05   -6.3023636972608064e-06   1.1807011116893285e-05
2.2123404015104064e-05   -8.355367429720801e-06   -2.6002821415704565e-05
2.2123404015104064e-05   -8.355367429720801e-06   -2.6002821415704565e-05
2.2123404015104064e-05   -8.355367429720801e-06   -2.6002821415704565e-05
2.2123404015104064e-05   -8.355367429720801e-06   -2.6002821415704565e-05
2.2564839231140226e-05   -6.083157708155172e-06   8.351254318473156e-06
2.2564839231140226e-05   -6.083157708155172e-06   8.351254318473156e-06
2.2564839231140226e-05   -6.083157708155172e-06   8.351254318473156e-06
2.2564839231140226e-05   -6.083157708155172e-06   8.351254318473156e-06
4.4733196655182434e-05   -8.27862461726201e-06   -2.7278727909466174e-05
4.4733196655182434e-05   -8.27862461726201e-06   -2.7278727909466174e-05
4.4733196655182434e-05   -8.27862461726201e-06   -2.7278727909466174e-05
4.4733196655182434e-05   -8.27862461726201e-06   -2.7278727909466174e-05
3.249832094514862e-05   -6.796975351641135e-06   -7.776257952115805e-06
3.249832094514862e-05   -6.796975351641135e-06   -7.776257952115805e-06
3.249832094514862e-05   -6.796975351641135e-06   -7.776257952115805e-06
3.249832094514862e-05   -6.796975351641135e-06   -7.776257952115805e-06
4.4733196655182434e-05   -6.083157708155172e-06   9.66853446393752e-06
4.4733196655182434e-05   -6.083157708155172e-06   9.66853446393752e-06
4.4733196655182434e-05   -6.083157708155172e-06   9.66853446393752e-06
4.4733196655182434e-05   -6.083157708155172e-06   9.66853446393752e-06
2.2564839231140226e-05   -8.27862461726201e-06   -2.8596008054930402e-05
2.2564839231140226e-05   -8.27862461726201e-06   -2.8596008054930402e-05
2.2564839231140226e-05   -8.27862461726201e-06   -2.8596008054930402e-05
2.2564839231140226e-05   -8.27862461726201e-06   -2.8596008054930402e-05
2.3025248007021065e-05   -5.22962340386156e-06   4.042143166862154e-06
2.3025248007021065e-05   -5.22962340386156e-06   4.042143166862154e-06
2.3025248007021065e-05   -5.22962340386156e-06   4.042143166862154e-06
2.3025248007021065e-05   -5.22962340386156e-06   4.042143166862154e-06
4.5386062715301447e-05   -7.815031575066122e-06   -3.167463644421578e-05
4.5386062715301447e-05   -7.815031575066122e-06   -3.167463644421578e-05
4.5386062715301447e-05   -7.815031575066122e-06   -3.167463644421578e-05
4.5386062715301447e-05   -7.815031575066122e-06   -3.167463644421578e-05
3.250928571749942e-05   -6.539670488009148e-06   -1.0978558100113245e-05
3.250928571749942e-05   -6.539670488009148e-06   -1.0978558100113245e-05
3.250928571749942e-05   -6.539670488009148e-06   -1.0978558100113245e-05
3.250928571749942e-05   -6.539670488009148e-06   -1.0978558100113245e-05
2.1600998723970695e-05   -4.1649779375188024e-06   1.5214284428397874e-06
2.1600998723970695e-05   -4.1649779375188024e-06   1.5214284428397874e-06
2.1600998723970695e-05   -4.1649779375188024e-06   1.5214284428397874e-06
2.1600998723970695e-05   -4.1649779375188024e-06   1.5214284428397874e-06
2.519827797058447e-06   -8.139480179840007e-06   -3.2665224447406705e-05
2.519827797058447e-06   -8.139480179840007e-06   -3.2665224447406705e-05
2.519827797058447e-06   -8.139480179840007e-06   -3.2665224447406705e-05
2.519827797058447e-06   -8.139480179840007e-06   -3.2665224447406705e-05
3.128177393522507e-06   -3.963345380953278e-06   -1.0840102313241888e-07
3.128177393522507e-06   -3.963345380953278e-06   -1.0840102313241888e-07
3.128177393522507e-06   -3.963345380953278e-06   -1.0840102313241888e-07
3.128177393522507e-06   -3.963345380953278e-06   -1.0840102313241888e-07
2.212340401510412e-05   -8.095570692628852e-06   -2.9287776872096214e-05
2.212340401510412e-05   -8.095570692628852e-06   -2.9287776872096214e-05
2.212340401510412e-05   -8.095570692628852e-06   -2.9287776872096214e-05
2.212340401510412e-05   -8.095570692628852e-06   -2.9287776872096214e-05
1.2390202512233492e-05   -5.493504140565092e-06   -1.462701429855005e-05
1.2390202512233492e-05   -5.493504140565092e-06   -1.462701429855005e-05
1.2390202512233492e-05   -5.493504140565092e-06   -1.462701429855005e-05
1.2390202512233492e-05   -5.493504140565092e-06   -1.462701429855005e-05
2.2123404015104064e-05   -3.963345380953061e-06   2.370934163873229e-06
2.2123404015104064e-05   -3.963345380953061e-06   2.370934163873229e-06
2.2123404015104064e-05   -3.963345380953061e-06   2.370934163873229e-06
2.2123404015104064e-05   -3.963345380953061e-06   2.370934163873229e-06
3.1281773935224936e-06   -8.095570692629069e-06   -3.176711205910162e-05
3.1281773935224936e-06   -8.095570692629069e-06   -3.176711205910162e-05
3.1281773935224936e-06   -8.095570692629069e-06   -3.176711205910162e-05
3.1281773935224936e-06   -8.095570692629069e-06   -3.176711205910162e-05
3.677248850701939e-06   -3.5895920727400336e-06   -3.141710569298621e-07
3.677248850701939e-06   -3.5895920727400336e-06   -3.141710569298621e-07
3.677248850701939e-06   -3.5895920727400336e-06   -3.141710569298621e-07
3.677248850701939e-06   -3.5895920727400336e-06   -3.141710569298621e-07
2.2564839231140226e-05   -7.984001112716415e-06   -2.9156842933674457e-05
2.2564839231140226e-05   -7.984001112716415e-06   -2.9156842933674457e-05
2.2564839231140226e-05   -7.984001112716415e-06   -2.9156842933674457e-05
2.2564839231140226e-05   -7.984001112716415e-06   -2.9156842933674457e-05
1.2733765095631057e-05   -5.551386029537886e-06   -1.4231288424399157e-05
1.2733765095631057e-05   -5.551386029537886e-06   -1.4231288424399157e-05
1.2733765095631057e-05   -5.551386029537886e-06   -1.4231288424399157e-05
1.2733765095631057e-05   -5.551386029537886e-06   -1.4231288424399157e-05
2.2564839231140226e-05   -3.5895920727400336e-06   2.3224743670560754e-06
2.2564839231140226e-05   -3.5895920727400336e-06   2.3224743670560754e-06
2.2564839231140226e-05   -3.5895920727400336e-06   2.3224743670560754e-06
2.2564839231140226e-05   -3.5895920727400336e-06   2.3224743670560754e-06
3.677248850701939e-06   -7.984001112716415e-06   -3.179348835766031e-05
3.677248850701939e-06   -7.984001112716415e-06   -3.179348835766031e-05
3.677248850701939e-06   -7.984001112716415e-06   -3.179348835766031e-05
3.677248850701939e-06   -7.984001112716415e-06   -3.179348835766031e-05
4.4971563809337095e-06   -3.057698081679371e-06   -7.014892901779056e-07
4.4971563809337095e-06   -3.057698081679371e-06   -7.014892901779056e-07
4.4971563809337095e-06   -3.057698081679371e-06   -7.014892901779056e-07
4.4971563809337095e-06   -3.057698081679371e-06   -7.014892901779056e-07
2.3025248007021052e-05   -7.762983560283699e-06   -2.8758470713160763e-05
2.3025248007021052e-05   -7.762983560283699e-06   -2.8758470713160763e-05
2.3025248007021052e-05   -7.762983560283699e-06   -2.8758470713160763e-05
2.3025248007021052e-05   -7.762983560283699e-06   -2.8758470713160763e-05
1.3393556826896602e-05   -5.461834293959012e-06   -1.4086341639414743e-05
1.3393556826896602e-05   -5.461834293959012e-06   -1.4086341639414743e-05
1.3393556826896602e-05   -5.461834293959012e-06   -1.4086341639414743e-05
1.3393556826896602e-05   -5.461834293959012e-06   -1.4086341639414743e-05
2.519827797058447e-06   -2.162127028856615e-06   -3.166737762910852e-06
2.519827797058447e-06   -2.162127028856615e-06   -3.166737762910852e-06
2.519827797058447e-06   -2.162127028856615e-06   -3.166737762910852e-06
2.519827797058447e-06   -2.162127028856615e-06   -3.166737762910852e-06
-1.6362247527367903e-05   -9.778651993718563e-06   -3.920677828253853e-05
-1.6362247527367903e-05   -9.778651993718563e-06   -3.920677828253853e-05
-1.6362247527367903e-05   -9.778651993718563e-06   -3.920677828253853e-05
-1.6362247527367903e-05   -9.778651993718563e-06   -3.920677828253853e-05
-1.5414156652075174e-05   -1.923852802930082e-06   -6.900504595094229e-06
-1.5414156652075174e-05   -1.923852802930082e-06   -6.900504595094229e-06
-1.5414156652075174e-05   -1.923852802930082e-06   -6.900504595094229e-06
-1.5414156652075174e-05   -1.923852802930082e-06   -6.900504595094229e-06
3.1281773935224936e-06   -9.991652654754886e-06   -3.2963714759995334e-05
3.1281773935224936e-06   -9.991652654754886e-06   -3.2963714759995334e-05
3.1281773935224936e-06   -9.991652654754886e-06   -3.2963714759995334e-05
3.1281773935224936e-06   -9.991652654754886e-06   -3.2963714759995334e-05
-6.315937614174164e-06   -5.518981201974417e-06   -1.9907125952169265e-05
-6.315937614174164e-06   -5.518981201974417e-06   -1.9907125952169265e-05
-6.315937614174164e-06   -5.518981201974417e-06   -1.9907125952169265e-05
-6.315937614174164e-06   -5.518981201974417e-06   -1.9907125952169265e-05
3.1281773935224936e-06   -1.923852802930082e-06   -2.05982468399926e-06
3.1281773935224936e-06   -1.923852802930082e-06   -2.05982468399926e-06
3.1281773935224936e-06   -1.923852802930082e-06   -2.05982468399926e-06
3.1281773935224936e-06   -1.923852802930082e-06   -2.05982468399926e-06
-1.54141566520752e-05   -9.991652654755103e-06   -3.780439467109041e-05
-1.54141566520752e-05   -9.991652654755103e-06   -3.780439467109041e-05
-1.54141566520752e-05   -9.991652654755103e-06   -3.780439467109041e-05
-1.54141566520752e-05   -9.991652654755103e-06   -3.780439467109041e-05
-1.4596626401413067e-05   -1.5552807363873513e-06   -6.437575620069384e-06
-1.4596626401413067e-05   -1.5552807363873513e-06   -6.437575620069384e-06
-1.4596626401413067e-05   -1.5552807363873513e-06   -6.437575620069384e-06
-1.4596626401413067e-05   -1.5552807363873513e-06   -6.437575620069384e-06
3.677248850701939e-06   -9.940980339967573e-06   -3.186261461144652e-05
3.677248850701939e-06   -9.940980339967573e-06   -3.186261461144652e-05
3.677248850701939e-06   -9.940980339967573e-06   -3.186261461144652e-05
3.677248850701939e-06   -9.940980339967573e-06   -3.186261461144652e-05
-5.642954183254742e-06   -5.641221218301946e-06   -1.8908798361184497e-05
-5.642954183254742e-06   -5.641221218301946e-06   -1.8908798361184497e-05
-5.642954183254742e-06   -5.641221218301946e-06   -1.8908798361184497e-05
-5.642954183254742e-06   -5.641221218301946e-06   -1.8908798361184497e-05
3.677248850701939e-06   -1.5552807363871345e-06   -1.4061558579215325e-06
3.677248850701939e-06   -1.5552807363871345e-06   -1.4061558579215325e-06
3.677248850701939e-06   -1.5552807363871345e-06   -1.4061558579215325e-06
3.677248850701939e-06   -1.5552807363871345e-06   -1.4061558579215325e-06
-1.4596626401413128e-05   -9.940980339967573e-06   -3.689403437359456e-05
-1.4596626401413128e-05   -9.940980339967573e-06   -3.689403437359456e-05
-1.4596626401413128e-05   -9.940980339967573e-06   -3.689403437359456e-05
-1.4596626401413128e-05   -9.940980339967573e-06   -3.689403437359456e-05
-1.3185749133696072e-05   -1.205433382240901e-06   -6.411160601648954e-06
-1.3185749133696072e-05   -1.205433382240901e-06   -6.411160601648954e-06
-1.3185749133696072e-05   -1.205433382240901e-06   -6.411160601648954e-06
-1.3185749133696072e-05   -1.205433382240901e-06   -6.411160601648954e-06
4.4971563809337095e-06   -9.587794280294234e-06   -3.08532532538664e-05
4.4971563809337095e-06   -9.587794280294234e-06   -3.08532532538664e-05
4.4971563809337095e-06   -9.587794280294234e-06   -3.08532532538664e-05
4.4971563809337095e-06   -9.587794280294234e-06   -3.08532532538664e-05
-4.768172112131624e-06   -5.512522205101695e-06   -1.7856202343872953e-05
-4.768172112131624e-06   -5.512522205101695e-06   -1.7856202343872953e-05
-4.768172112131624e-06   -5.512522205101695e-06   -1.7856202343872953e-05
-4.768172112131624e-06   -5.512522205101695e-06   -1.7856202343872953e-05
-1.636224752736787e-05   6.021761277414522e-07   -4.454635626148376e-06
-1.636224752736787e-05   6.021761277414522e-07   -4.454635626148376e-06
-1.636224752736787e-05   6.021761277414522e-07   -4.454635626148376e-06
-1.636224752736787e-05   6.021761277414522e-07   -4.454635626148376e-06
-3.7412243237758596e-05   -1.2153038346604311e-05   -4.719109049474031e-05
-3.7412243237758596e-05   -1.2153038346604311e-05   -4.719109049474031e-05
-3.7412243237758596e-05   -1.2153038346604311e-05   -4.719109049474031e-05
-3.7412243237758596e-05   -1.2153038346604311e-05   -4.719109049474031e-05
-3.627685949464367e-05   1.0394659899766283e-06   -1.173006940766684e-05
-3.627685949464367e-05   1.0394659899766283e-06   -1.173006940766684e-05
-3.627685949464367e-05   1.0394659899766283e-06   -1.173006940766684e-05
-3.627685949464367e-05   1.0394659899766283e-06   -1.173006940766684e-05
-1.5414156652075174e-05   -1.3586195106714315e-05   -3.7725844153932976e-05
-1.5414156652075174e-05   -1.3586195106714315e-05   -3.7725844153932976e-05
-1.5414156652075174e-05   -1.3586195106714315e-05   -3.7725844153932976e-05
-1.5414156652075174e-05   -1.3586195106714315e-05   -3.7725844153932976e-05
-2.5989182278742896e-05   -6.159738293136418e-06   -2.4556675530966885e-05
-2.5989182278742896e-05   -6.159738293136418e-06   -2.4556675530966885e-05
-2.5989182278742896e-05   -6.159738293136418e-06   -2.4556675530966885e-05
-2.5989182278742896e-05   -6.159738293136418e-06   -2.4556675530966885e-05
-1.5414156652075174e-05   1.0394659899766283e-06   -2.9546727496522094e-06
-1.5414156652075174e-05   1.0394659899766283e-06   -2.9546727496522094e-06
-1.5414156652075174e-05   1.0394659899766283e-06   -2.9546727496522094e-06
-1.5414156652075174e-05   1.0394659899766283e-06   -2.9546727496522094e-06
-3.627685949464367e-05   -1.3586195106714098e-05   -4.650124081194765e-05
-3.627685949464367e-05   -1.3586195106714098e-05   -4.650124081194765e-05
-3.627685949464367e-05   -1.3586195106714098e-05   -4.650124081194765e-05
-3.627685949464367e-05   -1.3586195106714098e-05   -4.650124081194765e-05
-3.518883871955282e-05   1.4416746026910121e-06   -1.0457541413350958e-05
-3.518883871955282e-05   1.4416746026910121e-06   -1.0457541413350958e-05
-3.518883871955282e-05   1.4416746026910121e-06   -1.0457541413350958e-05
-3.518883871955282e-05   1.4416746026910121e-06   -1.0457541413350958e-05
-1.4596626401413094e-05   -1.3658022847080724e-05   -3.571807680705396e-05
-1.4596626401413094e-05   -1.3658022847080724e-05   -3.571807680705396e-05
-1.4596626401413094e-05   -1.3658022847080724e-05   -3.571807680705396e-05
-1.4596626401413094e-05   -1.3658022847080724e-05   -3.571807680705396e-05
-2.4882021115781514e-05   -6.1770329512832005e-06   -2.3064346220585317e-05
-2.4882021115781514e-05   -6.1770329512832005e-06   -2.3064346220585317e-05
-2.4882021115781514e-05   -6.1770329512832005e-06   -2.3064346220585317e-05
-2.4882021115781514e-05   -6.1770329512832005e-06   -2.3064346220585317e-05
-1.4596626401413087e-05   1.4416746026910121e-06   -1.3977229434877217e-06
-1.4596626401413087e-05   1.4416746026910121e-06   -1.3977229434877217e-06
-1.4596626401413087e-05   1.4416746026910121e-06   -1.3977229434877217e-06
-1.4596626401413087e-05   1.4416746026910121e-06   -1.3977229434877217e-06
-3.518883871955288e-05   -1.3658022847080507e-05   -4.477789527691724e-05
-3.518883871955288e-05   -1.3658022847080507e-05   -4.477789527691724e-05
-3.518883871955288e-05   -1.3658022847080507e-05   -4.477789527691724e-05
-3.518883871955288e-05   -1.3658022847080507e-05   -4.477789527691724e-05
-3.3403049789217425e-05   1.7811629874897855e-06   -9.164453363674167e-06
-3.3403049789217425e-05   1.7811629874897855e-06   -9.164453363674167e-06
-3.3403049789217425e-05   1.7811629874897855e-06   -9.164453363674167e-06
-3.3403049789217425e-05   1.7811629874897855e-06   -9.164453363674167e-06
-1.3185749133696113e-05   -1.2440763665336326e-05   -3.432679846451431e-05
-1.3185749133696113e-05   -1.2440763665336326e-05   -3.432679846451431e-05
-1.3185749133696113e-05   -1.2440763665336326e-05   -3.432679846451431e-05
-1.3185749133696113e-05   -1.2440763665336326e-05   -3.432679846451431e-05
-2.3791756900023275e-05   -5.438859875320223e-06   -2.0851261127978026e-05
-2.3791756900023275e-05   -5.438859875320223e-06   -2.0851261127978026e-05
-2.3791756900023275e-05   -5.438859875320223e-06   -2.0851261127978026e-05
-2.3791756900023275e-05   -5.438859875320223e-06   -2.0851261127978026e-05
-3.7412243237758596e-05   5.366472773766021e-06   -7.93818072671623e-06
-3.7412243237758596e-05   5.366472773766021e-06   -7.93818072671623e-06
-3.7412243237758596e-05   5.366472773766021e-06   -7.93818072671623e-06
-3.7412243237758596e-05   5.366472773766021e-06   -7.93818072671623e-06
-6.4324394339965e-05   0.0   -5.601164956131979e-05
-6.4324394339965e-05   0.0   -5.601164956131979e-05
-6.4324394339965e-05   0.0   -5.601164956131979e-05
-6.4324394339965e-05   0.0   -5.601164956131979e-05
-6.26660253142607e-05   6.779344785580021e-06   -6.062266165537456e-06
-6.26660253142607e-05   6.779344785580021e-06   -6.062266165537456e-06
-6.26660253142607e-05   6.779344785580021e-06   -6.062266165537456e-06
-6.26660253142607e-05   6.779344785580021e-06   -6.062266165537456e-06
-3.6276859494643605e-05   0.0   -4.597660232688453e-05
-3.6276859494643605e-05   0.0   -4.597660232688453e-05
-3.6276859494643605e-05   0.0   -4.597660232688453e-05
-3.6276859494643605e-05   0.0   -4.597660232688453e-05
-4.803901508491545e-05   2.0802842720605424e-06   -2.7621180239667672e-05
-4.803901508491545e-05   2.0802842720605424e-06   -2.7621180239667672e-05
-4.803901508491545e-05   2.0802842720605424e-06   -2.7621180239667672e-05
-4.803901508491545e-05   2.0802842720605424e-06   -2.7621180239667672e-05
-3.6276859494643646e-05   6.779344785580021e-06   -1.994659294189292e-06
-3.6276859494643646e-05   6.779344785580021e-06   -1.994659294189292e-06
-3.6276859494643646e-05   6.779344785580021e-06   -1.994659294189292e-06
-3.6276859494643646e-05   6.779344785580021e-06   -1.994659294189292e-06
-6.266602531426059e-05   0.0   -5.004420919823248e-05
-6.266602531426059e-05   0.0   -5.004420919823248e-05
-6.266602531426059e-05   0.0   -5.004420919823248e-05
-6.266602531426059e-05   0.0   -5.004420919823248e-05
-6.126125292332182e-05   7.097518146121241e-06   -2.324846344419515e-06
-6.126125292332182e-05   7.097518146121241e-06   -2.324846344419515e-06
-6.126125292332182e-05   7.097518146121241e-06   -2.324846344419515e-06
-6.126125292332182e-05   7.097518146121241e-06   -2.324846344419515e-06
-3.518883871955288e-05   0.0   -4.152035912969523e-05
-3.518883871955288e-05   0.0   -4.152035912969523e-05
-3.518883871955288e-05   0.0   -4.152035912969523e-05
-3.518883871955288e-05   0.0   -4.152035912969523e-05
-4.755284088601221e-05   3.28489969351857e-06   -2.288462866837351e-05
-4.755284088601221e-05   3.28489969351857e-06   -2.288462866837351e-05
-4.755284088601221e-05   3.28489969351857e-06   -2.288462866837351e-05
-4.755284088601221e-05   3.28489969351857e-06   -2.288462866837351e-05
-3.518883871955288e-05   7.097518146121241e-06   1.933664543253078e-06
-3.518883871955288e-05   7.097518146121241e-06   1.933664543253078e-06
-3.518883871955288e-05   7.097518146121241e-06   1.933664543253078e-06
-3.518883871955288e-05   7.097518146121241e-06   1.933664543253078e-06
-6.126125292332173e-05   0.0   -4.5778870017367836e-05
-6.126125292332173e-05   0.0   -4.5778870017367836e-05
-6.126125292332173e-05   0.0   -4.5778870017367836e-05
-6.126125292332173e-05   0.0   -4.5778870017367836e-05
-5.845653214308346e-05   7.639697502886218e-06   3.6973685379092713e-06
-5.845653214308346e-05   7.639697502886218e-06   3.6973685379092713e-06
-5.845653214308346e-05   7.639697502886218e-06   3.6973685379092713e-06
-5.845653214308346e-05   7.639697502886218e-06   3.6973685379092713e-06
-3.340304978921748e-05   0.0   -3.347461688346915e-05
-3.340304978921748e-05   0.0   -3.347461688346915e-05
-3.340304978921748e-05   0.0   -3.347461688346915e-05
-3.340304978921748e-05   0.0   -3.347461688346915e-05
-4.509827390201281e-05   4.048329127535541e-06   -1.641157417199813e-05
-4.509827390201281e-05   4.048329127535541e-06   -1.641157417199813e-05
-4.509827390201281e-05   4.048329127535541e-06   -1.641157417199813e-05
-4.509827390201281e-05   4.048329127535541e-06   -1.641157417199813e-05
4.757734823478756e-05   -8.151396586967338e-06   2.836633461096702e-05
4.757734823478756e-05   -8.151396586967338e-06   2.836633461096702e-05
4.757734823478756e-05   -8.151396586967338e-06   2.836633461096702e-05
4.757734823478756e-05   -8.151396586967338e-06   2.836633461096702e-05
2.4663263884527203e-05   -6.29793236266293e-06   -8.71172743821774e-06
2.4663263884527203e-05   -6.29793236266293e-06   -8.71172743821774e-06
2.4663263884527203e-05   -6.29793236266293e-06   -8.71172743821774e-06
2.4663263884527203e-05   -6.29793236266293e-06   -8.71172743821774e-06
2.404717998059825e-05   -8.355367429720801e-06   2.5033326980656136e-05
2.404717998059825e-05   -8.355367429720801e-06   2.5033326980656136e-05
2.404717998059825e-05   -8.355367429720801e-06   2.5033326980656136e-05
2.404717998059825e-05   -8.355367429720801e-06   2.5033326980656136e-05
4.7074566785151206e-05   -6.921234496063203e-06   -1.4206130787126821e-05
4.7074566785151206e-05   -6.921234496063203e-06   -1.4206130787126821e-05
4.7074566785151206e-05   -6.921234496063203e-06   -1.4206130787126821e-05
4.7074566785151206e-05   -6.921234496063203e-06   -1.4206130787126821e-05
3.437295121914031e-05   -7.03279700984584e-06   7.030165997827726e-06
3.437295121914031e-05   -7.03279700984584e-06   7.030165997827726e-06
3.437295121914031e-05   -7.03279700984584e-06   7.030165997827726e-06
3.437295121914031e-05   -7.03279700984584e-06   7.030165997827726e-06
4.7074566785151206e-05   -8.355367429720801e-06   2.4172847220461577e-05
4.7074566785151206e-05   -8.355367429720801e-06   2.4172847220461577e-05
4.7074566785151206e-05   -8.355367429720801e-06   2.4172847220461577e-05
4.7074566785151206e-05   -8.355367429720801e-06   2.4172847220461577e-05
2.404717998059825e-05   -6.921234496063203e-06   -1.3345651026932235e-05
2.404717998059825e-05   -6.921234496063203e-06   -1.3345651026932235e-05
2.404717998059825e-05   -6.921234496063203e-06   -1.3345651026932235e-05
2.404717998059825e-05   -6.921234496063203e-06   -1.3345651026932235e-05
2.3489443587235105e-05   -8.27862461726201e-06   2.24658918219307e-05
2.3489443587235105e-05   -8.27862461726201e-06   2.24658918219307e-05
2.3489443587235105e-05   -8.27862461726201e-06   2.24658918219307e-05
2.3489443587235105e-05   -8.27862461726201e-06   2.24658918219307e-05
4.6491501906191385e-05   -6.977316765983694e-06   -1.665165675376327e-05
4.6491501906191385e-05   -6.977316765983694e-06   -1.665165675376327e-05
4.6491501906191385e-05   -6.977316765983694e-06   -1.665165675376327e-05
4.6491501906191385e-05   -6.977316765983694e-06   -1.665165675376327e-05
3.435202579619852e-05   -7.156182772282034e-06   3.6881230333370542e-06
3.435202579619852e-05   -7.156182772282034e-06   3.6881230333370542e-06
3.435202579619852e-05   -7.156182772282034e-06   3.6881230333370542e-06
3.435202579619852e-05   -7.156182772282034e-06   3.6881230333370542e-06
4.6491501906191466e-05   -8.27862461726201e-06   2.1685107111163926e-05
4.6491501906191466e-05   -8.27862461726201e-06   2.1685107111163926e-05
4.6491501906191466e-05   -8.27862461726201e-06   2.1685107111163926e-05
4.6491501906191466e-05   -8.27862461726201e-06   2.1685107111163926e-05
2.3489443587235105e-05   -6.977316765983694e-06   -1.5870872042996267e-05
2.3489443587235105e-05   -6.977316765983694e-06   -1.5870872042996267e-05
2.3489443587235105e-05   -6.977316765983694e-06   -1.5870872042996267e-05
2.3489443587235105e-05   -6.977316765983694e-06   -1.5870872042996267e-05
2.280876761134977e-05   -7.815031575066122e-06   1.828885288935808e-05
2.280876761134977e-05   -7.815031575066122e-06   1.828885288935808e-05
2.280876761134977e-05   -7.815031575066122e-06   1.828885288935808e-05
2.280876761134977e-05   -7.815031575066122e-06   1.828885288935808e-05
4.5577796701609186e-05   -6.82740334124912e-06   -2.0252105868030795e-05
4.5577796701609186e-05   -6.82740334124912e-06   -2.0252105868030795e-05
4.5577796701609186e-05   -6.82740334124912e-06   -2.0252105868030795e-05
4.5577796701609186e-05   -6.82740334124912e-06   -2.0252105868030795e-05
3.3183969503049176e-05   -6.804358681775915e-06   3.904460005518806e-07
3.3183969503049176e-05   -6.804358681775915e-06   3.904460005518806e-07
3.3183969503049176e-05   -6.804358681775915e-06   3.904460005518806e-07
3.3183969503049176e-05   -6.804358681775915e-06   3.904460005518806e-07
2.4663263884527203e-05   -8.139480179840007e-06   2.1167126040141752e-05
2.4663263884527203e-05   -8.139480179840007e-06   2.1167126040141752e-05
2.4663263884527203e-05   -8.139480179840007e-06   2.1167126040141752e-05
2.4663263884527203e-05   -8.139480179840007e-06   2.1167126040141752e-05
5.19256353751273e-06   -3.875067280400841e-06   -8.725393465218857e-06
5.19256353751273e-06   -3.875067280400841e-06   -8.725393465218857e-06
5.19256353751273e-06   -3.875067280400841e-06   -8.725393465218857e-06
5.19256353751273e-06   -3.875067280400841e-06   -8.725393465218857e-06
4.217624732417833e-06   -8.095570692629069e-06   2.414048123409486e-05
4.217624732417833e-06   -8.095570692629069e-06   2.414048123409486e-05
4.217624732417833e-06   -8.095570692629069e-06   2.414048123409486e-05
4.217624732417833e-06   -8.095570692629069e-06   2.414048123409486e-05
2.404717998059825e-05   -4.108721176245087e-06   -1.1300887222702807e-05
2.404717998059825e-05   -4.108721176245087e-06   -1.1300887222702807e-05
2.404717998059825e-05   -4.108721176245087e-06   -1.1300887222702807e-05
2.404717998059825e-05   -4.108721176245087e-06   -1.1300887222702807e-05
1.4509030914624755e-05   -5.830247791696738e-06   5.6289438565238436e-06
1.4509030914624755e-05   -5.830247791696738e-06   5.6289438565238436e-06
1.4509030914624755e-05   -5.830247791696738e-06   5.6289438565238436e-06
1.4509030914624755e-05   -5.830247791696738e-06   5.6289438565238436e-06
2.4047179980598264e-05   -8.095570692628852e-06   2.1748371524264623e-05
2.4047179980598264e-05   -8.095570692628852e-06   2.1748371524264623e-05
2.4047179980598264e-05   -8.095570692628852e-06   2.1748371524264623e-05
2.4047179980598264e-05   -8.095570692628852e-06   2.1748371524264623e-05
4.217624732417833e-06   -4.108721176245087e-06   -8.908777512872407e-06
4.217624732417833e-06   -4.108721176245087e-06   -8.908777512872407e-06
4.217624732417833e-06   -4.108721176245087e-06   -8.908777512872407e-06
4.217624732417833e-06   -4.108721176245087e-06   -8.908777512872407e-06
3.5217136949987658e-06   -7.984001112716415e-06   2.4168909983937137e-05
3.5217136949987658e-06   -7.984001112716415e-06   2.4168909983937137e-05
3.5217136949987658e-06   -7.984001112716415e-06   2.4168909983937137e-05
3.5217136949987658e-06   -7.984001112716415e-06   2.4168909983937137e-05
2.3489443587235105e-05   -4.2109127114662356e-06   -1.1374492877207028e-05
2.3489443587235105e-05   -4.2109127114662356e-06   -1.1374492877207028e-05
2.3489443587235105e-05   -4.2109127114662356e-06   -1.1374492877207028e-05
2.3489443587235105e-05   -4.2109127114662356e-06   -1.1374492877207028e-05
1.3671703621098172e-05   -5.709494917667188e-06   5.887556390075336e-06
1.3671703621098172e-05   -5.709494917667188e-06   5.887556390075336e-06
1.3671703621098172e-05   -5.709494917667188e-06   5.887556390075336e-06
1.3671703621098172e-05   -5.709494917667188e-06   5.887556390075336e-06
2.3489443587235145e-05   -7.984001112716415e-06   2.1905056943186943e-05
2.3489443587235145e-05   -7.984001112716415e-06   2.1905056943186943e-05
2.3489443587235145e-05   -7.984001112716415e-06   2.1905056943186943e-05
2.3489443587235145e-05   -7.984001112716415e-06   2.1905056943186943e-05
3.5217136949987658e-06   -4.2109127114662356e-06   -9.11063983645682e-06
3.5217136949987658e-06   -4.2109127114662356e-06   -9.11063983645682e-06
3.5217136949987658e-06   -4.2109127114662356e-06   -9.11063983645682e-06
3.5217136949987658e-06   -4.2109127114662356e-06   -9.11063983645682e-06
2.7478564001087664e-06   -7.762983560283699e-06   2.494629917059875e-05
2.7478564001087664e-06   -7.762983560283699e-06   2.494629917059875e-05
2.7478564001087664e-06   -7.762983560283699e-06   2.494629917059875e-05
2.7478564001087664e-06   -7.762983560283699e-06   2.494629917059875e-05
2.2808767611349757e-05   -4.112924147846048e-06   -1.067858849559928e-05
2.2808767611349757e-05   -4.112924147846048e-06   -1.067858849559928e-05
2.2808767611349757e-05   -4.112924147846048e-06   -1.067858849559928e-05
2.2808767611349757e-05   -4.112924147846048e-06   -1.067858849559928e-05
1.3160958391707036e-05   -5.456647141532456e-06   6.207327333350519e-06
1.3160958391707036e-05   -5.456647141532456e-06   6.207327333350519e-06
1.3160958391707036e-05   -5.456647141532456e-06   6.207327333350519e-06
1.3160958391707036e-05   -5.456647141532456e-06   6.207327333350519e-06
5.192563537512743e-06   -9.778651993718563e-06   2.175413492359066e-05
5.192563537512743e-06   -9.778651993718563e-06   2.175413492359066e-05
5.192563537512743e-06   -9.778651993718563e-06   2.175413492359066e-05
5.192563537512743e-06   -9.778651993718563e-06   2.175413492359066e-05
-1.3515857356030336e-05   -1.6000108786183576e-06   -4.519381896587516e-06
-1.3515857356030336e-05   -1.6000108786183576e-06   -4.519381896587516e-06
-1.3515857356030336e-05   -1.6000108786183576e-06   -4.519381896587516e-06
-1.3515857356030336e-05   -1.6000108786183576e-06   -4.519381896587516e-06
-1.5031983984746154e-05   -9.991652654755103e-06   2.792571726836909e-05
-1.5031983984746154e-05   -9.991652654755103e-06   2.792571726836909e-05
-1.5031983984746154e-05   -9.991652654755103e-06   2.792571726836909e-05
-1.5031983984746154e-05   -9.991652654755103e-06   2.792571726836909e-05
4.217624732417833e-06   -1.6885880961417868e-06   -9.138802662072123e-06
4.217624732417833e-06   -1.6885880961417868e-06   -9.138802662072123e-06
4.217624732417833e-06   -1.6885880961417868e-06   -9.138802662072123e-06
4.217624732417833e-06   -1.6885880961417868e-06   -9.138802662072123e-06
-4.6186127708681745e-06   -5.578548850111633e-06   7.922236295786428e-06
-4.6186127708681745e-06   -5.578548850111633e-06   7.922236295786428e-06
-4.6186127708681745e-06   -5.578548850111633e-06   7.922236295786428e-06
-4.6186127708681745e-06   -5.578548850111633e-06   7.922236295786428e-06
4.217624732417833e-06   -9.991652654754886e-06   2.2943878533201144e-05
4.217624732417833e-06   -9.991652654754886e-06   2.2943878533201144e-05
4.217624732417833e-06   -9.991652654754886e-06   2.2943878533201144e-05
4.217624732417833e-06   -9.991652654754886e-06   2.2943878533201144e-05
-1.5031983984746127e-05   -1.6885880961417868e-06   -4.156963926904393e-06
-1.5031983984746127e-05   -1.6885880961417868e-06   -4.156963926904393e-06
-1.5031983984746127e-05   -1.6885880961417868e-06   -4.156963926904393e-06
-1.5031983984746127e-05   -1.6885880961417868e-06   -4.156963926904393e-06
-1.5959767028886912e-05   -9.940980339967573e-06   2.8985848271755824e-05
-1.5959767028886912e-05   -9.940980339967573e-06   2.8985848271755824e-05
-1.5959767028886912e-05   -9.940980339967573e-06   2.8985848271755824e-05
-1.5959767028886912e-05   -9.940980339967573e-06   2.8985848271755824e-05
3.5217136949987658e-06   -1.797539437291924e-06   -8.369350809658626e-06
3.5217136949987658e-06   -1.797539437291924e-06   -8.369350809658626e-06
3.5217136949987658e-06   -1.797539437291924e-06   -8.369350809658626e-06
3.5217136949987658e-06   -1.797539437291924e-06   -8.369350809658626e-06
-5.6455714308026574e-06   -5.557729819209625e-06   9.165571962494265e-06
-5.6455714308026574e-06   -5.557729819209625e-06   9.165571962494265e-06
-5.6455714308026574e-06   -5.557729819209625e-06   9.165571962494265e-06
-5.6455714308026574e-06   -5.557729819209625e-06   9.165571962494265e-06
3.5217136949987658e-06   -9.940980339967573e-06   2.4099783730150738e-05
3.5217136949987658e-06   -9.940980339967573e-06   2.4099783730150738e-05
3.5217136949987658e-06   -9.940980339967573e-06   2.4099783730150738e-05
3.5217136949987658e-06   -9.940980339967573e-06   2.4099783730150738e-05
-1.59597670288869e-05   -1.797539437291924e-06   -3.483286268053513e-06
-1.59597670288869e-05   -1.797539437291924e-06   -3.483286268053513e-06
-1.59597670288869e-05   -1.797539437291924e-06   -3.483286268053513e-06
-1.59597670288869e-05   -1.797539437291924e-06   -3.483286268053513e-06
-1.7049642227088884e-05   -9.587794280294234e-06   3.0356668428739488e-05
-1.7049642227088884e-05   -9.587794280294234e-06   3.0356668428739488e-05
-1.7049642227088884e-05   -9.587794280294234e-06   3.0356668428739488e-05
-1.7049642227088884e-05   -9.587794280294234e-06   3.0356668428739488e-05
2.7478564001087664e-06   -1.7844934274873544e-06   -7.321143128274064e-06
2.7478564001087664e-06   -1.7844934274873544e-06   -7.321143128274064e-06
2.7478564001087664e-06   -1.7844934274873544e-06   -7.321143128274064e-06
2.7478564001087664e-06   -1.7844934274873544e-06   -7.321143128274064e-06
-6.482401367936984e-06   -5.332435889384736e-06   1.0191385295607347e-05
-6.482401367936984e-06   -5.332435889384736e-06   1.0191385295607347e-05
-6.482401367936984e-06   -5.332435889384736e-06   1.0191385295607347e-05
-6.482401367936984e-06   -5.332435889384736e-06   1.0191385295607347e-05
-1.3515857356030363e-05   -1.2153038346604311e-05   2.6330136065056764e-05
-1.3515857356030363e-05   -1.2153038346604311e-05   2.6330136065056764e-05
-1.3515857356030363e-05   -1.2153038346604311e-05   2.6330136065056764e-05
-1.3515857356030363e-05   -1.2153038346604311e-05   2.6330136065056764e-05
-3.478662163303918e-05   1.8048004548423813e-06   -7.464344490898042e-07
-3.478662163303918e-05   1.8048004548423813e-06   -7.464344490898042e-07
-3.478662163303918e-05   1.8048004548423813e-06   -7.464344490898042e-07
-3.478662163303918e-05   1.8048004548423813e-06   -7.464344490898042e-07
-3.6612693672233824e-05   -1.3586195106714098e-05   3.717880094631027e-05
-3.6612693672233824e-05   -1.3586195106714098e-05   3.717880094631027e-05
-3.6612693672233824e-05   -1.3586195106714098e-05   3.717880094631027e-05
-3.6612693672233824e-05   -1.3586195106714098e-05   3.717880094631027e-05
-1.5031983984746127e-05   1.704693494591989e-06   -7.963581693619831e-06
-1.5031983984746127e-05   1.704693494591989e-06   -7.963581693619831e-06
-1.5031983984746127e-05   1.704693494591989e-06   -7.963581693619831e-06
-1.5031983984746127e-05   1.704693494591989e-06   -7.963581693619831e-06
-2.4640257847958142e-05   -5.006889509431281e-06   1.2077157880814311e-05
-2.4640257847958142e-05   -5.006889509431281e-06   1.2077157880814311e-05
-2.4640257847958142e-05   -5.006889509431281e-06   1.2077157880814311e-05
-2.4640257847958142e-05   -5.006889509431281e-06   1.2077157880814311e-05
-1.5031983984746154e-05   -1.3586195106714098e-05   2.8004267785526485e-05
-1.5031983984746154e-05   -1.3586195106714098e-05   2.8004267785526485e-05
-1.5031983984746154e-05   -1.3586195106714098e-05   2.8004267785526485e-05
-1.5031983984746154e-05   -1.3586195106714098e-05   2.8004267785526485e-05
-3.6612693672233824e-05   1.704693494592206e-06   1.2109514671641407e-06
-3.6612693672233824e-05   1.704693494592206e-06   1.2109514671641407e-06
-3.6612693672233824e-05   1.704693494592206e-06   1.2109514671641407e-06
-3.6612693672233824e-05   1.704693494592206e-06   1.2109514671641407e-06
-3.772487558760871e-05   -1.3658022847080507e-05   3.926553208825944e-05
-3.772487558760871e-05   -1.3658022847080507e-05   3.926553208825944e-05
-3.772487558760871e-05   -1.3658022847080507e-05   3.926553208825944e-05
-3.772487558760871e-05   -1.3658022847080507e-05   3.926553208825944e-05
-1.59597670288869e-05   1.5148542361904504e-06   -6.1133750929064155e-06
-1.59597670288869e-05   1.5148542361904504e-06   -6.1133750929064155e-06
-1.59597670288869e-05   1.5148542361904504e-06   -6.1133750929064155e-06
-1.59597670288869e-05   1.5148542361904504e-06   -6.1133750929064155e-06
-2.5823707953930542e-05   -5.778616036416877e-06   1.470260861239736e-05
-2.5823707953930542e-05   -5.778616036416877e-06   1.470260861239736e-05
-2.5823707953930542e-05   -5.778616036416877e-06   1.470260861239736e-05
-2.5823707953930542e-05   -5.778616036416877e-06   1.470260861239736e-05
-1.5959767028886872e-05   -1.3658022847080724e-05   3.0161805838296385e-05
-1.5959767028886872e-05   -1.3658022847080724e-05   3.0161805838296385e-05
-1.5959767028886872e-05   -1.3658022847080724e-05   3.0161805838296385e-05
-1.5959767028886872e-05   -1.3658022847080724e-05   3.0161805838296385e-05
-3.7724875587608636e-05   1.5148542361904504e-06   2.990351157056365e-06
-3.7724875587608636e-05   1.5148542361904504e-06   2.990351157056365e-06
-3.7724875587608636e-05   1.5148542361904504e-06   2.990351157056365e-06
-3.7724875587608636e-05   1.5148542361904504e-06   2.990351157056365e-06
-3.8924158145207306e-05   -1.2440763665336326e-05   4.015653287582871e-05
-3.8924158145207306e-05   -1.2440763665336326e-05   4.015653287582871e-05
-3.8924158145207306e-05   -1.2440763665336326e-05   4.015653287582871e-05
-3.8924158145207306e-05   -1.2440763665336326e-05   4.015653287582871e-05
-1.7049642227088817e-05   1.2992248661718685e-06   -4.54498677327365e-06
-1.7049642227088817e-05   1.2992248661718685e-06   -4.54498677327365e-06
-1.7049642227088817e-05   1.2992248661718685e-06   -4.54498677327365e-06
-1.7049642227088817e-05   1.2992248661718685e-06   -4.54498677327365e-06
-2.704642556044587e-05   -5.819168021046085e-06   1.6387354514652813e-05
-2.704642556044587e-05   -5.819168021046085e-06   1.6387354514652813e-05
-2.704642556044587e-05   -5.819168021046085e-06   1.6387354514652813e-05
-2.704642556044587e-05   -5.819168021046085e-06   1.6387354514652813e-05
-3.478662163303906e-05   0.0   2.9104163943604526e-05
-3.478662163303906e-05   0.0   2.9104163943604526e-05
-3.478662163303906e-05   0.0   2.9104163943604526e-05
-3.478662163303906e-05   0.0   2.9104163943604526e-05
-6.116832304068381e-05   8.031716468454584e-06   -1.0046308521397115e-05
-6.116832304068381e-05   8.031716468454584e-06   -1.0046308521397115e-05
-6.116832304068381e-05   8.031716468454584e-06   -1.0046308521397115e-05
-6.116832304068381e-05   8.031716468454584e-06   -1.0046308521397115e-05
-6.367881278215486e-05   0.0   4.236022203050701e-05
-6.367881278215486e-05   0.0   4.236022203050701e-05
-6.367881278215486e-05   0.0   4.236022203050701e-05
-6.367881278215486e-05   0.0   4.236022203050701e-05
-3.661269367223375e-05   7.761304331889776e-06   -7.406759085162081e-06
-3.661269367223375e-05   7.761304331889776e-06   -7.406759085162081e-06
-3.661269367223375e-05   7.761304331889776e-06   -7.406759085162081e-06
-3.661269367223375e-05   7.761304331889776e-06   -7.406759085162081e-06
-4.6971105375208133e-05   4.764459982449466e-06   1.1655367029459243e-05
-4.6971105375208133e-05   4.764459982449466e-06   1.1655367029459243e-05
-4.6971105375208133e-05   4.764459982449466e-06   1.1655367029459243e-05
-4.6971105375208133e-05   4.764459982449466e-06   1.1655367029459243e-05
-3.6612693672233716e-05   0.0   3.7703439431373276e-05
-3.6612693672233716e-05   0.0   3.7703439431373276e-05
-3.6612693672233716e-05   0.0   3.7703439431373276e-05
-3.6612693672233716e-05   0.0   3.7703439431373276e-05
-6.367881278215498e-05   7.761304331889776e-06   -2.7499764860283455e-06
-6.367881278215498e-05   7.761304331889776e-06   -2.7499764860283455e-06
-6.367881278215498e-05   7.761304331889776e-06   -2.7499764860283455e-06
-6.367881278215498e-05   7.761304331889776e-06   -2.7499764860283455e-06
-6.494221021532476e-05   0.0   4.706252529072764e-05
-6.494221021532476e-05   0.0   4.706252529072764e-05
-6.494221021532476e-05   0.0   4.706252529072764e-05
-6.494221021532476e-05   0.0   4.706252529072764e-05
-3.7724875587608636e-05   7.565761758743716e-06   -2.839156144045723e-06
-3.7724875587608636e-05   7.565761758743716e-06   -2.839156144045723e-06
-3.7724875587608636e-05   7.565761758743716e-06   -2.839156144045723e-06
-3.7724875587608636e-05   7.565761758743716e-06   -2.839156144045723e-06
-4.940286081288473e-05   3.980929519199457e-06   1.877505190847495e-05
-4.940286081288473e-05   3.980929519199457e-06   1.877505190847495e-05
-4.940286081288473e-05   3.980929519199457e-06   1.877505190847495e-05
-4.940286081288473e-05   3.980929519199457e-06   1.877505190847495e-05
-3.7724875587608636e-05   0.0   4.2523068235481324e-05
-3.7724875587608636e-05   0.0   4.2523068235481324e-05
-3.7724875587608636e-05   0.0   4.2523068235481324e-05
-3.7724875587608636e-05   0.0   4.2523068235481324e-05
-6.4942210215325e-05   7.565761758743716e-06   1.700300911200458e-06
-6.4942210215325e-05   7.565761758743716e-06   1.700300911200458e-06
-6.4942210215325e-05   7.565761758743716e-06   1.700300911200458e-06
-6.4942210215325e-05   7.565761758743716e-06   1.700300911200458e-06
-6.634538422977754e-05   0.0   5.333103003132746e-05
-6.634538422977754e-05   0.0   5.333103003132746e-05
-6.634538422977754e-05   0.0   5.333103003132746e-05
-6.634538422977754e-05   0.0   5.333103003132746e-05
-3.8924158145207306e-05   6.315265971263469e-06   3.839826974285493e-06
-3.8924158145207306e-05   6.315265971263469e-06   3.839826974285493e-06
-3.8924158145207306e-05   6.315265971263469e-06   3.839826974285493e-06
-3.8924158145207306e-05   6.315265971263469e-06   3.839826974285493e-06
-4.9801252454436336e-05   2.8014196791583713e-06   2.407662526493021e-05
-4.9801252454436336e-05   2.8014196791583713e-06   2.407662526493021e-05
-4.9801252454436336e-05   2.8014196791583713e-06   2.407662526493021e-05
-4.9801252454436336e-05   2.8014196791583713e-06   2.407662526493021e-05
4.19193467478361e-05   -6.297932362663147e-06   2.9697356431968545e-05
4.19193467478361e-05   -6.297932362663147e-06   2.9697356431968545e-05
4.19193467478361e-05   -6.297932362663147e-06   2.9697356431968545e-05
4.19193467478361e-05   -6.297932362663147e-06   2.9697356431968545e-05
2.118595914895924e-05   -4.763576889858442e-06   -3.937676282476823e-06
2.118595914895924e-05   -4.763576889858442e-06   -3.937676282476823e-06
2.118595914895924e-05   -4.763576889858442e-06   -3.937676282476823e-06
2.118595914895924e-05   -4.763576889858442e-06   -3.937676282476823e-06
2.0631098671733903e-05   -6.921234496063203e-06   2.590791714350343e-05
2.0631098671733903e-05   -6.921234496063203e-06   2.590791714350343e-05
2.0631098671733903e-05   -6.921234496063203e-06   2.590791714350343e-05
2.0631098671733903e-05   -6.921234496063203e-06   2.590791714350343e-05
4.093057375840707e-05   -5.3953076016902655e-06   -8.840097470908769e-06
4.093057375840707e-05   -5.3953076016902655e-06   -8.840097470908769e-06
4.093057375840707e-05   -5.3953076016902655e-06   -8.840097470908769e-06
4.093057375840707e-05   -5.3953076016902655e-06   -8.840097470908769e-06
2.977925859408612e-05   -5.61199362614272e-06   9.8754394176309e-06
2.977925859408612e-05   -5.61199362614272e-06   9.8754394176309e-06
2.977925859408612e-05   -5.61199362614272e-06   9.8754394176309e-06
2.977925859408612e-05   -5.61199362614272e-06   9.8754394176309e-06
4.0930573758407e-05   -6.921234496063203e-06   2.499236100687982e-05
4.0930573758407e-05   -6.921234496063203e-06   2.499236100687982e-05
4.0930573758407e-05   -6.921234496063203e-06   2.499236100687982e-05
4.0930573758407e-05   -6.921234496063203e-06   2.499236100687982e-05
2.063109867173393e-05   -5.3953076016902655e-06   -7.924541334285097e-06
2.063109867173393e-05   -5.3953076016902655e-06   -7.924541334285097e-06
2.063109867173393e-05   -5.3953076016902655e-06   -7.924541334285097e-06
2.063109867173393e-05   -5.3953076016902655e-06   -7.924541334285097e-06
1.9916209902126988e-05   -6.977316765983694e-06   2.3246346242051944e-05
1.9916209902126988e-05   -6.977316765983694e-06   2.3246346242051944e-05
1.9916209902126988e-05   -6.977316765983694e-06   2.3246346242051944e-05
1.9916209902126988e-05   -6.977316765983694e-06   2.3246346242051944e-05
3.992969504092392e-05   -5.488332789886034e-06   -1.1002852708268464e-05
3.992969504092392e-05   -5.488332789886034e-06   -1.1002852708268464e-05
3.992969504092392e-05   -5.488332789886034e-06   -1.1002852708268464e-05
3.992969504092392e-05   -5.488332789886034e-06   -1.1002852708268464e-05
2.9506076683070682e-05   -5.856190303945826e-06   6.590559063256345e-06
2.9506076683070682e-05   -5.856190303945826e-06   6.590559063256345e-06
2.9506076683070682e-05   -5.856190303945826e-06   6.590559063256345e-06
2.9506076683070682e-05   -5.856190303945826e-06   6.590559063256345e-06
3.992969504092392e-05   -6.977316765983694e-06   2.2352955856393174e-05
3.992969504092392e-05   -6.977316765983694e-06   2.2352955856393174e-05
3.992969504092392e-05   -6.977316765983694e-06   2.2352955856393174e-05
3.992969504092392e-05   -6.977316765983694e-06   2.2352955856393174e-05
1.9916209902126988e-05   -5.488332789886034e-06   -1.0109462322609674e-05
1.9916209902126988e-05   -5.488332789886034e-06   -1.0109462322609674e-05
1.9916209902126988e-05   -5.488332789886034e-06   -1.0109462322609674e-05
1.9916209902126988e-05   -5.488332789886034e-06   -1.0109462322609674e-05
1.9165843967178082e-05   -6.827403341248903e-06   1.9295044772695653e-05
1.9165843967178082e-05   -6.827403341248903e-06   1.9295044772695653e-05
1.9165843967178082e-05   -6.827403341248903e-06   1.9295044772695653e-05
1.9165843967178082e-05   -6.827403341248903e-06   1.9295044772695653e-05
3.867654257491468e-05   -5.4497284606325625e-06   -1.4049391168568498e-05
3.867654257491468e-05   -5.4497284606325625e-06   -1.4049391168568498e-05
3.867654257491468e-05   -5.4497284606325625e-06   -1.4049391168568498e-05
3.867654257491468e-05   -5.4497284606325625e-06   -1.4049391168568498e-05
2.819811886267809e-05   -5.701589730661106e-06   3.5657651138433456e-06
2.819811886267809e-05   -5.701589730661106e-06   3.5657651138433456e-06
2.819811886267809e-05   -5.701589730661106e-06   3.5657651138433456e-06
2.819811886267809e-05   -5.701589730661106e-06   3.5657651138433456e-06
2.118595914895928e-05   -3.875067280400841e-06   2.8045655948986947e-05
2.118595914895928e-05   -3.875067280400841e-06   2.8045655948986947e-05
2.118595914895928e-05   -3.875067280400841e-06   2.8045655948986947e-05
2.118595914895928e-05   -3.875067280400841e-06   2.8045655948986947e-05
2.286123506234724e-06   -1.6760267722885306e-06   -2.134645817353253e-06
2.286123506234724e-06   -1.6760267722885306e-06   -2.134645817353253e-06
2.286123506234724e-06   -1.6760267722885306e-06   -2.134645817353253e-06
2.286123506234724e-06   -1.6760267722885306e-06   -2.134645817353253e-06
1.7345033594055696e-06   -4.10872117624487e-06   2.920912867620932e-05
1.7345033594055696e-06   -4.10872117624487e-06   2.920912867620932e-05
1.7345033594055696e-06   -4.10872117624487e-06   2.920912867620932e-05
1.7345033594055696e-06   -4.10872117624487e-06   2.920912867620932e-05
2.063109867173393e-05   -2.014641628784227e-06   -3.5416445728143523e-06
2.063109867173393e-05   -2.014641628784227e-06   -3.5416445728143523e-06
2.063109867173393e-05   -2.014641628784227e-06   -3.5416445728143523e-06
2.063109867173393e-05   -2.014641628784227e-06   -3.5416445728143523e-06
1.1349390409751649e-05   -2.7144423877744316e-06   1.2347749652550074e-05
1.1349390409751649e-05   -2.7144423877744316e-06   1.2347749652550074e-05
1.1349390409751649e-05   -2.7144423877744316e-06   1.2347749652550074e-05
1.1349390409751649e-05   -2.7144423877744316e-06   1.2347749652550074e-05
2.0631098671733923e-05   -4.10872117624487e-06   2.7952680947732804e-05
2.0631098671733923e-05   -4.10872117624487e-06   2.7952680947732804e-05
2.0631098671733923e-05   -4.10872117624487e-06   2.7952680947732804e-05
2.0631098671733923e-05   -4.10872117624487e-06   2.7952680947732804e-05
1.7345033594055696e-06   -2.014641628784227e-06   -2.285196844337904e-06
1.7345033594055696e-06   -2.014641628784227e-06   -2.285196844337904e-06
1.7345033594055696e-06   -2.014641628784227e-06   -2.285196844337904e-06
1.7345033594055696e-06   -2.014641628784227e-06   -2.285196844337904e-06
1.0308053755482972e-06   -4.2109127114662356e-06   2.8927972879084357e-05
1.0308053755482972e-06   -4.2109127114662356e-06   2.8927972879084357e-05
1.0308053755482972e-06   -4.2109127114662356e-06   2.8927972879084357e-05
1.0308053755482972e-06   -4.2109127114662356e-06   2.8927972879084357e-05
1.9916209902126988e-05   -2.2355002593939764e-06   -3.7329488031233597e-06
1.9916209902126988e-05   -2.2355002593939764e-06   -3.7329488031233597e-06
1.9916209902126988e-05   -2.2355002593939764e-06   -3.7329488031233597e-06
1.9916209902126988e-05   -2.2355002593939764e-06   -3.7329488031233597e-06
1.0649121484912817e-05   -2.841988837928378e-06   1.2076091706021328e-05
1.0649121484912817e-05   -2.841988837928378e-06   1.2076091706021328e-05
1.0649121484912817e-05   -2.841988837928378e-06   1.2076091706021328e-05
1.0649121484912817e-05   -2.841988837928378e-06   1.2076091706021328e-05
1.9916209902126954e-05   -4.2109127114662356e-06   2.774272540784109e-05
1.9916209902126954e-05   -4.2109127114662356e-06   2.774272540784109e-05
1.9916209902126954e-05   -4.2109127114662356e-06   2.774272540784109e-05
1.9916209902126954e-05   -4.2109127114662356e-06   2.774272540784109e-05
1.0308053755482972e-06   -2.2355002593939764e-06   -2.5477013318800368e-06
1.0308053755482972e-06   -2.2355002593939764e-06   -2.5477013318800368e-06
1.0308053755482972e-06   -2.2355002593939764e-06   -2.5477013318800368e-06
1.0308053755482972e-06   -2.2355002593939764e-06   -2.5477013318800368e-06
2.53491966913631e-07   -4.112924147846265e-06   2.9346704254541375e-05
2.53491966913631e-07   -4.112924147846265e-06   2.9346704254541375e-05
2.53491966913631e-07   -4.112924147846265e-06   2.9346704254541375e-05
2.53491966913631e-07   -4.112924147846265e-06   2.9346704254541375e-05
1.9165843967178062e-05   -2.328392398339091e-06   -3.2446014622703812e-06
1.9165843967178062e-05   -2.328392398339091e-06   -3.2446014622703812e-06
1.9165843967178062e-05   -2.328392398339091e-06   -3.2446014622703812e-06
1.9165843967178062e-05   -2.328392398339091e-06   -3.2446014622703812e-06
1.0080568673053066e-05   -2.813374219996301e-06   1.2188513120932963e-05
1.0080568673053066e-05   -2.813374219996301e-06   1.2188513120932963e-05
1.0080568673053066e-05   -2.813374219996301e-06   1.2188513120932963e-05
1.0080568673053066e-05   -2.813374219996301e-06   1.2188513120932963e-05
2.286123506234724e-06   -1.6000108786183576e-06   2.8663907153425247e-05
2.286123506234724e-06   -1.6000108786183576e-06   2.8663907153425247e-05
2.286123506234724e-06   -1.6000108786183576e-06   2.8663907153425247e-05
2.286123506234724e-06   -1.6000108786183576e-06   2.8663907153425247e-05
-1.6027218439338992e-05   1.4999386376631126e-06   1.6402872378504935e-09
-1.6027218439338992e-05   1.4999386376631126e-06   1.6402872378504935e-09
-1.6027218439338992e-05   1.4999386376631126e-06   1.6402872378504935e-09
-1.6027218439338992e-05   1.4999386376631126e-06   1.6402872378504935e-09
-1.6648914095552785e-05   -1.6885880961417868e-06   3.073767350541146e-05
-1.6648914095552785e-05   -1.6885880961417868e-06   3.073767350541146e-05
-1.6648914095552785e-05   -1.6885880961417868e-06   3.073767350541146e-05
-1.6648914095552785e-05   -1.6885880961417868e-06   3.073767350541146e-05
1.7345033594055696e-06   1.2423618678614537e-06   -1.65992556458753e-06
1.7345033594055696e-06   1.2423618678614537e-06   -1.65992556458753e-06
1.7345033594055696e-06   1.2423618678614537e-06   -1.65992556458753e-06
1.7345033594055696e-06   1.2423618678614537e-06   -1.65992556458753e-06
-7.150891753720933e-06   -8.929188859661819e-10   1.3895019162671655e-05
-7.150891753720933e-06   -8.929188859661819e-10   1.3895019162671655e-05
-7.150891753720933e-06   -8.929188859661819e-10   1.3895019162671655e-05
-7.150891753720933e-06   -8.929188859661819e-10   1.3895019162671655e-05
1.7345033594055832e-06   -1.6885880961417868e-06   2.8979103527009822e-05
1.7345033594055832e-06   -1.6885880961417868e-06   2.8979103527009822e-05
1.7345033594055832e-06   -1.6885880961417868e-06   2.8979103527009822e-05
1.7345033594055832e-06   -1.6885880961417868e-06   2.8979103527009822e-05
-1.6648914095552785e-05   1.2423618678614537e-06   9.864441381432758e-08
-1.6648914095552785e-05   1.2423618678614537e-06   9.864441381432758e-08
-1.6648914095552785e-05   1.2423618678614537e-06   9.864441381432758e-08
-1.6648914095552785e-05   1.2423618678614537e-06   9.864441381432758e-08
-1.74813372604806e-05   -1.797539437291924e-06   3.134934578553862e-05
-1.74813372604806e-05   -1.797539437291924e-06   3.134934578553862e-05
-1.74813372604806e-05   -1.797539437291924e-06   3.134934578553862e-05
-1.74813372604806e-05   -1.797539437291924e-06   3.134934578553862e-05
1.0308053755482972e-06   1.002600362134086e-06   -1.184309154165532e-06
1.0308053755482972e-06   1.002600362134086e-06   -1.184309154165532e-06
1.0308053755482972e-06   1.002600362134086e-06   -1.184309154165532e-06
1.0308053755482972e-06   1.002600362134086e-06   -1.184309154165532e-06
-7.763853236466473e-06   -7.220553480688854e-08   1.4118338737357313e-05
-7.763853236466473e-06   -7.220553480688854e-08   1.4118338737357313e-05
-7.763853236466473e-06   -7.220553480688854e-08   1.4118338737357313e-05
-7.763853236466473e-06   -7.220553480688854e-08   1.4118338737357313e-05
1.0308053755482972e-06   -1.797539437291924e-06   2.9669261905882578e-05
1.0308053755482972e-06   -1.797539437291924e-06   2.9669261905882578e-05
1.0308053755482972e-06   -1.797539437291924e-06   2.9669261905882578e-05
1.0308053755482972e-06   -1.797539437291924e-06   2.9669261905882578e-05
-1.748133726048056e-05   1.002600362134086e-06   4.957747254903449e-07
-1.748133726048056e-05   1.002600362134086e-06   4.957747254903449e-07
-1.748133726048056e-05   1.002600362134086e-06   4.957747254903449e-07
-1.748133726048056e-05   1.002600362134086e-06   4.957747254903449e-07
-1.836819737794214e-05   -1.7844934274873544e-06   3.20829884155726e-05
-1.836819737794214e-05   -1.7844934274873544e-06   3.20829884155726e-05
-1.836819737794214e-05   -1.7844934274873544e-06   3.20829884155726e-05
-1.836819737794214e-05   -1.7844934274873544e-06   3.20829884155726e-05
2.53491966913631e-07   8.302973077934598e-07   -5.220349336888146e-07
2.53491966913631e-07   8.302973077934598e-07   -5.220349336888146e-07
2.53491966913631e-07   8.302973077934598e-07   -5.220349336888146e-07
2.53491966913631e-07   8.302973077934598e-07   -5.220349336888146e-07
-8.545142054744812e-06   -1.227830811255208e-07   1.4714203335760456e-05
-8.545142054744812e-06   -1.227830811255208e-07   1.4714203335760456e-05
-8.545142054744812e-06   -1.227830811255208e-07   1.4714203335760456e-05
-8.545142054744812e-06   -1.227830811255208e-07   1.4714203335760456e-05
-1.602721843933895e-05   1.8048004548423813e-06   2.5922121029823587e-05
-1.602721843933895e-05   1.8048004548423813e-06   2.5922121029823587e-05
-1.602721843933895e-05   1.8048004548423813e-06   2.5922121029823587e-05
-1.602721843933895e-05   1.8048004548423813e-06   2.5922121029823587e-05
-3.398044713669389e-05   4.8727697512288524e-06   -2.1591452212692047e-06
-3.398044713669389e-05   4.8727697512288524e-06   -2.1591452212692047e-06
-3.398044713669389e-05   4.8727697512288524e-06   -2.1591452212692047e-06
-3.398044713669389e-05   4.8727697512288524e-06   -2.1591452212692047e-06
-3.488365727131803e-05   1.704693494592206e-06   2.8677498384310773e-05
-3.488365727131803e-05   1.704693494592206e-06   2.8677498384310773e-05
-3.488365727131803e-05   1.704693494592206e-06   2.8677498384310773e-05
-3.488365727131803e-05   1.704693494592206e-06   2.8677498384310773e-05
-1.6648914095552717e-05   4.6154312372827765e-06   -3.4601828875790476e-06
-1.6648914095552717e-05   4.6154312372827765e-06   -3.4601828875790476e-06
-1.6648914095552717e-05   4.6154312372827765e-06   -3.4601828875790476e-06
-1.6648914095552717e-05   4.6154312372827765e-06   -3.4601828875790476e-06
-2.518639289439394e-05   3.30354765641595e-06   1.1556078592342997e-05
-2.518639289439394e-05   3.30354765641595e-06   1.1556078592342997e-05
-2.518639289439394e-05   3.30354765641595e-06   1.1556078592342997e-05
-2.518639289439394e-05   3.30354765641595e-06   1.1556078592342997e-05
-1.6648914095552744e-05   1.704693494592206e-06   2.6931055738696323e-05
-1.6648914095552744e-05   1.704693494592206e-06   2.6931055738696323e-05
-1.6648914095552744e-05   1.704693494592206e-06   2.6931055738696323e-05
-1.6648914095552744e-05   1.704693494592206e-06   2.6931055738696323e-05
-3.4883657271317963e-05   4.61543123728256e-06   -1.7137402419648137e-06
-3.4883657271317963e-05   4.61543123728256e-06   -1.7137402419648137e-06
-3.4883657271317963e-05   4.61543123728256e-06   -1.7137402419648137e-06
-3.4883657271317963e-05   4.61543123728256e-06   -1.7137402419648137e-06
-3.599131721200619e-05   1.5148542361904504e-06   3.043631534412213e-05
-3.599131721200619e-05   1.5148542361904504e-06   3.043631534412213e-05
-3.599131721200619e-05   1.5148542361904504e-06   3.043631534412213e-05
-3.599131721200619e-05   1.5148542361904504e-06   3.043631534412213e-05
-1.748133726048056e-05   4.376618208584747e-06   -2.1307096251903506e-06
-1.748133726048056e-05   4.376618208584747e-06   -2.1307096251903506e-06
-1.748133726048056e-05   4.376618208584747e-06   -2.1307096251903506e-06
-1.748133726048056e-05   4.376618208584747e-06   -2.1307096251903506e-06
-2.5857593257149705e-05   3.2460391014969316e-06   1.2508064500177629e-05
-2.5857593257149705e-05   3.2460391014969316e-06   1.2508064500177629e-05
-2.5857593257149705e-05   3.2460391014969316e-06   1.2508064500177629e-05
-2.5857593257149705e-05   3.2460391014969316e-06   1.2508064500177629e-05
-1.748133726048056e-05   1.5148542361904504e-06   2.8719256960685552e-05
-1.748133726048056e-05   1.5148542361904504e-06   2.8719256960685552e-05
-1.748133726048056e-05   1.5148542361904504e-06   2.8719256960685552e-05
-1.748133726048056e-05   1.5148542361904504e-06   2.8719256960685552e-05
-3.599131721200619e-05   4.376618208584747e-06   -4.136512417537725e-07
-3.599131721200619e-05   4.376618208584747e-06   -4.136512417537725e-07
-3.599131721200619e-05   4.376618208584747e-06   -4.136512417537725e-07
-3.599131721200619e-05   4.376618208584747e-06   -4.136512417537725e-07
-3.7162446141067646e-05   1.2992248661718685e-06   3.183042008428165e-05
-3.7162446141067646e-05   1.2992248661718685e-06   3.183042008428165e-05
-3.7162446141067646e-05   1.2992248661718685e-06   3.183042008428165e-05
-3.7162446141067646e-05   1.2992248661718685e-06   3.183042008428165e-05
-1.8368197377942072e-05   4.054651241826388e-06   -1.1465836796537552e-06
-1.8368197377942072e-05   4.054651241826388e-06   -1.1465836796537552e-06
-1.8368197377942072e-05   4.054651241826388e-06   -1.1465836796537552e-06
-1.8368197377942072e-05   4.054651241826388e-06   -1.1465836796537552e-06
-2.6981058353871226e-05   3.0529161905595327e-06   1.380922564432266e-05
-2.6981058353871226e-05   3.0529161905595327e-06   1.380922564432266e-05
-2.6981058353871226e-05   3.0529161905595327e-06   1.380922564432266e-05
-2.6981058353871226e-05   3.0529161905595327e-06   1.380922564432266e-05
-3.398044713669389e-05   8.0317164684548e-06   1.3643998654275409e-05
-3.398044713669389e-05   8.0317164684548e-06   1.3643998654275409e-05
-3.398044713669389e-05   8.0317164684548e-06   1.3643998654275409e-05
-3.398044713669389e-05   8.0317164684548e-06   1.3643998654275409e-05
-5.1189453198101646e-05   7.924741303709038e-06   -1.5101863213584925e-05
-5.1189453198101646e-05   7.924741303709038e-06   -1.5101863213584925e-05
-5.1189453198101646e-05   7.924741303709038e-06   -1.5101863213584925e-05
-5.1189453198101646e-05   7.924741303709038e-06   -1.5101863213584925e-05
-5.281211023601416e-05   7.761304331889776e-06   2.025153061138707e-05
-5.281211023601416e-05   7.761304331889776e-06   2.025153061138707e-05
-5.281211023601416e-05   7.761304331889776e-06   2.025153061138707e-05
-5.281211023601416e-05   7.761304331889776e-06   2.025153061138707e-05
-3.4883657271317963e-05   8.080875630894335e-06   -9.820967109176173e-06
-3.4883657271317963e-05   8.080875630894335e-06   -9.820967109176173e-06
-3.4883657271317963e-05   8.080875630894335e-06   -9.820967109176173e-06
-3.4883657271317963e-05   8.080875630894335e-06   -9.820967109176173e-06
-4.147687570510341e-05   8.07111208317988e-06   1.173588409094815e-06
-4.147687570510341e-05   8.07111208317988e-06   1.173588409094815e-06
-4.147687570510341e-05   8.07111208317988e-06   1.173588409094815e-06
-4.147687570510341e-05   8.07111208317988e-06   1.173588409094815e-06
-3.4883657271317936e-05   7.761304331889776e-06   2.0059787831984226e-05
-3.4883657271317936e-05   7.761304331889776e-06   2.0059787831984226e-05
-3.4883657271317936e-05   7.761304331889776e-06   2.0059787831984226e-05
-3.4883657271317936e-05   7.761304331889776e-06   2.0059787831984226e-05
-5.281211023601416e-05   8.080875630894118e-06   -9.629224329773438e-06
-5.281211023601416e-05   8.080875630894118e-06   -9.629224329773438e-06
-5.281211023601416e-05   8.080875630894118e-06   -9.629224329773438e-06
-5.281211023601416e-05   8.080875630894118e-06   -9.629224329773438e-06
-5.4403277316278055e-05   7.565761758743716e-06   2.4881756088701882e-05
-5.4403277316278055e-05   7.565761758743716e-06   2.4881756088701882e-05
-5.4403277316278055e-05   7.565761758743716e-06   2.4881756088701882e-05
-5.4403277316278055e-05   7.565761758743716e-06   2.4881756088701882e-05
-3.5991317212006135e-05   8.024008501547478e-06   -6.079792130766858e-06
-3.5991317212006135e-05   8.024008501547478e-06   -6.079792130766858e-06
-3.5991317212006135e-05   8.024008501547478e-06   -6.079792130766858e-06
-3.5991317212006135e-05   8.024008501547478e-06   -6.079792130766858e-06
-4.334448392180096e-05   8.073552781478728e-06   6.1457591509329695e-06
-4.334448392180096e-05   8.073552781478728e-06   6.1457591509329695e-06
-4.334448392180096e-05   8.073552781478728e-06   6.1457591509329695e-06
-4.334448392180096e-05   8.073552781478728e-06   6.1457591509329695e-06
-3.5991317212006135e-05   7.565761758743716e-06   2.46068080430198e-05
-3.5991317212006135e-05   7.565761758743716e-06   2.46068080430198e-05
-3.5991317212006135e-05   7.565761758743716e-06   2.46068080430198e-05
-3.5991317212006135e-05   7.565761758743716e-06   2.46068080430198e-05
-5.4403277316278055e-05   8.024008501547261e-06   -5.804844085084693e-06
-5.4403277316278055e-05   8.024008501547261e-06   -5.804844085084693e-06
-5.4403277316278055e-05   8.024008501547261e-06   -5.804844085084693e-06
-5.4403277316278055e-05   8.024008501547261e-06   -5.804844085084693e-06
-5.628051594186525e-05   6.315265971263253e-06   3.2616534250725325e-05
-5.628051594186525e-05   6.315265971263253e-06   3.2616534250725325e-05
-5.628051594186525e-05   6.315265971263253e-06   3.2616534250725325e-05
-5.628051594186525e-05   6.315265971263253e-06   3.2616534250725325e-05
-3.7162446141067524e-05   7.390755200913221e-06   1.0779104493924621e-07
-3.7162446141067524e-05   7.390755200913221e-06   1.0779104493924621e-07
-3.7162446141067524e-05   7.390755200913221e-06   1.0779104493924621e-07
-3.7162446141067524e-05   7.390755200913221e-06   1.0779104493924621e-07
-4.400398485110603e-05   7.693253133009802e-06   1.1328856802412558e-05
-4.400398485110603e-05   7.693253133009802e-06   1.1328856802412558e-05
-4.400398485110603e-05   7.693253133009802e-06   1.1328856802412558e-05
-4.400398485110603e-05   7.693253133009802e-06   1.1328856802412558e-05
3.407721947406126e-05   -4.763576889858442e-06   2.6230385688729785e-05
3.407721947406126e-05   -4.763576889858442e-06   2.6230385688729785e-05
3.407721947406126e-05   -4.763576889858442e-06   2.6230385688729785e-05
3.407721947406126e-05   -4.763576889858442e-06   2.6230385688729785e-05
1.6859114514761154e-05   -3.5030811019621383e-06   -1.7101584373659107e-06
1.6859114514761154e-05   -3.5030811019621383e-06   -1.7101584373659107e-06
1.6859114514761154e-05   -3.5030811019621383e-06   -1.7101584373659107e-06
1.6859114514761154e-05   -3.5030811019621383e-06   -1.7101584373659107e-06
1.6219732310454432e-05   -5.395307601690482e-06   2.2800078475547904e-05
1.6219732310454432e-05   -5.395307601690482e-06   2.2800078475547904e-05
1.6219732310454432e-05   -5.395307601690482e-06   2.2800078475547904e-05
1.6219732310454432e-05   -5.395307601690482e-06   2.2800078475547904e-05
3.2901910445427906e-05   -4.061277867085109e-06   -5.803969590170698e-06
3.2901910445427906e-05   -4.061277867085109e-06   -5.803969590170698e-06
3.2901910445427906e-05   -4.061277867085109e-06   -5.803969590170698e-06
3.2901910445427906e-05   -4.061277867085109e-06   -5.803969590170698e-06
2.3869468032660803e-05   -4.38523198010069e-06   9.444473565583767e-06
2.3869468032660803e-05   -4.38523198010069e-06   9.444473565583767e-06
2.3869468032660803e-05   -4.38523198010069e-06   9.444473565583767e-06
2.3869468032660803e-05   -4.38523198010069e-06   9.444473565583767e-06
3.290191044542785e-05   -5.3953076016902655e-06   2.1999660634784918e-05
3.290191044542785e-05   -5.3953076016902655e-06   2.1999660634784918e-05
3.290191044542785e-05   -5.3953076016902655e-06   2.1999660634784918e-05
3.290191044542785e-05   -5.3953076016902655e-06   2.1999660634784918e-05
1.6219732310454486e-05   -4.061277867085109e-06   -5.0035517494077244e-06
1.6219732310454486e-05   -4.061277867085109e-06   -5.0035517494077244e-06
1.6219732310454486e-05   -4.061277867085109e-06   -5.0035517494077244e-06
1.6219732310454486e-05   -4.061277867085109e-06   -5.0035517494077244e-06
1.550890267719795e-05   -5.488332789886034e-06   2.0426582781478712e-05
1.550890267719795e-05   -5.488332789886034e-06   2.0426582781478712e-05
1.550890267719795e-05   -5.488332789886034e-06   2.0426582781478712e-05
1.550890267719795e-05   -5.488332789886034e-06   2.0426582781478712e-05
3.183689221952698e-05   -4.1728274529316805e-06   -7.576036324575241e-06
3.183689221952698e-05   -4.1728274529316805e-06   -7.576036324575241e-06
3.183689221952698e-05   -4.1728274529316805e-06   -7.576036324575241e-06
3.183689221952698e-05   -4.1728274529316805e-06   -7.576036324575241e-06
2.343108638805471e-05   -4.6018290367148395e-06   6.691041011481619e-06
2.343108638805471e-05   -4.6018290367148395e-06   6.691041011481619e-06
2.343108638805471e-05   -4.6018290367148395e-06   6.691041011481619e-06
2.343108638805471e-05   -4.6018290367148395e-06   6.691041011481619e-06
3.183689221952687e-05   -5.488332789885817e-06   1.9637279579306404e-05
3.183689221952687e-05   -5.488332789885817e-06   1.9637279579306404e-05
3.183689221952687e-05   -5.488332789885817e-06   1.9637279579306404e-05
3.183689221952687e-05   -5.488332789885817e-06   1.9637279579306404e-05
1.5508902677197978e-05   -4.1728274529316805e-06   -6.786733122402791e-06
1.5508902677197978e-05   -4.1728274529316805e-06   -6.786733122402791e-06
1.5508902677197978e-05   -4.1728274529316805e-06   -6.786733122402791e-06
1.5508902677197978e-05   -4.1728274529316805e-06   -6.786733122402791e-06
1.482489608643487e-05   -5.4497284606325625e-06   1.711185780601393e-05
1.482489608643487e-05   -5.4497284606325625e-06   1.711185780601393e-05
1.482489608643487e-05   -5.4497284606325625e-06   1.711185780601393e-05
1.482489608643487e-05   -5.4497284606325625e-06   1.711185780601393e-05
3.062997385443017e-05   -4.214912567492924e-06   -9.970828009861879e-06
3.062997385443017e-05   -4.214912567492924e-06   -9.970828009861879e-06
3.062997385443017e-05   -4.214912567492924e-06   -9.970828009861879e-06
3.062997385443017e-05   -4.214912567492924e-06   -9.970828009861879e-06
2.2232636777138133e-05   -4.522833836772275e-06   4.209486547192814e-06
2.2232636777138133e-05   -4.522833836772275e-06   4.209486547192814e-06
2.2232636777138133e-05   -4.522833836772275e-06   4.209486547192814e-06
2.2232636777138133e-05   -4.522833836772275e-06   4.209486547192814e-06
1.6859114514761154e-05   -1.6760267722885306e-06   2.747028932172384e-05
1.6859114514761154e-05   -1.6760267722885306e-06   2.747028932172384e-05
1.6859114514761154e-05   -1.6760267722885306e-06   2.747028932172384e-05
1.6859114514761154e-05   -1.6760267722885306e-06   2.747028932172384e-05
6.967102972968453e-07   -6.712170489192506e-07   1.1358347933047765e-06
6.967102972968453e-07   -6.712170489192506e-07   1.1358347933047765e-06
6.967102972968453e-07   -6.712170489192506e-07   1.1358347933047765e-06
6.967102972968453e-07   -6.712170489192506e-07   1.1358347933047765e-06
8.254798075658638e-08   -2.0146416287840103e-06   2.775199594440541e-05
8.254798075658638e-08   -2.0146416287840103e-06   2.775199594440541e-05
8.254798075658638e-08   -2.0146416287840103e-06   2.775199594440541e-05
8.254798075658638e-08   -2.0146416287840103e-06   2.775199594440541e-05
1.6219732310454486e-05   -1.0662737831392596e-06   2.876680208554214e-07
1.6219732310454486e-05   -1.0662737831392596e-06   2.876680208554214e-07
1.6219732310454486e-05   -1.0662737831392596e-06   2.876680208554214e-07
1.6219732310454486e-05   -1.0662737831392596e-06   2.876680208554214e-07
8.361610568526199e-06   -1.3071879059885997e-06   1.3529086064445459e-05
8.361610568526199e-06   -1.3071879059885997e-06   1.3529086064445459e-05
8.361610568526199e-06   -1.3071879059885997e-06   1.3529086064445459e-05
8.361610568526199e-06   -1.3071879059885997e-06   1.3529086064445459e-05
1.621973231045448e-05   -2.014641628784227e-06   2.718297523701858e-05
1.621973231045448e-05   -2.014641628784227e-06   2.718297523701858e-05
1.621973231045448e-05   -2.014641628784227e-06   2.718297523701858e-05
1.621973231045448e-05   -2.014641628784227e-06   2.718297523701858e-05
8.254798075658638e-08   -1.0662737831392596e-06   8.566887282424399e-07
8.254798075658638e-08   -1.0662737831392596e-06   8.566887282424399e-07
8.254798075658638e-08   -1.0662737831392596e-06   8.566887282424399e-07
8.254798075658638e-08   -1.0662737831392596e-06   8.566887282424399e-07
-5.558623810845769e-07   -2.2355002593939764e-06   2.7329124318429448e-05
-5.558623810845769e-07   -2.2355002593939764e-06   2.7329124318429448e-05
-5.558623810845769e-07   -2.2355002593939764e-06   2.7329124318429448e-05
-5.558623810845769e-07   -2.2355002593939764e-06   2.7329124318429448e-05
1.5508902677197978e-05   -1.3587868969535451e-06   2.8487870494254804e-08
1.5508902677197978e-05   -1.3587868969535451e-06   2.8487870494254804e-08
1.5508902677197978e-05   -1.3587868969535451e-06   2.8487870494254804e-08
1.5508902677197978e-05   -1.3587868969535451e-06   2.8487870494254804e-08
7.655699818831482e-06   -1.5137379710981544e-06   1.3210129945592254e-05
7.655699818831482e-06   -1.5137379710981544e-06   1.3210129945592254e-05
7.655699818831482e-06   -1.5137379710981544e-06   1.3210129945592254e-05
7.655699818831482e-06   -1.5137379710981544e-06   1.3210129945592254e-05
1.550890267719795e-05   -2.2355002593941933e-06   2.680309630096519e-05
1.550890267719795e-05   -2.2355002593941933e-06   2.680309630096519e-05
1.550890267719795e-05   -2.2355002593941933e-06   2.680309630096519e-05
1.550890267719795e-05   -2.2355002593941933e-06   2.680309630096519e-05
-5.558623810845769e-07   -1.3587868969535451e-06   5.545158879585949e-07
-5.558623810845769e-07   -1.3587868969535451e-06   5.545158879585949e-07
-5.558623810845769e-07   -1.3587868969535451e-06   5.545158879585949e-07
-5.558623810845769e-07   -1.3587868969535451e-06   5.545158879585949e-07
-1.2205028140839806e-06   -2.328392398339091e-06   2.7534044501308953e-05
-1.2205028140839806e-06   -2.328392398339091e-06   2.7534044501308953e-05
-1.2205028140839806e-06   -2.328392398339091e-06   2.7534044501308953e-05
-1.2205028140839806e-06   -2.328392398339091e-06   2.7534044501308953e-05
1.4824896086434905e-05   -1.5883892027282725e-06   3.4771108307769637e-07
1.4824896086434905e-05   -1.5883892027282725e-06   3.4771108307769637e-07
1.4824896086434905e-05   -1.5883892027282725e-06   3.4771108307769637e-07
1.4824896086434905e-05   -1.5883892027282725e-06   3.4771108307769637e-07
7.126443933246845e-06   -1.6235006110511697e-06   1.3199531516718666e-05
7.126443933246845e-06   -1.6235006110511697e-06   1.3199531516718666e-05
7.126443933246845e-06   -1.6235006110511697e-06   1.3199531516718666e-05
7.126443933246845e-06   -1.6235006110511697e-06   1.3199531516718666e-05
6.967102972968453e-07   1.4999386376631126e-06   2.8349491550567498e-05
6.967102972968453e-07   1.4999386376631126e-06   2.8349491550567498e-05
6.967102972968453e-07   1.4999386376631126e-06   2.8349491550567498e-05
6.967102972968453e-07   1.4999386376631126e-06   2.8349491550567498e-05
-1.4996213809331354e-05   2.1695068683647706e-06   2.5963589779414483e-06
-1.4996213809331354e-05   2.1695068683647706e-06   2.5963589779414483e-06
-1.4996213809331354e-05   2.1695068683647706e-06   2.5963589779414483e-06
-1.4996213809331354e-05   2.1695068683647706e-06   2.5963589779414483e-06
-1.5638137718678775e-05   1.2423618678612369e-06   2.8736973453685408e-05
-1.5638137718678775e-05   1.2423618678612369e-06   2.8736973453685408e-05
-1.5638137718678775e-05   1.2423618678612369e-06   2.8736973453685408e-05
-1.5638137718678775e-05   1.2423618678612369e-06   2.8736973453685408e-05
8.254798075658638e-08   1.8418722504101766e-06   2.1761243917636547e-06
8.254798075658638e-08   1.8418722504101766e-06   2.1761243917636547e-06
8.254798075658638e-08   1.8418722504101766e-06   2.1761243917636547e-06
8.254798075658638e-08   1.8418722504101766e-06   2.1761243917636547e-06
-7.4752479244451935e-06   1.7066468768996753e-06   1.4853586124539557e-05
-7.4752479244451935e-06   1.7066468768996753e-06   1.4853586124539557e-05
-7.4752479244451935e-06   1.7066468768996753e-06   1.4853586124539557e-05
-7.4752479244451935e-06   1.7066468768996753e-06   1.4853586124539557e-05
8.254798075658638e-08   1.2423618678612369e-06   2.8377267224155892e-05
8.254798075658638e-08   1.2423618678612369e-06   2.8377267224155892e-05
8.254798075658638e-08   1.2423618678612369e-06   2.8377267224155892e-05
8.254798075658638e-08   1.2423618678612369e-06   2.8377267224155892e-05
-1.5638137718678775e-05   1.8418722504101766e-06   2.5358306212930077e-06
-1.5638137718678775e-05   1.8418722504101766e-06   2.5358306212930077e-06
-1.5638137718678775e-05   1.8418722504101766e-06   2.5358306212930077e-06
-1.5638137718678775e-05   1.8418722504101766e-06   2.5358306212930077e-06
-1.631569942601817e-05   1.002600362134086e-06   2.9005229767344824e-05
-1.631569942601817e-05   1.002600362134086e-06   2.9005229767344824e-05
-1.631569942601817e-05   1.002600362134086e-06   2.9005229767344824e-05
-1.631569942601817e-05   1.002600362134086e-06   2.9005229767344824e-05
-5.558623810845769e-07   1.5237891474691786e-06   2.426121421254731e-06
-5.558623810845769e-07   1.5237891474691786e-06   2.426121421254731e-06
-5.558623810845769e-07   1.5237891474691786e-06   2.426121421254731e-06
-5.558623810845769e-07   1.5237891474691786e-06   2.426121421254731e-06
-8.07137459909504e-06   1.5202245578337797e-06   1.4954113871719962e-05
-8.07137459909504e-06   1.5202245578337797e-06   1.4954113871719962e-05
-8.07137459909504e-06   1.5202245578337797e-06   1.4954113871719962e-05
-8.07137459909504e-06   1.5202245578337797e-06   1.4954113871719962e-05
-5.558623810845769e-07   1.0026003621343028e-06   2.8692516496144006e-05
-5.558623810845769e-07   1.0026003621343028e-06   2.8692516496144006e-05
-5.558623810845769e-07   1.0026003621343028e-06   2.8692516496144006e-05
-5.558623810845769e-07   1.0026003621343028e-06   2.8692516496144006e-05
-1.6315699426018197e-05   1.5237891474691786e-06   2.738834692455629e-06
-1.6315699426018197e-05   1.5237891474691786e-06   2.738834692455629e-06
-1.6315699426018197e-05   1.5237891474691786e-06   2.738834692455629e-06
-1.6315699426018197e-05   1.5237891474691786e-06   2.738834692455629e-06
-1.701471897205806e-05   8.302973077934598e-07   2.943214947567015e-05
-1.701471897205806e-05   8.302973077934598e-07   2.943214947567015e-05
-1.701471897205806e-05   8.302973077934598e-07   2.943214947567015e-05
-1.701471897205806e-05   8.302973077934598e-07   2.943214947567015e-05
-1.220502814083967e-06   1.240726466933493e-06   2.86219838356263e-06
-1.220502814083967e-06   1.240726466933493e-06   2.86219838356263e-06
-1.220502814083967e-06   1.240726466933493e-06   2.86219838356263e-06
-1.220502814083967e-06   1.240726466933493e-06   2.86219838356263e-06
-8.716510084532673e-06   1.341752451128938e-06   1.5294928243793604e-05
-8.716510084532673e-06   1.341752451128938e-06   1.5294928243793604e-05
-8.716510084532673e-06   1.341752451128938e-06   1.5294928243793604e-05
-8.716510084532673e-06   1.341752451128938e-06   1.5294928243793604e-05
-1.4996213809331422e-05   4.8727697512288524e-06   2.4749665402649446e-05
-1.4996213809331422e-05   4.8727697512288524e-06   2.4749665402649446e-05
-1.4996213809331422e-05   4.8727697512288524e-06   2.4749665402649446e-05
-1.4996213809331422e-05   4.8727697512288524e-06   2.4749665402649446e-05
-3.0206128134187033e-05   4.934706635019654e-06   -5.630296751688718e-07
-3.0206128134187033e-05   4.934706635019654e-06   -5.630296751688718e-07
-3.0206128134187033e-05   4.934706635019654e-06   -5.630296751688718e-07
-3.0206128134187033e-05   4.934706635019654e-06   -5.630296751688718e-07
-3.095121481127883e-05   4.61543123728256e-06   2.5182577575114584e-05
-3.095121481127883e-05   4.61543123728256e-06   2.5182577575114584e-05
-3.095121481127883e-05   4.61543123728256e-06   2.5182577575114584e-05
-3.095121481127883e-05   4.61543123728256e-06   2.5182577575114584e-05
-1.563813771867879e-05   4.622816941987065e-06   -3.436490020416224e-07
-1.563813771867879e-05   4.622816941987065e-06   -3.436490020416224e-07
-1.563813771867879e-05   4.622816941987065e-06   -3.436490020416224e-07
-1.563813771867879e-05   4.622816941987065e-06   -3.436490020416224e-07
-2.284542658857567e-05   4.748505855394847e-06   1.1593085766408578e-05
-2.284542658857567e-05   4.748505855394847e-06   1.1593085766408578e-05
-2.284542658857567e-05   4.748505855394847e-06   1.1593085766408578e-05
-2.284542658857567e-05   4.748505855394847e-06   1.1593085766408578e-05
-1.563813771867879e-05   4.61543123728256e-06   2.5178146152291707e-05
-1.563813771867879e-05   4.61543123728256e-06   2.5178146152291707e-05
-1.563813771867879e-05   4.61543123728256e-06   2.5178146152291707e-05
-1.563813771867879e-05   4.61543123728256e-06   2.5178146152291707e-05
-3.09512148112788e-05   4.622816941987065e-06   -3.392175792189898e-07
-3.09512148112788e-05   4.622816941987065e-06   -3.392175792189898e-07
-3.09512148112788e-05   4.622816941987065e-06   -3.392175792189898e-07
-3.09512148112788e-05   4.622816941987065e-06   -3.392175792189898e-07
-3.1776461367262715e-05   4.376618208584747e-06   2.635344429065224e-05
-3.1776461367262715e-05   4.376618208584747e-06   2.635344429065224e-05
-3.1776461367262715e-05   4.376618208584747e-06   2.635344429065224e-05
-3.1776461367262715e-05   4.376618208584747e-06   2.635344429065224e-05
-1.6315699426018197e-05   4.334449665230984e-06   6.108088479234088e-07
-1.6315699426018197e-05   4.334449665230984e-06   6.108088479234088e-07
-1.6315699426018197e-05   4.334449665230984e-06   6.108088479234088e-07
-1.6315699426018197e-05   4.334449665230984e-06   6.108088479234088e-07
-2.338239553422114e-05   4.572928702818637e-06   1.2245548272375934e-05
-2.338239553422114e-05   4.572928702818637e-06   1.2245548272375934e-05
-2.338239553422114e-05   4.572928702818637e-06   1.2245548272375934e-05
-2.338239553422114e-05   4.572928702818637e-06   1.2245548272375934e-05
-1.6315699426018183e-05   4.376618208584747e-06   2.6378745416664345e-05
-1.6315699426018183e-05   4.376618208584747e-06   2.6378745416664345e-05
-1.6315699426018183e-05   4.376618208584747e-06   2.6378745416664345e-05
-1.6315699426018183e-05   4.376618208584747e-06   2.6378745416664345e-05
-3.177646136726266e-05   4.334449665230984e-06   5.855077219112754e-07
-3.177646136726266e-05   4.334449665230984e-06   5.855077219112754e-07
-3.177646136726266e-05   4.334449665230984e-06   5.855077219112754e-07
-3.177646136726266e-05   4.334449665230984e-06   5.855077219112754e-07
-3.256263167943457e-05   4.054651241826605e-06   2.71948498624774e-05
-3.256263167943457e-05   4.054651241826605e-06   2.71948498624774e-05
-3.256263167943457e-05   4.054651241826605e-06   2.71948498624774e-05
-3.256263167943457e-05   4.054651241826605e-06   2.71948498624774e-05
-1.7014718972058115e-05   3.981523865060829e-06   1.32553844290931e-06
-1.7014718972058115e-05   3.981523865060829e-06   1.32553844290931e-06
-1.7014718972058115e-05   3.981523865060829e-06   1.32553844290931e-06
-1.7014718972058115e-05   3.981523865060829e-06   1.32553844290931e-06
-2.424046661162343e-05   4.3437802603202985e-06   1.3151097338363698e-05
-2.424046661162343e-05   4.3437802603202985e-06   1.3151097338363698e-05
-2.424046661162343e-05   4.3437802603202985e-06   1.3151097338363698e-05
-2.424046661162343e-05   4.3437802603202985e-06   1.3151097338363698e-05
-3.020612813418698e-05   7.924741303709255e-06   1.1908294639455664e-05
-3.020612813418698e-05   7.924741303709255e-06   1.1908294639455664e-05
-3.020612813418698e-05   7.924741303709255e-06   1.1908294639455664e-05
-3.020612813418698e-05   7.924741303709255e-06   1.1908294639455664e-05
-4.467848013481313e-05   7.1143004061824736e-06   -1.2698556566770433e-05
-4.467848013481313e-05   7.1143004061824736e-06   -1.2698556566770433e-05
-4.467848013481313e-05   7.1143004061824736e-06   -1.2698556566770433e-05
-4.467848013481313e-05   7.1143004061824736e-06   -1.2698556566770433e-05
-4.585205701122805e-05   8.080875630894118e-06   1.6542511295858115e-05
-4.585205701122805e-05   8.080875630894118e-06   1.6542511295858115e-05
-4.585205701122805e-05   8.080875630894118e-06   1.6542511295858115e-05
-4.585205701122805e-05   8.080875630894118e-06   1.6542511295858115e-05
-3.095121481127883e-05   7.192809944153028e-06   -7.75938629201257e-06
-3.095121481127883e-05   7.192809944153028e-06   -7.75938629201257e-06
-3.095121481127883e-05   7.192809944153028e-06   -7.75938629201257e-06
-3.095121481127883e-05   7.192809944153028e-06   -7.75938629201257e-06
-3.6469413043101125e-05   7.532212543174665e-06   1.2339692016115518e-06
-3.6469413043101125e-05   7.532212543174665e-06   1.2339692016115518e-06
-3.6469413043101125e-05   7.532212543174665e-06   1.2339692016115518e-06
-3.6469413043101125e-05   7.532212543174665e-06   1.2339692016115518e-06
-3.095121481127877e-05   8.080875630894335e-06   1.70753507079029e-05
-3.095121481127877e-05   8.080875630894335e-06   1.70753507079029e-05
-3.095121481127877e-05   8.080875630894335e-06   1.70753507079029e-05
-3.095121481127877e-05   8.080875630894335e-06   1.70753507079029e-05
-4.585205701122821e-05   7.192809944153028e-06   -8.292225704057245e-06
-4.585205701122821e-05   7.192809944153028e-06   -8.292225704057245e-06
-4.585205701122821e-05   7.192809944153028e-06   -8.292225704057245e-06
-4.585205701122821e-05   7.192809944153028e-06   -8.292225704057245e-06
-4.699718309024458e-05   8.024008501547261e-06   2.014159813697766e-05
-4.699718309024458e-05   8.024008501547261e-06   2.014159813697766e-05
-4.699718309024458e-05   8.024008501547261e-06   2.014159813697766e-05
-4.699718309024458e-05   8.024008501547261e-06   2.014159813697766e-05
-3.1776461367262715e-05   7.114499727111376e-06   -4.6805661366640405e-06
-3.1776461367262715e-05   7.114499727111376e-06   -4.6805661366640405e-06
-3.1776461367262715e-05   7.114499727111376e-06   -4.6805661366640405e-06
-3.1776461367262715e-05   7.114499727111376e-06   -4.6805661366640405e-06
-3.7916969148552474e-05   7.670898806535478e-06   5.2197740511650075e-06
-3.7916969148552474e-05   7.670898806535478e-06   5.2197740511650075e-06
-3.7916969148552474e-05   7.670898806535478e-06   5.2197740511650075e-06
-3.7916969148552474e-05   7.670898806535478e-06   5.2197740511650075e-06
-3.1776461367262715e-05   8.024008501547261e-06   2.0687303401639235e-05
-3.1776461367262715e-05   8.024008501547261e-06   2.0687303401639235e-05
-3.1776461367262715e-05   8.024008501547261e-06   2.0687303401639235e-05
-3.1776461367262715e-05   8.024008501547261e-06   2.0687303401639235e-05
-4.6997183090244745e-05   7.114499727111376e-06   -5.2262714013257775e-06
-4.6997183090244745e-05   7.114499727111376e-06   -5.2262714013257775e-06
-4.6997183090244745e-05   7.114499727111376e-06   -5.2262714013257775e-06
-4.6997183090244745e-05   7.114499727111376e-06   -5.2262714013257775e-06
-4.8333735975338574e-05   7.390755200913221e-06   2.630236878656592e-05
-4.8333735975338574e-05   7.390755200913221e-06   2.630236878656592e-05
-4.8333735975338574e-05   7.390755200913221e-06   2.630236878656592e-05
-4.8333735975338574e-05   7.390755200913221e-06   2.630236878656592e-05
-3.256263167943457e-05   6.56808857572703e-06   5.107949351708103e-07
-3.256263167943457e-05   6.56808857572703e-06   5.107949351708103e-07
-3.256263167943457e-05   6.56808857572703e-06   5.107949351708103e-07
-3.256263167943457e-05   6.56808857572703e-06   5.107949351708103e-07
-3.827622179373382e-05   7.445278345428758e-06   9.50713126384909e-06
-3.827622179373382e-05   7.445278345428758e-06   9.50713126384909e-06
-3.827622179373382e-05   7.445278345428758e-06   9.50713126384909e-06
-3.827622179373382e-05   7.445278345428758e-06   9.50713126384909e-06
2.594366048975519e-05   -3.5030811019621383e-06   2.195363704738209e-05
2.594366048975519e-05   -3.5030811019621383e-06   2.195363704738209e-05
2.594366048975519e-05   -3.5030811019621383e-06   2.195363704738209e-05
2.594366048975519e-05   -3.5030811019621383e-06   2.195363704738209e-05
1.2207002695400425e-05   -2.324249677532501e-06   -2.3349375521790078e-07
1.2207002695400425e-05   -2.324249677532501e-06   -2.3349375521790078e-07
1.2207002695400425e-05   -2.324249677532501e-06   -2.3349375521790078e-07
1.2207002695400425e-05   -2.324249677532501e-06   -2.3349375521790078e-07
1.1635324704420303e-05   -4.061277867085109e-06   1.9281946523194357e-05
1.1635324704420303e-05   -4.061277867085109e-06   1.9281946523194357e-05
1.1635324704420303e-05   -4.061277867085109e-06   1.9281946523194357e-05
1.1635324704420303e-05   -4.061277867085109e-06   1.9281946523194357e-05
2.4837077002743747e-05   -2.8176882880090633e-06   -3.4671277214570534e-06
2.4837077002743747e-05   -2.8176882880090633e-06   -3.4671277214570534e-06
2.4837077002743747e-05   -2.8176882880090633e-06   -3.4671277214570534e-06
2.4837077002743747e-05   -2.8176882880090633e-06   -3.4671277214570534e-06
1.777844814965407e-05   -3.200131456253079e-06   8.526719601305619e-06
1.777844814965407e-05   -3.200131456253079e-06   8.526719601305619e-06
1.777844814965407e-05   -3.200131456253079e-06   8.526719601305619e-06
1.777844814965407e-05   -3.200131456253079e-06   8.526719601305619e-06
2.4837077002743747e-05   -4.061277867085109e-06   1.8535792775748665e-05
2.4837077002743747e-05   -4.061277867085109e-06   1.8535792775748665e-05
2.4837077002743747e-05   -4.061277867085109e-06   1.8535792775748665e-05
2.4837077002743747e-05   -4.061277867085109e-06   1.8535792775748665e-05
1.1635324704420327e-05   -2.8176882880090633e-06   -2.720973974011361e-06
1.1635324704420327e-05   -2.8176882880090633e-06   -2.720973974011361e-06
1.1635324704420327e-05   -2.8176882880090633e-06   -2.720973974011361e-06
1.1635324704420327e-05   -2.8176882880090633e-06   -2.720973974011361e-06
1.1003846122688417e-05   -4.1728274529316805e-06   1.7404774325899242e-05
1.1003846122688417e-05   -4.1728274529316805e-06   1.7404774325899242e-05
1.1003846122688417e-05   -4.1728274529316805e-06   1.7404774325899242e-05
1.1003846122688417e-05   -4.1728274529316805e-06   1.7404774325899242e-05
2.3866657332117555e-05   -2.94901608488031e-06   -4.767531177313719e-06
2.3866657332117555e-05   -2.94901608488031e-06   -4.767531177313719e-06
2.3866657332117555e-05   -2.94901608488031e-06   -4.767531177313719e-06
2.3866657332117555e-05   -2.94901608488031e-06   -4.767531177313719e-06
1.7323235685780076e-05   -3.400607265616022e-06   6.409126275023924e-06
1.7323235685780076e-05   -3.400607265616022e-06   6.409126275023924e-06
1.7323235685780076e-05   -3.400607265616022e-06   6.409126275023924e-06
1.7323235685780076e-05   -3.400607265616022e-06   6.409126275023924e-06
2.3866657332117514e-05   -4.1728274529316805e-06   1.6670487505068203e-05
2.3866657332117514e-05   -4.1728274529316805e-06   1.6670487505068203e-05
2.3866657332117514e-05   -4.1728274529316805e-06   1.6670487505068203e-05
2.3866657332117514e-05   -4.1728274529316805e-06   1.6670487505068203e-05
1.1003846122688433e-05   -2.94901608488031e-06   -4.033244356482714e-06
1.1003846122688433e-05   -2.94901608488031e-06   -4.033244356482714e-06
1.1003846122688433e-05   -2.94901608488031e-06   -4.033244356482714e-06
1.1003846122688433e-05   -2.94901608488031e-06   -4.033244356482714e-06
1.0420486904203986e-05   -4.214912567492924e-06   1.4857811782880673e-05
1.0420486904203986e-05   -4.214912567492924e-06   1.4857811782880673e-05
1.0420486904203986e-05   -4.214912567492924e-06   1.4857811782880673e-05
1.0420486904203986e-05   -4.214912567492924e-06   1.4857811782880673e-05
2.2781511568505985e-05   -3.0694586017389076e-06   -6.431168370408341e-06
2.2781511568505985e-05   -3.0694586017389076e-06   -6.431168370408341e-06
2.2781511568505985e-05   -3.0694586017389076e-06   -6.431168370408341e-06
2.2781511568505985e-05   -3.0694586017389076e-06   -6.431168370408341e-06
1.6306770629484853e-05   -3.379984532379636e-06   4.546382086344826e-06
1.6306770629484853e-05   -3.379984532379636e-06   4.546382086344826e-06
1.6306770629484853e-05   -3.379984532379636e-06   4.546382086344826e-06
1.6306770629484853e-05   -3.379984532379636e-06   4.546382086344826e-06
1.2207002695400384e-05   -6.712170489192506e-07   2.4904043298689033e-05
1.2207002695400384e-05   -6.712170489192506e-07   2.4904043298689033e-05
1.2207002695400384e-05   -6.712170489192506e-07   2.4904043298689033e-05
1.2207002695400384e-05   -6.712170489192506e-07   2.4904043298689033e-05
-7.912379610840512e-07   -1.67121831167686e-08   3.6330117906963055e-06
-7.912379610840512e-07   -1.67121831167686e-08   3.6330117906963055e-06
-7.912379610840512e-07   -1.67121831167686e-08   3.6330117906963055e-06
-7.912379610840512e-07   -1.67121831167686e-08   3.6330117906963055e-06
-1.3289663871283048e-06   -1.0662737831392596e-06   2.4945897697558066e-05
-1.3289663871283048e-06   -1.0662737831392596e-06   2.4945897697558066e-05
-1.3289663871283048e-06   -1.0662737831392596e-06   2.4945897697558066e-05
-1.3289663871283048e-06   -1.0662737831392596e-06   2.4945897697558066e-05
1.1635324704420327e-05   -4.450547763049789e-07   2.9660144742097726e-06
1.1635324704420327e-05   -4.450547763049789e-07   2.9660144742097726e-06
1.1635324704420327e-05   -4.450547763049789e-07   2.9660144742097726e-06
1.1635324704420327e-05   -4.450547763049789e-07   2.9660144742097726e-06
5.3424074187865915e-06   -5.655035965564971e-07   1.3526479242416861e-05
5.3424074187865915e-06   -5.655035965564971e-07   1.3526479242416861e-05
5.3424074187865915e-06   -5.655035965564971e-07   1.3526479242416861e-05
5.3424074187865915e-06   -5.655035965564971e-07   1.3526479242416861e-05
1.16353247044203e-05   -1.0662737831392596e-06   2.4573166293457584e-05
1.16353247044203e-05   -1.0662737831392596e-06   2.4573166293457584e-05
1.16353247044203e-05   -1.0662737831392596e-06   2.4573166293457584e-05
1.16353247044203e-05   -1.0662737831392596e-06   2.4573166293457584e-05
-1.3289663871283048e-06   -4.450547763047621e-07   3.338745878310478e-06
-1.3289663871283048e-06   -4.450547763047621e-07   3.338745878310478e-06
-1.3289663871283048e-06   -4.450547763047621e-07   3.338745878310478e-06
-1.3289663871283048e-06   -4.450547763047621e-07   3.338745878310478e-06
-1.8782465272846005e-06   -1.3587868969535451e-06   2.4566140219439312e-05
-1.8782465272846005e-06   -1.3587868969535451e-06   2.4566140219439312e-05
-1.8782465272846005e-06   -1.3587868969535451e-06   2.4566140219439312e-05
-1.8782465272846005e-06   -1.3587868969535451e-06   2.4566140219439312e-05
1.1003846122688433e-05   -7.818787292150891e-07   2.7498409021745225e-06
1.1003846122688433e-05   -7.818787292150891e-07   2.7498409021745225e-06
1.1003846122688433e-05   -7.818787292150891e-07   2.7498409021745225e-06
1.1003846122688433e-05   -7.818787292150891e-07   2.7498409021745225e-06
4.738513578422065e-06   -8.294256513224994e-07   1.322058996255045e-05
4.738513578422065e-06   -8.294256513224994e-07   1.322058996255045e-05
4.738513578422065e-06   -8.294256513224994e-07   1.322058996255045e-05
4.738513578422065e-06   -8.294256513224994e-07   1.322058996255045e-05
1.1003846122688417e-05   -1.3587868969535451e-06   2.421999531879637e-05
1.1003846122688417e-05   -1.3587868969535451e-06   2.421999531879637e-05
1.1003846122688417e-05   -1.3587868969535451e-06   2.421999531879637e-05
1.1003846122688417e-05   -1.3587868969535451e-06   2.421999531879637e-05
-1.8782465272846005e-06   -7.818787292150891e-07   3.0959858028175745e-06
-1.8782465272846005e-06   -7.818787292150891e-07   3.0959858028175745e-06
-1.8782465272846005e-06   -7.818787292150891e-07   3.0959858028175745e-06
-1.8782465272846005e-06   -7.818787292150891e-07   3.0959858028175745e-06
-2.4305745187194386e-06   -1.5883892027282725e-06   2.473280594747257e-05
-2.4305745187194386e-06   -1.5883892027282725e-06   2.473280594747257e-05
-2.4305745187194386e-06   -1.5883892027282725e-06   2.473280594747257e-05
-2.4305745187194386e-06   -1.5883892027282725e-06   2.473280594747257e-05
1.0420486904203996e-05   -1.0928148568341983e-06   3.017025635063857e-06
1.0420486904203996e-05   -1.0928148568341983e-06   3.017025635063857e-06
1.0420486904203996e-05   -1.0928148568341983e-06   3.017025635063857e-06
1.0420486904203996e-05   -1.0928148568341983e-06   3.017025635063857e-06
4.278562882556175e-06   -1.023821083086674e-06   1.3212169406895475e-05
4.278562882556175e-06   -1.023821083086674e-06   1.3212169406895475e-05
4.278562882556175e-06   -1.023821083086674e-06   1.3212169406895475e-05
4.278562882556175e-06   -1.023821083086674e-06   1.3212169406895475e-05
-7.912379610840512e-07   2.1695068683647706e-06   2.6355529464386113e-05
-7.912379610840512e-07   2.1695068683647706e-06   2.6355529464386113e-05
-7.912379610840512e-07   2.1695068683647706e-06   2.6355529464386113e-05
-7.912379610840512e-07   2.1695068683647706e-06   2.6355529464386113e-05
-1.351666069134206e-05   2.234903493713268e-06   5.185729555831978e-06
-1.351666069134206e-05   2.234903493713268e-06   5.185729555831978e-06
-1.351666069134206e-05   2.234903493713268e-06   5.185729555831978e-06
-1.351666069134206e-05   2.234903493713268e-06   5.185729555831978e-06
-1.4057558035690198e-05   1.8418722504101766e-06   2.6275873652689338e-05
-1.4057558035690198e-05   1.8418722504101766e-06   2.6275873652689338e-05
-1.4057558035690198e-05   1.8418722504101766e-06   2.6275873652689338e-05
-1.4057558035690198e-05   1.8418722504101766e-06   2.6275873652689338e-05
-1.3289663871283048e-06   1.859439403093877e-06   5.051013946809639e-06
-1.3289663871283048e-06   1.859439403093877e-06   5.051013946809639e-06
-1.3289663871283048e-06   1.859439403093877e-06   5.051013946809639e-06
-1.3289663871283048e-06   1.859439403093877e-06   5.051013946809639e-06
-7.442813008544921e-06   1.990462522300949e-06   1.5162144444313025e-05
-7.442813008544921e-06   1.990462522300949e-06   1.5162144444313025e-05
-7.442813008544921e-06   1.990462522300949e-06   1.5162144444313025e-05
-7.442813008544921e-06   1.990462522300949e-06   1.5162144444313025e-05
-1.3289663871283048e-06   1.8418722504101766e-06   2.6265333361079552e-05
-1.3289663871283048e-06   1.8418722504101766e-06   2.6265333361079552e-05
-1.3289663871283048e-06   1.8418722504101766e-06   2.6265333361079552e-05
-1.3289663871283048e-06   1.8418722504101766e-06   2.6265333361079552e-05
-1.4057558035690198e-05   1.85943940309366e-06   5.061554238419588e-06
-1.4057558035690198e-05   1.85943940309366e-06   5.061554238419588e-06
-1.4057558035690198e-05   1.85943940309366e-06   5.061554238419588e-06
-1.4057558035690198e-05   1.85943940309366e-06   5.061554238419588e-06
-1.4611813493269274e-05   1.5237891474691786e-06   2.6417458488967862e-05
-1.4611813493269274e-05   1.5237891474691786e-06   2.6417458488967862e-05
-1.4611813493269274e-05   1.5237891474691786e-06   2.6417458488967862e-05
-1.4611813493269274e-05   1.5237891474691786e-06   2.6417458488967862e-05
-1.8782465272846005e-06   1.4899770411902751e-06   5.215134142760847e-06
-1.8782465272846005e-06   1.4899770411902751e-06   5.215134142760847e-06
-1.8782465272846005e-06   1.4899770411902751e-06   5.215134142760847e-06
-1.8782465272846005e-06   1.4899770411902751e-06   5.215134142760847e-06
-7.944764489412154e-06   1.7384198311067717e-06   1.5176931739023926e-05
-7.944764489412154e-06   1.7384198311067717e-06   1.5176931739023926e-05
-7.944764489412154e-06   1.7384198311067717e-06   1.5176931739023926e-05
-7.944764489412154e-06   1.7384198311067717e-06   1.5176931739023926e-05
-1.8782465272846005e-06   1.5237891474691786e-06   2.643774575273542e-05
-1.8782465272846005e-06   1.5237891474691786e-06   2.643774575273542e-05
-1.8782465272846005e-06   1.5237891474691786e-06   2.643774575273542e-05
-1.8782465272846005e-06   1.5237891474691786e-06   2.643774575273542e-05
-1.4611813493269274e-05   1.4899770411902751e-06   5.194846878993505e-06
-1.4611813493269274e-05   1.4899770411902751e-06   5.194846878993505e-06
-1.4611813493269274e-05   1.4899770411902751e-06   5.194846878993505e-06
-1.4611813493269274e-05   1.4899770411902751e-06   5.194846878993505e-06
-1.5165712026549694e-05   1.240726466933493e-06   2.674253063654605e-05
-1.5165712026549694e-05   1.240726466933493e-06   2.674253063654605e-05
-1.5165712026549694e-05   1.240726466933493e-06   2.674253063654605e-05
-1.5165712026549694e-05   1.240726466933493e-06   2.674253063654605e-05
-2.430574518719452e-06   1.139458643524896e-06   5.578062150873891e-06
-2.430574518719452e-06   1.139458643524896e-06   5.578062150873891e-06
-2.430574518719452e-06   1.139458643524896e-06   5.578062150873891e-06
-2.430574518719452e-06   1.139458643524896e-06   5.578062150873891e-06
-8.470388241398779e-06   1.4929367783819356e-06   1.543233147442588e-05
-8.470388241398779e-06   1.4929367783819356e-06   1.543233147442588e-05
-8.470388241398779e-06   1.4929367783819356e-06   1.543233147442588e-05
-8.470388241398779e-06   1.4929367783819356e-06   1.543233147442588e-05
-1.351666069134206e-05   4.934706635019654e-06   2.319821665621054e-05
-1.351666069134206e-05   4.934706635019654e-06   2.319821665621054e-05
-1.351666069134206e-05   4.934706635019654e-06   2.319821665621054e-05
-1.351666069134206e-05   4.934706635019654e-06   2.319821665621054e-05
-2.5968771802483e-05   4.403001306563193e-06   2.1256749405685607e-06
-2.5968771802483e-05   4.403001306563193e-06   2.1256749405685607e-06
-2.5968771802483e-05   4.403001306563193e-06   2.1256749405685607e-06
-2.5968771802483e-05   4.403001306563193e-06   2.1256749405685607e-06
-2.6551020591054615e-05   4.622816941987065e-06   2.3049227535346063e-05
-2.6551020591054615e-05   4.622816941987065e-06   2.3049227535346063e-05
-2.6551020591054615e-05   4.622816941987065e-06   2.3049227535346063e-05
-2.6551020591054615e-05   4.622816941987065e-06   2.3049227535346063e-05
-1.4057558035690239e-05   4.0442061186390064e-06   2.573956437080865e-06
-1.4057558035690239e-05   4.0442061186390064e-06   2.573956437080865e-06
-1.4057558035690239e-05   4.0442061186390064e-06   2.573956437080865e-06
-1.4057558035690239e-05   4.0442061186390064e-06   2.573956437080865e-06
-1.9957134303341105e-05   4.4415310270684485e-06   1.2168188604774765e-05
-1.9957134303341105e-05   4.4415310270684485e-06   1.2168188604774765e-05
-1.9957134303341105e-05   4.4415310270684485e-06   1.2168188604774765e-05
-1.9957134303341105e-05   4.4415310270684485e-06   1.2168188604774765e-05
-1.4057558035690198e-05   4.622816941987065e-06   2.339639402935468e-05
-1.4057558035690198e-05   4.622816941987065e-06   2.339639402935468e-05
-1.4057558035690198e-05   4.622816941987065e-06   2.339639402935468e-05
-1.4057558035690198e-05   4.622816941987065e-06   2.339639402935468e-05
-2.6551020591054615e-05   4.0442061186390064e-06   2.2267899430721385e-06
-2.6551020591054615e-05   4.0442061186390064e-06   2.2267899430721385e-06
-2.6551020591054615e-05   4.0442061186390064e-06   2.2267899430721385e-06
-2.6551020591054615e-05   4.0442061186390064e-06   2.2267899430721385e-06
-2.7191617351866464e-05   4.334449665230984e-06   2.3914262543352823e-05
-2.7191617351866464e-05   4.334449665230984e-06   2.3914262543352823e-05
-2.7191617351866464e-05   4.334449665230984e-06   2.3914262543352823e-05
-2.7191617351866464e-05   4.334449665230984e-06   2.3914262543352823e-05
-1.4611813493269315e-05   3.709166163426295e-06   3.3230928801072598e-06
-1.4611813493269315e-05   3.709166163426295e-06   3.3230928801072598e-06
-1.4611813493269315e-05   3.709166163426295e-06   3.3230928801072598e-06
-1.4611813493269315e-05   3.709166163426295e-06   3.3230928801072598e-06
-2.0373526109350932e-05   4.212797108531924e-06   1.26237686731803e-05
-2.0373526109350932e-05   4.212797108531924e-06   1.26237686731803e-05
-2.0373526109350932e-05   4.212797108531924e-06   1.26237686731803e-05
-2.0373526109350932e-05   4.212797108531924e-06   1.26237686731803e-05
-1.4611813493269302e-05   4.334449665230984e-06   2.428943264443583e-05
-1.4611813493269302e-05   4.334449665230984e-06   2.428943264443583e-05
-1.4611813493269302e-05   4.334449665230984e-06   2.428943264443583e-05
-1.4611813493269302e-05   4.334449665230984e-06   2.428943264443583e-05
-2.7191617351866464e-05   3.709166163426295e-06   2.947922779024197e-06
-2.7191617351866464e-05   3.709166163426295e-06   2.947922779024197e-06
-2.7191617351866464e-05   3.709166163426295e-06   2.947922779024197e-06
-2.7191617351866464e-05   3.709166163426295e-06   2.947922779024197e-06
-2.7776914283912088e-05   3.981523865060829e-06   2.456170121560336e-05
-2.7776914283912088e-05   3.981523865060829e-06   2.456170121560336e-05
-2.7776914283912088e-05   3.981523865060829e-06   2.456170121560336e-05
-2.7776914283912088e-05   3.981523865060829e-06   2.456170121560336e-05
-1.5165712026549735e-05   3.3183372237185517e-06   3.94094277147175e-06
-1.5165712026549735e-05   3.3183372237185517e-06   3.94094277147175e-06
-1.5165712026549735e-05   3.3183372237185517e-06   3.94094277147175e-06
-1.5165712026549735e-05   3.3183372237185517e-06   3.94094277147175e-06
-2.1039240330553655e-05   3.953978468795036e-06   1.334877186443342e-05
-2.1039240330553655e-05   3.953978468795036e-06   1.334877186443342e-05
-2.1039240330553655e-05   3.953978468795036e-06   1.334877186443342e-05
-2.1039240330553655e-05   3.953978468795036e-06   1.334877186443342e-05
-2.5968771802483e-05   7.1143004061824736e-06   1.1229931106051063e-05
-2.5968771802483e-05   7.1143004061824736e-06   1.1229931106051063e-05
-2.5968771802483e-05   7.1143004061824736e-06   1.1229931106051063e-05
-2.5968771802483e-05   7.1143004061824736e-06   1.1229931106051063e-05
-3.781109467362333e-05   6.077602889655032e-06   -9.129292189099332e-06
-3.781109467362333e-05   6.077602889655032e-06   -9.129292189099332e-06
-3.781109467362333e-05   6.077602889655032e-06   -9.129292189099332e-06
-3.781109467362333e-05   6.077602889655032e-06   -9.129292189099332e-06
-3.885836948123531e-05   7.192809944153028e-06   1.4943383922672417e-05
-3.885836948123531e-05   7.192809944153028e-06   1.4943383922672417e-05
-3.885836948123531e-05   7.192809944153028e-06   1.4943383922672417e-05
-3.885836948123531e-05   7.192809944153028e-06   1.4943383922672417e-05
-2.6551020591054615e-05   6.0500184443530985e-06   -4.883189327749022e-06
-2.6551020591054615e-05   6.0500184443530985e-06   -4.883189327749022e-06
-2.6551020591054615e-05   6.0500184443530985e-06   -4.883189327749022e-06
-2.6551020591054615e-05   6.0500184443530985e-06   -4.883189327749022e-06
-3.1068136211914355e-05   6.510781328060997e-06   2.368878976792598e-06
-3.1068136211914355e-05   6.510781328060997e-06   2.368878976792598e-06
-3.1068136211914355e-05   6.510781328060997e-06   2.368878976792598e-06
-3.1068136211914355e-05   6.510781328060997e-06   2.368878976792598e-06
-2.6551020591054588e-05   7.192809944153028e-06   1.5629058822552375e-05
-2.6551020591054588e-05   7.192809944153028e-06   1.5629058822552375e-05
-2.6551020591054588e-05   7.192809944153028e-06   1.5629058822552375e-05
-2.6551020591054588e-05   7.192809944153028e-06   1.5629058822552375e-05
-3.885836948123539e-05   6.0500184443530985e-06   -5.56886422762898e-06
-3.885836948123539e-05   6.0500184443530985e-06   -5.56886422762898e-06
-3.885836948123539e-05   6.0500184443530985e-06   -5.56886422762898e-06
-3.885836948123539e-05   6.0500184443530985e-06   -5.56886422762898e-06
-3.9795242932333586e-05   7.114499727111376e-06   1.7936086623989963e-05
-3.9795242932333586e-05   7.114499727111376e-06   1.7936086623989963e-05
-3.9795242932333586e-05   7.114499727111376e-06   1.7936086623989963e-05
-3.9795242932333586e-05   7.114499727111376e-06   1.7936086623989963e-05
-2.7191617351866464e-05   5.927662959132225e-06   -2.357853949334671e-06
-2.7191617351866464e-05   5.927662959132225e-06   -2.357853949334671e-06
-2.7191617351866464e-05   5.927662959132225e-06   -2.357853949334671e-06
-2.7191617351866464e-05   5.927662959132225e-06   -2.357853949334671e-06
-3.2275841721001166e-05   6.583705668239664e-06   5.722227707093304e-06
-3.2275841721001166e-05   6.583705668239664e-06   5.722227707093304e-06
-3.2275841721001166e-05   6.583705668239664e-06   5.722227707093304e-06
-3.2275841721001166e-05   6.583705668239664e-06   5.722227707093304e-06
-2.7191617351866464e-05   7.114499727111376e-06   1.8648188684777453e-05
-2.7191617351866464e-05   7.114499727111376e-06   1.8648188684777453e-05
-2.7191617351866464e-05   7.114499727111376e-06   1.8648188684777453e-05
-2.7191617351866464e-05   7.114499727111376e-06   1.8648188684777453e-05
-3.979524293233364e-05   5.927662959132225e-06   -3.069956010122107e-06
-3.979524293233364e-05   5.927662959132225e-06   -3.069956010122107e-06
-3.979524293233364e-05   5.927662959132225e-06   -3.069956010122107e-06
-3.979524293233364e-05   5.927662959132225e-06   -3.069956010122107e-06
-4.087098468857683e-05   6.568088575726813e-06   2.3081395718776206e-05
-4.087098468857683e-05   6.568088575726813e-06   2.3081395718776206e-05
-4.087098468857683e-05   6.568088575726813e-06   2.3081395718776206e-05
-4.087098468857683e-05   6.568088575726813e-06   2.3081395718776206e-05
-2.7776914283912088e-05   5.385691217147e-06   1.9673834594826625e-06
-2.7776914283912088e-05   5.385691217147e-06   1.9673834594826625e-06
-2.7776914283912088e-05   5.385691217147e-06   1.9673834594826625e-06
-2.7776914283912088e-05   5.385691217147e-06   1.9673834594826625e-06
-3.2527615429115894e-05   6.358728926680662e-06   9.301396075769646e-06
-3.2527615429115894e-05   6.358728926680662e-06   9.301396075769646e-06
-3.2527615429115894e-05   6.358728926680662e-06   9.301396075769646e-06
-3.2527615429115894e-05   6.358728926680662e-06   9.301396075769646e-06
1.794460324123451e-05   -2.324249677532284e-06   1.7919804948587415e-05
1.794460324123451e-05   -2.324249677532284e-06   1.7919804948587415e-05
1.794460324123451e-05   -2.324249677532284e-06   1.7919804948587415e-05
1.794460324123451e-05   -2.324249677532284e-06   1.7919804948587415e-05
7.450321109244461e-06   -1.1525962473975162e-06   1.1323267866851028e-06
7.450321109244461e-06   -1.1525962473975162e-06   1.1323267866851028e-06
7.450321109244461e-06   -1.1525962473975162e-06   1.1323267866851028e-06
7.450321109244461e-06   -1.1525962473975162e-06   1.1323267866851028e-06
6.989644670310177e-06   -2.8176882880090633e-06   1.610337265735794e-05
6.989644670310177e-06   -2.8176882880090633e-06   1.610337265735794e-05
6.989644670310177e-06   -2.8176882880090633e-06   1.610337265735794e-05
6.989644670310177e-06   -2.8176882880090633e-06   1.610337265735794e-05
1.69628687120311e-05   -1.5950346485067886e-06   -1.2522595958783299e-06
1.69628687120311e-05   -1.5950346485067886e-06   -1.2522595958783299e-06
1.69628687120311e-05   -1.5950346485067886e-06   -1.2522595958783299e-06
1.69628687120311e-05   -1.5950346485067886e-06   -1.2522595958783299e-06
1.1723532256354335e-05   -2.019130060411465e-06   7.734425077392747e-06
1.1723532256354335e-05   -2.019130060411465e-06   7.734425077392747e-06
1.1723532256354335e-05   -2.019130060411465e-06   7.734425077392747e-06
1.1723532256354335e-05   -2.019130060411465e-06   7.734425077392747e-06
1.6962868712031127e-05   -2.8176882880090633e-06   1.536978047365651e-05
1.6962868712031127e-05   -2.8176882880090633e-06   1.536978047365651e-05
1.6962868712031127e-05   -2.8176882880090633e-06   1.536978047365651e-05
1.6962868712031127e-05   -2.8176882880090633e-06   1.536978047365651e-05
6.989644670310153e-06   -1.5950346485067886e-06   -5.186674121768729e-07
6.989644670310153e-06   -1.5950346485067886e-06   -5.186674121768729e-07
6.989644670310153e-06   -1.5950346485067886e-06   -5.186674121768729e-07
6.989644670310153e-06   -1.5950346485067886e-06   -5.186674121768729e-07
6.471687892448264e-06   -2.94901608488031e-06   1.4755553692715785e-05
6.471687892448264e-06   -2.94901608488031e-06   1.4755553692715785e-05
6.471687892448264e-06   -2.94901608488031e-06   1.4755553692715785e-05
6.471687892448264e-06   -2.94901608488031e-06   1.4755553692715785e-05
1.6119552635222224e-05   -1.7467747987971217e-06   -2.0455656502239107e-06
1.6119552635222224e-05   -1.7467747987971217e-06   -2.0455656502239107e-06
1.6119552635222224e-05   -1.7467747987971217e-06   -2.0455656502239107e-06
1.6119552635222224e-05   -1.7467747987971217e-06   -2.0455656502239107e-06
1.1289522969750863e-05   -2.206998580314614e-06   6.280618061139168e-06
1.1289522969750863e-05   -2.206998580314614e-06   6.280618061139168e-06
1.1289522969750863e-05   -2.206998580314614e-06   6.280618061139168e-06
1.1289522969750863e-05   -2.206998580314614e-06   6.280618061139168e-06
1.611955263522225e-05   -2.94901608488031e-06   1.4034208921065894e-05
1.611955263522225e-05   -2.94901608488031e-06   1.4034208921065894e-05
1.611955263522225e-05   -2.94901608488031e-06   1.4034208921065894e-05
1.611955263522225e-05   -2.94901608488031e-06   1.4034208921065894e-05
6.471687892448251e-06   -1.7467747987971217e-06   -1.324220878574033e-06
6.471687892448251e-06   -1.7467747987971217e-06   -1.324220878574033e-06
6.471687892448251e-06   -1.7467747987971217e-06   -1.324220878574033e-06
6.471687892448251e-06   -1.7467747987971217e-06   -1.324220878574033e-06
6.007160647005828e-06   -3.0694586017389076e-06   1.3001190572152466e-05
6.007160647005828e-06   -3.0694586017389076e-06   1.3001190572152466e-05
6.007160647005828e-06   -3.0694586017389076e-06   1.3001190572152466e-05
6.007160647005828e-06   -3.0694586017389076e-06   1.3001190572152466e-05
1.51620952754867e-05   -1.945535459823341e-06   -2.931387693798414e-06
1.51620952754867e-05   -1.945535459823341e-06   -2.931387693798414e-06
1.51620952754867e-05   -1.945535459823341e-06   -2.931387693798414e-06
1.51620952754867e-05   -1.945535459823341e-06   -2.931387693798414e-06
1.0477448425001704e-05   -2.2425631448701015e-06   5.054573668037769e-06
1.0477448425001704e-05   -2.2425631448701015e-06   5.054573668037769e-06
1.0477448425001704e-05   -2.2425631448701015e-06   5.054573668037769e-06
1.0477448425001704e-05   -2.2425631448701015e-06   5.054573668037769e-06
7.450321109244488e-06   -1.67121831167686e-08   2.2096599633101514e-05
7.450321109244488e-06   -1.67121831167686e-08   2.2096599633101514e-05
7.450321109244488e-06   -1.67121831167686e-08   2.2096599633101514e-05
7.450321109244488e-06   -1.67121831167686e-08   2.2096599633101514e-05
-2.392282792011623e-06   5.79673889437209e-07   6.050091441207103e-06
-2.392282792011623e-06   5.79673889437209e-07   6.050091441207103e-06
-2.392282792011623e-06   5.79673889437209e-07   6.050091441207103e-06
-2.392282792011623e-06   5.79673889437209e-07   6.050091441207103e-06
-2.815820505156771e-06   -4.450547763047621e-07   2.2137058358543348e-05
-2.815820505156771e-06   -4.450547763047621e-07   2.2137058358543348e-05
-2.815820505156771e-06   -4.450547763047621e-07   2.2137058358543348e-05
-2.815820505156771e-06   -4.450547763047621e-07   2.2137058358543348e-05
6.989644670310153e-06   1.3277397863543233e-07   5.447919146467661e-06
6.989644670310153e-06   1.3277397863543233e-07   5.447919146467661e-06
6.989644670310153e-06   1.3277397863543233e-07   5.447919146467661e-06
6.989644670310153e-06   1.3277397863543233e-07   5.447919146467661e-06
2.2376143491623176e-06   2.4043105051373484e-08   1.3433208205864921e-05
2.2376143491623176e-06   2.4043105051373484e-08   1.3433208205864921e-05
2.2376143491623176e-06   2.4043105051373484e-08   1.3433208205864921e-05
2.2376143491623176e-06   2.4043105051373484e-08   1.3433208205864921e-05
6.98964467031017e-06   -4.450547763047621e-07   2.1790361105579188e-05
6.98964467031017e-06   -4.450547763047621e-07   2.1790361105579188e-05
6.98964467031017e-06   -4.450547763047621e-07   2.1790361105579188e-05
6.98964467031017e-06   -4.450547763047621e-07   2.1790361105579188e-05
-2.815820505156771e-06   1.3277397863543233e-07   5.79461639943176e-06
-2.815820505156771e-06   1.3277397863543233e-07   5.79461639943176e-06
-2.815820505156771e-06   1.3277397863543233e-07   5.79461639943176e-06
-2.815820505156771e-06   1.3277397863543233e-07   5.79461639943176e-06
-3.2489801276369224e-06   -7.818787292150891e-07   2.1868477263997828e-05
-3.2489801276369224e-06   -7.818787292150891e-07   2.1868477263997828e-05
-3.2489801276369224e-06   -7.818787292150891e-07   2.1868477263997828e-05
-3.2489801276369224e-06   -7.818787292150891e-07   2.1868477263997828e-05
6.471687892448251e-06   -2.3214820817356492e-07   5.3375255845644905e-06
6.471687892448251e-06   -2.3214820817356492e-07   5.3375255845644905e-06
6.471687892448251e-06   -2.3214820817356492e-07   5.3375255845644905e-06
6.471687892448251e-06   -2.3214820817356492e-07   5.3375255845644905e-06
1.7714059819786315e-06   -2.7357470586044513e-07   1.3196184667293258e-05
1.7714059819786315e-06   -2.7357470586044513e-07   1.3196184667293258e-05
1.7714059819786315e-06   -2.7357470586044513e-07   1.3196184667293258e-05
1.7714059819786315e-06   -2.7357470586044513e-07   1.3196184667293258e-05
6.471687892448274e-06   -7.818787292150891e-07   2.1538638951373022e-05
6.471687892448274e-06   -7.818787292150891e-07   2.1538638951373022e-05
6.471687892448274e-06   -7.818787292150891e-07   2.1538638951373022e-05
6.471687892448274e-06   -7.818787292150891e-07   2.1538638951373022e-05
-3.2489801276369224e-06   -2.3214820817334808e-07   5.667363897189507e-06
-3.2489801276369224e-06   -2.3214820817334808e-07   5.667363897189507e-06
-3.2489801276369224e-06   -2.3214820817334808e-07   5.667363897189507e-06
-3.2489801276369224e-06   -2.3214820817334808e-07   5.667363897189507e-06
-3.6785941182312704e-06   -1.0928148568341983e-06   2.206332324488638e-05
-3.6785941182312704e-06   -1.0928148568341983e-06   2.206332324488638e-05
-3.6785941182312704e-06   -1.0928148568341983e-06   2.206332324488638e-05
-3.6785941182312704e-06   -1.0928148568341983e-06   2.206332324488638e-05
6.007160647005805e-06   -5.907964456444269e-07   5.619187589443946e-06
6.007160647005805e-06   -5.907964456444269e-07   5.619187589443946e-06
6.007160647005805e-06   -5.907964456444269e-07   5.619187589443946e-06
6.007160647005805e-06   -5.907964456444269e-07   5.619187589443946e-06
1.4039895812049759e-06   -5.207840320315196e-07   1.3249131917610971e-05
1.4039895812049759e-06   -5.207840320315196e-07   1.3249131917610971e-05
1.4039895812049759e-06   -5.207840320315196e-07   1.3249131917610971e-05
1.4039895812049759e-06   -5.207840320315196e-07   1.3249131917610971e-05
-2.3922827920116096e-06   2.2349034937130512e-06   2.3967911066560257e-05
-2.3922827920116096e-06   2.2349034937130512e-06   2.3967911066560257e-05
-2.3922827920116096e-06   2.2349034937130512e-06   2.3967911066560257e-05
-2.3922827920116096e-06   2.2349034937130512e-06   2.3967911066560257e-05
-1.2070826816010336e-05   2.2019323698931666e-06   7.817221685603708e-06
-1.2070826816010336e-05   2.2019323698931666e-06   7.817221685603708e-06
-1.2070826816010336e-05   2.2019323698931666e-06   7.817221685603708e-06
-1.2070826816010336e-05   2.2019323698931666e-06   7.817221685603708e-06
-1.2488949406464829e-05   1.859439403093877e-06   2.3811673515461928e-05
-1.2488949406464829e-05   1.859439403093877e-06   2.3811673515461928e-05
-1.2488949406464829e-05   1.859439403093877e-06   2.3811673515461928e-05
-1.2488949406464829e-05   1.859439403093877e-06   2.3811673515461928e-05
-2.8158205051567574e-06   1.7966845504593758e-06   7.727444924862458e-06
-2.8158205051567574e-06   1.7966845504593758e-06   7.727444924862458e-06
-2.8158205051567574e-06   1.7966845504593758e-06   7.727444924862458e-06
-2.8158205051567574e-06   1.7966845504593758e-06   7.727444924862458e-06
-7.460615568547944e-06   1.972527570571255e-06   1.536326421844764e-05
-7.460615568547944e-06   1.972527570571255e-06   1.536326421844764e-05
-7.460615568547944e-06   1.972527570571255e-06   1.536326421844764e-05
-7.460615568547944e-06   1.972527570571255e-06   1.536326421844764e-05
-2.815820505156771e-06   1.85943940309366e-06   2.3849326427042455e-05
-2.815820505156771e-06   1.85943940309366e-06   2.3849326427042455e-05
-2.815820505156771e-06   1.85943940309366e-06   2.3849326427042455e-05
-2.815820505156771e-06   1.85943940309366e-06   2.3849326427042455e-05
-1.2488949406464829e-05   1.7966845504593758e-06   7.68979201328185e-06
-1.2488949406464829e-05   1.7966845504593758e-06   7.68979201328185e-06
-1.2488949406464829e-05   1.7966845504593758e-06   7.68979201328185e-06
-1.2488949406464829e-05   1.7966845504593758e-06   7.68979201328185e-06
-1.291702082504629e-05   1.4899770411902751e-06   2.393130665480456e-05
-1.291702082504629e-05   1.4899770411902751e-06   2.393130665480456e-05
-1.291702082504629e-05   1.4899770411902751e-06   2.393130665480456e-05
-1.291702082504629e-05   1.4899770411902751e-06   2.393130665480456e-05
-3.248980127636909e-06   1.3961121259624572e-06   7.8742244415924e-06
-3.248980127636909e-06   1.3961121259624572e-06   7.8742244415924e-06
-3.248980127636909e-06   1.3961121259624572e-06   7.8742244415924e-06
-3.248980127636909e-06   1.3961121259624572e-06   7.8742244415924e-06
-7.843282873026285e-06   1.6787534339575503e-06   1.5361810899111318e-05
-7.843282873026285e-06   1.6787534339575503e-06   1.5361810899111318e-05
-7.843282873026285e-06   1.6787534339575503e-06   1.5361810899111318e-05
-7.843282873026285e-06   1.6787534339575503e-06   1.5361810899111318e-05
-3.2489801276369224e-06   1.4899770411902751e-06   2.3987625603941317e-05
-3.2489801276369224e-06   1.4899770411902751e-06   2.3987625603941317e-05
-3.2489801276369224e-06   1.4899770411902751e-06   2.3987625603941317e-05
-3.2489801276369224e-06   1.4899770411902751e-06   2.3987625603941317e-05
-1.291702082504629e-05   1.3961121259622403e-06   7.817905492455671e-06
-1.291702082504629e-05   1.3961121259622403e-06   7.817905492455671e-06
-1.291702082504629e-05   1.3961121259622403e-06   7.817905492455671e-06
-1.291702082504629e-05   1.3961121259622403e-06   7.817905492455671e-06
-1.334000174131253e-05   1.139458643524896e-06   2.424969423173737e-05
-1.334000174131253e-05   1.139458643524896e-06   2.424969423173737e-05
-1.334000174131253e-05   1.139458643524896e-06   2.424969423173737e-05
-1.334000174131253e-05   1.139458643524896e-06   2.424969423173737e-05
-3.678594118231257e-06   1.0105904411541588e-06   8.224669114691396e-06
-3.678594118231257e-06   1.0105904411541588e-06   8.224669114691396e-06
-3.678594118231257e-06   1.0105904411541588e-06   8.224669114691396e-06
-3.678594118231257e-06   1.0105904411541588e-06   8.224669114691396e-06
-8.243685169879108e-06   1.3919812416442537e-06   1.5604319720476827e-05
-8.243685169879108e-06   1.3919812416442537e-06   1.5604319720476827e-05
-8.243685169879108e-06   1.3919812416442537e-06   1.5604319720476827e-05
-8.243685169879108e-06   1.3919812416442537e-06   1.5604319720476827e-05
-1.2070826816010336e-05   4.40300130656341e-06   2.120709697407859e-05
-1.2070826816010336e-05   4.40300130656341e-06   2.120709697407859e-05
-1.2070826816010336e-05   4.40300130656341e-06   2.120709697407859e-05
-1.2070826816010336e-05   4.40300130656341e-06   2.120709697407859e-05
-2.1592274861443494e-05   3.7807753780611224e-06   4.9646813412554305e-06
-2.1592274861443494e-05   3.7807753780611224e-06   4.9646813412554305e-06
-2.1592274861443494e-05   3.7807753780611224e-06   4.9646813412554305e-06
-2.1592274861443494e-05   3.7807753780611224e-06   4.9646813412554305e-06
-2.204110041400994e-05   4.0442061186390064e-06   2.0928838469353546e-05
-2.204110041400994e-05   4.0442061186390064e-06   2.0928838469353546e-05
-2.204110041400994e-05   4.0442061186390064e-06   2.0928838469353546e-05
-2.204110041400994e-05   4.0442061186390064e-06   2.0928838469353546e-05
-1.2488949406464774e-05   3.385477377356675e-06   5.403824034881226e-06
-1.2488949406464774e-05   3.385477377356675e-06   5.403824034881226e-06
-1.2488949406464774e-05   3.385477377356675e-06   5.403824034881226e-06
-1.2488949406464774e-05   3.385477377356675e-06   5.403824034881226e-06
-1.699993299926463e-05   3.836081026037993e-06   1.2651767833672862e-05
-1.699993299926463e-05   3.836081026037993e-06   1.2651767833672862e-05
-1.699993299926463e-05   3.836081026037993e-06   1.2651767833672862e-05
-1.699993299926463e-05   3.836081026037993e-06   1.2651767833672862e-05
-1.2488949406464829e-05   4.0442061186390064e-06   2.1324075714123205e-05
-1.2488949406464829e-05   4.0442061186390064e-06   2.1324075714123205e-05
-1.2488949406464829e-05   4.0442061186390064e-06   2.1324075714123205e-05
-1.2488949406464829e-05   4.0442061186390064e-06   2.1324075714123205e-05
-2.2041100414009913e-05   3.385477377356892e-06   5.008586790111974e-06
-2.2041100414009913e-05   3.385477377356892e-06   5.008586790111974e-06
-2.2041100414009913e-05   3.385477377356892e-06   5.008586790111974e-06
-2.2041100414009913e-05   3.385477377356892e-06   5.008586790111974e-06
-2.2545932265601666e-05   3.709166163426295e-06   2.164550802189716e-05
-2.2545932265601666e-05   3.709166163426295e-06   2.164550802189716e-05
-2.2545932265601666e-05   3.709166163426295e-06   2.164550802189716e-05
-2.2545932265601666e-05   3.709166163426295e-06   2.164550802189716e-05
-1.2917020825046262e-05   3.0190917733911252e-06   6.01136692165931e-06
-1.2917020825046262e-05   3.0190917733911252e-06   6.01136692165931e-06
-1.2917020825046262e-05   3.0190917733911252e-06   6.01136692165931e-06
-1.2917020825046262e-05   3.0190917733911252e-06   6.01136692165931e-06
-1.730954990322222e-05   3.5670715841477907e-06   1.3003460832165814e-05
-1.730954990322222e-05   3.5670715841477907e-06   1.3003460832165814e-05
-1.730954990322222e-05   3.5670715841477907e-06   1.3003460832165814e-05
-1.730954990322222e-05   3.5670715841477907e-06   1.3003460832165814e-05
-1.291702082504629e-05   3.709166163426295e-06   2.2059552655918045e-05
-1.291702082504629e-05   3.709166163426295e-06   2.2059552655918045e-05
-1.291702082504629e-05   3.709166163426295e-06   2.2059552655918045e-05
-1.291702082504629e-05   3.709166163426295e-06   2.2059552655918045e-05
-2.2545932265601612e-05   3.0190917733911252e-06   5.5973222876383975e-06
-2.2545932265601612e-05   3.0190917733911252e-06   5.5973222876383975e-06
-2.2545932265601612e-05   3.0190917733911252e-06   5.5973222876383975e-06
-2.2545932265601612e-05   3.0190917733911252e-06   5.5973222876383975e-06
-2.299431287318922e-05   3.3183372237185517e-06   2.2247679877116606e-05
-2.299431287318922e-05   3.3183372237185517e-06   2.2247679877116606e-05
-2.299431287318922e-05   3.3183372237185517e-06   2.2247679877116606e-05
-2.299431287318922e-05   3.3183372237185517e-06   2.2247679877116606e-05
-1.3340001741312475e-05   2.608911108278964e-06   6.5828169932524955e-06
-1.3340001741312475e-05   2.608911108278964e-06   6.5828169932524955e-06
-1.3340001741312475e-05   2.608911108278964e-06   6.5828169932524955e-06
-1.3340001741312475e-05   2.608911108278964e-06   6.5828169932524955e-06
-1.781624249046333e-05   3.283234492753532e-06   1.3638624211152934e-05
-1.781624249046333e-05   3.283234492753532e-06   1.3638624211152934e-05
-1.781624249046333e-05   3.283234492753532e-06   1.3638624211152934e-05
-1.781624249046333e-05   3.283234492753532e-06   1.3638624211152934e-05
-2.1592274861443494e-05   6.077602889655032e-06   1.0200812797225931e-05
-2.1592274861443494e-05   6.077602889655032e-06   1.0200812797225931e-05
-2.1592274861443494e-05   6.077602889655032e-06   1.0200812797225931e-05
-2.1592274861443494e-05   6.077602889655032e-06   1.0200812797225931e-05
-3.05363881694051e-05   4.968239349889244e-06   -5.3716608399029275e-06
-3.05363881694051e-05   4.968239349889244e-06   -5.3716608399029275e-06
-3.05363881694051e-05   4.968239349889244e-06   -5.3716608399029275e-06
-3.05363881694051e-05   4.968239349889244e-06   -5.3716608399029275e-06
-3.147599545036346e-05   6.0500184443530985e-06   1.3094640263004026e-05
-3.147599545036346e-05   6.0500184443530985e-06   1.3094640263004026e-05
-3.147599545036346e-05   6.0500184443530985e-06   1.3094640263004026e-05
-3.147599545036346e-05   6.0500184443530985e-06   1.3094640263004026e-05
-2.204110041400986e-05   4.842986885138841e-06   -1.9059658620565836e-06
-2.204110041400986e-05   4.842986885138841e-06   -1.9059658620565836e-06
-2.204110041400986e-05   4.842986885138841e-06   -1.9059658620565836e-06
-2.204110041400986e-05   4.842986885138841e-06   -1.9059658620565836e-06
-2.5421213735478913e-05   5.383885165084756e-06   3.4030173724246466e-06
-2.5421213735478913e-05   5.383885165084756e-06   3.4030173724246466e-06
-2.5421213735478913e-05   5.383885165084756e-06   3.4030173724246466e-06
-2.5421213735478913e-05   5.383885165084756e-06   3.4030173724246466e-06
-2.2041100414009913e-05   6.0500184443530985e-06   1.3818859198532602e-05
-2.2041100414009913e-05   6.0500184443530985e-06   1.3818859198532602e-05
-2.2041100414009913e-05   6.0500184443530985e-06   1.3818859198532602e-05
-2.2041100414009913e-05   6.0500184443530985e-06   1.3818859198532602e-05
-3.1475995450363516e-05   4.842986885138624e-06   -2.6301847975851596e-06
-3.1475995450363516e-05   4.842986885138624e-06   -2.6301847975851596e-06
-3.1475995450363516e-05   4.842986885138624e-06   -2.6301847975851596e-06
-3.1475995450363516e-05   4.842986885138624e-06   -2.6301847975851596e-06
-3.229500434914271e-05   5.927662959132225e-06   1.5595649608076507e-05
-3.229500434914271e-05   5.927662959132225e-06   1.5595649608076507e-05
-3.229500434914271e-05   5.927662959132225e-06   1.5595649608076507e-05
-3.229500434914271e-05   5.927662959132225e-06   1.5595649608076507e-05
-2.2545932265601585e-05   4.687526816695917e-06   9.127782096975774e-08
-2.2545932265601585e-05   4.687526816695917e-06   9.127782096975774e-08
-2.2545932265601585e-05   4.687526816695917e-06   9.127782096975774e-08
-2.2545932265601585e-05   4.687526816695917e-06   9.127782096975774e-08
-2.6418900686026592e-05   5.388522444280813e-06   6.125627811794901e-06
-2.6418900686026592e-05   5.388522444280813e-06   6.125627811794901e-06
-2.6418900686026592e-05   5.388522444280813e-06   6.125627811794901e-06
-2.6418900686026592e-05   5.388522444280813e-06   6.125627811794901e-06
-2.2545932265601666e-05   5.927662959132225e-06   1.6339731293538292e-05
-2.2545932265601666e-05   5.927662959132225e-06   1.6339731293538292e-05
-2.2545932265601666e-05   5.927662959132225e-06   1.6339731293538292e-05
-2.2545932265601666e-05   5.927662959132225e-06   1.6339731293538292e-05
-3.229500434914271e-05   4.687526816695917e-06   -6.528038644920274e-07
-3.229500434914271e-05   4.687526816695917e-06   -6.528038644920274e-07
-3.229500434914271e-05   4.687526816695917e-06   -6.528038644920274e-07
-3.229500434914271e-05   4.687526816695917e-06   -6.528038644920274e-07
-3.324437088811138e-05   5.385691217147e-06   1.993901838213204e-05
-3.324437088811138e-05   5.385691217147e-06   1.993901838213204e-05
-3.324437088811138e-05   5.385691217147e-06   1.993901838213204e-05
-3.324437088811138e-05   5.385691217147e-06   1.993901838213204e-05
-2.299431287318914e-05   4.164000937478688e-06   3.5886025250627816e-06
-2.299431287318914e-05   4.164000937478688e-06   3.5886025250627816e-06
-2.299431287318914e-05   4.164000937478688e-06   3.5886025250627816e-06
-2.299431287318914e-05   4.164000937478688e-06   3.5886025250627816e-06
-2.6636688397849555e-05   5.160351942503933e-06   9.061417796481426e-06
-2.6636688397849555e-05   5.160351942503933e-06   9.061417796481426e-06
-2.6636688397849555e-05   5.160351942503933e-06   9.061417796481426e-06
-2.6636688397849555e-05   5.160351942503933e-06   9.061417796481426e-06
1.0039454104131952e-05   -1.1525962473975162e-06   1.4141633006484753e-05
1.0039454104131952e-05   -1.1525962473975162e-06   1.4141633006484753e-05
1.0039454104131952e-05   -1.1525962473975162e-06   1.4141633006484753e-05
1.0039454104131952e-05   -1.1525962473975162e-06   1.4141633006484753e-05
2.653861658326609e-06   1.0232772399386414e-08   2.5300096753538793e-06
2.653861658326609e-06   1.0232772399386414e-08   2.5300096753538793e-06
2.653861658326609e-06   1.0232772399386414e-08   2.5300096753538793e-06
2.653861658326609e-06   1.0232772399386414e-08   2.5300096753538793e-06
2.3081006114883e-06   -1.5950346485070054e-06   1.317525683384264e-05
2.3081006114883e-06   -1.5950346485070054e-06   1.317525683384264e-05
2.3081006114883e-06   -1.5950346485070054e-06   1.317525683384264e-05
2.3081006114883e-06   -1.5950346485070054e-06   1.317525683384264e-05
9.183953147614834e-06   -3.869371454967357e-07   9.9064410515928e-07
9.183953147614834e-06   -3.869371454967357e-07   9.9064410515928e-07
9.183953147614834e-06   -3.869371454967357e-07   9.9064410515928e-07
9.183953147614834e-06   -3.869371454967357e-07   9.9064410515928e-07
5.69071470352667e-06   -8.372882188095558e-07   7.082918822627911e-06
5.69071470352667e-06   -8.372882188095558e-07   7.082918822627911e-06
5.69071470352667e-06   -8.372882188095558e-07   7.082918822627911e-06
5.69071470352667e-06   -8.372882188095558e-07   7.082918822627911e-06
9.183953147614848e-06   -1.5950346485067886e-06   1.2450398332036847e-05
9.183953147614848e-06   -1.5950346485067886e-06   1.2450398332036847e-05
9.183953147614848e-06   -1.5950346485067886e-06   1.2450398332036847e-05
9.183953147614848e-06   -1.5950346485067886e-06   1.2450398332036847e-05
2.3081006114882965e-06   -3.869371454967357e-07   1.7155026069652765e-06
2.3081006114882965e-06   -3.869371454967357e-07   1.7155026069652765e-06
2.3081006114882965e-06   -3.869371454967357e-07   1.7155026069652765e-06
2.3081006114882965e-06   -3.869371454967357e-07   1.7155026069652765e-06
1.9046468880842512e-06   -1.746774798796905e-06   1.2359018330260468e-05
1.9046468880842512e-06   -1.746774798796905e-06   1.2359018330260468e-05
1.9046468880842512e-06   -1.746774798796905e-06   1.2359018330260468e-05
1.9046468880842512e-06   -1.746774798796905e-06   1.2359018330260468e-05
8.459038719427622e-06   -5.573792291800562e-07   7.213946029179907e-07
8.459038719427622e-06   -5.573792291800562e-07   7.213946029179907e-07
8.459038719427622e-06   -5.573792291800562e-07   7.213946029179907e-07
8.459038719427622e-06   -5.573792291800562e-07   7.213946029179907e-07
5.2792243348342e-06   -1.0107333834228575e-06   6.293097736452709e-06
5.2792243348342e-06   -1.0107333834228575e-06   6.293097736452709e-06
5.2792243348342e-06   -1.0107333834228575e-06   6.293097736452709e-06
5.2792243348342e-06   -1.0107333834228575e-06   6.293097736452709e-06
8.459038719427636e-06   -1.7467747987971217e-06   1.1645380988490228e-05
8.459038719427636e-06   -1.7467747987971217e-06   1.1645380988490228e-05
8.459038719427636e-06   -1.7467747987971217e-06   1.1645380988490228e-05
8.459038719427636e-06   -1.7467747987971217e-06   1.1645380988490228e-05
1.9046468880842444e-06   -5.573792291800562e-07   1.4350319446881487e-06
1.9046468880842444e-06   -5.573792291800562e-07   1.4350319446881487e-06
1.9046468880842444e-06   -5.573792291800562e-07   1.4350319446881487e-06
1.9046468880842444e-06   -5.573792291800562e-07   1.4350319446881487e-06
1.5548298369644666e-06   -1.9455354598235577e-06   1.1410795282012663e-05
1.5548298369644666e-06   -1.9455354598235577e-06   1.1410795282012663e-05
1.5548298369644666e-06   -1.9455354598235577e-06   1.1410795282012663e-05
1.5548298369644666e-06   -1.9455354598235577e-06   1.1410795282012663e-05
7.609344703165948e-06   -8.397716026864585e-07   6.564788573947379e-07
7.609344703165948e-06   -8.397716026864585e-07   6.564788573947379e-07
7.609344703165948e-06   -8.397716026864585e-07   6.564788573947379e-07
7.609344703165948e-06   -8.397716026864585e-07   6.564788573947379e-07
4.667491119230259e-06   -1.0987455542471863e-06   5.7149525348909765e-06
4.667491119230259e-06   -1.0987455542471863e-06   5.7149525348909765e-06
4.667491119230259e-06   -1.0987455542471863e-06   5.7149525348909765e-06
4.667491119230259e-06   -1.0987455542471863e-06   5.7149525348909765e-06
2.6538616583266123e-06   5.796738894369921e-07   1.9399263429352356e-05
2.6538616583266123e-06   5.796738894369921e-07   1.9399263429352356e-05
2.6538616583266123e-06   5.796738894369921e-07   1.9399263429352356e-05
2.6538616583266123e-06   5.796738894369921e-07   1.9399263429352356e-05
-4.069898420175675e-06   1.1078445681084572e-06   8.50989903905129e-06
-4.069898420175675e-06   1.1078445681084572e-06   8.50989903905129e-06
-4.069898420175675e-06   1.1078445681084572e-06   8.50989903905129e-06
-4.069898420175675e-06   1.1078445681084572e-06   8.50989903905129e-06
-4.373910675769339e-06   1.3277397863543233e-07   1.9458243278104126e-05
-4.373910675769339e-06   1.3277397863543233e-07   1.9458243278104126e-05
-4.373910675769339e-06   1.3277397863543233e-07   1.9458243278104126e-05
-4.373910675769339e-06   1.3277397863543233e-07   1.9458243278104126e-05
2.3081006114882965e-06   6.601071213301274e-07   8.005157913724759e-06
2.3081006114882965e-06   6.601071213301274e-07   8.005157913724759e-06
2.3081006114882965e-06   6.601071213301274e-07   8.005157913724759e-06
2.3081006114882965e-06   6.601071213301274e-07   8.005157913724759e-06
-9.210910987083178e-07   5.750032246276508e-07   1.3438206435407887e-05
-9.210910987083178e-07   5.750032246276508e-07   1.3438206435407887e-05
-9.210910987083178e-07   5.750032246276508e-07   1.3438206435407887e-05
-9.210910987083178e-07   5.750032246276508e-07   1.3438206435407887e-05
2.3081006114883e-06   1.3277397863543233e-07   1.9141843392487222e-05
2.3081006114883e-06   1.3277397863543233e-07   1.9141843392487222e-05
2.3081006114883e-06   1.3277397863543233e-07   1.9141843392487222e-05
2.3081006114883e-06   1.3277397863543233e-07   1.9141843392487222e-05
-4.373910675769339e-06   6.601071213301274e-07   8.321557799341591e-06
-4.373910675769339e-06   6.601071213301274e-07   8.321557799341591e-06
-4.373910675769339e-06   6.601071213301274e-07   8.321557799341591e-06
-4.373910675769339e-06   6.601071213301274e-07   8.321557799341591e-06
-4.686913643297345e-06   -2.3214820817334808e-07   1.932891943357397e-05
-4.686913643297345e-06   -2.3214820817334808e-07   1.932891943357397e-05
-4.686913643297345e-06   -2.3214820817334808e-07   1.932891943357397e-05
-4.686913643297345e-06   -2.3214820817334808e-07   1.932891943357397e-05
1.9046468880842444e-06   2.8144285878499604e-07   8.034830574429656e-06
1.9046468880842444e-06   2.8144285878499604e-07   8.034830574429656e-06
1.9046468880842444e-06   2.8144285878499604e-07   8.034830574429656e-06
1.9046468880842444e-06   2.8144285878499604e-07   8.034830574429656e-06
-1.245934227571638e-06   2.632310074340144e-07   1.3296726211333543e-05
-1.245934227571638e-06   2.632310074340144e-07   1.3296726211333543e-05
-1.245934227571638e-06   2.632310074340144e-07   1.3296726211333543e-05
-1.245934227571638e-06   2.632310074340144e-07   1.3296726211333543e-05
1.9046468880842512e-06   -2.3214820817356492e-07   1.9020764793398984e-05
1.9046468880842512e-06   -2.3214820817356492e-07   1.9020764793398984e-05
1.9046468880842512e-06   -2.3214820817356492e-07   1.9020764793398984e-05
1.9046468880842512e-06   -2.3214820817356492e-07   1.9020764793398984e-05
-4.686913643297359e-06   2.8144285878499604e-07   8.342985214604718e-06
-4.686913643297359e-06   2.8144285878499604e-07   8.342985214604718e-06
-4.686913643297359e-06   2.8144285878499604e-07   8.342985214604718e-06
-4.686913643297359e-06   2.8144285878499604e-07   8.342985214604718e-06
-4.995376135011499e-06   -5.907964456442101e-07   1.9578762761366135e-05
-4.995376135011499e-06   -5.907964456442101e-07   1.9578762761366135e-05
-4.995376135011499e-06   -5.907964456442101e-07   1.9578762761366135e-05
-4.995376135011499e-06   -5.907964456442101e-07   1.9578762761366135e-05
1.5548298369644632e-06   -1.0455297687653967e-07   8.370006726812368e-06
1.5548298369644632e-06   -1.0455297687653967e-07   8.370006726812368e-06
1.5548298369644632e-06   -1.0455297687653967e-07   8.370006726812368e-06
1.5548298369644632e-06   -1.0455297687653967e-07   8.370006726812368e-06
-1.520465301943108e-06   -1.5638802270540042e-08   1.3442150120228271e-05
-1.520465301943108e-06   -1.5638802270540042e-08   1.3442150120228271e-05
-1.520465301943108e-06   -1.5638802270540042e-08   1.3442150120228271e-05
-1.520465301943108e-06   -1.5638802270540042e-08   1.3442150120228271e-05
-4.069898420175675e-06   2.2019323698931666e-06   2.1503078755243836e-05
-4.069898420175675e-06   2.2019323698931666e-06   2.1503078755243836e-05
-4.069898420175675e-06   2.2019323698931666e-06   2.1503078755243836e-05
-4.069898420175675e-06   2.2019323698931666e-06   2.1503078755243836e-05
-1.067662751800348e-05   2.078223144103865e-06   1.0417638056723971e-05
-1.067662751800348e-05   2.078223144103865e-06   1.0417638056723971e-05
-1.067662751800348e-05   2.078223144103865e-06   1.0417638056723971e-05
-1.067662751800348e-05   2.078223144103865e-06   1.0417638056723971e-05
-1.0968563819363519e-05   1.7966845504593758e-06   2.1312811088228484e-05
-1.0968563819363519e-05   1.7966845504593758e-06   2.1312811088228484e-05
-1.0968563819363519e-05   1.7966845504593758e-06   2.1312811088228484e-05
-1.0968563819363519e-05   1.7966845504593758e-06   2.1312811088228484e-05
-4.373910675769326e-06   1.666250024949089e-06   1.039998323087784e-05
-4.373910675769326e-06   1.666250024949089e-06   1.039998323087784e-05
-4.373910675769326e-06   1.666250024949089e-06   1.039998323087784e-05
-4.373910675769326e-06   1.666250024949089e-06   1.039998323087784e-05
-7.5365230277339875e-06   1.8887851486765628e-06   1.5537482743249763e-05
-7.5365230277339875e-06   1.8887851486765628e-06   1.5537482743249763e-05
-7.5365230277339875e-06   1.8887851486765628e-06   1.5537482743249763e-05
-7.5365230277339875e-06   1.8887851486765628e-06   1.5537482743249763e-05
-4.373910675769339e-06   1.7966845504593758e-06   2.1391071803534742e-05
-4.373910675769339e-06   1.7966845504593758e-06   2.1391071803534742e-05
-4.373910675769339e-06   1.7966845504593758e-06   2.1391071803534742e-05
-4.373910675769339e-06   1.7966845504593758e-06   2.1391071803534742e-05
-1.0968563819363519e-05   1.666250024949089e-06   1.032172251557177e-05
-1.0968563819363519e-05   1.666250024949089e-06   1.032172251557177e-05
-1.0968563819363519e-05   1.666250024949089e-06   1.032172251557177e-05
-1.0968563819363519e-05   1.666250024949089e-06   1.032172251557177e-05
-1.1269979342641275e-05   1.3961121259622403e-06   2.1451958811533555e-05
-1.1269979342641275e-05   1.3961121259622403e-06   2.1451958811533555e-05
-1.1269979342641275e-05   1.3961121259622403e-06   2.1451958811533555e-05
-1.1269979342641275e-05   1.3961121259622403e-06   2.1451958811533555e-05
-4.686913643297345e-06   1.2564101818896911e-06   1.056400381240386e-05
-4.686913643297345e-06   1.2564101818896911e-06   1.056400381240386e-05
-4.686913643297345e-06   1.2564101818896911e-06   1.056400381240386e-05
-4.686913643297345e-06   1.2564101818896911e-06   1.056400381240386e-05
-7.79626311518071e-06   1.575798917030375e-06   1.5554619691125055e-05
-7.79626311518071e-06   1.575798917030375e-06   1.5554619691125055e-05
-7.79626311518071e-06   1.575798917030375e-06   1.5554619691125055e-05
-7.79626311518071e-06   1.575798917030375e-06   1.5554619691125055e-05
-4.686913643297359e-06   1.3961121259622403e-06   2.1535779977976998e-05
-4.686913643297359e-06   1.3961121259622403e-06   2.1535779977976998e-05
-4.686913643297359e-06   1.3961121259622403e-06   2.1535779977976998e-05
-4.686913643297359e-06   1.3961121259622403e-06   2.1535779977976998e-05
-1.1269979342641247e-05   1.2564101818896911e-06   1.048018264596047e-05
-1.1269979342641247e-05   1.2564101818896911e-06   1.048018264596047e-05
-1.1269979342641247e-05   1.2564101818896911e-06   1.048018264596047e-05
-1.1269979342641247e-05   1.2564101818896911e-06   1.048018264596047e-05
-1.156662418517931e-05   1.010590441153942e-06   2.1795191221911587e-05
-1.156662418517931e-05   1.010590441153942e-06   2.1795191221911587e-05
-1.156662418517931e-05   1.010590441153942e-06   2.1795191221911587e-05
-1.156662418517931e-05   1.010590441153942e-06   2.1795191221911587e-05
-4.995376135011486e-06   8.641870778405749e-07   1.0930953156286732e-05
-4.995376135011486e-06   8.641870778405749e-07   1.0930953156286732e-05
-4.995376135011486e-06   8.641870778405749e-07   1.0930953156286732e-05
-4.995376135011486e-06   8.641870778405749e-07   1.0930953156286732e-05
-8.072646612478662e-06   1.269187593060583e-06   1.5816736976266918e-05
-8.072646612478662e-06   1.269187593060583e-06   1.5816736976266918e-05
-8.072646612478662e-06   1.269187593060583e-06   1.5816736976266918e-05
-8.072646612478662e-06   1.269187593060583e-06   1.5816736976266918e-05
-1.067662751800348e-05   3.7807753780611224e-06   1.894964843252337e-05
-1.067662751800348e-05   3.7807753780611224e-06   1.894964843252337e-05
-1.067662751800348e-05   3.7807753780611224e-06   1.894964843252337e-05
-1.067662751800348e-05   3.7807753780611224e-06   1.894964843252337e-05
-1.716751027485249e-05   3.092584723919786e-06   7.718596111956817e-06
-1.716751027485249e-05   3.092584723919786e-06   7.718596111956817e-06
-1.716751027485249e-05   3.092584723919786e-06   7.718596111956817e-06
-1.716751027485249e-05   3.092584723919786e-06   7.718596111956817e-06
-1.7485976648140805e-05   3.385477377356892e-06   1.8602045133090783e-05
-1.7485976648140805e-05   3.385477377356892e-06   1.8602045133090783e-05
-1.7485976648140805e-05   3.385477377356892e-06   1.8602045133090783e-05
-1.7485976648140805e-05   3.385477377356892e-06   1.8602045133090783e-05
-1.0968563819363492e-05   2.677480749461265e-06   8.164488395199512e-06
-1.0968563819363492e-05   2.677480749461265e-06   8.164488395199512e-06
-1.0968563819363492e-05   2.677480749461265e-06   8.164488395199512e-06
-1.0968563819363492e-05   2.677480749461265e-06   8.164488395199512e-06
-1.4040622948382597e-05   3.1804593651561363e-06   1.2982799774148308e-05
-1.4040622948382597e-05   3.1804593651561363e-06   1.2982799774148308e-05
-1.4040622948382597e-05   3.1804593651561363e-06   1.2982799774148308e-05
-1.4040622948382597e-05   3.1804593651561363e-06   1.2982799774148308e-05
-1.0968563819363519e-05   3.385477377356892e-06   1.902684310982805e-05
-1.0968563819363519e-05   3.385477377356892e-06   1.902684310982805e-05
-1.0968563819363519e-05   3.385477377356892e-06   1.902684310982805e-05
-1.0968563819363519e-05   3.385477377356892e-06   1.902684310982805e-05
-1.748597664814075e-05   2.677480749461265e-06   7.739690418461973e-06
-1.748597664814075e-05   2.677480749461265e-06   7.739690418461973e-06
-1.748597664814075e-05   2.677480749461265e-06   7.739690418461973e-06
-1.748597664814075e-05   2.677480749461265e-06   7.739690418461973e-06
-1.7862817300665377e-05   3.0190917733911252e-06   1.921370902077408e-05
-1.7862817300665377e-05   3.0190917733911252e-06   1.921370902077408e-05
-1.7862817300665377e-05   3.0190917733911252e-06   1.921370902077408e-05
-1.7862817300665377e-05   3.0190917733911252e-06   1.921370902077408e-05
-1.126997934264122e-05   2.2995730734523935e-06   8.65735697736387e-06
-1.126997934264122e-05   2.2995730734523935e-06   8.65735697736387e-06
-1.126997934264122e-05   2.2995730734523935e-06   8.65735697736387e-06
-1.126997934264122e-05   2.2995730734523935e-06   8.65735697736387e-06
-1.4246179843708555e-05   2.887143066979299e-06   1.3265149149693182e-05
-1.4246179843708555e-05   2.887143066979299e-06   1.3265149149693182e-05
-1.4246179843708555e-05   2.887143066979299e-06   1.3265149149693182e-05
-1.4246179843708555e-05   2.887143066979299e-06   1.3265149149693182e-05
-1.1269979342641247e-05   3.0190917733911252e-06   1.9645420240737167e-05
-1.1269979342641247e-05   3.0190917733911252e-06   1.9645420240737167e-05
-1.1269979342641247e-05   3.0190917733911252e-06   1.9645420240737167e-05
-1.1269979342641247e-05   3.0190917733911252e-06   1.9645420240737167e-05
-1.7862817300665323e-05   2.2995730734523935e-06   8.225645757400674e-06
-1.7862817300665323e-05   2.2995730734523935e-06   8.225645757400674e-06
-1.7862817300665323e-05   2.2995730734523935e-06   8.225645757400674e-06
-1.7862817300665323e-05   2.2995730734523935e-06   8.225645757400674e-06
-1.8185798064497397e-05   2.608911108278964e-06   1.9802421472694173e-05
-1.8185798064497397e-05   2.608911108278964e-06   1.9802421472694173e-05
-1.8185798064497397e-05   2.608911108278964e-06   1.9802421472694173e-05
-1.8185798064497397e-05   2.608911108278964e-06   1.9802421472694173e-05
-1.1566624185179282e-05   1.8951801929440295e-06   9.198703556365323e-06
-1.1566624185179282e-05   1.8951801929440295e-06   9.198703556365323e-06
-1.1566624185179282e-05   1.8951801929440295e-06   9.198703556365323e-06
-1.1566624185179282e-05   1.8951801929440295e-06   9.198703556365323e-06
-1.4601164190575569e-05   2.5928232647062354e-06   1.3837684388969104e-05
-1.4601164190575569e-05   2.5928232647062354e-06   1.3837684388969104e-05
-1.4601164190575569e-05   2.5928232647062354e-06   1.3837684388969104e-05
-1.4601164190575569e-05   2.5928232647062354e-06   1.3837684388969104e-05
-1.7167510274852544e-05   4.9682393498894604e-06   8.866009982739739e-06
-1.7167510274852544e-05   4.9682393498894604e-06   8.866009982739739e-06
-1.7167510274852544e-05   4.9682393498894604e-06   8.866009982739739e-06
-1.7167510274852544e-05   4.9682393498894604e-06   8.866009982739739e-06
-2.3037515526940476e-05   3.813164364486728e-06   -1.6103770953152397e-06
-2.3037515526940476e-05   3.813164364486728e-06   -1.6103770953152397e-06
-2.3037515526940476e-05   3.813164364486728e-06   -1.6103770953152397e-06
-2.3037515526940476e-05   3.813164364486728e-06   -1.6103770953152397e-06
-2.3854634330467458e-05   4.842986885138624e-06   1.094242372564236e-05
-2.3854634330467458e-05   4.842986885138624e-06   1.094242372564236e-05
-2.3854634330467458e-05   4.842986885138624e-06   1.094242372564236e-05
-2.3854634330467458e-05   4.842986885138624e-06   1.094242372564236e-05
-1.748597664814075e-05   3.601205626338976e-06   1.0730630103776583e-06
-1.748597664814075e-05   3.601205626338976e-06   1.0730630103776583e-06
-1.748597664814075e-05   3.601205626338976e-06   1.0730630103776583e-06
-1.748597664814075e-05   3.601205626338976e-06   1.0730630103776583e-06
-1.9643541746431394e-05   4.22615080263207e-06   4.294037735087038e-06
-1.9643541746431394e-05   4.22615080263207e-06   4.294037735087038e-06
-1.9643541746431394e-05   4.22615080263207e-06   4.294037735087038e-06
-1.9643541746431394e-05   4.22615080263207e-06   4.294037735087038e-06
-1.748597664814075e-05   4.842986885138624e-06   1.1687492480922062e-05
-1.748597664814075e-05   4.842986885138624e-06   1.1687492480922062e-05
-1.748597664814075e-05   4.842986885138624e-06   1.1687492480922062e-05
-1.748597664814075e-05   4.842986885138624e-06   1.1687492480922062e-05
-2.3854634330467458e-05   3.601205626338976e-06   3.2799425509795607e-07
-2.3854634330467458e-05   3.601205626338976e-06   3.2799425509795607e-07
-2.3854634330467458e-05   3.601205626338976e-06   3.2799425509795607e-07
-2.3854634330467458e-05   3.601205626338976e-06   3.2799425509795607e-07
-2.4557440211935076e-05   4.6875268166961335e-06   1.2948993968753915e-05
-2.4557440211935076e-05   4.6875268166961335e-06   1.2948993968753915e-05
-2.4557440211935076e-05   4.6875268166961335e-06   1.2948993968753915e-05
-2.4557440211935076e-05   4.6875268166961335e-06   1.2948993968753915e-05
-1.7862817300665323e-05   3.4230758411102043e-06   2.54995970198923e-06
-1.7862817300665323e-05   3.4230758411102043e-06   2.54995970198923e-06
-1.7862817300665323e-05   3.4230758411102043e-06   2.54995970198923e-06
-1.7862817300665323e-05   3.4230758411102043e-06   2.54995970198923e-06
-2.042964525808194e-05   4.171888168677572e-06   6.378718901143502e-06
-2.042964525808194e-05   4.171888168677572e-06   6.378718901143502e-06
-2.042964525808194e-05   4.171888168677572e-06   6.378718901143502e-06
-2.042964525808194e-05   4.171888168677572e-06   6.378718901143502e-06
-1.786281730066535e-05   4.687526816695917e-06   1.3707664554105277e-05
-1.786281730066535e-05   4.687526816695917e-06   1.3707664554105277e-05
-1.786281730066535e-05   4.687526816695917e-06   1.3707664554105277e-05
-1.786281730066535e-05   4.687526816695917e-06   1.3707664554105277e-05
-2.4557440211935076e-05   3.4230758411102043e-06   1.7912891166376507e-06
-2.4557440211935076e-05   3.4230758411102043e-06   1.7912891166376507e-06
-2.4557440211935076e-05   3.4230758411102043e-06   1.7912891166376507e-06
-2.4557440211935076e-05   3.4230758411102043e-06   1.7912891166376507e-06
-2.539778462059644e-05   4.164000937478471e-06   1.6497601091534052e-05
-2.539778462059644e-05   4.164000937478471e-06   1.6497601091534052e-05
-2.539778462059644e-05   4.164000937478471e-06   1.6497601091534052e-05
-2.539778462059644e-05   4.164000937478471e-06   1.6497601091534052e-05
-1.8185798064497343e-05   2.936898300421936e-06   5.213885080269823e-06
-1.8185798064497343e-05   2.936898300421936e-06   5.213885080269823e-06
-1.8185798064497343e-05   2.936898300421936e-06   5.213885080269823e-06
-1.8185798064497343e-05   2.936898300421936e-06   5.213885080269823e-06
-2.0622330747314512e-05   3.9507937323996455e-06   8.666435625778832e-06
-2.0622330747314512e-05   3.9507937323996455e-06   8.666435625778832e-06
-2.0622330747314512e-05   3.9507937323996455e-06   8.666435625778832e-06
-2.0622330747314512e-05   3.9507937323996455e-06   8.666435625778832e-06
2.1155138051749363e-06   1.0232772399277994e-08   1.0590431630605923e-05
2.1155138051749363e-06   1.0232772399277994e-08   1.0590431630605923e-05
2.1155138051749363e-06   1.0232772399277994e-08   1.0590431630605923e-05
2.1155138051749363e-06   1.0232772399277994e-08   1.0590431630605923e-05
-2.141712916929035e-06   1.129247399571636e-06   4.166462536736018e-06
-2.141712916929035e-06   1.129247399571636e-06   4.166462536736018e-06
-2.141712916929035e-06   1.129247399571636e-06   4.166462536736018e-06
-2.141712916929035e-06   1.129247399571636e-06   4.166462536736018e-06
-2.388175211361541e-06   -3.869371454967357e-07   1.0432564287005304e-05
-2.388175211361541e-06   -3.869371454967357e-07   1.0432564287005304e-05
-2.388175211361541e-06   -3.869371454967357e-07   1.0432564287005304e-05
-2.388175211361541e-06   -3.869371454967357e-07   1.0432564287005304e-05
1.3667314104023502e-06   7.586301200290801e-07   3.487046224749996e-06
1.3667314104023502e-06   7.586301200290801e-07   3.487046224749996e-06
1.3667314104023502e-06   7.586301200290801e-07   3.487046224749996e-06
1.3667314104023502e-06   7.586301200290801e-07   3.487046224749996e-06
-3.645234025373624e-07   3.139603033509939e-07   6.6392728029897406e-06
-3.645234025373624e-07   3.139603033509939e-07   6.6392728029897406e-06
-3.645234025373624e-07   3.139603033509939e-07   6.6392728029897406e-06
-3.645234025373624e-07   3.139603033509939e-07   6.6392728029897406e-06
1.3667314104023502e-06   -3.869371454967357e-07   9.74522392768989e-06
1.3667314104023502e-06   -3.869371454967357e-07   9.74522392768989e-06
1.3667314104023502e-06   -3.869371454967357e-07   9.74522392768989e-06
1.3667314104023502e-06   -3.869371454967357e-07   9.74522392768989e-06
-2.388175211361541e-06   7.586301200290801e-07   4.17438658406545e-06
-2.388175211361541e-06   7.586301200290801e-07   4.17438658406545e-06
-2.388175211361541e-06   7.586301200290801e-07   4.17438658406545e-06
-2.388175211361541e-06   7.586301200290801e-07   4.17438658406545e-06
-2.6929006027748043e-06   -5.573792291801646e-07   1.0151346387672253e-05
-2.6929006027748043e-06   -5.573792291801646e-07   1.0151346387672253e-05
-2.6929006027748043e-06   -5.573792291801646e-07   1.0151346387672253e-05
-2.6929006027748043e-06   -5.573792291801646e-07   1.0151346387672253e-05
7.162850463689121e-07   5.557510484484329e-07   3.8014921391889115e-06
7.162850463689121e-07   5.557510484484329e-07   3.8014921391889115e-06
7.162850463689121e-07   5.557510484484329e-07   3.8014921391889115e-06
7.162850463689121e-07   5.557510484484329e-07   3.8014921391889115e-06
-7.674299268099913e-07   1.5612533660184537e-07   6.514125854928352e-06
-7.674299268099913e-07   1.5612533660184537e-07   6.514125854928352e-06
-7.674299268099913e-07   1.5612533660184537e-07   6.514125854928352e-06
-7.674299268099913e-07   1.5612533660184537e-07   6.514125854928352e-06
7.162850463689121e-07   -5.573792291801646e-07   9.483468221094943e-06
7.162850463689121e-07   -5.573792291801646e-07   9.483468221094943e-06
7.162850463689121e-07   -5.573792291801646e-07   9.483468221094943e-06
7.162850463689121e-07   -5.573792291801646e-07   9.483468221094943e-06
-2.6929006027747975e-06   5.557510484484329e-07   4.469370305766086e-06
-2.6929006027747975e-06   5.557510484484329e-07   4.469370305766086e-06
-2.6929006027747975e-06   5.557510484484329e-07   4.469370305766086e-06
-2.6929006027747975e-06   5.557510484484329e-07   4.469370305766086e-06
-2.9480273848129058e-06   -8.397716026864585e-07   1.0039136453066392e-05
-2.9480273848129058e-06   -8.397716026864585e-07   1.0039136453066392e-05
-2.9480273848129058e-06   -8.397716026864585e-07   1.0039136453066392e-05
-2.9480273848129058e-06   -8.397716026864585e-07   1.0039136453066392e-05
-1.0029026606440136e-07   1.2654916519132687e-07   4.713115461092463e-06
-1.0029026606440136e-07   1.2654916519132687e-07   4.713115461092463e-06
-1.0029026606440136e-07   1.2654916519132687e-07   4.713115461092463e-06
-1.0029026606440136e-07   1.2654916519132687e-07   4.713115461092463e-06
-1.2053758456168406e-06   1.310554513967322e-08   6.622990932377385e-06
-1.2053758456168406e-06   1.310554513967322e-08   6.622990932377385e-06
-1.2053758456168406e-06   1.310554513967322e-08   6.622990932377385e-06
-1.2053758456168406e-06   1.310554513967322e-08   6.622990932377385e-06
-2.141712916929035e-06   1.1078445681084572e-06   1.6924827363403892e-05
-2.141712916929035e-06   1.1078445681084572e-06   1.6924827363403892e-05
-2.141712916929035e-06   1.1078445681084572e-06   1.6924827363403892e-05
-2.141712916929035e-06   1.1078445681084572e-06   1.6924827363403892e-05
-5.702825143472261e-06   1.3307827333023433e-06   1.1123403218281553e-05
-5.702825143472261e-06   1.3307827333023433e-06   1.1123403218281553e-05
-5.702825143472261e-06   1.3307827333023433e-06   1.1123403218281553e-05
-5.702825143472261e-06   1.3307827333023433e-06   1.1123403218281553e-05
-5.889253235751796e-06   6.601071213301274e-07   1.6876660829524977e-05
-5.889253235751796e-06   6.601071213301274e-07   1.6876660829524977e-05
-5.889253235751796e-06   6.601071213301274e-07   1.6876660829524977e-05
-5.889253235751796e-06   6.601071213301274e-07   1.6876660829524977e-05
-2.388175211361541e-06   9.175091809304021e-07   1.0887089553114272e-05
-2.388175211361541e-06   9.175091809304021e-07   1.0887089553114272e-05
-2.388175211361541e-06   9.175091809304021e-07   1.0887089553114272e-05
-2.388175211361541e-06   9.175091809304021e-07   1.0887089553114272e-05
-4.055675270705039e-06   9.554820508329192e-07   1.3643472596745285e-05
-4.055675270705039e-06   9.554820508329192e-07   1.3643472596745285e-05
-4.055675270705039e-06   9.554820508329192e-07   1.3643472596745285e-05
-4.055675270705039e-06   9.554820508329192e-07   1.3643472596745285e-05
-2.3881752113615444e-06   6.601071213301274e-07   1.6722219593764552e-05
-2.3881752113615444e-06   6.601071213301274e-07   1.6722219593764552e-05
-2.3881752113615444e-06   6.601071213301274e-07   1.6722219593764552e-05
-2.3881752113615444e-06   6.601071213301274e-07   1.6722219593764552e-05
-5.889253235751783e-06   9.175091809304021e-07   1.1041530788874487e-05
-5.889253235751783e-06   9.175091809304021e-07   1.1041530788874487e-05
-5.889253235751783e-06   9.175091809304021e-07   1.1041530788874487e-05
-5.889253235751783e-06   9.175091809304021e-07   1.1041530788874487e-05
-6.081623187556299e-06   2.8144285878499604e-07   1.690449740552897e-05
-6.081623187556299e-06   2.8144285878499604e-07   1.690449740552897e-05
-6.081623187556299e-06   2.8144285878499604e-07   1.690449740552897e-05
-6.081623187556299e-06   2.8144285878499604e-07   1.690449740552897e-05
-2.6929006027747975e-06   5.370301723101783e-07   1.1103274042777998e-05
-2.6929006027747975e-06   5.370301723101783e-07   1.1103274042777998e-05
-2.6929006027747975e-06   5.370301723101783e-07   1.1103274042777998e-05
-2.6929006027747975e-06   5.370301723101783e-07   1.1103274042777998e-05
-4.2462015331880105e-06   6.540685379975405e-07   1.3621885907387865e-05
-4.2462015331880105e-06   6.540685379975405e-07   1.3621885907387865e-05
-4.2462015331880105e-06   6.540685379975405e-07   1.3621885907387865e-05
-4.2462015331880105e-06   6.540685379975405e-07   1.3621885907387865e-05
-2.6929006027748043e-06   2.8144285878499604e-07   1.675114501741362e-05
-2.6929006027748043e-06   2.8144285878499604e-07   1.675114501741362e-05
-2.6929006027748043e-06   2.8144285878499604e-07   1.675114501741362e-05
-2.6929006027748043e-06   2.8144285878499604e-07   1.675114501741362e-05
-6.081623187556299e-06   5.370301723101783e-07   1.1256626430893122e-05
-6.081623187556299e-06   5.370301723101783e-07   1.1256626430893122e-05
-6.081623187556299e-06   5.370301723101783e-07   1.1256626430893122e-05
-6.081623187556299e-06   5.370301723101783e-07   1.1256626430893122e-05
-6.270538421607069e-06   -1.0455297687664809e-07   1.7227477296091406e-05
-6.270538421607069e-06   -1.0455297687664809e-07   1.7227477296091406e-05
-6.270538421607069e-06   -1.0455297687664809e-07   1.7227477296091406e-05
-6.270538421607069e-06   -1.0455297687664809e-07   1.7227477296091406e-05
-2.9480273848129024e-06   1.2589916960586804e-07   1.1551687613544972e-05
-2.9480273848129024e-06   1.2589916960586804e-07   1.1551687613544972e-05
-2.9480273848129024e-06   1.2589916960586804e-07   1.1551687613544972e-05
-2.9480273848129024e-06   1.2589916960586804e-07   1.1551687613544972e-05
-4.436142910967602e-06   3.5878683645417225e-07   1.3892147557027207e-05
-4.436142910967602e-06   3.5878683645417225e-07   1.3892147557027207e-05
-4.436142910967602e-06   3.5878683645417225e-07   1.3892147557027207e-05
-4.436142910967602e-06   3.5878683645417225e-07   1.3892147557027207e-05
-5.702825143472247e-06   2.078223144103865e-06   1.90405548156664e-05
-5.702825143472247e-06   2.078223144103865e-06   1.90405548156664e-05
-5.702825143472247e-06   2.078223144103865e-06   1.90405548156664e-05
-5.702825143472247e-06   2.078223144103865e-06   1.90405548156664e-05
-9.246086603956346e-06   1.6025540907453617e-06   1.2849717616177743e-05
-9.246086603956346e-06   1.6025540907453617e-06   1.2849717616177743e-05
-9.246086603956346e-06   1.6025540907453617e-06   1.2849717616177743e-05
-9.246086603956346e-06   1.6025540907453617e-06   1.2849717616177743e-05
-9.404237318198777e-06   1.6662500249491974e-06   1.8687561672374388e-05
-9.404237318198777e-06   1.6662500249491974e-06   1.8687561672374388e-05
-9.404237318198777e-06   1.6662500249491974e-06   1.8687561672374388e-05
-9.404237318198777e-06   1.6662500249491974e-06   1.8687561672374388e-05
-5.889253235751783e-06   1.2203757104709998e-06   1.309677945698291e-05
-5.889253235751783e-06   1.2203757104709998e-06   1.309677945698291e-05
-5.889253235751783e-06   1.2203757104709998e-06   1.309677945698291e-05
-5.889253235751783e-06   1.2203757104709998e-06   1.309677945698291e-05
-7.564785161683104e-06   1.6093365508042246e-06   1.5655956162668463e-05
-7.564785161683104e-06   1.6093365508042246e-06   1.5655956162668463e-05
-7.564785161683104e-06   1.6093365508042246e-06   1.5655956162668463e-05
-7.564785161683104e-06   1.6093365508042246e-06   1.5655956162668463e-05
-5.889253235751783e-06   1.6662500249491974e-06   1.8955086261061307e-05
-5.889253235751783e-06   1.6662500249491974e-06   1.8955086261061307e-05
-5.889253235751783e-06   1.6662500249491974e-06   1.8955086261061307e-05
-5.889253235751783e-06   1.6662500249491974e-06   1.8955086261061307e-05
-9.404237318198777e-06   1.2203757104709998e-06   1.2829254868296019e-05
-9.404237318198777e-06   1.2203757104709998e-06   1.2829254868296019e-05
-9.404237318198777e-06   1.2203757104709998e-06   1.2829254868296019e-05
-9.404237318198777e-06   1.2203757104709998e-06   1.2829254868296019e-05
-9.573563809541234e-06   1.2564101818897996e-06   1.887088986029042e-05
-9.573563809541234e-06   1.2564101818897996e-06   1.887088986029042e-05
-9.573563809541234e-06   1.2564101818897996e-06   1.887088986029042e-05
-9.573563809541234e-06   1.2564101818897996e-06   1.887088986029042e-05
-6.081623187556299e-06   8.320332768268048e-07   1.3305614966686592e-05
-6.081623187556299e-06   8.320332768268048e-07   1.3305614966686592e-05
-6.081623187556299e-06   8.320332768268048e-07   1.3305614966686592e-05
-6.081623187556299e-06   8.320332768268048e-07   1.3305614966686592e-05
-7.699932906496786e-06   1.3037341690278967e-06   1.5719777296266797e-05
-7.699932906496786e-06   1.3037341690278967e-06   1.5719777296266797e-05
-7.699932906496786e-06   1.3037341690278967e-06   1.5719777296266797e-05
-7.699932906496786e-06   1.3037341690278967e-06   1.5719777296266797e-05
-6.081623187556299e-06   1.2564101818897996e-06   1.9125516003328e-05
-6.081623187556299e-06   1.2564101818897996e-06   1.9125516003328e-05
-6.081623187556299e-06   1.2564101818897996e-06   1.9125516003328e-05
-6.081623187556299e-06   1.2564101818897996e-06   1.9125516003328e-05
-9.573563809541207e-06   8.320332768268048e-07   1.3050988823648795e-05
-9.573563809541207e-06   8.320332768268048e-07   1.3050988823648795e-05
-9.573563809541207e-06   8.320332768268048e-07   1.3050988823648795e-05
-9.573563809541207e-06   8.320332768268048e-07   1.3050988823648795e-05
-9.739402894260336e-06   8.641870778406833e-07   1.9256736088469196e-05
-9.739402894260336e-06   8.641870778406833e-07   1.9256736088469196e-05
-9.739402894260336e-06   8.641870778406833e-07   1.9256736088469196e-05
-9.739402894260336e-06   8.641870778406833e-07   1.9256736088469196e-05
-6.270538421607056e-06   4.642844847808263e-07   1.3715236856549863e-05
-6.270538421607056e-06   4.642844847808263e-07   1.3715236856549863e-05
-6.270538421607056e-06   4.642844847808263e-07   1.3715236856549863e-05
-6.270538421607056e-06   4.642844847808263e-07   1.3715236856549863e-05
-7.850481914560586e-06   1.0028955720726117e-06   1.6025309359097255e-05
-7.850481914560586e-06   1.0028955720726117e-06   1.6025309359097255e-05
-7.850481914560586e-06   1.0028955720726117e-06   1.6025309359097255e-05
-7.850481914560586e-06   1.0028955720726117e-06   1.6025309359097255e-05
-9.246086603956373e-06   3.092584723919786e-06   1.646902583136902e-05
-9.246086603956373e-06   3.092584723919786e-06   1.646902583136902e-05
-9.246086603956373e-06   3.092584723919786e-06   1.646902583136902e-05
-9.246086603956373e-06   3.092584723919786e-06   1.646902583136902e-05
-1.2733686706507076e-05   2.170830442835281e-06   1.0103306425133715e-05
-1.2733686706507076e-05   2.170830442835281e-06   1.0103306425133715e-05
-1.2733686706507076e-05   2.170830442835281e-06   1.0103306425133715e-05
-1.2733686706507076e-05   2.170830442835281e-06   1.0103306425133715e-05
-1.2907584821322463e-05   2.6774807494611566e-06   1.5985145528893776e-05
-1.2907584821322463e-05   2.6774807494611566e-06   1.5985145528893776e-05
-1.2907584821322463e-05   2.6774807494611566e-06   1.5985145528893776e-05
-1.2907584821322463e-05   2.6774807494611566e-06   1.5985145528893776e-05
-9.404237318198777e-06   1.7688440442808389e-06   1.0691415046795878e-05
-9.404237318198777e-06   1.7688440442808389e-06   1.0691415046795878e-05
-9.404237318198777e-06   1.7688440442808389e-06   1.0691415046795878e-05
-9.404237318198777e-06   1.7688440442808389e-06   1.0691415046795878e-05
-1.1049421613913997e-05   2.405648877057149e-06   1.3051305973322018e-05
-1.1049421613913997e-05   2.405648877057149e-06   1.3051305973322018e-05
-1.1049421613913997e-05   2.405648877057149e-06   1.3051305973322018e-05
-1.1049421613913997e-05   2.405648877057149e-06   1.3051305973322018e-05
-9.404237318198777e-06   2.6774807494611566e-06   1.6530327552001967e-05
-9.404237318198777e-06   2.6774807494611566e-06   1.6530327552001967e-05
-9.404237318198777e-06   2.6774807494611566e-06   1.6530327552001967e-05
-9.404237318198777e-06   2.6774807494611566e-06   1.6530327552001967e-05
-1.2907584821322436e-05   1.7688440442807304e-06   1.0146233023687634e-05
-1.2907584821322436e-05   1.7688440442807304e-06   1.0146233023687634e-05
-1.2907584821322436e-05   1.7688440442807304e-06   1.0146233023687634e-05
-1.2907584821322436e-05   1.7688440442807304e-06   1.0146233023687634e-05
-1.3147144052728975e-05   2.2995730734523935e-06   1.651481808875811e-05
-1.3147144052728975e-05   2.2995730734523935e-06   1.651481808875811e-05
-1.3147144052728975e-05   2.2995730734523935e-06   1.651481808875811e-05
-1.3147144052728975e-05   2.2995730734523935e-06   1.651481808875811e-05
-9.573563809541234e-06   1.4108295685597624e-06   1.1092097119714216e-05
-9.573563809541234e-06   1.4108295685597624e-06   1.1092097119714216e-05
-9.573563809541234e-06   1.4108295685597624e-06   1.1092097119714216e-05
-9.573563809541234e-06   1.4108295685597624e-06   1.1092097119714216e-05
-1.1143892533781446e-05   2.1094963818579565e-06   1.3290111572135648e-05
-1.1143892533781446e-05   2.1094963818579565e-06   1.3290111572135648e-05
-1.1143892533781446e-05   2.1094963818579565e-06   1.3290111572135648e-05
-1.1143892533781446e-05   2.1094963818579565e-06   1.3290111572135648e-05
-9.573563809541207e-06   2.2995730734523935e-06   1.7048064191693495e-05
-9.573563809541207e-06   2.2995730734523935e-06   1.7048064191693495e-05
-9.573563809541207e-06   2.2995730734523935e-06   1.7048064191693495e-05
-9.573563809541207e-06   2.2995730734523935e-06   1.7048064191693495e-05
-1.3147144052728921e-05   1.4108295685597624e-06   1.0558851016778561e-05
-1.3147144052728921e-05   1.4108295685597624e-06   1.0558851016778561e-05
-1.3147144052728921e-05   1.4108295685597624e-06   1.0558851016778561e-05
-1.3147144052728921e-05   1.4108295685597624e-06   1.0558851016778561e-05
-1.3339015250447432e-05   1.8951801929440295e-06   1.710263902122099e-05
-1.3339015250447432e-05   1.8951801929440295e-06   1.710263902122099e-05
-1.3339015250447432e-05   1.8951801929440295e-06   1.710263902122099e-05
-1.3339015250447432e-05   1.8951801929440295e-06   1.710263902122099e-05
-9.739402894260308e-06   1.0456977174191874e-06   1.1612974579557447e-05
-9.739402894260308e-06   1.0456977174191874e-06   1.1612974579557447e-05
-9.739402894260308e-06   1.0456977174191874e-06   1.1612974579557447e-05
-9.739402894260308e-06   1.0456977174191874e-06   1.1612974579557447e-05
-1.1342732977647572e-05   1.827420790174658e-06   1.3816157541549892e-05
-1.1342732977647572e-05   1.827420790174658e-06   1.3816157541549892e-05
-1.1342732977647572e-05   1.827420790174658e-06   1.3816157541549892e-05
-1.1342732977647572e-05   1.827420790174658e-06   1.3816157541549892e-05
-1.2733686706507076e-05   3.8131643644866197e-06   7.280045046687868e-06
-1.2733686706507076e-05   3.8131643644866197e-06   7.280045046687868e-06
-1.2733686706507076e-05   3.8131643644866197e-06   7.280045046687868e-06
-1.2733686706507076e-05   3.8131643644866197e-06   7.280045046687868e-06
-1.549122003867339e-05   2.572293087046984e-06   1.9396333932802175e-06
-1.549122003867339e-05   2.572293087046984e-06   1.9396333932802175e-06
-1.549122003867339e-05   2.572293087046984e-06   1.9396333932802175e-06
-1.549122003867339e-05   2.572293087046984e-06   1.9396333932802175e-06
-1.6148570002631367e-05   3.601205626338976e-06   8.540742658072215e-06
-1.6148570002631367e-05   3.601205626338976e-06   8.540742658072215e-06
-1.6148570002631367e-05   3.601205626338976e-06   8.540742658072215e-06
-1.6148570002631367e-05   3.601205626338976e-06   8.540742658072215e-06
-1.2907584821322463e-05   2.3049131884437645e-06   3.916876151961279e-06
-1.2907584821322463e-05   2.3049131884437645e-06   3.916876151961279e-06
-1.2907584821322463e-05   2.3049131884437645e-06   3.916876151961279e-06
-1.2907584821322463e-05   2.3049131884437645e-06   3.916876151961279e-06
-1.3822924013460002e-05   3.0405320573742307e-06   5.0010701508321665e-06
-1.3822924013460002e-05   3.0405320573742307e-06   5.0010701508321665e-06
-1.3822924013460002e-05   3.0405320573742307e-06   5.0010701508321665e-06
-1.3822924013460002e-05   3.0405320573742307e-06   5.0010701508321665e-06
-1.2907584821322436e-05   3.6012056263390844e-06   9.31851812080919e-06
-1.2907584821322436e-05   3.6012056263390844e-06   9.31851812080919e-06
-1.2907584821322436e-05   3.6012056263390844e-06   9.31851812080919e-06
-1.2907584821322436e-05   3.6012056263390844e-06   9.31851812080919e-06
-1.614857000263142e-05   2.304913188443873e-06   3.1391006892241414e-06
-1.614857000263142e-05   2.304913188443873e-06   3.1391006892241414e-06
-1.614857000263142e-05   2.304913188443873e-06   3.1391006892241414e-06
-1.614857000263142e-05   2.304913188443873e-06   3.1391006892241414e-06
-1.671235907013376e-05   3.4230758411102043e-06   1.0057851206029438e-05
-1.671235907013376e-05   3.4230758411102043e-06   1.0057851206029438e-05
-1.671235907013376e-05   3.4230758411102043e-06   1.0057851206029438e-05
-1.671235907013376e-05   3.4230758411102043e-06   1.0057851206029438e-05
-1.3147144052728975e-05   2.1209411289144784e-06   4.897107004338784e-06
-1.3147144052728975e-05   2.1209411289144784e-06   4.897107004338784e-06
-1.3147144052728975e-05   2.1209411289144784e-06   4.897107004338784e-06
-1.3147144052728975e-05   2.1209411289144784e-06   4.897107004338784e-06
-1.4380891388243649e-05   2.9363612006180675e-06   6.464100520508175e-06
-1.4380891388243649e-05   2.9363612006180675e-06   6.464100520508175e-06
-1.4380891388243649e-05   2.9363612006180675e-06   6.464100520508175e-06
-1.4380891388243649e-05   2.9363612006180675e-06   6.464100520508175e-06
-1.3147144052728975e-05   3.4230758411102043e-06   1.0839132033346722e-05
-1.3147144052728975e-05   3.4230758411102043e-06   1.0839132033346722e-05
-1.3147144052728975e-05   3.4230758411102043e-06   1.0839132033346722e-05
-1.3147144052728975e-05   3.4230758411102043e-06   1.0839132033346722e-05
-1.6712359070133814e-05   2.1209411289144784e-06   4.115826177021338e-06
-1.6712359070133814e-05   2.1209411289144784e-06   4.115826177021338e-06
-1.6712359070133814e-05   2.1209411289144784e-06   4.115826177021338e-06
-1.6712359070133814e-05   2.1209411289144784e-06   4.115826177021338e-06
-1.7428983797716736e-05   2.9368983004218275e-06   1.2801998416206266e-05
-1.7428983797716736e-05   2.9368983004218275e-06   1.2801998416206266e-05
-1.7428983797716736e-05   2.9368983004218275e-06   1.2801998416206266e-05
-1.7428983797716736e-05   2.9368983004218275e-06   1.2801998416206266e-05
-1.3339015250447405e-05   1.6967971702217931e-06   6.729444848877538e-06
-1.3339015250447405e-05   1.6967971702217931e-06   6.729444848877538e-06
-1.3339015250447405e-05   1.6967971702217931e-06   6.729444848877538e-06
-1.3339015250447405e-05   1.6967971702217931e-06   6.729444848877538e-06
-1.4538775534321158e-05   2.734352415088761e-06   8.106512175080254e-06
-1.4538775534321158e-05   2.734352415088761e-06   8.106512175080254e-06
-1.4538775534321158e-05   2.734352415088761e-06   8.106512175080254e-06
-1.4538775534321158e-05   2.734352415088761e-06   8.106512175080254e-06
-6.17043716059874e-06   1.129247399571636e-06   7.590701136025893e-06
-6.17043716059874e-06   1.129247399571636e-06   7.590701136025893e-06
-6.17043716059874e-06   1.129247399571636e-06   7.590701136025893e-06
-6.17043716059874e-06   1.129247399571636e-06   7.590701136025893e-06
-6.82270688496324e-06   2.146510042903599e-06   7.1139425147509765e-06
-6.82270688496324e-06   2.146510042903599e-06   7.1139425147509765e-06
-6.82270688496324e-06   2.146510042903599e-06   7.1139425147509765e-06
-6.82270688496324e-06   2.146510042903599e-06   7.1139425147509765e-06
-7.00193509721448e-06   7.586301200290801e-07   8.133611572773447e-06
-7.00193509721448e-06   7.586301200290801e-07   8.133611572773447e-06
-7.00193509721448e-06   7.586301200290801e-07   8.133611572773447e-06
-7.00193509721448e-06   7.586301200290801e-07   8.133611572773447e-06
-6.917304031907772e-06   1.6742838627838218e-06   7.443167551609444e-06
-6.917304031907772e-06   1.6742838627838218e-06   7.443167551609444e-06
-6.917304031907772e-06   1.6742838627838218e-06   7.443167551609444e-06
-6.917304031907772e-06   1.6742838627838218e-06   7.443167551609444e-06
-6.56321877818063e-06   1.332565927295525e-06   7.058056223357166e-06
-6.56321877818063e-06   1.332565927295525e-06   7.058056223357166e-06
-6.56321877818063e-06   1.332565927295525e-06   7.058056223357166e-06
-6.56321877818063e-06   1.332565927295525e-06   7.058056223357166e-06
-6.917304031907785e-06   7.586301200290801e-07   7.584219327120634e-06
-6.917304031907785e-06   7.586301200290801e-07   7.584219327120634e-06
-6.917304031907785e-06   7.586301200290801e-07   7.584219327120634e-06
-6.917304031907785e-06   7.586301200290801e-07   7.584219327120634e-06
-7.00193509721448e-06   1.6742838627838218e-06   7.992559797262325e-06
-7.00193509721448e-06   1.6742838627838218e-06   7.992559797262325e-06
-7.00193509721448e-06   1.6742838627838218e-06   7.992559797262325e-06
-7.00193509721448e-06   1.6742838627838218e-06   7.992559797262325e-06
-7.234410997245049e-06   5.557510484484329e-07   8.379019769556417e-06
-7.234410997245049e-06   5.557510484484329e-07   8.379019769556417e-06
-7.234410997245049e-06   5.557510484484329e-07   8.379019769556417e-06
-7.234410997245049e-06   5.557510484484329e-07   8.379019769556417e-06
-7.644569753091715e-06   1.3489077380316882e-06   8.586723682217398e-06
-7.644569753091715e-06   1.3489077380316882e-06   8.586723682217398e-06
-7.644569753091715e-06   1.3489077380316882e-06   8.586723682217398e-06
-7.644569753091715e-06   1.3489077380316882e-06   8.586723682217398e-06
-7.007342358890097e-06   1.1292044093616114e-06   7.656500022416605e-06
-7.007342358890097e-06   1.1292044093616114e-06   7.656500022416605e-06
-7.007342358890097e-06   1.1292044093616114e-06   7.656500022416605e-06
-7.007342358890097e-06   1.1292044093616114e-06   7.656500022416605e-06
-7.644569753091728e-06   5.557510484484329e-07   7.903125755806236e-06
-7.644569753091728e-06   5.557510484484329e-07   7.903125755806236e-06
-7.644569753091728e-06   5.557510484484329e-07   7.903125755806236e-06
-7.644569753091728e-06   5.557510484484329e-07   7.903125755806236e-06
-7.234410997245049e-06   1.3489077380316882e-06   9.062617695967349e-06
-7.234410997245049e-06   1.3489077380316882e-06   9.062617695967349e-06
-7.234410997245049e-06   1.3489077380316882e-06   9.062617695967349e-06
-7.234410997245049e-06   1.3489077380316882e-06   9.062617695967349e-06
-7.383738135884443e-06   1.2654916519121845e-07   9.18831113533525e-06
-7.383738135884443e-06   1.2654916519121845e-07   9.18831113533525e-06
-7.383738135884443e-06   1.2654916519121845e-07   9.18831113533525e-06
-7.383738135884443e-06   1.2654916519121845e-07   9.18831113533525e-06
-8.419456616191454e-06   5.492089736814287e-07   1.066091271741934e-05
-8.419456616191454e-06   5.492089736814287e-07   1.066091271741934e-05
-8.419456616191454e-06   5.492089736814287e-07   1.066091271741934e-05
-8.419456616191454e-06   5.492089736814287e-07   1.066091271741934e-05
-7.322934355685317e-06   8.809723986412952e-07   8.634317561599666e-06
-7.322934355685317e-06   8.809723986412952e-07   8.634317561599666e-06
-7.322934355685317e-06   8.809723986412952e-07   8.634317561599666e-06
-7.322934355685317e-06   8.809723986412952e-07   8.634317561599666e-06
-6.822706884963226e-06   1.3307827333023433e-06   1.502423650445435e-05
-6.822706884963226e-06   1.3307827333023433e-06   1.502423650445435e-05
-6.822706884963226e-06   1.3307827333023433e-06   1.502423650445435e-05
-6.822706884963226e-06   1.3307827333023433e-06   1.502423650445435e-05
-6.961502098685142e-06   5.562958352576305e-07   1.4328219009424287e-05
-6.961502098685142e-06   5.562958352576305e-07   1.4328219009424287e-05
-6.961502098685142e-06   5.562958352576305e-07   1.4328219009424287e-05
-6.961502098685142e-06   5.562958352576305e-07   1.4328219009424287e-05
-7.018925056387332e-06   9.175091809305105e-07   1.4454535570388339e-05
-7.018925056387332e-06   9.175091809305105e-07   1.4454535570388339e-05
-7.018925056387332e-06   9.175091809305105e-07   1.4454535570388339e-05
-7.018925056387332e-06   9.175091809305105e-07   1.4454535570388339e-05
-7.00193509721448e-06   2.6454422854041686e-07   1.4817997943200892e-05
-7.00193509721448e-06   2.6454422854041686e-07   1.4817997943200892e-05
-7.00193509721448e-06   2.6454422854041686e-07   1.4817997943200892e-05
-7.00193509721448e-06   2.6454422854041686e-07   1.4817997943200892e-05
-6.930991063963434e-06   6.77659326750674e-07   1.445188882885641e-05
-6.930991063963434e-06   6.77659326750674e-07   1.445188882885641e-05
-6.930991063963434e-06   6.77659326750674e-07   1.445188882885641e-05
-6.930991063963434e-06   6.77659326750674e-07   1.445188882885641e-05
-7.001935097214473e-06   9.175091809305105e-07   1.4846314541822113e-05
-7.001935097214473e-06   9.175091809305105e-07   1.4846314541822113e-05
-7.001935097214473e-06   9.175091809305105e-07   1.4846314541822113e-05
-7.001935097214473e-06   9.175091809305105e-07   1.4846314541822113e-05
-7.018925056387319e-06   2.6454422854041686e-07   1.4426218971766853e-05
-7.018925056387319e-06   2.6454422854041686e-07   1.4426218971766853e-05
-7.018925056387319e-06   2.6454422854041686e-07   1.4426218971766853e-05
-7.018925056387319e-06   2.6454422854041686e-07   1.4426218971766853e-05
-7.089680576291435e-06   5.370301723101783e-07   1.4647637423169813e-05
-7.089680576291435e-06   5.370301723101783e-07   1.4647637423169813e-05
-7.089680576291435e-06   5.370301723101783e-07   1.4647637423169813e-05
-7.089680576291435e-06   5.370301723101783e-07   1.4647637423169813e-05
-7.234410997245049e-06   -7.17799666872989e-08   1.525414087482421e-05
-7.234410997245049e-06   -7.17799666872989e-08   1.525414087482421e-05
-7.234410997245049e-06   -7.17799666872989e-08   1.525414087482421e-05
-7.234410997245049e-06   -7.17799666872989e-08   1.525414087482421e-05
-7.000932450677664e-06   4.370515608669544e-07   1.4559711047345793e-05
-7.000932450677664e-06   4.370515608669544e-07   1.4559711047345793e-05
-7.000932450677664e-06   4.370515608669544e-07   1.4559711047345793e-05
-7.000932450677664e-06   4.370515608669544e-07   1.4559711047345793e-05
-7.234410997245049e-06   5.370301723102867e-07   1.501292350656805e-05
-7.234410997245049e-06   5.370301723102867e-07   1.501292350656805e-05
-7.234410997245049e-06   5.370301723102867e-07   1.501292350656805e-05
-7.234410997245049e-06   5.370301723102867e-07   1.501292350656805e-05
-7.089680576291408e-06   -7.177996668724469e-08   1.4888854791425722e-05
-7.089680576291408e-06   -7.177996668724469e-08   1.4888854791425722e-05
-7.089680576291408e-06   -7.177996668724469e-08   1.4888854791425722e-05
-7.089680576291408e-06   -7.177996668724469e-08   1.4888854791425722e-05
-7.1423002458239786e-06   1.2589916960586804e-07   1.5064040292222917e-05
-7.1423002458239786e-06   1.2589916960586804e-07   1.5064040292222917e-05
-7.1423002458239786e-06   1.2589916960586804e-07   1.5064040292222917e-05
-7.1423002458239786e-06   1.2589916960586804e-07   1.5064040292222917e-05
-7.383738135884436e-06   -5.125183884579576e-07   1.5849487310495264e-05
-7.383738135884436e-06   -5.125183884579576e-07   1.5849487310495264e-05
-7.383738135884436e-06   -5.125183884579576e-07   1.5849487310495264e-05
-7.383738135884436e-06   -5.125183884579576e-07   1.5849487310495264e-05
-7.109673246317515e-06   1.5549983895608768e-07   1.4991901558101658e-05
-7.109673246317515e-06   1.5549983895608768e-07   1.4991901558101658e-05
-7.109673246317515e-06   1.5549983895608768e-07   1.4991901558101658e-05
-7.109673246317515e-06   1.5549983895608768e-07   1.4991901558101658e-05
-6.961502098685183e-06   1.6025540907453617e-06   1.6571260195538944e-05
-6.961502098685183e-06   1.6025540907453617e-06   1.6571260195538944e-05
-6.961502098685183e-06   1.6025540907453617e-06   1.6571260195538944e-05
-6.961502098685183e-06   1.6025540907453617e-06   1.6571260195538944e-05
-7.533874490249281e-06   1.5576274245155666e-07   1.4749231400622395e-05
-7.533874490249281e-06   1.5576274245155666e-07   1.4749231400622395e-05
-7.533874490249281e-06   1.5576274245155666e-07   1.4749231400622395e-05
-7.533874490249281e-06   1.5576274245155666e-07   1.4749231400622395e-05
-7.5551356342566385e-06   1.2203757104709998e-06   1.5723886389519765e-05
-7.5551356342566385e-06   1.2203757104709998e-06   1.5723886389519765e-05
-7.5551356342566385e-06   1.2203757104709998e-06   1.5723886389519765e-05
-7.5551356342566385e-06   1.2203757104709998e-06   1.5723886389519765e-05
-7.018925056387319e-06   -8.945403782382316e-08   1.561609994204781e-05
-7.018925056387319e-06   -8.945403782382316e-08   1.561609994204781e-05
-7.018925056387319e-06   -8.945403782382316e-08   1.561609994204781e-05
-7.018925056387319e-06   -8.945403782382316e-08   1.561609994204781e-05
-7.255434108299923e-06   6.973068451172643e-07   1.553822516547085e-05
-7.255434108299923e-06   6.973068451172643e-07   1.553822516547085e-05
-7.255434108299923e-06   6.973068451172643e-07   1.553822516547085e-05
-7.255434108299923e-06   6.973068451172643e-07   1.553822516547085e-05
-7.018925056387332e-06   1.2203757104709998e-06   1.6509784238496626e-05
-7.018925056387332e-06   1.2203757104709998e-06   1.6509784238496626e-05
-7.018925056387332e-06   1.2203757104709998e-06   1.6509784238496626e-05
-7.018925056387332e-06   1.2203757104709998e-06   1.6509784238496626e-05
-7.555135634256611e-06   -8.945403782382316e-08   1.4830202093070921e-05
-7.555135634256611e-06   -8.945403782382316e-08   1.4830202093070921e-05
-7.555135634256611e-06   -8.945403782382316e-08   1.4830202093070921e-05
-7.555135634256611e-06   -8.945403782382316e-08   1.4830202093070921e-05
-7.591515390531186e-06   8.320332768268048e-07   1.5967605532536634e-05
-7.591515390531186e-06   8.320332768268048e-07   1.5967605532536634e-05
-7.591515390531186e-06   8.320332768268048e-07   1.5967605532536634e-05
-7.591515390531186e-06   8.320332768268048e-07   1.5967605532536634e-05
-7.089680576291422e-06   -3.830007672175743e-07   1.5860234601896883e-05
-7.089680576291422e-06   -3.830007672175743e-07   1.5860234601896883e-05
-7.089680576291422e-06   -3.830007672175743e-07   1.5860234601896883e-05
-7.089680576291422e-06   -3.830007672175743e-07   1.5860234601896883e-05
-7.2622228770784865e-06   4.549518320683425e-07   1.5645033543636568e-05
-7.2622228770784865e-06   4.549518320683425e-07   1.5645033543636568e-05
-7.2622228770784865e-06   4.549518320683425e-07   1.5645033543636568e-05
-7.2622228770784865e-06   4.549518320683425e-07   1.5645033543636568e-05
-7.089680576291435e-06   8.320332768269132e-07   1.6696625958963066e-05
-7.089680576291435e-06   8.320332768269132e-07   1.6696625958963066e-05
-7.089680576291435e-06   8.320332768269132e-07   1.6696625958963066e-05
-7.089680576291435e-06   8.320332768269132e-07   1.6696625958963066e-05
-7.5915153905311585e-06   -3.830007672175743e-07   1.513121417547018e-05
-7.5915153905311585e-06   -3.830007672175743e-07   1.513121417547018e-05
-7.5915153905311585e-06   -3.830007672175743e-07   1.513121417547018e-05
-7.5915153905311585e-06   -3.830007672175743e-07   1.513121417547018e-05
-7.615928646639581e-06   4.642844847808263e-07   1.640454919530829e-05
-7.615928646639581e-06   4.642844847808263e-07   1.640454919530829e-05
-7.615928646639581e-06   4.642844847808263e-07   1.640454919530829e-05
-7.615928646639581e-06   4.642844847808263e-07   1.640454919530829e-05
-7.142300245823965e-06   -6.76997268602461e-07   1.6299937579312122e-05
-7.142300245823965e-06   -6.76997268602461e-07   1.6299937579312122e-05
-7.142300245823965e-06   -6.76997268602461e-07   1.6299937579312122e-05
-7.142300245823965e-06   -6.76997268602461e-07   1.6299937579312122e-05
-7.281235410451942e-06   2.059582416088666e-07   1.600172288089815e-05
-7.281235410451942e-06   2.059582416088666e-07   1.600172288089815e-05
-7.281235410451942e-06   2.059582416088666e-07   1.600172288089815e-05
-7.281235410451942e-06   2.059582416088666e-07   1.600172288089815e-05
-7.533874490249281e-06   2.170830442835281e-06   1.350982676416926e-05
-7.533874490249281e-06   2.170830442835281e-06   1.350982676416926e-05
-7.533874490249281e-06   2.170830442835281e-06   1.350982676416926e-05
-7.533874490249281e-06   2.170830442835281e-06   1.350982676416926e-05
-8.344680672520138e-06   7.149603360217171e-07   1.1284961062963121e-05
-8.344680672520138e-06   7.149603360217171e-07   1.1284961062963121e-05
-8.344680672520138e-06   7.149603360217171e-07   1.1284961062963121e-05
-8.344680672520138e-06   7.149603360217171e-07   1.1284961062963121e-05
-8.361341713018013e-06   1.7688440442807304e-06   1.275962463240265e-05
-8.361341713018013e-06   1.7688440442807304e-06   1.275962463240265e-05
-8.361341713018013e-06   1.7688440442807304e-06   1.275962463240265e-05
-8.361341713018013e-06   1.7688440442807304e-06   1.275962463240265e-05
-7.5551356342566385e-06   3.9147415158570075e-07   1.2242369770084055e-05
-7.5551356342566385e-06   3.9147415158570075e-07   1.2242369770084055e-05
-7.5551356342566385e-06   3.9147415158570075e-07   1.2242369770084055e-05
-7.5551356342566385e-06   3.9147415158570075e-07   1.2242369770084055e-05
-7.928067703194731e-06   1.2903899158665582e-06   1.2324573759745687e-05
-7.928067703194731e-06   1.2903899158665582e-06   1.2324573759745687e-05
-7.928067703194731e-06   1.2903899158665582e-06   1.2324573759745687e-05
-7.928067703194731e-06   1.2903899158665582e-06   1.2324573759745687e-05
-7.5551356342566385e-06   1.7688440442807304e-06   1.358604656801957e-05
-7.5551356342566385e-06   1.7688440442807304e-06   1.358604656801957e-05
-7.5551356342566385e-06   1.7688440442807304e-06   1.358604656801957e-05
-7.5551356342566385e-06   1.7688440442807304e-06   1.358604656801957e-05
-8.361341713018013e-06   3.9147415158570075e-07   1.1415947834467026e-05
-8.361341713018013e-06   3.9147415158570075e-07   1.1415947834467026e-05
-8.361341713018013e-06   3.9147415158570075e-07   1.1415947834467026e-05
-8.361341713018013e-06   3.9147415158570075e-07   1.1415947834467026e-05
-8.454405445175233e-06   1.4108295685597624e-06   1.3230764957670267e-05
-8.454405445175233e-06   1.4108295685597624e-06   1.3230764957670267e-05
-8.454405445175233e-06   1.4108295685597624e-06   1.3230764957670267e-05
-8.454405445175233e-06   1.4108295685597624e-06   1.3230764957670267e-05
-7.5915153905311585e-06   1.1424811700681825e-07   1.2570563737528443e-05
-7.5915153905311585e-06   1.1424811700681825e-07   1.2570563737528443e-05
-7.5915153905311585e-06   1.1424811700681825e-07   1.2570563737528443e-05
-7.5915153905311585e-06   1.1424811700681825e-07   1.2570563737528443e-05
-7.908088758065506e-06   1.0252082932107887e-06   1.2551609911029419e-05
-7.908088758065506e-06   1.0252082932107887e-06   1.2551609911029419e-05
-7.908088758065506e-06   1.0252082932107887e-06   1.2551609911029419e-05
-7.908088758065506e-06   1.0252082932107887e-06   1.2551609911029419e-05
-7.591515390531186e-06   1.4108295685597624e-06   1.4008713828601621e-05
-7.591515390531186e-06   1.4108295685597624e-06   1.4008713828601621e-05
-7.591515390531186e-06   1.4108295685597624e-06   1.4008713828601621e-05
-7.591515390531186e-06   1.4108295685597624e-06   1.4008713828601621e-05
-8.454405445175233e-06   1.1424811700681825e-07   1.1792614866596763e-05
-8.454405445175233e-06   1.1424811700681825e-07   1.1792614866596763e-05
-8.454405445175233e-06   1.1424811700681825e-07   1.1792614866596763e-05
-8.454405445175233e-06   1.1424811700681825e-07   1.1792614866596763e-05
-8.510694754349033e-06   1.0456977174191874e-06   1.3815590937601941e-05
-8.510694754349033e-06   1.0456977174191874e-06   1.3815590937601941e-05
-8.510694754349033e-06   1.0456977174191874e-06   1.3815590937601941e-05
-8.510694754349033e-06   1.0456977174191874e-06   1.3815590937601941e-05
-7.615928646639581e-06   -1.653648434971522e-07   1.3050951627969207e-05
-7.615928646639581e-06   -1.653648434971522e-07   1.3050951627969207e-05
-7.615928646639581e-06   -1.653648434971522e-07   1.3050951627969207e-05
-7.615928646639581e-06   -1.653648434971522e-07   1.3050951627969207e-05
-7.950564576593013e-06   7.880487453584915e-07   1.3036630024577988e-05
-7.950564576593013e-06   7.880487453584915e-07   1.3036630024577988e-05
-7.950564576593013e-06   7.880487453584915e-07   1.3036630024577988e-05
-7.950564576593013e-06   7.880487453584915e-07   1.3036630024577988e-05
-8.344680672520166e-06   2.572293087046984e-06   5.217154434691395e-06
-8.344680672520166e-06   2.572293087046984e-06   5.217154434691395e-06
-8.344680672520166e-06   2.572293087046984e-06   5.217154434691395e-06
-8.344680672520166e-06   2.572293087046984e-06   5.217154434691395e-06
-8.28336380196982e-06   1.183372192803899e-06   4.4859966823960476e-06
-8.28336380196982e-06   1.183372192803899e-06   4.4859966823960476e-06
-8.28336380196982e-06   1.183372192803899e-06   4.4859966823960476e-06
-8.28336380196982e-06   1.183372192803899e-06   4.4859966823960476e-06
-8.709519411859038e-06   2.304913188443873e-06   5.719605834200248e-06
-8.709519411859038e-06   2.304913188443873e-06   5.719605834200248e-06
-8.709519411859038e-06   2.304913188443873e-06   5.719605834200248e-06
-8.709519411859038e-06   2.304913188443873e-06   5.719605834200248e-06
-8.36134171301804e-06   9.538099776506951e-07   5.949971595941011e-06
-8.36134171301804e-06   9.538099776506951e-07   5.949971595941011e-06
-8.36134171301804e-06   9.538099776506951e-07   5.949971595941011e-06
-8.36134171301804e-06   9.538099776506951e-07   5.949971595941011e-06
-8.150621625651705e-06   1.8115392580640927e-06   5.08413388208243e-06
-8.150621625651705e-06   1.8115392580640927e-06   5.08413388208243e-06
-8.150621625651705e-06   1.8115392580640927e-06   5.08413388208243e-06
-8.150621625651705e-06   1.8115392580640927e-06   5.08413388208243e-06
-8.361341713018013e-06   2.3049131884437645e-06   6.53026776067597e-06
-8.361341713018013e-06   2.3049131884437645e-06   6.53026776067597e-06
-8.361341713018013e-06   2.3049131884437645e-06   6.53026776067597e-06
-8.361341713018013e-06   2.3049131884437645e-06   6.53026776067597e-06
-8.709519411859092e-06   9.538099776506951e-07   5.139309669465234e-06
-8.709519411859092e-06   9.538099776506951e-07   5.139309669465234e-06
-8.709519411859092e-06   9.538099776506951e-07   5.139309669465234e-06
-8.709519411859092e-06   9.538099776506951e-07   5.139309669465234e-06
-9.083402283279233e-06   2.1209411289144784e-06   6.778774512000794e-06
-9.083402283279233e-06   2.1209411289144784e-06   6.778774512000794e-06
-9.083402283279233e-06   2.1209411289144784e-06   6.778774512000794e-06
-9.083402283279233e-06   2.1209411289144784e-06   6.778774512000794e-06
-8.454405445175206e-06   8.03863740198355e-07   6.520692881723444e-06
-8.454405445175206e-06   8.03863740198355e-07   6.520692881723444e-06
-8.454405445175206e-06   8.03863740198355e-07   6.520692881723444e-06
-8.454405445175206e-06   8.03863740198355e-07   6.520692881723444e-06
-8.455406358712114e-06   1.6784448974590084e-06   5.997612376594898e-06
-8.455406358712114e-06   1.6784448974590084e-06   5.997612376594898e-06
-8.455406358712114e-06   1.6784448974590084e-06   5.997612376594898e-06
-8.455406358712114e-06   1.6784448974590084e-06   5.997612376594898e-06
-8.454405445175206e-06   2.1209411289144784e-06   7.56902094523011e-06
-8.454405445175206e-06   2.1209411289144784e-06   7.56902094523011e-06
-8.454405445175206e-06   2.1209411289144784e-06   7.56902094523011e-06
-8.454405445175206e-06   2.1209411289144784e-06   7.56902094523011e-06
-9.083402283279287e-06   8.03863740198355e-07   5.730446448493803e-06
-9.083402283279287e-06   8.03863740198355e-07   5.730446448493803e-06
-9.083402283279287e-06   8.03863740198355e-07   5.730446448493803e-06
-9.083402283279287e-06   8.03863740198355e-07   5.730446448493803e-06
-9.636811765892177e-06   1.6967971702217931e-06   8.723934484779574e-06
-9.636811765892177e-06   1.6967971702217931e-06   8.723934484779574e-06
-9.636811765892177e-06   1.6967971702217931e-06   8.723934484779574e-06
-9.636811765892177e-06   1.6967971702217931e-06   8.723934484779574e-06
-8.510694754349006e-06   5.004368244594833e-07   7.5648890063317095e-06
-8.510694754349006e-06   5.004368244594833e-07   7.5648890063317095e-06
-8.510694754349006e-06   5.004368244594833e-07   7.5648890063317095e-06
-8.510694754349006e-06   5.004368244594833e-07   7.5648890063317095e-06
-8.558696979564227e-06   1.5187648048325779e-06   7.03389592679926e-06
-8.558696979564227e-06   1.5187648048325779e-06   7.03389592679926e-06
-8.558696979564227e-06   1.5187648048325779e-06   7.03389592679926e-06
-8.558696979564227e-06   1.5187648048325779e-06   7.03389592679926e-06
-1.6203594507173092e-05   2.146510042903599e-06   6.3763979385944515e-06
-1.6203594507173092e-05   2.146510042903599e-06   6.3763979385944515e-06
-1.6203594507173092e-05   2.146510042903599e-06   6.3763979385944515e-06
-1.6203594507173092e-05   2.146510042903599e-06   6.3763979385944515e-06
-1.0972096940078685e-05   2.9682129497287627e-06   1.558858229451355e-05
-1.0972096940078685e-05   2.9682129497287627e-06   1.558858229451355e-05
-1.0972096940078685e-05   2.9682129497287627e-06   1.558858229451355e-05
-1.0972096940078685e-05   2.9682129497287627e-06   1.558858229451355e-05
-1.096911346800456e-05   1.6742838627838218e-06   7.212794630503689e-06
-1.096911346800456e-05   1.6742838627838218e-06   7.212794630503689e-06
-1.096911346800456e-05   1.6742838627838218e-06   7.212794630503689e-06
-1.096911346800456e-05   1.6742838627838218e-06   7.212794630503689e-06
-1.78665210035091e-05   1.1864726665812748e-06   1.9001160574066247e-05
-1.78665210035091e-05   1.1864726665812748e-06   1.9001160574066247e-05
-1.78665210035091e-05   1.1864726665812748e-06   1.9001160574066247e-05
-1.78665210035091e-05   1.1864726665812748e-06   1.9001160574066247e-05
-1.3279567307333979e-05   1.755208973171381e-06   1.1014995963153617e-05
-1.3279567307333979e-05   1.755208973171381e-06   1.1014995963153617e-05
-1.3279567307333979e-05   1.755208973171381e-06   1.1014995963153617e-05
-1.3279567307333979e-05   1.755208973171381e-06   1.1014995963153617e-05
-1.786652100350913e-05   1.6742838627838218e-06   7.505481348225266e-06
-1.786652100350913e-05   1.6742838627838218e-06   7.505481348225266e-06
-1.786652100350913e-05   1.6742838627838218e-06   7.505481348225266e-06
-1.786652100350913e-05   1.6742838627838218e-06   7.505481348225266e-06
-1.096911346800456e-05   1.1864726665812748e-06   1.870847385634469e-05
-1.096911346800456e-05   1.1864726665812748e-06   1.870847385634469e-05
-1.096911346800456e-05   1.1864726665812748e-06   1.870847385634469e-05
-1.096911346800456e-05   1.1864726665812748e-06   1.870847385634469e-05
-1.1124484367705938e-05   1.3489077380316882e-06   8.053415371639887e-06
-1.1124484367705938e-05   1.3489077380316882e-06   8.053415371639887e-06
-1.1124484367705938e-05   1.3489077380316882e-06   8.053415371639887e-06
-1.1124484367705938e-05   1.3489077380316882e-06   8.053415371639887e-06
-1.7934604617166962e-05   8.457193649525306e-07   1.970552881125569e-05
-1.7934604617166962e-05   8.457193649525306e-07   1.970552881125569e-05
-1.7934604617166962e-05   8.457193649525306e-07   1.970552881125569e-05
-1.7934604617166962e-05   8.457193649525306e-07   1.970552881125569e-05
-1.4179592619344523e-05   1.0906795247445566e-06   1.3300199385676248e-05
-1.4179592619344523e-05   1.0906795247445566e-06   1.3300199385676248e-05
-1.4179592619344523e-05   1.0906795247445566e-06   1.3300199385676248e-05
-1.4179592619344523e-05   1.0906795247445566e-06   1.3300199385676248e-05
-1.7934604617166996e-05   1.3489077380316882e-06   8.355328395487382e-06
-1.7934604617166996e-05   1.3489077380316882e-06   8.355328395487382e-06
-1.7934604617166996e-05   1.3489077380316882e-06   8.355328395487382e-06
-1.7934604617166996e-05   1.3489077380316882e-06   8.355328395487382e-06
-1.1124484367705921e-05   8.457193649525306e-07   1.9403615787408265e-05
-1.1124484367705921e-05   8.457193649525306e-07   1.9403615787408265e-05
-1.1124484367705921e-05   8.457193649525306e-07   1.9403615787408265e-05
-1.1124484367705921e-05   8.457193649525306e-07   1.9403615787408265e-05
-1.1011386329906285e-05   5.492089736814287e-07   9.522627749912038e-06
-1.1011386329906285e-05   5.492089736814287e-07   9.522627749912038e-06
-1.1011386329906285e-05   5.492089736814287e-07   9.522627749912038e-06
-1.1011386329906285e-05   5.492089736814287e-07   9.522627749912038e-06
-1.8137679201570545e-05   -6.06726646392011e-07   2.2093343908063187e-05
-1.8137679201570545e-05   -6.06726646392011e-07   2.2093343908063187e-05
-1.8137679201570545e-05   -6.06726646392011e-07   2.2093343908063187e-05
-1.8137679201570545e-05   -6.06726646392011e-07   2.2093343908063187e-05
-1.3968996022503706e-05   5.218093427856248e-07   1.446841701611187e-05
-1.3968996022503706e-05   5.218093427856248e-07   1.446841701611187e-05
-1.3968996022503706e-05   5.218093427856248e-07   1.446841701611187e-05
-1.3968996022503706e-05   5.218093427856248e-07   1.446841701611187e-05
-1.0972096940078702e-05   5.562958352576305e-07   1.4548388316189774e-05
-1.0972096940078702e-05   5.562958352576305e-07   1.4548388316189774e-05
-1.0972096940078702e-05   5.562958352576305e-07   1.4548388316189774e-05
-1.0972096940078702e-05   5.562958352576305e-07   1.4548388316189774e-05
-6.7481392686464305e-06   -3.403116581656053e-06   1.9212670318428726e-05
-6.7481392686464305e-06   -3.403116581656053e-06   1.9212670318428726e-05
-6.7481392686464305e-06   -3.403116581656053e-06   1.9212670318428726e-05
-6.7481392686464305e-06   -3.403116581656053e-06   1.9212670318428726e-05
-6.765519094879528e-06   2.6454422854041686e-07   1.220418615990209e-05
-6.765519094879528e-06   2.6454422854041686e-07   1.220418615990209e-05
-6.765519094879528e-06   2.6454422854041686e-07   1.220418615990209e-05
-6.765519094879528e-06   2.6454422854041686e-07   1.220418615990209e-05
-1.096911346800456e-05   -2.7922001323601162e-06   2.104422339831753e-05
-1.096911346800456e-05   -2.7922001323601162e-06   2.104422339831753e-05
-1.096911346800456e-05   -2.7922001323601162e-06   2.104422339831753e-05
-1.096911346800456e-05   -2.7922001323601162e-06   2.104422339831753e-05
-8.818080483492715e-06   -1.6839915816361812e-06   1.679424329369681e-05
-8.818080483492715e-06   -1.6839915816361812e-06   1.679424329369681e-05
-8.818080483492715e-06   -1.6839915816361812e-06   1.679424329369681e-05
-8.818080483492715e-06   -1.6839915816361812e-06   1.679424329369681e-05
-1.0969113468004574e-05   2.6454422854041686e-07   1.4038232776442236e-05
-1.0969113468004574e-05   2.6454422854041686e-07   1.4038232776442236e-05
-1.0969113468004574e-05   2.6454422854041686e-07   1.4038232776442236e-05
-1.0969113468004574e-05   2.6454422854041686e-07   1.4038232776442236e-05
-6.765519094879515e-06   -2.7922001323601162e-06   1.921017678177722e-05
-6.765519094879515e-06   -2.7922001323601162e-06   1.921017678177722e-05
-6.765519094879515e-06   -2.7922001323601162e-06   1.921017678177722e-05
-6.765519094879515e-06   -2.7922001323601162e-06   1.921017678177722e-05
-6.797390827469694e-06   -7.17799666872989e-08   1.2575829650409863e-05
-6.797390827469694e-06   -7.17799666872989e-08   1.2575829650409863e-05
-6.797390827469694e-06   -7.17799666872989e-08   1.2575829650409863e-05
-6.797390827469694e-06   -7.17799666872989e-08   1.2575829650409863e-05
-1.1124484367705921e-05   -2.8536281334987275e-06   2.1456761117557075e-05
-1.1124484367705921e-05   -2.8536281334987275e-06   2.1456761117557075e-05
-1.1124484367705921e-05   -2.8536281334987275e-06   2.1456761117557075e-05
-1.1124484367705921e-05   -2.8536281334987275e-06   2.1456761117557075e-05
-8.75751657159862e-06   -1.4715526300410802e-06   1.6682569488636858e-05
-8.75751657159862e-06   -1.4715526300410802e-06   1.6682569488636858e-05
-8.75751657159862e-06   -1.4715526300410802e-06   1.6682569488636858e-05
-8.75751657159862e-06   -1.4715526300410802e-06   1.6682569488636858e-05
-1.1124484367705938e-05   -7.17799666872989e-08   1.4244938550496715e-05
-1.1124484367705938e-05   -7.17799666872989e-08   1.4244938550496715e-05
-1.1124484367705938e-05   -7.17799666872989e-08   1.4244938550496715e-05
-1.1124484367705938e-05   -7.17799666872989e-08   1.4244938550496715e-05
-6.797390827469681e-06   -2.8536281334987275e-06   1.978765221747017e-05
-6.797390827469681e-06   -2.8536281334987275e-06   1.978765221747017e-05
-6.797390827469681e-06   -2.8536281334987275e-06   1.978765221747017e-05
-6.797390827469681e-06   -2.8536281334987275e-06   1.978765221747017e-05
-6.737394667282132e-06   -5.125183884579576e-07   1.3040572463347908e-05
-6.737394667282132e-06   -5.125183884579576e-07   1.3040572463347908e-05
-6.737394667282132e-06   -5.125183884579576e-07   1.3040572463347908e-05
-6.737394667282132e-06   -5.125183884579576e-07   1.3040572463347908e-05
-1.1011386329906264e-05   -2.8742417127011917e-06   2.1580925895600607e-05
-1.1011386329906264e-05   -2.8742417127011917e-06   2.1580925895600607e-05
-1.1011386329906264e-05   -2.8742417127011917e-06   2.1580925895600607e-05
-1.1011386329906264e-05   -2.8742417127011917e-06   2.1580925895600607e-05
-8.803903407723616e-06   -1.6486656662256273e-06   1.7166442064077582e-05
-8.803903407723616e-06   -1.6486656662256273e-06   1.7166442064077582e-05
-8.803903407723616e-06   -1.6486656662256273e-06   1.7166442064077582e-05
-8.803903407723616e-06   -1.6486656662256273e-06   1.7166442064077582e-05
-6.7481392686464305e-06   1.5576274245155666e-07   1.3461828066216005e-05
-6.7481392686464305e-06   1.5576274245155666e-07   1.3461828066216005e-05
-6.7481392686464305e-06   1.5576274245155666e-07   1.3461828066216005e-05
-6.7481392686464305e-06   1.5576274245155666e-07   1.3461828066216005e-05
-4.985016828940009e-06   -2.6591185998116015e-06   1.4711436660368822e-05
-4.985016828940009e-06   -2.6591185998116015e-06   1.4711436660368822e-05
-4.985016828940009e-06   -2.6591185998116015e-06   1.4711436660368822e-05
-4.985016828940009e-06   -2.6591185998116015e-06   1.4711436660368822e-05
-4.944850421241672e-06   -8.945403782382316e-08   1.188078495611614e-05
-4.944850421241672e-06   -8.945403782382316e-08   1.188078495611614e-05
-4.944850421241672e-06   -8.945403782382316e-08   1.188078495611614e-05
-4.944850421241672e-06   -8.945403782382316e-08   1.188078495611614e-05
-6.765519094879515e-06   -2.611590994601882e-06   1.642851491957944e-05
-6.765519094879515e-06   -2.611590994601882e-06   1.642851491957944e-05
-6.765519094879515e-06   -2.611590994601882e-06   1.642851491957944e-05
-6.765519094879515e-06   -2.611590994601882e-06   1.642851491957944e-05
-5.8255291799256745e-06   -1.3426195311534717e-06   1.4100482183254198e-05
-5.8255291799256745e-06   -1.3426195311534717e-06   1.4100482183254198e-05
-5.8255291799256745e-06   -1.3426195311534717e-06   1.4100482183254198e-05
-5.8255291799256745e-06   -1.3426195311534717e-06   1.4100482183254198e-05
-6.765519094879515e-06   -8.945403782382316e-08   1.3394067130182937e-05
-6.765519094879515e-06   -8.945403782382316e-08   1.3394067130182937e-05
-6.765519094879515e-06   -8.945403782382316e-08   1.3394067130182937e-05
-6.765519094879515e-06   -8.945403782382316e-08   1.3394067130182937e-05
-4.944850421241672e-06   -2.611590994601882e-06   1.4915232745512643e-05
-4.944850421241672e-06   -2.611590994601882e-06   1.4915232745512643e-05
-4.944850421241672e-06   -2.611590994601882e-06   1.4915232745512643e-05
-4.944850421241672e-06   -2.611590994601882e-06   1.4915232745512643e-05
-4.911870440034525e-06   -3.830007672175743e-07   1.2162866278954247e-05
-4.911870440034525e-06   -3.830007672175743e-07   1.2162866278954247e-05
-4.911870440034525e-06   -3.830007672175743e-07   1.2162866278954247e-05
-4.911870440034525e-06   -3.830007672175743e-07   1.2162866278954247e-05
-6.797390827469681e-06   -2.690239403762266e-06   1.6689743439939563e-05
-6.797390827469681e-06   -2.690239403762266e-06   1.6689743439939563e-05
-6.797390827469681e-06   -2.690239403762266e-06   1.6689743439939563e-05
-6.797390827469681e-06   -2.690239403762266e-06   1.6689743439939563e-05
-5.778509539261483e-06   -1.4294093013104037e-06   1.4235109898121096e-05
-5.778509539261483e-06   -1.4294093013104037e-06   1.4235109898121096e-05
-5.778509539261483e-06   -1.4294093013104037e-06   1.4235109898121096e-05
-5.778509539261483e-06   -1.4294093013104037e-06   1.4235109898121096e-05
-6.797390827469681e-06   -3.830007672175743e-07   1.3547209460881024e-05
-6.797390827469681e-06   -3.830007672175743e-07   1.3547209460881024e-05
-6.797390827469681e-06   -3.830007672175743e-07   1.3547209460881024e-05
-6.797390827469681e-06   -3.830007672175743e-07   1.3547209460881024e-05
-4.911870440034525e-06   -2.690239403762266e-06   1.5305400258012786e-05
-4.911870440034525e-06   -2.690239403762266e-06   1.5305400258012786e-05
-4.911870440034525e-06   -2.690239403762266e-06   1.5305400258012786e-05
-4.911870440034525e-06   -2.690239403762266e-06   1.5305400258012786e-05
-4.821700770648121e-06   -6.76997268602461e-07   1.260035155131625e-05
-4.821700770648121e-06   -6.76997268602461e-07   1.260035155131625e-05
-4.821700770648121e-06   -6.76997268602461e-07   1.260035155131625e-05
-4.821700770648121e-06   -6.76997268602461e-07   1.260035155131625e-05
-6.737394667282132e-06   -2.799866794747115e-06   1.70668964280597e-05
-6.737394667282132e-06   -2.799866794747115e-06   1.70668964280597e-05
-6.737394667282132e-06   -2.799866794747115e-06   1.70668964280597e-05
-6.737394667282132e-06   -2.799866794747115e-06   1.70668964280597e-05
-5.723873391333288e-06   -1.5570261862295751e-06   1.4631989936367772e-05
-5.723873391333288e-06   -1.5570261862295751e-06   1.4631989936367772e-05
-5.723873391333288e-06   -1.5570261862295751e-06   1.4631989936367772e-05
-5.723873391333288e-06   -1.5570261862295751e-06   1.4631989936367772e-05
-4.985016828940009e-06   7.149603360217171e-07   9.18215098728685e-06
-4.985016828940009e-06   7.149603360217171e-07   9.18215098728685e-06
-4.985016828940009e-06   7.149603360217171e-07   9.18215098728685e-06
-4.985016828940009e-06   7.149603360217171e-07   9.18215098728685e-06
-4.180270544025012e-06   -1.0931891249166801e-06   9.438505118915404e-06
-4.180270544025012e-06   -1.0931891249166801e-06   9.438505118915404e-06
-4.180270544025012e-06   -1.0931891249166801e-06   9.438505118915404e-06
-4.180270544025012e-06   -1.0931891249166801e-06   9.438505118915404e-06
-4.0955176953128545e-06   3.9147415158570075e-07   8.291417436996e-06
-4.0955176953128545e-06   3.9147415158570075e-07   8.291417436996e-06
-4.0955176953128545e-06   3.9147415158570075e-07   8.291417436996e-06
-4.0955176953128545e-06   3.9147415158570075e-07   8.291417436996e-06
-4.944850421241672e-06   -1.2777511753030255e-06   1.0708507176344006e-05
-4.944850421241672e-06   -1.2777511753030255e-06   1.0708507176344006e-05
-4.944850421241672e-06   -1.2777511753030255e-06   1.0708507176344006e-05
-4.944850421241672e-06   -1.2777511753030255e-06   1.0708507176344006e-05
-4.518426811932761e-06   -2.4972863197644064e-07   9.380987634833313e-06
-4.518426811932761e-06   -2.4972863197644064e-07   9.380987634833313e-06
-4.518426811932761e-06   -2.4972863197644064e-07   9.380987634833313e-06
-4.518426811932761e-06   -2.4972863197644064e-07   9.380987634833313e-06
-4.944850421241672e-06   3.9147415158570075e-07   9.29295263312922e-06
-4.944850421241672e-06   3.9147415158570075e-07   9.29295263312922e-06
-4.944850421241672e-06   3.9147415158570075e-07   9.29295263312922e-06
-4.944850421241672e-06   3.9147415158570075e-07   9.29295263312922e-06
-4.0955176953128545e-06   -1.2777511753030255e-06   9.70697198021076e-06
-4.0955176953128545e-06   -1.2777511753030255e-06   9.70697198021076e-06
-4.0955176953128545e-06   -1.2777511753030255e-06   9.70697198021076e-06
-4.0955176953128545e-06   -1.2777511753030255e-06   9.70697198021076e-06
-4.060266634431939e-06   1.1424811700681825e-07   8.682034451766942e-06
-4.060266634431939e-06   1.1424811700681825e-07   8.682034451766942e-06
-4.060266634431939e-06   1.1424811700681825e-07   8.682034451766942e-06
-4.060266634431939e-06   1.1424811700681825e-07   8.682034451766942e-06
-4.911870440034498e-06   -1.4193875317356592e-06   1.1021555517016666e-05
-4.911870440034498e-06   -1.4193875317356592e-06   1.1021555517016666e-05
-4.911870440034498e-06   -1.4193875317356592e-06   1.1021555517016666e-05
-4.911870440034498e-06   -1.4193875317356592e-06   1.1021555517016666e-05
-4.4342187341277125e-06   -4.4607011047566834e-07   9.641478887748912e-06
-4.4342187341277125e-06   -4.4607011047566834e-07   9.641478887748912e-06
-4.4342187341277125e-06   -4.4607011047566834e-07   9.641478887748912e-06
-4.4342187341277125e-06   -4.4607011047566834e-07   9.641478887748912e-06
-4.911870440034471e-06   1.1424811700681825e-07   9.60221584101232e-06
-4.911870440034471e-06   1.1424811700681825e-07   9.60221584101232e-06
-4.911870440034471e-06   1.1424811700681825e-07   9.60221584101232e-06
-4.911870440034471e-06   1.1424811700681825e-07   9.60221584101232e-06
-4.060266634431939e-06   -1.4193875317356592e-06   1.010137412777118e-05
-4.060266634431939e-06   -1.4193875317356592e-06   1.010137412777118e-05
-4.060266634431939e-06   -1.4193875317356592e-06   1.010137412777118e-05
-4.060266634431939e-06   -1.4193875317356592e-06   1.010137412777118e-05
-3.998842288662982e-06   -1.65364843497098e-07   9.172556884312318e-06
-3.998842288662982e-06   -1.65364843497098e-07   9.172556884312318e-06
-3.998842288662982e-06   -1.65364843497098e-07   9.172556884312318e-06
-3.998842288662982e-06   -1.65364843497098e-07   9.172556884312318e-06
-4.821700770648121e-06   -1.6046611229820638e-06   1.1407565455311868e-05
-4.821700770648121e-06   -1.6046611229820638e-06   1.1407565455311868e-05
-4.821700770648121e-06   -1.6046611229820638e-06   1.1407565455311868e-05
-4.821700770648121e-06   -1.6046611229820638e-06   1.1407565455311868e-05
-4.370753895034359e-06   -6.186143530348886e-07   1.0064359267320867e-05
-4.370753895034359e-06   -6.186143530348886e-07   1.0064359267320867e-05
-4.370753895034359e-06   -6.186143530348886e-07   1.0064359267320867e-05
-4.370753895034359e-06   -6.186143530348886e-07   1.0064359267320867e-05
-4.180270544025012e-06   1.183372192803899e-06   2.1316494667026915e-06
-4.180270544025012e-06   1.183372192803899e-06   2.1316494667026915e-06
-4.180270544025012e-06   1.183372192803899e-06   2.1316494667026915e-06
-4.180270544025012e-06   1.183372192803899e-06   2.1316494667026915e-06
-2.454811790590899e-06   -1.190054745592588e-07   4.225987455341569e-06
-2.454811790590899e-06   -1.190054745592588e-07   4.225987455341569e-06
-2.454811790590899e-06   -1.190054745592588e-07   4.225987455341569e-06
-2.454811790590899e-06   -1.190054745592588e-07   4.225987455341569e-06
-2.598196176566343e-06   9.538099776506951e-07   2.1527661861358606e-06
-2.598196176566343e-06   9.538099776506951e-07   2.1527661861358606e-06
-2.598196176566343e-06   9.538099776506951e-07   2.1527661861358606e-06
-2.598196176566343e-06   9.538099776506951e-07   2.1527661861358606e-06
-4.0955176953128545e-06   -1.673150429062323e-07   5.320977063047721e-06
-4.0955176953128545e-06   -1.673150429062323e-07   5.320977063047721e-06
-4.0955176953128545e-06   -1.673150429062323e-07   5.320977063047721e-06
-4.0955176953128545e-06   -1.673150429062323e-07   5.320977063047721e-06
-3.2175022284534525e-06   6.091574296378959e-07   3.3917344680890445e-06
-3.2175022284534525e-06   6.091574296378959e-07   3.3917344680890445e-06
-3.2175022284534525e-06   6.091574296378959e-07   3.3917344680890445e-06
-3.2175022284534525e-06   6.091574296378959e-07   3.3917344680890445e-06
-4.0955176953128545e-06   9.538099776506951e-07   2.825441198469876e-06
-4.0955176953128545e-06   9.538099776506951e-07   2.825441198469876e-06
-4.0955176953128545e-06   9.538099776506951e-07   2.825441198469876e-06
-4.0955176953128545e-06   9.538099776506951e-07   2.825441198469876e-06
-2.598196176566397e-06   -1.673150429062052e-07   4.648302050713597e-06
-2.598196176566397e-06   -1.673150429062052e-07   4.648302050713597e-06
-2.598196176566397e-06   -1.673150429062052e-07   4.648302050713597e-06
-2.598196176566397e-06   -1.673150429062052e-07   4.648302050713597e-06
-2.716534385061747e-06   8.03863740198355e-07   2.78844352906058e-06
-2.716534385061747e-06   8.03863740198355e-07   2.78844352906058e-06
-2.716534385061747e-06   8.03863740198355e-07   2.78844352906058e-06
-2.716534385061747e-06   8.03863740198355e-07   2.78844352906058e-06
-4.060266634431939e-06   -2.3225115619015862e-07   5.6496662158439254e-06
-4.060266634431939e-06   -2.3225115619015862e-07   5.6496662158439254e-06
-4.060266634431939e-06   -2.3225115619015862e-07   5.6496662158439254e-06
-4.060266634431939e-06   -2.3225115619015862e-07   5.6496662158439254e-06
-3.279469970382293e-06   4.9646082940269e-07   3.911111251071937e-06
-3.279469970382293e-06   4.9646082940269e-07   3.911111251071937e-06
-3.279469970382293e-06   4.9646082940269e-07   3.911111251071937e-06
-3.279469970382293e-06   4.9646082940269e-07   3.911111251071937e-06
-4.060266634431939e-06   8.03863740198355e-07   3.4101124668936772e-06
-4.060266634431939e-06   8.03863740198355e-07   3.4101124668936772e-06
-4.060266634431939e-06   8.03863740198355e-07   3.4101124668936772e-06
-4.060266634431939e-06   8.03863740198355e-07   3.4101124668936772e-06
-2.716534385061801e-06   -2.3225115619015862e-07   5.027997278010774e-06
-2.716534385061801e-06   -2.3225115619015862e-07   5.027997278010774e-06
-2.716534385061801e-06   -2.3225115619015862e-07   5.027997278010774e-06
-2.716534385061801e-06   -2.3225115619015862e-07   5.027997278010774e-06
-2.9991053776989743e-06   5.004368244594833e-07   3.925298378159962e-06
-2.9991053776989743e-06   5.004368244594833e-07   3.925298378159962e-06
-2.9991053776989743e-06   5.004368244594833e-07   3.925298378159962e-06
-2.9991053776989743e-06   5.004368244594833e-07   3.925298378159962e-06
-3.998842288662982e-06   -3.1261887731517837e-07   6.079359984164582e-06
-3.998842288662982e-06   -3.1261887731517837e-07   6.079359984164582e-06
-3.998842288662982e-06   -3.1261887731517837e-07   6.079359984164582e-06
-3.998842288662982e-06   -3.1261887731517837e-07   6.079359984164582e-06
-3.2913344668155373e-06   4.193842660231732e-07   4.460978395082584e-06
-3.2913344668155373e-06   4.193842660231732e-07   4.460978395082584e-06
-3.2913344668155373e-06   4.193842660231732e-07   4.460978395082584e-06
-3.2913344668155373e-06   4.193842660231732e-07   4.460978395082584e-06
-3.813788140328499e-05   2.9682129497287627e-06   1.6551113347034325e-05
-3.813788140328499e-05   2.9682129497287627e-06   1.6551113347034325e-05
-3.813788140328499e-05   2.9682129497287627e-06   1.6551113347034325e-05
-3.813788140328499e-05   2.9682129497287627e-06   1.6551113347034325e-05
-8.941850809049266e-06   -1.8891097762112712e-05   5.2095577910322355e-05
-8.941850809049266e-06   -1.8891097762112712e-05   5.2095577910322355e-05
-8.941850809049266e-06   -1.8891097762112712e-05   5.2095577910322355e-05
-8.941850809049266e-06   -1.8891097762112712e-05   5.2095577910322355e-05
-1.051184031263322e-05   1.1864726665812748e-06   9.064523782802755e-06
-1.051184031263322e-05   1.1864726665812748e-06   9.064523782802755e-06
-1.051184031263322e-05   1.1864726665812748e-06   9.064523782802755e-06
-1.051184031263322e-05   1.1864726665812748e-06   9.064523782802755e-06
-3.4783018954574335e-05   -1.4721594212869253e-05   5.906132831370815e-05
-3.4783018954574335e-05   -1.4721594212869253e-05   5.906132831370815e-05
-3.4783018954574335e-05   -1.4721594212869253e-05   5.906132831370815e-05
-3.4783018954574335e-05   -1.4721594212869253e-05   5.906132831370815e-05
-2.3185119193499135e-05   -7.327430896648975e-06   3.5294997388850646e-05
-2.3185119193499135e-05   -7.327430896648975e-06   3.5294997388850646e-05
-2.3185119193499135e-05   -7.327430896648975e-06   3.5294997388850646e-05
-2.3185119193499135e-05   -7.327430896648975e-06   3.5294997388850646e-05
-3.4783018954574274e-05   1.1864726665812748e-06   1.8609363910473015e-05
-3.4783018954574274e-05   1.1864726665812748e-06   1.8609363910473015e-05
-3.4783018954574274e-05   1.1864726665812748e-06   1.8609363910473015e-05
-3.4783018954574274e-05   1.1864726665812748e-06   1.8609363910473015e-05
-1.051184031263324e-05   -1.4721594212869253e-05   4.951648818603784e-05
-1.051184031263324e-05   -1.4721594212869253e-05   4.951648818603784e-05
-1.051184031263324e-05   -1.4721594212869253e-05   4.951648818603784e-05
-1.051184031263324e-05   -1.4721594212869253e-05   4.951648818603784e-05
-1.0757726692142461e-05   8.457193649525035e-07   9.962318636768023e-06
-1.0757726692142461e-05   8.457193649525035e-07   9.962318636768023e-06
-1.0757726692142461e-05   8.457193649525035e-07   9.962318636768023e-06
-1.0757726692142461e-05   8.457193649525035e-07   9.962318636768023e-06
-3.282054759906607e-05   -1.2717632644102678e-05   5.48716980204071e-05
-3.282054759906607e-05   -1.2717632644102678e-05   5.48716980204071e-05
-3.282054759906607e-05   -1.2717632644102678e-05   5.48716980204071e-05
-3.282054759906607e-05   -1.2717632644102678e-05   5.48716980204071e-05
-2.24981064001171e-05   -6.946070665768563e-06   3.420469216849171e-05
-2.24981064001171e-05   -6.946070665768563e-06   3.420469216849171e-05
-2.24981064001171e-05   -6.946070665768563e-06   3.420469216849171e-05
-2.24981064001171e-05   -6.946070665768563e-06   3.420469216849171e-05
-3.282054759906601e-05   8.457193649525035e-07   1.810032984220114e-05
-3.282054759906601e-05   8.457193649525035e-07   1.810032984220114e-05
-3.282054759906601e-05   8.457193649525035e-07   1.810032984220114e-05
-3.282054759906601e-05   8.457193649525035e-07   1.810032984220114e-05
-1.0757726692142475e-05   -1.2717632644102678e-05   4.673368681497399e-05
-1.0757726692142475e-05   -1.2717632644102678e-05   4.673368681497399e-05
-1.0757726692142475e-05   -1.2717632644102678e-05   4.673368681497399e-05
-1.0757726692142475e-05   -1.2717632644102678e-05   4.673368681497399e-05
-1.1800611395168395e-05   -6.067266463920381e-07   1.2467488162200144e-05
-1.1800611395168395e-05   -6.067266463920381e-07   1.2467488162200144e-05
-1.1800611395168395e-05   -6.067266463920381e-07   1.2467488162200144e-05
-1.1800611395168395e-05   -6.067266463920381e-07   1.2467488162200144e-05
-3.0302233317889825e-05   -1.0053091077886947e-05   4.897134335896607e-05
-3.0302233317889825e-05   -1.0053091077886947e-05   4.897134335896607e-05
-3.0302233317889825e-05   -1.0053091077886947e-05   4.897134335896607e-05
-3.0302233317889825e-05   -1.0053091077886947e-05   4.897134335896607e-05
-2.1648493734982647e-05   -6.413665491094355e-06   3.236478870204523e-05
-2.1648493734982647e-05   -6.413665491094355e-06   3.236478870204523e-05
-2.1648493734982647e-05   -6.413665491094355e-06   3.236478870204523e-05
-2.1648493734982647e-05   -6.413665491094355e-06   3.236478870204523e-05
-8.941850809049252e-06   -3.403116581656053e-06   9.435262393992704e-06
-8.941850809049252e-06   -3.403116581656053e-06   9.435262393992704e-06
-8.941850809049252e-06   -3.403116581656053e-06   9.435262393992704e-06
-8.941850809049252e-06   -3.403116581656053e-06   9.435262393992704e-06
-3.10780746345219e-06   -5.926619521512894e-06   1.7644566206073796e-05
-3.10780746345219e-06   -5.926619521512894e-06   1.7644566206073796e-05
-3.10780746345219e-06   -5.926619521512894e-06   1.7644566206073796e-05
-3.10780746345219e-06   -5.926619521512894e-06   1.7644566206073796e-05
-3.481376132289136e-06   -2.7922001323601162e-06   8.378642362789554e-06
-3.481376132289136e-06   -2.7922001323601162e-06   8.378642362789554e-06
-3.481376132289136e-06   -2.7922001323601162e-06   8.378642362789554e-06
-3.481376132289136e-06   -2.7922001323601162e-06   8.378642362789554e-06
-1.051184031263324e-05   -7.82825173567017e-06   2.311771362534896e-05
-1.051184031263324e-05   -7.82825173567017e-06   2.311771362534896e-05
-1.051184031263324e-05   -7.82825173567017e-06   2.311771362534896e-05
-1.051184031263324e-05   -7.82825173567017e-06   2.311771362534896e-05
-6.1710675858364015e-06   -4.090802507546388e-06   1.3640622877146601e-05
-6.1710675858364015e-06   -4.090802507546388e-06   1.3640622877146601e-05
-6.1710675858364015e-06   -4.090802507546388e-06   1.3640622877146601e-05
-6.1710675858364015e-06   -4.090802507546388e-06   1.3640622877146601e-05
-1.0511840312633213e-05   -2.7922001323601162e-06   1.1400273324775444e-05
-1.0511840312633213e-05   -2.7922001323601162e-06   1.1400273324775444e-05
-1.0511840312633213e-05   -2.7922001323601162e-06   1.1400273324775444e-05
-1.0511840312633213e-05   -2.7922001323601162e-06   1.1400273324775444e-05
-3.4813761322891496e-06   -7.82825173567017e-06   2.0096082663362963e-05
-3.4813761322891496e-06   -7.82825173567017e-06   2.0096082663362963e-05
-3.4813761322891496e-06   -7.82825173567017e-06   2.0096082663362963e-05
-3.4813761322891496e-06   -7.82825173567017e-06   2.0096082663362963e-05
-3.8021714350375003e-06   -2.8536281334987275e-06   9.42215059575202e-06
-3.8021714350375003e-06   -2.8536281334987275e-06   9.42215059575202e-06
-3.8021714350375003e-06   -2.8536281334987275e-06   9.42215059575202e-06
-3.8021714350375003e-06   -2.8536281334987275e-06   9.42215059575202e-06
-1.0757726692142475e-05   -7.175817085440161e-06   2.3608056062091738e-05
-1.0757726692142475e-05   -7.175817085440161e-06   2.3608056062091738e-05
-1.0757726692142475e-05   -7.175817085440161e-06   2.3608056062091738e-05
-1.0757726692142475e-05   -7.175817085440161e-06   2.3608056062091738e-05
-6.9695207141412465e-06   -4.9921418507103456e-06   1.5984174291251924e-05
-6.9695207141412465e-06   -4.9921418507103456e-06   1.5984174291251924e-05
-6.9695207141412465e-06   -4.9921418507103456e-06   1.5984174291251924e-05
-6.9695207141412465e-06   -4.9921418507103456e-06   1.5984174291251924e-05
-1.0757726692142461e-05   -2.8536281334987275e-06   1.2015463966916874e-05
-1.0757726692142461e-05   -2.8536281334987275e-06   1.2015463966916874e-05
-1.0757726692142461e-05   -2.8536281334987275e-06   1.2015463966916874e-05
-1.0757726692142461e-05   -2.8536281334987275e-06   1.2015463966916874e-05
-3.802171435037514e-06   -7.175817085440161e-06   2.1014742690926878e-05
-3.802171435037514e-06   -7.175817085440161e-06   2.1014742690926878e-05
-3.802171435037514e-06   -7.175817085440161e-06   2.1014742690926878e-05
-3.802171435037514e-06   -7.175817085440161e-06   2.1014742690926878e-05
-4.325611892570341e-06   -2.8742417127011646e-06   1.0315632236744754e-05
-4.325611892570341e-06   -2.8742417127011646e-06   1.0315632236744754e-05
-4.325611892570341e-06   -2.8742417127011646e-06   1.0315632236744754e-05
-4.325611892570341e-06   -2.8742417127011646e-06   1.0315632236744754e-05
-1.1800611395168402e-05   -6.762573854429445e-06   2.510696402611174e-05
-1.1800611395168402e-05   -6.762573854429445e-06   2.510696402611174e-05
-1.1800611395168402e-05   -6.762573854429445e-06   2.510696402611174e-05
-1.1800611395168402e-05   -6.762573854429445e-06   2.510696402611174e-05
-7.441184121392014e-06   -4.5595868398111015e-06   1.6519459694380105e-05
-7.441184121392014e-06   -4.5595868398111015e-06   1.6519459694380105e-05
-7.441184121392014e-06   -4.5595868398111015e-06   1.6519459694380105e-05
-7.441184121392014e-06   -4.5595868398111015e-06   1.6519459694380105e-05
-3.10780746345219e-06   -2.6591185998116015e-06   5.1088557773765946e-06
-3.10780746345219e-06   -2.6591185998116015e-06   5.1088557773765946e-06
-3.10780746345219e-06   -2.6591185998116015e-06   5.1088557773765946e-06
-3.10780746345219e-06   -2.6591185998116015e-06   5.1088557773765946e-06
-1.738260040404048e-06   -1.695610887955696e-06   7.969539442903681e-06
-1.738260040404048e-06   -1.695610887955696e-06   7.969539442903681e-06
-1.738260040404048e-06   -1.695610887955696e-06   7.969539442903681e-06
-1.738260040404048e-06   -1.695610887955696e-06   7.969539442903681e-06
-1.675843327150978e-06   -2.611590994601909e-06   5.840090835174897e-06
-1.675843327150978e-06   -2.611590994601909e-06   5.840090835174897e-06
-1.675843327150978e-06   -2.611590994601909e-06   5.840090835174897e-06
-1.675843327150978e-06   -2.611590994601909e-06   5.840090835174897e-06
-3.4813761322891496e-06   -2.2064071036299636e-06   8.606201842488665e-06
-3.4813761322891496e-06   -2.2064071036299636e-06   8.606201842488665e-06
-3.4813761322891496e-06   -2.2064071036299636e-06   8.606201842488665e-06
-3.4813761322891496e-06   -2.2064071036299636e-06   8.606201842488665e-06
-2.3420866133174896e-06   -2.1641555323306685e-06   6.6820350347562255e-06
-2.3420866133174896e-06   -2.1641555323306685e-06   6.6820350347562255e-06
-2.3420866133174896e-06   -2.1641555323306685e-06   6.6820350347562255e-06
-2.3420866133174896e-06   -2.1641555323306685e-06   6.6820350347562255e-06
-3.481376132289136e-06   -2.611590994601882e-06   5.596980500591816e-06
-3.481376132289136e-06   -2.611590994601882e-06   5.596980500591816e-06
-3.481376132289136e-06   -2.611590994601882e-06   5.596980500591816e-06
-3.481376132289136e-06   -2.611590994601882e-06   5.596980500591816e-06
-1.675843327150978e-06   -2.2064071036299636e-06   8.8493121770718e-06
-1.675843327150978e-06   -2.2064071036299636e-06   8.8493121770718e-06
-1.675843327150978e-06   -2.2064071036299636e-06   8.8493121770718e-06
-1.675843327150978e-06   -2.2064071036299636e-06   8.8493121770718e-06
-1.6840679848689072e-06   -2.690239403762266e-06   6.247712324201709e-06
-1.6840679848689072e-06   -2.690239403762266e-06   6.247712324201709e-06
-1.6840679848689072e-06   -2.690239403762266e-06   6.247712324201709e-06
-1.6840679848689072e-06   -2.690239403762266e-06   6.247712324201709e-06
-3.802171435037514e-06   -2.8177885604618087e-06   9.854414235169011e-06
-3.802171435037514e-06   -2.8177885604618087e-06   9.854414235169011e-06
-3.802171435037514e-06   -2.8177885604618087e-06   9.854414235169011e-06
-3.802171435037514e-06   -2.8177885604618087e-06   9.854414235169011e-06
-2.4901109734848078e-06   -2.3658916936577633e-06   7.3965086791654485e-06
-2.4901109734848078e-06   -2.3658916936577633e-06   7.3965086791654485e-06
-2.4901109734848078e-06   -2.3658916936577633e-06   7.3965086791654485e-06
-2.4901109734848078e-06   -2.3658916936577633e-06   7.3965086791654485e-06
-3.8021714350375003e-06   -2.690239403762266e-06   6.3242418182213875e-06
-3.8021714350375003e-06   -2.690239403762266e-06   6.3242418182213875e-06
-3.8021714350375003e-06   -2.690239403762266e-06   6.3242418182213875e-06
-3.8021714350375003e-06   -2.690239403762266e-06   6.3242418182213875e-06
-1.6840679848689072e-06   -2.8177885604618087e-06   9.777884741149305e-06
-1.6840679848689072e-06   -2.8177885604618087e-06   9.777884741149305e-06
-1.6840679848689072e-06   -2.8177885604618087e-06   9.777884741149305e-06
-1.6840679848689072e-06   -2.8177885604618087e-06   9.777884741149305e-06
-1.7194185549113399e-06   -2.799866794747115e-06   6.859749400128985e-06
-1.7194185549113399e-06   -2.799866794747115e-06   6.859749400128985e-06
-1.7194185549113399e-06   -2.799866794747115e-06   6.859749400128985e-06
-1.7194185549113399e-06   -2.799866794747115e-06   6.859749400128985e-06
-4.325611892570341e-06   -3.3980124007817534e-06   1.1562292326514593e-05
-4.325611892570341e-06   -3.3980124007817534e-06   1.1562292326514593e-05
-4.325611892570341e-06   -3.3980124007817534e-06   1.1562292326514593e-05
-4.325611892570341e-06   -3.3980124007817534e-06   1.1562292326514593e-05
-2.6600358326493866e-06   -2.5786833430124258e-06   8.294734791984798e-06
-2.6600358326493866e-06   -2.5786833430124258e-06   8.294734791984798e-06
-2.6600358326493866e-06   -2.5786833430124258e-06   8.294734791984798e-06
-2.6600358326493866e-06   -2.5786833430124258e-06   8.294734791984798e-06
-1.738260040404048e-06   -1.0931891249167072e-06   1.498918539599882e-06
-1.738260040404048e-06   -1.0931891249167072e-06   1.498918539599882e-06
-1.738260040404048e-06   -1.0931891249167072e-06   1.498918539599882e-06
-1.738260040404048e-06   -1.0931891249167072e-06   1.498918539599882e-06
-1.3010430355273376e-06   2.463024930406806e-07   3.0313085185021058e-06
-1.3010430355273376e-06   2.463024930406806e-07   3.0313085185021058e-06
-1.3010430355273376e-06   2.463024930406806e-07   3.0313085185021058e-06
-1.3010430355273376e-06   2.463024930406806e-07   3.0313085185021058e-06
-1.0573510707159554e-06   -1.2777511753030255e-06   2.435807548145663e-06
-1.0573510707159554e-06   -1.2777511753030255e-06   2.435807548145663e-06
-1.0573510707159554e-06   -1.2777511753030255e-06   2.435807548145663e-06
-1.0573510707159554e-06   -1.2777511753030255e-06   2.435807548145663e-06
-1.675843327150978e-06   5.965262826251852e-08   2.664185693397982e-06
-1.675843327150978e-06   5.965262826251852e-08   2.664185693397982e-06
-1.675843327150978e-06   5.965262826251852e-08   2.664185693397982e-06
-1.675843327150978e-06   5.965262826251852e-08   2.664185693397982e-06
-1.3536718848593932e-06   -5.273228393789587e-07   2.4794185701634483e-06
-1.3536718848593932e-06   -5.273228393789587e-07   2.4794185701634483e-06
-1.3536718848593932e-06   -5.273228393789587e-07   2.4794185701634483e-06
-1.3536718848593932e-06   -5.273228393789587e-07   2.4794185701634483e-06
-1.675843327150978e-06   -1.2777511753030255e-06   1.633365266006287e-06
-1.675843327150978e-06   -1.2777511753030255e-06   1.633365266006287e-06
-1.675843327150978e-06   -1.2777511753030255e-06   1.633365266006287e-06
-1.675843327150978e-06   -1.2777511753030255e-06   1.633365266006287e-06
-1.0573510707159554e-06   5.965262826251852e-08   3.466627975537331e-06
-1.0573510707159554e-06   5.965262826251852e-08   3.466627975537331e-06
-1.0573510707159554e-06   5.965262826251852e-08   3.466627975537331e-06
-1.0573510707159554e-06   5.965262826251852e-08   3.466627975537331e-06
-9.256230079059883e-07   -1.4193875317356592e-06   2.6763391550006462e-06
-9.256230079059883e-07   -1.4193875317356592e-06   2.6763391550006462e-06
-9.256230079059883e-07   -1.4193875317356592e-06   2.6763391550006462e-06
-9.256230079059883e-07   -1.4193875317356592e-06   2.6763391550006462e-06
-1.6840679848689072e-06   -2.3193491207709171e-07   3.2279425448103905e-06
-1.6840679848689072e-06   -2.3193491207709171e-07   3.2279425448103905e-06
-1.6840679848689072e-06   -2.3193491207709171e-07   3.2279425448103905e-06
-1.6840679848689072e-06   -2.3193491207709171e-07   3.2279425448103905e-06
-1.231257833982506e-06   -6.724114836516868e-07   2.737544902944541e-06
-1.231257833982506e-06   -6.724114836516868e-07   2.737544902944541e-06
-1.231257833982506e-06   -6.724114836516868e-07   2.737544902944541e-06
-1.231257833982506e-06   -6.724114836516868e-07   2.737544902944541e-06
-1.6840679848689072e-06   -1.4193875317356592e-06   1.9638675832054264e-06
-1.6840679848689072e-06   -1.4193875317356592e-06   1.9638675832054264e-06
-1.6840679848689072e-06   -1.4193875317356592e-06   1.9638675832054264e-06
-1.6840679848689072e-06   -1.4193875317356592e-06   1.9638675832054264e-06
-9.256230079059883e-07   -2.3193491207709171e-07   3.940414116605448e-06
-9.256230079059883e-07   -2.3193491207709171e-07   3.940414116605448e-06
-9.256230079059883e-07   -2.3193491207709171e-07   3.940414116605448e-06
-9.256230079059883e-07   -2.3193491207709171e-07   3.940414116605448e-06
-7.238552763949536e-07   -1.604661122982091e-06   2.9416763187010324e-06
-7.238552763949536e-07   -1.604661122982091e-06   2.9416763187010324e-06
-7.238552763949536e-07   -1.604661122982091e-06   2.9416763187010324e-06
-7.238552763949536e-07   -1.604661122982091e-06   2.9416763187010324e-06
-1.7194185549113399e-06   -8.254341635934873e-07   4.133412273928452e-06
-1.7194185549113399e-06   -8.254341635934873e-07   4.133412273928452e-06
-1.7194185549113399e-06   -8.254341635934873e-07   4.133412273928452e-06
-1.7194185549113399e-06   -8.254341635934873e-07   4.133412273928452e-06
-1.1337318231262458e-06   -8.922665130725474e-07   3.1973671306409143e-06
-1.1337318231262458e-06   -8.922665130725474e-07   3.1973671306409143e-06
-1.1337318231262458e-06   -8.922665130725474e-07   3.1973671306409143e-06
-1.1337318231262458e-06   -8.922665130725474e-07   3.1973671306409143e-06
-1.3010430355273376e-06   -1.1900547455923169e-07   -2.12847755278172e-06
-1.3010430355273376e-06   -1.1900547455923169e-07   -2.12847755278172e-06
-1.3010430355273376e-06   -1.1900547455923169e-07   -2.12847755278172e-06
-1.3010430355273376e-06   -1.1900547455923169e-07   -2.12847755278172e-06
-2.528030170058197e-07   1.819524185421283e-07   -2.0083611938499606e-07
-2.528030170058197e-07   1.819524185421283e-07   -2.0083611938499606e-07
-2.528030170058197e-07   1.819524185421283e-07   -2.0083611938499606e-07
-2.528030170058197e-07   1.819524185421283e-07   -2.0083611938499606e-07
-1.3901009140765593e-08   -1.673150429062323e-07   -1.6619572268294002e-06
-1.3901009140765593e-08   -1.673150429062323e-07   -1.6619572268294002e-06
-1.3901009140765593e-08   -1.673150429062323e-07   -1.6619572268294002e-06
-1.3901009140765593e-08   -1.673150429062323e-07   -1.6619572268294002e-06
-1.0573510707159554e-06   3.1306852740704453e-07   -2.1110393305895196e-07
-1.0573510707159554e-06   3.1306852740704453e-07   -2.1110393305895196e-07
-1.0573510707159554e-06   3.1306852740704453e-07   -2.1110393305895196e-07
-1.0573510707159554e-06   3.1306852740704453e-07   -2.1110393305895196e-07
-5.998095078356273e-07   8.543302817609817e-08   -8.370919049878033e-07
-5.998095078356273e-07   8.543302817609817e-08   -8.370919049878033e-07
-5.998095078356273e-07   8.543302817609817e-08   -8.370919049878033e-07
-5.998095078356273e-07   8.543302817609817e-08   -8.370919049878033e-07
-1.0573510707159012e-06   -1.673150429062052e-07   -1.9501873690175385e-06
-1.0573510707159012e-06   -1.673150429062052e-07   -1.9501873690175385e-06
-1.0573510707159012e-06   -1.673150429062052e-07   -1.9501873690175385e-06
-1.0573510707159012e-06   -1.673150429062052e-07   -1.9501873690175385e-06
-1.3901009140765593e-08   3.1306852740704453e-07   7.712620912905073e-08
-1.3901009140765593e-08   3.1306852740704453e-07   7.712620912905073e-08
-1.3901009140765593e-08   3.1306852740704453e-07   7.712620912905073e-08
-1.3901009140765593e-08   3.1306852740704453e-07   7.712620912905073e-08
1.0915210231612947e-07   -2.3225115619013152e-07   -1.4780956696007833e-06
1.0915210231612947e-07   -2.3225115619013152e-07   -1.4780956696007833e-06
1.0915210231612947e-07   -2.3225115619013152e-07   -1.4780956696007833e-06
1.0915210231612947e-07   -2.3225115619013152e-07   -1.4780956696007833e-06
-9.256230079059883e-07   2.632039893527776e-07   -5.074357322325902e-08
-9.256230079059883e-07   2.632039893527776e-07   -5.074357322325902e-08
-9.256230079059883e-07   2.632039893527776e-07   -5.074357322325902e-08
-9.256230079059883e-07   2.632039893527776e-07   -5.074357322325902e-08
-4.243380490830649e-07   5.540044130817657e-08   -7.615363757675878e-07
-4.243380490830649e-07   5.540044130817657e-08   -7.615363757675878e-07
-4.243380490830649e-07   5.540044130817657e-08   -7.615363757675878e-07
-4.243380490830649e-07   5.540044130817657e-08   -7.615363757675878e-07
-9.256230079059883e-07   -2.3225115619015862e-07   -1.7753687569265267e-06
-9.256230079059883e-07   -2.3225115619015862e-07   -1.7753687569265267e-06
-9.256230079059883e-07   -2.3225115619015862e-07   -1.7753687569265267e-06
-9.256230079059883e-07   -2.3225115619015862e-07   -1.7753687569265267e-06
1.0915210231612947e-07   2.632039893527776e-07   2.4652951410251154e-07
1.0915210231612947e-07   2.632039893527776e-07   2.4652951410251154e-07
1.0915210231612947e-07   2.632039893527776e-07   2.4652951410251154e-07
1.0915210231612947e-07   2.632039893527776e-07   2.4652951410251154e-07
2.608992376461794e-07   -3.1261887731517837e-07   -1.2055224499325995e-06
2.608992376461794e-07   -3.1261887731517837e-07   -1.2055224499325995e-06
2.608992376461794e-07   -3.1261887731517837e-07   -1.2055224499325995e-06
2.608992376461794e-07   -3.1261887731517837e-07   -1.2055224499325995e-06
-7.238552763949536e-07   2.1642934738938698e-07   1.1830613864645748e-07
-7.238552763949536e-07   2.1642934738938698e-07   1.1830613864645748e-07
-7.238552763949536e-07   2.1642934738938698e-07   1.1830613864645748e-07
-7.238552763949536e-07   2.1642934738938698e-07   1.1830613864645748e-07
-2.6600801508310456e-07   1.812060005664624e-08   -5.25787381807025e-07
-2.6600801508310456e-07   1.812060005664624e-08   -5.25787381807025e-07
-2.6600801508310456e-07   1.812060005664624e-08   -5.25787381807025e-07
-2.6600801508310456e-07   1.812060005664624e-08   -5.25787381807025e-07
              </DataArray>   
             <DataArray type="Float64" NumberOfComponents="3" Name="Stress" format="ascii">   
-1.9835258730791523   -0.4958814682697881   -0.4958814682697881
-1.9835258730791523   -0.4958814682697881   -0.4958814682697881
-1.9835258730791523   -0.4958814682697881   -0.4958814682697881
-1.9835258730791523   -0.4958814682697881   -0.4958814682697881
-1.1476733721818955   -0.03672996063996389   -0.023154986774510423
-1.1476733721818955   -0.03672996063996389   -0.023154986774510423
-1.1476733721818955   -0.03672996063996389   -0.023154986774510423
-1.1476733721818955   -0.03672996063996389   -0.023154986774510423
-1.2367449521462983   -0.3091862380365746   -0.3091862380365746
-1.2367449521462983   -0.3091862380365746   -0.3091862380365746
-1.2367449521462983   -0.3091862380365746   -0.3091862380365746
-1.2367449521462983   -0.3091862380365746   -0.3091862380365746
-1.9115652180100422   -0.15727131204014422   -0.06023658549705177
-1.9115652180100422   -0.15727131204014422   -0.06023658549705177
-1.9115652180100422   -0.15727131204014422   -0.06023658549705177
-1.9115652180100422   -0.15727131204014422   -0.06023658549705177
-1.4991434098191645   -0.24594795697570218   -0.004159735362868558
-1.4991434098191645   -0.24594795697570218   -0.004159735362868558
-1.4991434098191645   -0.24594795697570218   -0.004159735362868558
-1.4991434098191645   -0.24594795697570218   -0.004159735362868558
-2.0756262650028954   -0.5189065662507238   -0.5189065662507238
-2.0756262650028954   -0.5189065662507238   -0.5189065662507238
-2.0756262650028954   -0.5189065662507238   -0.5189065662507238
-2.0756262650028954   -0.5189065662507238   -0.5189065662507238
-1.1116211631379465   0.013511758189506423   -0.006265289220896281
-1.1116211631379465   0.013511758189506423   -0.006265289220896281
-1.1116211631379465   0.013511758189506423   -0.006265289220896281
-1.1116211631379465   0.013511758189506423   -0.006265289220896281
-1.2400339155597975   -0.31000847888994937   -0.31000847888994937
-1.2400339155597975   -0.31000847888994937   -0.31000847888994937
-1.2400339155597975   -0.31000847888994937   -0.31000847888994937
-1.2400339155597975   -0.31000847888994937   -0.31000847888994937
-1.9755859167618754   -0.15871737246310386   -0.08823945663276062
-1.9755859167618754   -0.15871737246310386   -0.08823945663276062
-1.9755859167618754   -0.15871737246310386   -0.08823945663276062
-1.9755859167618754   -0.15871737246310386   -0.08823945663276062
-1.5548446593590077   -0.23149202690099874   -0.08249586362799351
-1.5548446593590077   -0.23149202690099874   -0.08249586362799351
-1.5548446593590077   -0.23149202690099874   -0.08249586362799351
-1.5548446593590077   -0.23149202690099874   -0.08249586362799351
-2.140216167714118   -0.5350540419285295   -0.5350540419285295
-2.140216167714118   -0.5350540419285295   -0.5350540419285295
-2.140216167714118   -0.5350540419285295   -0.5350540419285295
-2.140216167714118   -0.5350540419285295   -0.5350540419285295
-1.108204775808502   0.0335270793745327   0.005601661602045213
-1.108204775808502   0.0335270793745327   0.005601661602045213
-1.108204775808502   0.0335270793745327   0.005601661602045213
-1.108204775808502   0.0335270793745327   0.005601661602045213
-1.2391579373226966   -0.30978948433067416   -0.30978948433067416
-1.2391579373226966   -0.30978948433067416   -0.30978948433067416
-1.2391579373226966   -0.30978948433067416   -0.30978948433067416
-1.2391579373226966   -0.30978948433067416   -0.30978948433067416
-2.090025101978143   -0.13906897210366342   -0.05304564983427523
-2.090025101978143   -0.13906897210366342   -0.05304564983427523
-2.090025101978143   -0.13906897210366342   -0.05304564983427523
-2.090025101978143   -0.13906897210366342   -0.05304564983427523
-1.5960952154747532   -0.22782897617358774   -0.14905536486735885
-1.5960952154747532   -0.22782897617358774   -0.14905536486735885
-1.5960952154747532   -0.22782897617358774   -0.14905536486735885
-1.5960952154747532   -0.22782897617358774   -0.14905536486735885
-1.2618848696655585   -0.3154712174163896   -0.3154712174163896
-1.2618848696655585   -0.3154712174163896   -0.3154712174163896
-1.2618848696655585   -0.3154712174163896   -0.3154712174163896
-1.2618848696655585   -0.3154712174163896   -0.3154712174163896
-0.5267572404837717   -0.0352924280248266   -0.011447467896565665
-0.5267572404837717   -0.0352924280248266   -0.011447467896565665
-0.5267572404837717   -0.0352924280248266   -0.011447467896565665
-0.5267572404837717   -0.0352924280248266   -0.011447467896565665
-0.5527360649632642   -0.13818401624081605   -0.13818401624081605
-0.5527360649632642   -0.13818401624081605   -0.13818401624081605
-0.5527360649632642   -0.13818401624081605   -0.13818401624081605
-0.5527360649632642   -0.13818401624081605   -0.13818401624081605
-1.1487351302546942   -0.13525168362837683   -0.04307168298675241
-1.1487351302546942   -0.13525168362837683   -0.04307168298675241
-1.1487351302546942   -0.13525168362837683   -0.04307168298675241
-1.1487351302546942   -0.13525168362837683   -0.04307168298675241
-0.8473836875776539   -0.16060945709601168   0.006588122122586148
-0.8473836875776539   -0.16060945709601168   0.006588122122586148
-0.8473836875776539   -0.16060945709601168   0.006588122122586148
-0.8473836875776539   -0.16060945709601168   0.006588122122586148
-1.2367449521462974   -0.30918623803657436   -0.30918623803657436
-1.2367449521462974   -0.30918623803657436   -0.30918623803657436
-1.2367449521462974   -0.30918623803657436   -0.30918623803657436
-1.2367449521462974   -0.30918623803657436   -0.30918623803657436
-0.4967984939248626   0.0036782873141793515   -0.00035846460380316997
-0.4967984939248626   0.0036782873141793515   -0.00035846460380316997
-0.4967984939248626   0.0036782873141793515   -0.00035846460380316997
-0.4967984939248626   0.0036782873141793515   -0.00035846460380316997
-0.540207282012567   -0.13505182050314174   -0.13505182050314174
-0.540207282012567   -0.13505182050314174   -0.13505182050314174
-0.540207282012567   -0.13505182050314174   -0.13505182050314174
-0.540207282012567   -0.13505182050314174   -0.13505182050314174
-1.1456534567737544   -0.11028380355310352   -0.037830860296579866
-1.1456534567737544   -0.11028380355310352   -0.037830860296579866
-1.1456534567737544   -0.11028380355310352   -0.037830860296579866
-1.1456534567737544   -0.11028380355310352   -0.037830860296579866
-0.8353942329633752   -0.13517207574026407   -0.043656562219172565
-0.8353942329633752   -0.13517207574026407   -0.043656562219172565
-0.8353942329633752   -0.13517207574026407   -0.043656562219172565
-0.8353942329633752   -0.13517207574026407   -0.043656562219172565
-1.2400339155597975   -0.31000847888994937   -0.31000847888994937
-1.2400339155597975   -0.31000847888994937   -0.31000847888994937
-1.2400339155597975   -0.31000847888994937   -0.31000847888994937
-1.2400339155597975   -0.31000847888994937   -0.31000847888994937
-0.47689091158967967   0.03360876647054831   0.012869444637604699
-0.47689091158967967   0.03360876647054831   0.012869444637604699
-0.47689091158967967   0.03360876647054831   0.012869444637604699
-0.47689091158967967   0.03360876647054831   0.012869444637604699
-0.5287659905490971   -0.13219149763727428   -0.13219149763727428
-0.5287659905490971   -0.13219149763727428   -0.13219149763727428
-0.5287659905490971   -0.13219149763727428   -0.13219149763727428
-0.5287659905490971   -0.13219149763727428   -0.13219149763727428
-1.1370257135359196   -0.08504158992427652   -0.023876259803200593
-1.1370257135359196   -0.08504158992427652   -0.023876259803200593
-1.1370257135359196   -0.08504158992427652   -0.023876259803200593
-1.1370257135359196   -0.08504158992427652   -0.023876259803200593
-0.839319944269288   -0.11956440351287224   -0.09723552908855687
-0.839319944269288   -0.11956440351287224   -0.09723552908855687
-0.839319944269288   -0.11956440351287224   -0.09723552908855687
-0.839319944269288   -0.11956440351287224   -0.09723552908855687
-0.5748991792216601   -0.14372479480541503   -0.14372479480541503
-0.5748991792216601   -0.14372479480541503   -0.14372479480541503
-0.5748991792216601   -0.14372479480541503   -0.14372479480541503
-0.5748991792216601   -0.14372479480541503   -0.14372479480541503
0.06757782405395205   0.004311672911573559   0.0005626968800747159
0.06757782405395205   0.004311672911573559   0.0005626968800747159
0.06757782405395205   0.004311672911573559   0.0005626968800747159
0.06757782405395205   0.004311672911573559   0.0005626968800747159
0.0882421474070972   0.0220605368517743   0.0220605368517743
0.0882421474070972   0.0220605368517743   0.0220605368517743
0.0882421474070972   0.0220605368517743   0.0220605368517743
0.0882421474070972   0.0220605368517743   0.0220605368517743
-0.5196073978029705   -0.08980473577060262   -0.020919960909560432
-0.5196073978029705   -0.08980473577060262   -0.020919960909560432
-0.5196073978029705   -0.08980473577060262   -0.020919960909560432
-0.5196073978029705   -0.08980473577060262   -0.020919960909560432
-0.22276478511277686   -0.056496925552871724   0.037651321571751335
-0.22276478511277686   -0.056496925552871724   0.037651321571751335
-0.22276478511277686   -0.056496925552871724   0.037651321571751335
-0.22276478511277686   -0.056496925552871724   0.037651321571751335
-0.5527360649632642   -0.13818401624081605   -0.13818401624081605
-0.5527360649632642   -0.13818401624081605   -0.13818401624081605
-0.5527360649632642   -0.13818401624081605   -0.13818401624081605
-0.5527360649632642   -0.13818401624081605   -0.13818401624081605
0.08984480150299007   0.03891380425758684   0.013220539925425451
0.08984480150299007   0.03891380425758684   0.013220539925425451
0.08984480150299007   0.03891380425758684   0.013220539925425451
0.08984480150299007   0.03891380425758684   0.013220539925425451
0.09950665214170147   0.024876663035425368   0.024876663035425368
0.09950665214170147   0.024876663035425368   0.024876663035425368
0.09950665214170147   0.024876663035425368   0.024876663035425368
0.09950665214170147   0.024876663035425368   0.024876663035425368
-0.5010706201334814   -0.06039315358541405   -0.014027178025445826
-0.5010706201334814   -0.06039315358541405   -0.014027178025445826
-0.5010706201334814   -0.06039315358541405   -0.014027178025445826
-0.5010706201334814   -0.06039315358541405   -0.014027178025445826
-0.21351657113343844   -0.03489183565078984   -0.012924841167886407
-0.21351657113343844   -0.03489183565078984   -0.012924841167886407
-0.21351657113343844   -0.03489183565078984   -0.012924841167886407
-0.21351657113343844   -0.03489183565078984   -0.012924841167886407
-0.540207282012567   -0.13505182050314174   -0.13505182050314174
-0.540207282012567   -0.13505182050314174   -0.13505182050314174
-0.540207282012567   -0.13505182050314174   -0.13505182050314174
-0.540207282012567   -0.13505182050314174   -0.13505182050314174
0.10775229018889385   0.0686443061212603   0.02233721018555158
0.10775229018889385   0.0686443061212603   0.02233721018555158
0.10775229018889385   0.0686443061212603   0.02233721018555158
0.10775229018889385   0.0686443061212603   0.02233721018555158
0.11459707891226674   0.028649269728066685   0.028649269728066685
0.11459707891226674   0.028649269728066685   0.028649269728066685
0.11459707891226674   0.028649269728066685   0.028649269728066685
0.11459707891226674   0.028649269728066685   0.028649269728066685
-0.4809001674123744   -0.02533309980824419   0.00027922021730705446
-0.4809001674123744   -0.02533309980824419   0.00027922021730705446
-0.4809001674123744   -0.02533309980824419   0.00027922021730705446
-0.4809001674123744   -0.02533309980824419   0.00027922021730705446
-0.20694712840149615   -0.014063547202550812   -0.06304913782925656
-0.20694712840149615   -0.014063547202550812   -0.06304913782925656
-0.20694712840149615   -0.014063547202550812   -0.06304913782925656
-0.20694712840149615   -0.014063547202550812   -0.06304913782925656
0.07400327788402501   0.018500819471006253   0.018500819471006253
0.07400327788402501   0.018500819471006253   0.018500819471006253
0.07400327788402501   0.018500819471006253   0.018500819471006253
0.07400327788402501   0.018500819471006253   0.018500819471006253
0.7183304933121994   0.06593335619611326   0.022260870092872677
0.7183304933121994   0.06593335619611326   0.022260870092872677
0.7183304933121994   0.06593335619611326   0.022260870092872677
0.7183304933121994   0.06593335619611326   0.022260870092872677
0.7801685902318408   0.1950421475579602   0.1950421475579602
0.7801685902318408   0.1950421475579602   0.1950421475579602
0.7801685902318408   0.1950421475579602   0.1950421475579602
0.7801685902318408   0.1950421475579602   0.1950421475579602
0.06720845236768681   -0.050561574545009674   -0.010485826948494977
0.06720845236768681   -0.050561574545009674   -0.010485826948494977
0.06720845236768681   -0.050561574545009674   -0.010485826948494977
0.06720845236768681   -0.050561574545009674   -0.010485826948494977
0.40944204044509963   0.05098670071708756   0.0743367982477123
0.40944204044509963   0.05098670071708756   0.0743367982477123
0.40944204044509963   0.05098670071708756   0.0743367982477123
0.40944204044509963   0.05098670071708756   0.0743367982477123
0.0882421474070975   0.022060536851774375   0.022060536851774375
0.0882421474070975   0.022060536851774375   0.022060536851774375
0.0882421474070975   0.022060536851774375   0.022060536851774375
0.0882421474070975   0.022060536851774375   0.022060536851774375
0.7270845962735637   0.09036973724230969   0.034294588082224936
0.7270845962735637   0.09036973724230969   0.034294588082224936
0.7270845962735637   0.09036973724230969   0.034294588082224936
0.7270845962735637   0.09036973724230969   0.034294588082224936
0.7770322834393508   0.1942580708598377   0.1942580708598377
0.7770322834393508   0.1942580708598377   0.1942580708598377
0.7770322834393508   0.1942580708598377   0.1942580708598377
0.7770322834393508   0.1942580708598377   0.1942580708598377
0.0852283430977031   -0.02179392211832718   0.0001557029691852535
0.0852283430977031   -0.02179392211832718   0.0001557029691852535
0.0852283430977031   -0.02179392211832718   0.0001557029691852535
0.0852283430977031   -0.02179392211832718   0.0001557029691852535
0.4066292224007202   0.0669935717980277   0.019285070801064653
0.4066292224007202   0.0669935717980277   0.019285070801064653
0.4066292224007202   0.0669935717980277   0.019285070801064653
0.4066292224007202   0.0669935717980277   0.019285070801064653
0.09950665214170155   0.02487666303542539   0.02487666303542539
0.09950665214170155   0.02487666303542539   0.02487666303542539
0.09950665214170155   0.02487666303542539   0.02487666303542539
0.09950665214170155   0.02487666303542539   0.02487666303542539
0.7310128528037494   0.11584636411448221   0.04257262442718593
0.7310128528037494   0.11584636411448221   0.04257262442718593
0.7310128528037494   0.11584636411448221   0.04257262442718593
0.7310128528037494   0.11584636411448221   0.04257262442718593
0.7922780789120214   0.19806951972800535   0.19806951972800535
0.7922780789120214   0.19806951972800535   0.19806951972800535
0.7922780789120214   0.19806951972800535   0.19806951972800535
0.7922780789120214   0.19806951972800535   0.19806951972800535
0.10879994162570701   0.01624581147889303   0.012067041544440759
0.10879994162570701   0.01624581147889303   0.012067041544440759
0.10879994162570701   0.01624581147889303   0.012067041544440759
0.10879994162570701   0.01624581147889303   0.012067041544440759
0.4131382553988821   0.09093457328944105   -0.03175894116590562
0.4131382553988821   0.09093457328944105   -0.03175894116590562
0.4131382553988821   0.09093457328944105   -0.03175894116590562
0.4131382553988821   0.09093457328944105   -0.03175894116590562
0.7785462756160025   0.19463656890400063   0.19463656890400063
0.7785462756160025   0.19463656890400063   0.19463656890400063
0.7785462756160025   0.19463656890400063   0.19463656890400063
0.7785462756160025   0.19463656890400063   0.19463656890400063
1.616200882286806   0.12326245619987292   0.0425236042324085
1.616200882286806   0.12326245619987292   0.0425236042324085
1.616200882286806   0.12326245619987292   0.0425236042324085
1.616200882286806   0.12326245619987292   0.0425236042324085
1.65223513566799   0.4130587839169975   0.4130587839169975
1.65223513566799   0.4130587839169975   0.4130587839169975
1.65223513566799   0.4130587839169975   0.4130587839169975
1.65223513566799   0.4130587839169975   0.4130587839169975
0.6935396510039559   -0.0393136928462548   -0.003746708177249758
0.6935396510039559   -0.0393136928462548   -0.003746708177249758
0.6935396510039559   -0.0393136928462548   -0.003746708177249758
0.6935396510039559   -0.0393136928462548   -0.003746708177249758
1.1524928517902264   0.16318919798804404   0.130016885574105
1.1524928517902264   0.16318919798804404   0.130016885574105
1.1524928517902264   0.16318919798804404   0.130016885574105
1.1524928517902264   0.16318919798804404   0.130016885574105
0.7801685902318402   0.19504214755796004   0.19504214755796004
0.7801685902318402   0.19504214755796004   0.19504214755796004
0.7801685902318402   0.19504214755796004   0.19504214755796004
0.7801685902318402   0.19504214755796004   0.19504214755796004
1.531245098878326   0.1443418459510085   0.07682553793469246
1.531245098878326   0.1443418459510085   0.07682553793469246
1.531245098878326   0.1443418459510085   0.07682553793469246
1.531245098878326   0.1443418459510085   0.07682553793469246
1.6031230653770763   0.40078076634426907   0.40078076634426907
1.6031230653770763   0.40078076634426907   0.40078076634426907
1.6031230653770763   0.40078076634426907   0.40078076634426907
1.6031230653770763   0.40078076634426907   0.40078076634426907
0.6961591968953927   -0.021570709798536397   0.005721418798421363
0.6961591968953927   -0.021570709798536397   0.005721418798421363
0.6961591968953927   -0.021570709798536397   0.005721418798421363
0.6961591968953927   -0.021570709798536397   0.005721418798421363
1.1185405073907644   0.16796475862362537   0.06233155321013617
1.1185405073907644   0.16796475862362537   0.06233155321013617
1.1185405073907644   0.16796475862362537   0.06233155321013617
1.1185405073907644   0.16796475862362537   0.06233155321013617
0.7770322834393508   0.1942580708598377   0.1942580708598377
0.7770322834393508   0.1942580708598377   0.1942580708598377
0.7770322834393508   0.1942580708598377   0.1942580708598377
0.7770322834393508   0.1942580708598377   0.1942580708598377
1.4821743413475443   0.1448763482003257   0.051941564340576465
1.4821743413475443   0.1448763482003257   0.051941564340576465
1.4821743413475443   0.1448763482003257   0.051941564340576465
1.4821743413475443   0.1448763482003257   0.051941564340576465
1.5298656940987396   0.3824664235246849   0.3824664235246849
1.5298656940987396   0.3824664235246849   0.3824664235246849
1.5298656940987396   0.3824664235246849   0.3824664235246849
1.5298656940987396   0.3824664235246849   0.3824664235246849
0.7221293951061482   0.023140800301562986   0.022254820125081648
0.7221293951061482   0.023140800301562986   0.022254820125081648
0.7221293951061482   0.023140800301562986   0.022254820125081648
0.7221293951061482   0.023140800301562986   0.022254820125081648
1.0712602130105993   0.1821951837141118   -0.016414568121823927
1.0712602130105993   0.1821951837141118   -0.016414568121823927
1.0712602130105993   0.1821951837141118   -0.016414568121823927
1.0712602130105993   0.1821951837141118   -0.016414568121823927
-1.5659156606330373   -0.11216448260209944   0.01791469186595762
-1.5659156606330373   -0.11216448260209944   0.01791469186595762
-1.5659156606330373   -0.11216448260209944   0.01791469186595762
-1.5659156606330373   -0.11216448260209944   0.01791469186595762
-0.9970111539229239   -0.023271871640606123   -0.00654822566186581
-0.9970111539229239   -0.023271871640606123   -0.00654822566186581
-0.9970111539229239   -0.023271871640606123   -0.00654822566186581
-0.9970111539229239   -0.023271871640606123   -0.00654822566186581
-1.0035394734082626   0.0406090739596498   0.021139599900138695
-1.0035394734082626   0.0406090739596498   0.021139599900138695
-1.0035394734082626   0.0406090739596498   0.021139599900138695
-1.0035394734082626   0.0406090739596498   0.021139599900138695
-1.5891151642194727   -0.10854281509975858   -0.018943554297612762
-1.5891151642194727   -0.10854281509975858   -0.018943554297612762
-1.5891151642194727   -0.10854281509975858   -0.018943554297612762
-1.5891151642194727   -0.10854281509975858   -0.018943554297612762
-1.2382047370003793   -0.04237166090267014   -0.005055443680898775
-1.2382047370003793   -0.04237166090267014   -0.005055443680898775
-1.2382047370003793   -0.04237166090267014   -0.005055443680898775
-1.2382047370003793   -0.04237166090267014   -0.005055443680898775
-1.5774336976351344   -0.07684458180074039   0.007765545325059714
-1.5774336976351344   -0.07684458180074039   0.007765545325059714
-1.5774336976351344   -0.07684458180074039   0.007765545325059714
-1.5774336976351344   -0.07684458180074039   0.007765545325059714
-1.0168745841281768   0.007257196525059378   -0.012184076264822596
-1.0168745841281768   0.007257196525059378   -0.012184076264822596
-1.0168745841281768   0.007257196525059378   -0.012184076264822596
-1.0168745841281768   0.007257196525059378   -0.012184076264822596
-1.0046046515165665   0.05793115021417253   0.02402189150831252
-1.0046046515165665   0.05793115021417253   0.02402189150831252
-1.0046046515165665   0.05793115021417253   0.02402189150831252
-1.0046046515165665   0.05793115021417253   0.02402189150831252
-1.598564386978069   -0.09555861518864184   -0.024994343952460654
-1.598564386978069   -0.09555861518864184   -0.024994343952460654
-1.598564386978069   -0.09555861518864184   -0.024994343952460654
-1.598564386978069   -0.09555861518864184   -0.024994343952460654
-1.2728120058021895   -0.028312618519501287   -0.012141648408656919
-1.2728120058021895   -0.028312618519501287   -0.012141648408656919
-1.2728120058021895   -0.028312618519501287   -0.012141648408656919
-1.2728120058021895   -0.028312618519501287   -0.012141648408656919
-1.56972064261152   -0.04596939480679624   0.06963515749842214
-1.56972064261152   -0.04596939480679624   0.06963515749842214
-1.56972064261152   -0.04596939480679624   0.06963515749842214
-1.56972064261152   -0.04596939480679624   0.06963515749842214
-1.0214675970432958   0.020322728672145546   -0.022684414583296716
-1.0214675970432958   0.020322728672145546   -0.022684414583296716
-1.0214675970432958   0.020322728672145546   -0.022684414583296716
-1.0214675970432958   0.020322728672145546   -0.022684414583296716
-0.9861842047920495   0.10100875967343298   0.043502111865115045
-0.9861842047920495   0.10100875967343298   0.043502111865115045
-0.9861842047920495   0.10100875967343298   0.043502111865115045
-0.9861842047920495   0.10100875967343298   0.043502111865115045
-1.5541109131385407   -0.07698972773083645   -0.040821749227348755
-1.5541109131385407   -0.07698972773083645   -0.040821749227348755
-1.5541109131385407   -0.07698972773083645   -0.040821749227348755
-1.5541109131385407   -0.07698972773083645   -0.040821749227348755
-1.2239304568454556   0.011537925621143696   0.02717020812249203
-1.2239304568454556   0.011537925621143696   0.02717020812249203
-1.2239304568454556   0.011537925621143696   0.02717020812249203
-1.2239304568454556   0.011537925621143696   0.02717020812249203
-1.0216984290023934   -0.1355353889076678   -0.017721083792150965
-1.0216984290023934   -0.1355353889076678   -0.017721083792150965
-1.0216984290023934   -0.1355353889076678   -0.017721083792150965
-1.0216984290023934   -0.1355353889076678   -0.017721083792150965
-0.47104552825472873   -0.010648576452747624   0.00495746554085549
-0.47104552825472873   -0.010648576452747624   0.00495746554085549
-0.47104552825472873   -0.010648576452747624   0.00495746554085549
-0.47104552825472873   -0.010648576452747624   0.00495746554085549
-0.47779676631713014   0.00899057110919968   0.0072012267635678945
-0.47779676631713014   0.00899057110919968   0.0072012267635678945
-0.47779676631713014   0.00899057110919968   0.0072012267635678945
-0.47779676631713014   0.00899057110919968   0.0072012267635678945
-1.0418662982281042   -0.0991838083705319   -0.030701641868886992
-1.0418662982281042   -0.0991838083705319   -0.030701641868886992
-1.0418662982281042   -0.0991838083705319   -0.030701641868886992
-1.0418662982281042   -0.0991838083705319   -0.030701641868886992
-0.753094075492011   -0.061231002942617185   -0.0173359162952042
-0.753094075492011   -0.061231002942617185   -0.0173359162952042
-0.753094075492011   -0.061231002942617185   -0.0173359162952042
-0.753094075492011   -0.061231002942617185   -0.0173359162952042
-1.0408584894256039   -0.10835941675882763   -0.01648698946809496
-1.0408584894256039   -0.10835941675882763   -0.01648698946809496
-1.0408584894256039   -0.10835941675882763   -0.01648698946809496
-1.0408584894256039   -0.10835941675882763   -0.01648698946809496
-0.4769507320975248   0.02002002251960061   0.00040194645119631667
-0.4769507320975248   0.02002002251960061   0.00040194645119631667
-0.4769507320975248   0.02002002251960061   0.00040194645119631667
-0.4769507320975248   0.02002002251960061   0.00040194645119631667
-0.4758804622545514   0.033182150274517985   0.009725914322326688
-0.4758804622545514   0.033182150274517985   0.009725914322326688
-0.4758804622545514   0.033182150274517985   0.009725914322326688
-0.4758804622545514   0.033182150274517985   0.009725914322326688
-1.0421618328603552   -0.07261658306682256   -0.03321628192963524
-1.0421618328603552   -0.07261658306682256   -0.03321628192963524
-1.0421618328603552   -0.07261658306682256   -0.03321628192963524
-1.0421618328603552   -0.07261658306682256   -0.03321628192963524
-0.7515167916813198   -0.034048614863274984   -0.008247064477408639
-0.7515167916813198   -0.034048614863274984   -0.008247064477408639
-0.7515167916813198   -0.034048614863274984   -0.008247064477408639
-0.7515167916813198   -0.034048614863274984   -0.008247064477408639
-1.0380641051929036   -0.0818905054245482   -0.003453721234652006
-1.0380641051929036   -0.0818905054245482   -0.003453721234652006
-1.0380641051929036   -0.0818905054245482   -0.003453721234652006
-1.0380641051929036   -0.0818905054245482   -0.003453721234652006
-0.4765341993081187   0.04590006324612944   -0.006260683917111674
-0.4765341993081187   0.04590006324612944   -0.006260683917111674
-0.4765341993081187   0.04590006324612944   -0.006260683917111674
-0.4765341993081187   0.04590006324612944   -0.006260683917111674
-0.4678005939415922   0.057470663468595376   0.019459887566831417
-0.4678005939415922   0.057470663468595376   0.019459887566831417
-0.4678005939415922   0.057470663468595376   0.019459887566831417
-0.4678005939415922   0.057470663468595376   0.019459887566831417
-1.0308726988371901   -0.041918015008878345   -0.03701358367828077
-1.0308726988371901   -0.041918015008878345   -0.03701358367828077
-1.0308726988371901   -0.041918015008878345   -0.03701358367828077
-1.0308726988371901   -0.041918015008878345   -0.03701358367828077
-0.7482511646834258   -0.008323195959934998   0.0037503278078334368
-0.7482511646834258   -0.008323195959934998   0.0037503278078334368
-0.7482511646834258   -0.008323195959934998   0.0037503278078334368
-0.7482511646834258   -0.008323195959934998   0.0037503278078334368
-0.4966619971554098   -0.11283626815781182   -0.02093718725749034
-0.4966619971554098   -0.11283626815781182   -0.02093718725749034
-0.4966619971554098   -0.11283626815781182   -0.02093718725749034
-0.4966619971554098   -0.11283626815781182   -0.02093718725749034
0.05082021209706663   0.01154503003452439   0.019347425777332648
0.05082021209706663   0.01154503003452439   0.019347425777332648
0.05082021209706663   0.01154503003452439   0.019347425777332648
0.05082021209706663   0.01154503003452439   0.019347425777332648
0.04859503348609217   0.0283338578187083   0.0015705757479296863
0.04859503348609217   0.0283338578187083   0.0015705757479296863
0.04859503348609217   0.0283338578187083   0.0015705757479296863
0.04859503348609217   0.0283338578187083   0.0015705757479296863
-0.4986507861023547   -0.07470369192936249   -0.013374609123992682
-0.4986507861023547   -0.07470369192936249   -0.013374609123992682
-0.4986507861023547   -0.07470369192936249   -0.013374609123992682
-0.4986507861023547   -0.07470369192936249   -0.013374609123992682
-0.22614260836156513   -0.03745877039416398   -0.007191822510221763
-0.22614260836156513   -0.03745877039416398   -0.007191822510221763
-0.22614260836156513   -0.03745877039416398   -0.007191822510221763
-0.22614260836156513   -0.03745877039416398   -0.007191822510221763
-0.5021039419101383   -0.08599072369048212   -0.019353356401790995
-0.5021039419101383   -0.08599072369048212   -0.019353356401790995
-0.5021039419101383   -0.08599072369048212   -0.019353356401790995
-0.5021039419101383   -0.08599072369048212   -0.019353356401790995
0.053956705192685264   0.041529405478637905   0.015183386620965583
0.053956705192685264   0.041529405478637905   0.015183386620965583
0.053956705192685264   0.041529405478637905   0.015183386620965583
0.053956705192685264   0.041529405478637905   0.015183386620965583
0.05261537557671788   0.054945687436922616   0.008981031376038173
0.05261537557671788   0.054945687436922616   0.008981031376038173
0.05261537557671788   0.054945687436922616   0.008981031376038173
0.05261537557671788   0.054945687436922616   0.008981031376038173
-0.4969048756603187   -0.045517596388924594   -0.0166964060430675
-0.4969048756603187   -0.045517596388924594   -0.0166964060430675
-0.4969048756603187   -0.045517596388924594   -0.0166964060430675
-0.4969048756603187   -0.045517596388924594   -0.0166964060430675
-0.22248268680831015   -0.009186097798804804   0.0026300249373580487
-0.22248268680831015   -0.009186097798804804   0.0026300249373580487
-0.22248268680831015   -0.009186097798804804   0.0026300249373580487
-0.22248268680831015   -0.009186097798804804   0.0026300249373580487
-0.4982488947188553   -0.05900849370194553   -0.00992560402272939
-0.4982488947188553   -0.05900849370194553   -0.00992560402272939
-0.4982488947188553   -0.05900849370194553   -0.00992560402272939
-0.4982488947188553   -0.05900849370194553   -0.00992560402272939
0.0560142477152077   0.07049143782989738   0.01042964167551208
0.0560142477152077   0.07049143782989738   0.01042964167551208
0.0560142477152077   0.07049143782989738   0.01042964167551208
0.0560142477152077   0.07049143782989738   0.01042964167551208
0.05397570973360282   0.08453837307451868   0.014760707485145148
0.05397570973360282   0.08453837307451868   0.014760707485145148
0.05397570973360282   0.08453837307451868   0.014760707485145148
0.05397570973360282   0.08453837307451868   0.014760707485145148
-0.4902624207695777   -0.014326868538224471   -0.021051714566274467
-0.4902624207695777   -0.014326868538224471   -0.021051714566274467
-0.4902624207695777   -0.014326868538224471   -0.021051714566274467
-0.4902624207695777   -0.014326868538224471   -0.021051714566274467
-0.21677838076765316   0.020380128626857077   0.013382866974537305
-0.21677838076765316   0.020380128626857077   0.013382866974537305
-0.21677838076765316   0.020380128626857077   0.013382866974537305
-0.21677838076765316   0.020380128626857077   0.013382866974537305
0.02293521242801369   -0.08275365208831664   -0.025778890445090998
0.02293521242801369   -0.08275365208831664   -0.025778890445090998
0.02293521242801369   -0.08275365208831664   -0.025778890445090998
0.02293521242801369   -0.08275365208831664   -0.025778890445090998
0.5901282529461453   0.04065055200346515   0.035552571398307
0.5901282529461453   0.04065055200346515   0.035552571398307
0.5901282529461453   0.04065055200346515   0.035552571398307
0.5901282529461453   0.04065055200346515   0.035552571398307
0.5895373540890326   0.05485883894871045   -0.005712661201241167
0.5895373540890326   0.05485883894871045   -0.005712661201241167
0.5895373540890326   0.05485883894871045   -0.005712661201241167
0.5895373540890326   0.05485883894871045   -0.005712661201241167
0.03341571365476677   -0.049624738059964146   0.00363257246997516
0.03341571365476677   -0.049624738059964146   0.00363257246997516
0.03341571365476677   -0.049624738059964146   0.00363257246997516
0.03341571365476677   -0.049624738059964146   0.00363257246997516
0.3051879213707695   -0.00714968642035442   0.0006019431298915703
0.3051879213707695   -0.00714968642035442   0.0006019431298915703
0.3051879213707695   -0.00714968642035442   0.0006019431298915703
0.3051879213707695   -0.00714968642035442   0.0006019431298915703
0.0266720295098666   -0.06042817582481066   -0.01928241048967874
0.0266720295098666   -0.06042817582481066   -0.01928241048967874
0.0266720295098666   -0.06042817582481066   -0.01928241048967874
0.0266720295098666   -0.06042817582481066   -0.01928241048967874
0.5997194399765395   0.06910067845616345   0.030955928728836426
0.5997194399765395   0.06910067845616345   0.030955928728836426
0.5997194399765395   0.06910067845616345   0.030955928728836426
0.5997194399765395   0.06910067845616345   0.030955928728836426
0.5943769104852086   0.08118799110474506   0.005916701697041003
0.5943769104852086   0.08118799110474506   0.005916701697041003
0.5943769104852086   0.08118799110474506   0.005916701697041003
0.5943769104852086   0.08118799110474506   0.005916701697041003
0.03479132359212473   -0.023531641929275905   -0.0016618991807290972
0.03479132359212473   -0.023531641929275905   -0.0016618991807290972
0.03479132359212473   -0.023531641929275905   -0.0016618991807290972
0.03479132359212473   -0.023531641929275905   -0.0016618991807290972
0.3094419224158355   0.01801194792619225   0.01267419334490463
0.3094419224158355   0.01801194792619225   0.01267419334490463
0.3094419224158355   0.01801194792619225   0.01267419334490463
0.3094419224158355   0.01801194792619225   0.01267419334490463
0.029863135235644073   -0.03572083405254822   -0.014113648839859983
0.029863135235644073   -0.03572083405254822   -0.014113648839859983
0.029863135235644073   -0.03572083405254822   -0.014113648839859983
0.029863135235644073   -0.03572083405254822   -0.014113648839859983
0.6017946307793339   0.0958667151656595   0.028326579106742647
0.6017946307793339   0.0958667151656595   0.028326579106742647
0.6017946307793339   0.0958667151656595   0.028326579106742647
0.6017946307793339   0.0958667151656595   0.028326579106742647
0.5849830995323307   0.11157136973055314   0.012511674896116595
0.5849830995323307   0.11157136973055314   0.012511674896116595
0.5849830995323307   0.11157136973055314   0.012511674896116595
0.5849830995323307   0.11157136973055314   0.012511674896116595
0.03462826461239714   0.008756414553887457   -0.006194559600252018
0.03462826461239714   0.008756414553887457   -0.006194559600252018
0.03462826461239714   0.008756414553887457   -0.006194559600252018
0.03462826461239714   0.008756414553887457   -0.006194559600252018
0.31419419804844134   0.04677224019643081   0.023857864413230352
0.31419419804844134   0.04677224019643081   0.023857864413230352
0.31419419804844134   0.04677224019643081   0.023857864413230352
0.31419419804844134   0.04677224019643081   0.023857864413230352
0.5434656033751123   -0.10934278776635517   -0.04776733668703828
0.5434656033751123   -0.10934278776635517   -0.04776733668703828
0.5434656033751123   -0.10934278776635517   -0.04776733668703828
0.5434656033751123   -0.10934278776635517   -0.04776733668703828
1.1197559519062947   0.07397016836096537   0.03476936690044813
1.1197559519062947   0.07397016836096537   0.03476936690044813
1.1197559519062947   0.07397016836096537   0.03476936690044813
1.1197559519062947   0.07397016836096537   0.03476936690044813
1.132616178733176   0.03487686332435497   -0.0718704550534214
1.132616178733176   0.03487686332435497   -0.0718704550534214
1.132616178733176   0.03487686332435497   -0.0718704550534214
1.132616178733176   0.03487686332435497   -0.0718704550534214
0.5794313037530551   -0.022222620909519875   0.02083854697709174
0.5794313037530551   -0.022222620909519875   0.02083854697709174
0.5794313037530551   -0.022222620909519875   0.02083854697709174
0.5794313037530551   -0.022222620909519875   0.02083854697709174
0.8018389616402278   -0.014158135192098825   -0.02017304183517079
0.8018389616402278   -0.014158135192098825   -0.02017304183517079
0.8018389616402278   -0.014158135192098825   -0.02017304183517079
0.8018389616402278   -0.014158135192098825   -0.02017304183517079
0.5589899761460032   -0.07182702381327541   -0.031763688154404064
0.5589899761460032   -0.07182702381327541   -0.031763688154404064
0.5589899761460032   -0.07182702381327541   -0.031763688154404064
0.5589899761460032   -0.07182702381327541   -0.031763688154404064
1.1633721526865348   0.09479591257441916   0.021990365463307154
1.1633721526865348   0.09479591257441916   0.021990365463307154
1.1633721526865348   0.09479591257441916   0.021990365463307154
1.1633721526865348   0.09479591257441916   0.021990365463307154
1.1453670610803446   0.06383634532890506   -0.01645116974932507
1.1453670610803446   0.06383634532890506   -0.01645116974932507
1.1453670610803446   0.06383634532890506   -0.01645116974932507
1.1453670610803446   0.06383634532890506   -0.01645116974932507
0.5772787668093068   -0.00919473665157533   0.010808711073841924
0.5772787668093068   -0.00919473665157533   0.010808711073841924
0.5772787668093068   -0.00919473665157533   0.010808711073841924
0.5772787668093068   -0.00919473665157533   0.010808711073841924
0.8441100284088282   0.02110090556279412   0.013899343092882911
0.8441100284088282   0.02110090556279412   0.013899343092882911
0.8441100284088282   0.02110090556279412   0.013899343092882911
0.8441100284088282   0.02110090556279412   0.013899343092882911
0.5608549543904587   -0.054897382994667066   -0.025607704677301682
0.5608549543904587   -0.054897382994667066   -0.025607704677301682
0.5608549543904587   -0.054897382994667066   -0.025607704677301682
0.5608549543904587   -0.054897382994667066   -0.025607704677301682
1.1604420445958625   0.10819016276866769   0.014569930388501469
1.1604420445958625   0.10819016276866769   0.014569930388501469
1.1604420445958625   0.10819016276866769   0.014569930388501469
1.1604420445958625   0.10819016276866769   0.014569930388501469
1.1437610750949534   0.09799260475448585   -0.025117837599110238
1.1437610750949534   0.09799260475448585   -0.025117837599110238
1.1437610750949534   0.09799260475448585   -0.025117837599110238
1.1437610750949534   0.09799260475448585   -0.025117837599110238
0.5655328180737584   0.020775636501085826   0.006056000832712821
0.5655328180737584   0.020775636501085826   0.006056000832712821
0.5655328180737584   0.020775636501085826   0.006056000832712821
0.5655328180737584   0.020775636501085826   0.006056000832712821
0.8227410152435861   0.03708708342881528   0.010394884007045843
0.8227410152435861   0.03708708342881528   0.010394884007045843
0.8227410152435861   0.03708708342881528   0.010394884007045843
0.8227410152435861   0.03708708342881528   0.010394884007045843
-1.2292989687124565   -0.05570222906394892   0.06358780201095277
-1.2292989687124565   -0.05570222906394892   0.06358780201095277
-1.2292989687124565   -0.05570222906394892   0.06358780201095277
-1.2292989687124565   -0.05570222906394892   0.06358780201095277
-0.8168698787168467   -0.031231513028910224   -0.016545611426061348
-0.8168698787168467   -0.031231513028910224   -0.016545611426061348
-0.8168698787168467   -0.031231513028910224   -0.016545611426061348
-0.8168698787168467   -0.031231513028910224   -0.016545611426061348
-0.78724505092709   0.06628311694929678   0.053315992655281565
-0.78724505092709   0.06628311694929678   0.053315992655281565
-0.78724505092709   0.06628311694929678   0.053315992655281565
-0.78724505092709   0.06628311694929678   0.053315992655281565
-1.2348995175251476   -0.08823299849044883   -0.02590681617231507
-1.2348995175251476   -0.08823299849044883   -0.02590681617231507
-1.2348995175251476   -0.08823299849044883   -0.02590681617231507
-1.2348995175251476   -0.08823299849044883   -0.02590681617231507
-0.975811528915188   -0.01508399228506388   -0.0019372435039598096
-0.975811528915188   -0.01508399228506388   -0.0019372435039598096
-0.975811528915188   -0.01508399228506388   -0.0019372435039598096
-0.975811528915188   -0.01508399228506388   -0.0019372435039598096
-1.2003852870238443   -0.01276821769363315   0.07119955553738602
-1.2003852870238443   -0.01276821769363315   0.07119955553738602
-1.2003852870238443   -0.01276821769363315   0.07119955553738602
-1.2003852870238443   -0.01276821769363315   0.07119955553738602
-0.8163263346395874   -0.003748717058713019   -0.02205859189919606
-0.8163263346395874   -0.003748717058713019   -0.02205859189919606
-0.8163263346395874   -0.003748717058713019   -0.02205859189919606
-0.8163263346395874   -0.003748717058713019   -0.02205859189919606
-0.7839602071543393   0.08224016826206532   0.049395393477345687
-0.7839602071543393   0.08224016826206532   0.049395393477345687
-0.7839602071543393   0.08224016826206532   0.049395393477345687
-0.7839602071543393   0.08224016826206532   0.049395393477345687
-1.215613617758535   -0.07376040816529025   -0.035448979780364036
-1.215613617758535   -0.07376040816529025   -0.035448979780364036
-1.215613617758535   -0.07376040816529025   -0.035448979780364036
-1.215613617758535   -0.07376040816529025   -0.035448979780364036
-0.9777562141265513   0.0036620385260547617   0.01120232983584158
-0.9777562141265513   0.0036620385260547617   0.01120232983584158
-0.9777562141265513   0.0036620385260547617   0.01120232983584158
-0.9777562141265513   0.0036620385260547617   0.01120232983584158
-1.1834820696482298   0.0022886563241605873   0.04915969628171228
-1.1834820696482298   0.0022886563241605873   0.04915969628171228
-1.1834820696482298   0.0022886563241605873   0.04915969628171228
-1.1834820696482298   0.0022886563241605873   0.04915969628171228
-0.8143021031833364   0.007980755853925131   -0.028054674259493276
-0.8143021031833364   0.007980755853925131   -0.028054674259493276
-0.8143021031833364   0.007980755853925131   -0.028054674259493276
-0.8143021031833364   0.007980755853925131   -0.028054674259493276
-0.7846517996938922   0.09290550482707699   0.0391953001175699
-0.7846517996938922   0.09290550482707699   0.0391953001175699
-0.7846517996938922   0.09290550482707699   0.0391953001175699
-0.7846517996938922   0.09290550482707699   0.0391953001175699
-1.1906232807925439   -0.058341715238512615   -0.045185794057838055
-1.1906232807925439   -0.058341715238512615   -0.045185794057838055
-1.1906232807925439   -0.058341715238512615   -0.045185794057838055
-1.1906232807925439   -0.058341715238512615   -0.045185794057838055
-0.9495427628248532   0.02046847984996855   0.023427682107320526
-0.9495427628248532   0.02046847984996855   0.023427682107320526
-0.9495427628248532   0.02046847984996855   0.023427682107320526
-0.9495427628248532   0.02046847984996855   0.023427682107320526
-0.8192167777118174   -0.07764720278191864   0.018135583352092984
-0.8192167777118174   -0.07764720278191864   0.018135583352092984
-0.8192167777118174   -0.07764720278191864   0.018135583352092984
-0.8192167777118174   -0.07764720278191864   0.018135583352092984
-0.414151015491673   -0.015085988913067769   0.0007725504936305118
-0.414151015491673   -0.015085988913067769   0.0007725504936305118
-0.414151015491673   -0.015085988913067769   0.0007725504936305118
-0.414151015491673   -0.015085988913067769   0.0007725504936305118
-0.4023166108524061   0.040659427438290624   0.028964849799527653
-0.4023166108524061   0.040659427438290624   0.028964849799527653
-0.4023166108524061   0.040659427438290624   0.028964849799527653
-0.4023166108524061   0.040659427438290624   0.028964849799527653
-0.8322161131821079   -0.0765730382976537   -0.02868316337286265
-0.8322161131821079   -0.0765730382976537   -0.02868316337286265
-0.8322161131821079   -0.0765730382976537   -0.02868316337286265
-0.8322161131821079   -0.0765730382976537   -0.02868316337286265
-0.6147992991442167   -0.030171110369337645   -0.012523412446388
-0.6147992991442167   -0.030171110369337645   -0.012523412446388
-0.6147992991442167   -0.030171110369337645   -0.012523412446388
-0.6147992991442167   -0.030171110369337645   -0.012523412446388
-0.8165528640242651   -0.04447398694353877   0.01753403106223972
-0.8165528640242651   -0.04447398694353877   0.01753403106223972
-0.8165528640242651   -0.04447398694353877   0.01753403106223972
-0.8165528640242651   -0.04447398694353877   0.01753403106223972
-0.41481092231798544   0.011729313776441416   -0.0045765938665170425
-0.41481092231798544   0.011729313776441416   -0.0045765938665170425
-0.41481092231798544   0.011729313776441416   -0.0045765938665170425
-0.41481092231798544   0.011729313776441416   -0.0045765938665170425
-0.40097457781023765   0.06727370717716112   0.025047914240165677
-0.40097457781023765   0.06727370717716112   0.025047914240165677
-0.40097457781023765   0.06727370717716112   0.025047914240165677
-0.40097457781023765   0.06727370717716112   0.025047914240165677
-0.8274109538642961   -0.05174366623164836   -0.0338745055787245
-0.8274109538642961   -0.05174366623164836   -0.0338745055787245
-0.8274109538642961   -0.05174366623164836   -0.0338745055787245
-0.8274109538642961   -0.05174366623164836   -0.0338745055787245
-0.6080135905317768   -0.0032651998471788513   -8.100077339266015e-05
-0.6080135905317768   -0.0032651998471788513   -8.100077339266015e-05
-0.6080135905317768   -0.0032651998471788513   -8.100077339266015e-05
-0.6080135905317768   -0.0032651998471788513   -8.100077339266015e-05
-0.8114293552852161   -0.017474055790718507   0.011763876875746017
-0.8114293552852161   -0.017474055790718507   0.011763876875746017
-0.8114293552852161   -0.017474055790718507   0.011763876875746017
-0.8114293552852161   -0.017474055790718507   0.011763876875746017
-0.4143762175662614   0.03558405555928869   -0.010270632922073974
-0.4143762175662614   0.03558405555928869   -0.010270632922073974
-0.4143762175662614   0.03558405555928869   -0.010270632922073974
-0.4143762175662614   0.03558405555928869   -0.010270632922073974
-0.40078964449066373   0.09525307862032766   0.01875883012121895
-0.40078964449066373   0.09525307862032766   0.01875883012121895
-0.40078964449066373   0.09525307862032766   0.01875883012121895
-0.40078964449066373   0.09525307862032766   0.01875883012121895
-0.8233482634042931   -0.024934546777409555   -0.03644696682995193
-0.8233482634042931   -0.024934546777409555   -0.03644696682995193
-0.8233482634042931   -0.024934546777409555   -0.03644696682995193
-0.8233482634042931   -0.024934546777409555   -0.03644696682995193
-0.6083279601199381   0.02143107681183387   0.009439306522281504
-0.6083279601199381   0.02143107681183387   0.009439306522281504
-0.6083279601199381   0.02143107681183387   0.009439306522281504
-0.6083279601199381   0.02143107681183387   0.009439306522281504
-0.42954042285809574   -0.0888738976352378   -0.0023865776163159535
-0.42954042285809574   -0.0888738976352378   -0.0023865776163159535
-0.42954042285809574   -0.0888738976352378   -0.0023865776163159535
-0.42954042285809574   -0.0888738976352378   -0.0023865776163159535
-0.015129536876577903   0.004249904336962354   0.018338219683956138
-0.015129536876577903   0.004249904336962354   0.018338219683956138
-0.015129536876577903   0.004249904336962354   0.018338219683956138
-0.015129536876577903   0.004249904336962354   0.018338219683956138
-0.016635681929904216   0.026128853044721713   0.008773011573977944
-0.016635681929904216   0.026128853044721713   0.008773011573977944
-0.016635681929904216   0.026128853044721713   0.008773011573977944
-0.016635681929904216   0.026128853044721713   0.008773011573977944
-0.42976236539139895   -0.05689331146120383   -0.010711183995941887
-0.42976236539139895   -0.05689331146120383   -0.010711183995941887
-0.42976236539139895   -0.05689331146120383   -0.010711183995941887
-0.42976236539139895   -0.05689331146120383   -0.010711183995941887
-0.2234538200613069   -0.027905387434687973   -0.007023819707304078
-0.2234538200613069   -0.027905387434687973   -0.007023819707304078
-0.2234538200613069   -0.027905387434687973   -0.007023819707304078
-0.2234538200613069   -0.027905387434687973   -0.007023819707304078
-0.4292989971436642   -0.0593466192971002   -0.005941034921371708
-0.4292989971436642   -0.0593466192971002   -0.005941034921371708
-0.4292989971436642   -0.0593466192971002   -0.005941034921371708
-0.4292989971436642   -0.0593466192971002   -0.005941034921371708
-0.014737855720202492   0.030943355338054618   0.01344764032915391
-0.014737855720202492   0.030943355338054618   0.01344764032915391
-0.014737855720202492   0.030943355338054618   0.01344764032915391
-0.014737855720202492   0.030943355338054618   0.01344764032915391
-0.01460778413573403   0.05511877568387157   0.004188362796328648
-0.01460778413573403   0.05511877568387157   0.004188362796328648
-0.01460778413573403   0.05511877568387157   0.004188362796328648
-0.01460778413573403   0.05511877568387157   0.004188362796328648
-0.42861166744280943   -0.030151017582299225   -0.015712809163229965
-0.42861166744280943   -0.030151017582299225   -0.015712809163229965
-0.42861166744280943   -0.030151017582299225   -0.015712809163229965
-0.42861166744280943   -0.030151017582299225   -0.015712809163229965
-0.2212179983891592   -0.0011086071472258402   0.003032850708003465
-0.2212179983891592   -0.0011086071472258402   0.003032850708003465
-0.2212179983891592   -0.0011086071472258402   0.003032850708003465
-0.2212179983891592   -0.0011086071472258402   0.003032850708003465
-0.4279685569799375   -0.030767255275389982   -0.011881019155779524
-0.4279685569799375   -0.030767255275389982   -0.011881019155779524
-0.4279685569799375   -0.030767255275389982   -0.011881019155779524
-0.4279685569799375   -0.030767255275389982   -0.011881019155779524
-0.013301732394139575   0.057684175581429416   0.008153221606743371
-0.013301732394139575   0.057684175581429416   0.008153221606743371
-0.013301732394139575   0.057684175581429416   0.008153221606743371
-0.013301732394139575   0.057684175581429416   0.008153221606743371
-0.014122295869751358   0.08497115461823318   -0.0007017236838125739
-0.014122295869751358   0.08497115461823318   -0.0007017236838125739
-0.014122295869751358   0.08497115461823318   -0.0007017236838125739
-0.014122295869751358   0.08497115461823318   -0.0007017236838125739
-0.42833777081831576   -0.002957473510310532   -0.020771249386404685
-0.42833777081831576   -0.002957473510310532   -0.020771249386404685
-0.42833777081831576   -0.002957473510310532   -0.020771249386404685
-0.42833777081831576   -0.002957473510310532   -0.020771249386404685
-0.21946614172305762   0.025713987437609283   0.012256232926230043
-0.21946614172305762   0.025713987437609283   0.012256232926230043
-0.21946614172305762   0.025713987437609283   0.012256232926230043
-0.21946614172305762   0.025713987437609283   0.012256232926230043
-0.04338885617707151   -0.09742089883095789   -0.021287573650591435
-0.04338885617707151   -0.09742089883095789   -0.021287573650591435
-0.04338885617707151   -0.09742089883095789   -0.021287573650591435
-0.04338885617707151   -0.09742089883095789   -0.021287573650591435
0.38227437868645786   0.02686467637033005   0.03487229869530904
0.38227437868645786   0.02686467637033005   0.03487229869530904
0.38227437868645786   0.02686467637033005   0.03487229869530904
0.38227437868645786   0.02686467637033005   0.03487229869530904
0.36975085507157973   0.01415122084785786   -0.013822774407727789
0.36975085507157973   0.01415122084785786   -0.013822774407727789
0.36975085507157973   0.01415122084785786   -0.013822774407727789
0.36975085507157973   0.01415122084785786   -0.013822774407727789
-0.029222588388237304   -0.03558524682266444   0.007552579149698898
-0.029222588388237304   -0.03558524682266444   0.007552579149698898
-0.029222588388237304   -0.03558524682266444   0.007552579149698898
-0.029222588388237304   -0.03558524682266444   0.007552579149698898
0.16744183666022888   -0.022640372012966446   -0.003978367490788981
0.16744183666022888   -0.022640372012966446   -0.003978367490788981
0.16744183666022888   -0.022640372012966446   -0.003978367490788981
0.16744183666022888   -0.022640372012966446   -0.003978367490788981
-0.04317012505910767   -0.07101874208516397   -0.02675160894215338
-0.04317012505910767   -0.07101874208516397   -0.02675160894215338
-0.04317012505910767   -0.07101874208516397   -0.02675160894215338
-0.04317012505910767   -0.07101874208516397   -0.02675160894215338
0.3863843558966174   0.05227068026452402   0.031225270300794257
0.3863843558966174   0.05227068026452402   0.031225270300794257
0.3863843558966174   0.05227068026452402   0.031225270300794257
0.3863843558966174   0.05227068026452402   0.031225270300794257
0.375839535272056   0.04112744027312248   -0.019414699848668483
0.375839535272056   0.04112744027312248   -0.019414699848668483
0.375839535272056   0.04112744027312248   -0.019414699848668483
0.375839535272056   0.04112744027312248   -0.019414699848668483
-0.02835156122068136   -0.011623312588319293   0.0022115656437833534
-0.02835156122068136   -0.011623312588319293   0.0022115656437833534
-0.02835156122068136   -0.011623312588319293   0.0022115656437833534
-0.02835156122068136   -0.011623312588319293   0.0022115656437833534
0.1690033206915289   0.0016161987536342168   0.006019978946292545
0.1690033206915289   0.0016161987536342168   0.006019978946292545
0.1690033206915289   0.0016161987536342168   0.006019978946292545
0.1690033206915289   0.0016161987536342168   0.006019978946292545
-0.041918297103378056   -0.044991892919862796   -0.032253533438156914
-0.041918297103378056   -0.044991892919862796   -0.032253533438156914
-0.041918297103378056   -0.044991892919862796   -0.032253533438156914
-0.041918297103378056   -0.044991892919862796   -0.032253533438156914
0.3923338328033969   0.07742358225330946   0.026760645827848924
0.3923338328033969   0.07742358225330946   0.026760645827848924
0.3923338328033969   0.07742358225330946   0.026760645827848924
0.3923338328033969   0.07742358225330946   0.026760645827848924
0.37962111906699   0.07493500428238001   -0.020294465412382043
0.37962111906699   0.07493500428238001   -0.020294465412382043
0.37962111906699   0.07493500428238001   -0.020294465412382043
0.37962111906699   0.07493500428238001   -0.020294465412382043
-0.028327688698105803   0.01635939296915364   -0.0031169261765050284
-0.028327688698105803   0.01635939296915364   -0.0031169261765050284
-0.028327688698105803   0.01635939296915364   -0.0031169261765050284
-0.028327688698105803   0.01635939296915364   -0.0031169261765050284
0.17494964110820732   0.028643225729415894   0.017884259392344268
0.17494964110820732   0.028643225729415894   0.017884259392344268
0.17494964110820732   0.028643225729415894   0.017884259392344268
0.17494964110820732   0.028643225729415894   0.017884259392344268
0.34226940269481076   -0.09678216319994959   -0.04150574169264287
0.34226940269481076   -0.09678216319994959   -0.04150574169264287
0.34226940269481076   -0.09678216319994959   -0.04150574169264287
0.34226940269481076   -0.09678216319994959   -0.04150574169264287
0.7533128307532329   0.05598074744750364   0.03887421031793373
0.7533128307532329   0.05598074744750364   0.03887421031793373
0.7533128307532329   0.05598074744750364   0.03887421031793373
0.7533128307532329   0.05598074744750364   0.03887421031793373
0.747462449315347   -0.0038341402609027297   -0.05525019534211445
0.747462449315347   -0.0038341402609027297   -0.05525019534211445
0.747462449315347   -0.0038341402609027297   -0.05525019534211445
0.747462449315347   -0.0038341402609027297   -0.05525019534211445
0.3733189992142479   -0.007949266977772165   0.026118434131246607
0.3733189992142479   -0.007949266977772165   0.026118434131246607
0.3733189992142479   -0.007949266977772165   0.026118434131246607
0.3733189992142479   -0.007949266977772165   0.026118434131246607
0.5271896928499576   -0.018951664298839765   -0.017351198469098057
0.5271896928499576   -0.018951664298839765   -0.017351198469098057
0.5271896928499576   -0.018951664298839765   -0.017351198469098057
0.5271896928499576   -0.018951664298839765   -0.017351198469098057
0.3426822158669325   -0.08395258149898571   -0.05106216808411483
0.3426822158669325   -0.08395258149898571   -0.05106216808411483
0.3426822158669325   -0.08395258149898571   -0.05106216808411483
0.3426822158669325   -0.08395258149898571   -0.05106216808411483
0.7802982157889957   0.07436815738664451   0.03072633937858206
0.7802982157889957   0.07436815738664451   0.03072633937858206
0.7802982157889957   0.07436815738664451   0.03072633937858206
0.7802982157889957   0.07436815738664451   0.03072633937858206
0.7659643019989374   0.011552657014336748   -0.07413985578622828
0.7659643019989374   0.011552657014336748   -0.07413985578622828
0.7659643019989374   0.011552657014336748   -0.07413985578622828
0.7659643019989374   0.011552657014336748   -0.07413985578622828
0.37615171859276586   0.003790875200742394   0.019482781827267627
0.37615171859276586   0.003790875200742394   0.019482781827267627
0.37615171859276586   0.003790875200742394   0.019482781827267627
0.37615171859276586   0.003790875200742394   0.019482781827267627
0.5511947149930054   -0.0023039360022323596   -0.005262478753766377
0.5511947149930054   -0.0023039360022323596   -0.005262478753766377
0.5511947149930054   -0.0023039360022323596   -0.005262478753766377
0.5511947149930054   -0.0023039360022323596   -0.005262478753766377
0.3466583406772768   -0.06859934216886443   -0.05559389038057356
0.3466583406772768   -0.06859934216886443   -0.05559389038057356
0.3466583406772768   -0.06859934216886443   -0.05559389038057356
0.3466583406772768   -0.06859934216886443   -0.05559389038057356
0.8003174448218492   0.08880263929136686   0.020375876051306717
0.8003174448218492   0.08880263929136686   0.020375876051306717
0.8003174448218492   0.08880263929136686   0.020375876051306717
0.8003174448218492   0.08880263929136686   0.020375876051306717
0.7953331557269324   0.051569299872265106   -0.06977601996456466
0.7953331557269324   0.051569299872265106   -0.06977601996456466
0.7953331557269324   0.051569299872265106   -0.06977601996456466
0.7953331557269324   0.051569299872265106   -0.06977601996456466
0.37747720438962307   0.029680301490614028   0.014240663992555469
0.37747720438962307   0.029680301490614028   0.014240663992555469
0.37747720438962307   0.029680301490614028   0.014240663992555469
0.37747720438962307   0.029680301490614028   0.014240663992555469
0.5554213565034412   0.016712528541819816   0.008133719290493793
0.5554213565034412   0.016712528541819816   0.008133719290493793
0.5554213565034412   0.016712528541819816   0.008133719290493793
0.5554213565034412   0.016712528541819816   0.008133719290493793
-0.8774197080718442   -0.028526257845219172   0.05753049384739153
-0.8774197080718442   -0.028526257845219172   0.05753049384739153
-0.8774197080718442   -0.028526257845219172   0.05753049384739153
-0.8774197080718442   -0.028526257845219172   0.05753049384739153
-0.6144721242213401   -0.04119240227024756   -0.021693785496563096
-0.6144721242213401   -0.04119240227024756   -0.021693785496563096
-0.6144721242213401   -0.04119240227024756   -0.021693785496563096
-0.6144721242213401   -0.04119240227024756   -0.021693785496563096
-0.5782701463587181   0.05808163177871807   0.04903696400709002
-0.5782701463587181   0.05808163177871807   0.04903696400709002
-0.5782701463587181   0.05808163177871807   0.04903696400709002
-0.5782701463587181   0.05808163177871807   0.04903696400709002
-0.8774814344258052   -0.07226077881651924   -0.031740250232824174
-0.8774814344258052   -0.07226077881651924   -0.031740250232824174
-0.8774814344258052   -0.07226077881651924   -0.031740250232824174
-0.8774814344258052   -0.07226077881651924   -0.031740250232824174
-0.706752723089347   -0.011230718771726239   -0.001675456963825643
-0.706752723089347   -0.011230718771726239   -0.001675456963825643
-0.706752723089347   -0.011230718771726239   -0.001675456963825643
-0.706752723089347   -0.011230718771726239   -0.001675456963825643
-0.8445474502250836   0.005960463829066481   0.05470842812519761
-0.8445474502250836   0.005960463829066481   0.05470842812519761
-0.8445474502250836   0.005960463829066481   0.05470842812519761
-0.8445474502250836   0.005960463829066481   0.05470842812519761
-0.6085219295203936   -0.017457409827818515   -0.026682910194747354
-0.6085219295203936   -0.017457409827818515   -0.026682910194747354
-0.6085219295203936   -0.017457409827818515   -0.026682910194747354
-0.6085219295203936   -0.017457409827818515   -0.026682910194747354
-0.5728188633745654   0.07017382064654856   0.041427409894860635
-0.5728188633745654   0.07017382064654856   0.041427409894860635
-0.5728188633745654   0.07017382064654856   0.041427409894860635
-0.5728188633745654   0.07017382064654856   0.041427409894860635
-0.8566412190349363   -0.058778759059451624   -0.0401069533443605
-0.8566412190349363   -0.058778759059451624   -0.0401069533443605
-0.8566412190349363   -0.058778759059451624   -0.0401069533443605
-0.8566412190349363   -0.058778759059451624   -0.0401069533443605
-0.7017608769859535   0.004711124072369621   0.007339242695955324
-0.7017608769859535   0.004711124072369621   0.007339242695955324
-0.7017608769859535   0.004711124072369621   0.007339242695955324
-0.7017608769859535   0.004711124072369621   0.007339242695955324
-0.8239991638127313   0.020430992767821426   0.04389357093939084
-0.8239991638127313   0.020430992767821426   0.04389357093939084
-0.8239991638127313   0.020430992767821426   0.04389357093939084
-0.8239991638127313   0.020430992767821426   0.04389357093939084
-0.6030386007580518   -0.006613613342004998   -0.03288384303401168
-0.6030386007580518   -0.006613613342004998   -0.03288384303401168
-0.6030386007580518   -0.006613613342004998   -0.03288384303401168
-0.6030386007580518   -0.006613613342004998   -0.03288384303401168
-0.5698028654725327   0.08198888652024494   0.035646799415931046
-0.5698028654725327   0.08198888652024494   0.035646799415931046
-0.5698028654725327   0.08198888652024494   0.035646799415931046
-0.5698028654725327   0.08198888652024494   0.035646799415931046
-0.8287491958749338   -0.0409364369355005   -0.04800848536105992
-0.8287491958749338   -0.0409364369355005   -0.04800848536105992
-0.8287491958749338   -0.0409364369355005   -0.04800848536105992
-0.8287491958749338   -0.0409364369355005   -0.04800848536105992
-0.6753906403707093   0.019664990716588615   0.019964235457543097
-0.6753906403707093   0.019664990716588615   0.019964235457543097
-0.6753906403707093   0.019664990716588615   0.019964235457543097
-0.6753906403707093   0.019664990716588615   0.019964235457543097
-0.6074764376839659   -0.04957261205520111   0.02166485697525664
-0.6074764376839659   -0.04957261205520111   0.02166485697525664
-0.6074764376839659   -0.04957261205520111   0.02166485697525664
-0.6074764376839659   -0.04957261205520111   0.02166485697525664
-0.3527779968685478   -0.026688400943192664   -0.0035035147303230513
-0.3527779968685478   -0.026688400943192664   -0.0035035147303230513
-0.3527779968685478   -0.026688400943192664   -0.0035035147303230513
-0.3527779968685478   -0.026688400943192664   -0.0035035147303230513
-0.33484033880700104   0.03392617289018328   0.0264371181912155
-0.33484033880700104   0.03392617289018328   0.0264371181912155
-0.33484033880700104   0.03392617289018328   0.0264371181912155
-0.33484033880700104   0.03392617289018328   0.0264371181912155
-0.6166392253907327   -0.05903172841489372   -0.02569507095937121
-0.6166392253907327   -0.05903172841489372   -0.02569507095937121
-0.6166392253907327   -0.05903172841489372   -0.02569507095937121
-0.6166392253907327   -0.05903172841489372   -0.02569507095937121
-0.47602692485867726   -0.023176469152543303   -0.009769474646815806
-0.47602692485867726   -0.023176469152543303   -0.009769474646815806
-0.47602692485867726   -0.023176469152543303   -0.009769474646815806
-0.47602692485867726   -0.023176469152543303   -0.009769474646815806
-0.6003367296138088   -0.020919494172792638   0.017705173683143744
-0.6003367296138088   -0.020919494172792638   0.017705173683143744
-0.6003367296138088   -0.020919494172792638   0.017705173683143744
-0.6003367296138088   -0.020919494172792638   0.017705173683143744
-0.349050862329172   -0.002094089097165422   -0.008595237432290476
-0.349050862329172   -0.002094089097165422   -0.008595237432290476
-0.349050862329172   -0.002094089097165422   -0.008595237432290476
-0.349050862329172   -0.002094089097165422   -0.008595237432290476
-0.3305835622354479   0.05873053780084024   0.021669122954870237
-0.3305835622354479   0.05873053780084024   0.021669122954870237
-0.3305835622354479   0.05873053780084024   0.021669122954870237
-0.3305835622354479   0.05873053780084024   0.021669122954870237
-0.6083229782493914   -0.03563975488144756   -0.030279588951272713
-0.6083229782493914   -0.03563975488144756   -0.030279588951272713
-0.6083229782493914   -0.03563975488144756   -0.030279588951272713
-0.6083229782493914   -0.03563975488144756   -0.030279588951272713
-0.4668823310082471   0.0011843701961998798   0.0006971620515726293
-0.4668823310082471   0.0011843701961998798   0.0006971620515726293
-0.4668823310082471   0.0011843701961998798   0.0006971620515726293
-0.4668823310082471   0.0011843701961998798   0.0006971620515726293
-0.5907870602966792   0.005590052319823402   0.016170193611017444
-0.5907870602966792   0.005590052319823402   0.016170193611017444
-0.5907870602966792   0.005590052319823402   0.016170193611017444
-0.5907870602966792   0.005590052319823402   0.016170193611017444
-0.34552167091538816   0.020098539872341684   -0.01438942251632976
-0.34552167091538816   0.020098539872341684   -0.01438942251632976
-0.34552167091538816   0.020098539872341684   -0.01438942251632976
-0.34552167091538816   0.020098539872341684   -0.01438942251632976
-0.3264701212879791   0.08517628130852979   0.01722903148343071
-0.3264701212879791   0.08517628130852979   0.01722903148343071
-0.3264701212879791   0.08517628130852979   0.01722903148343071
-0.3264701212879791   0.08517628130852979   0.01722903148343071
-0.6021044871113869   -0.01041510385151126   -0.03345731840657992
-0.6021044871113869   -0.01041510385151126   -0.03345731840657992
-0.6021044871113869   -0.01041510385151126   -0.03345731840657992
-0.6021044871113869   -0.01041510385151126   -0.03345731840657992
-0.46333168660213997   0.024128211433578364   0.0106721158712604
-0.46333168660213997   0.024128211433578364   0.0106721158712604
-0.46333168660213997   0.024128211433578364   0.0106721158712604
-0.46333168660213997   0.024128211433578364   0.0106721158712604
-0.36020287105147514   -0.06824638646036624   0.0009300998722103905
-0.36020287105147514   -0.06824638646036624   0.0009300998722103905
-0.36020287105147514   -0.06824638646036624   0.0009300998722103905
-0.36020287105147514   -0.06824638646036624   0.0009300998722103905
-0.09373434471848388   -0.00808628460363081   0.014674322930135522
-0.09373434471848388   -0.00808628460363081   0.014674322930135522
-0.09373434471848388   -0.00808628460363081   0.014674322930135522
-0.09373434471848388   -0.00808628460363081   0.014674322930135522
-0.09145764865284256   0.013910824977039552   0.005004781456718645
-0.09145764865284256   0.013910824977039552   0.005004781456718645
-0.09145764865284256   0.013910824977039552   0.005004781456718645
-0.09145764865284256   0.013910824977039552   0.005004781456718645
-0.3562542781393482   -0.03987109565374707   -0.006835309926594006
-0.3562542781393482   -0.03987109565374707   -0.006835309926594006
-0.3562542781393482   -0.03987109565374707   -0.006835309926594006
-0.3562542781393482   -0.03987109565374707   -0.006835309926594006
-0.22579918486092002   -0.024476849110653787   -0.006949792797637019
-0.22579918486092002   -0.024476849110653787   -0.006949792797637019
-0.22579918486092002   -0.024476849110653787   -0.006949792797637019
-0.22579918486092002   -0.024476849110653787   -0.006949792797637019
-0.3556696838430733   -0.04057435431011969   -0.0032090797888468282
-0.3556696838430733   -0.04057435431011969   -0.0032090797888468282
-0.3556696838430733   -0.04057435431011969   -0.0032090797888468282
-0.3556696838430733   -0.04057435431011969   -0.0032090797888468282
-0.0899448930879075   0.016711433494622136   0.009767950763811368
-0.0899448930879075   0.016711433494622136   0.009767950763811368
-0.0899448930879075   0.016711433494622136   0.009767950763811368
-0.0899448930879075   0.016711433494622136   0.009767950763811368
-0.08631602137376372   0.04170764655241721   0.001284865441314181
-0.08631602137376372   0.04170764655241721   0.001284865441314181
-0.08631602137376372   0.04170764655241721   0.001284865441314181
-0.08631602137376372   0.04170764655241721   0.001284865441314181
-0.35199222591812956   -0.014899137772540455   -0.011744519885157387
-0.35199222591812956   -0.014899137772540455   -0.011744519885157387
-0.35199222591812956   -0.014899137772540455   -0.011744519885157387
-0.35199222591812956   -0.014899137772540455   -0.011744519885157387
-0.22030665047822393   0.0004942325711240411   0.002918160165435729
-0.22030665047822393   0.0004942325711240411   0.002918160165435729
-0.22030665047822393   0.0004942325711240411   0.002918160165435729
-0.22030665047822393   0.0004942325711240411   0.002918160165435729
-0.3506811945355919   -0.012866717764343005   -0.007221782980666405
-0.3506811945355919   -0.012866717764343005   -0.007221782980666405
-0.3506811945355919   -0.012866717764343005   -0.007221782980666405
-0.3506811945355919   -0.012866717764343005   -0.007221782980666405
-0.08569047112240696   0.04161180817811561   0.004508455072400349
-0.08569047112240696   0.04161180817811561   0.004508455072400349
-0.08569047112240696   0.04161180817811561   0.004508455072400349
-0.08569047112240696   0.04161180817811561   0.004508455072400349
-0.0817011393089471   0.06990771217744257   -0.0030819524570155007
-0.0817011393089471   0.06990771217744257   -0.0030819524570155007
-0.0817011393089471   0.06990771217744257   -0.0030819524570155007
-0.0817011393089471   0.06990771217744257   -0.0030819524570155007
-0.34825585244882307   0.010360519821019584   -0.01688386283328117
-0.34825585244882307   0.010360519821019584   -0.01688386283328117
-0.34825585244882307   0.010360519821019584   -0.01688386283328117
-0.34825585244882307   0.010360519821019584   -0.01688386283328117
-0.2152924112942554   0.025585194167520628   0.012425047262518491
-0.2152924112942554   0.025585194167520628   0.012425047262518491
-0.2152924112942554   0.025585194167520628   0.012425047262518491
-0.2152924112942554   0.025585194167520628   0.012425047262518491
-0.11562731179146742   -0.08355456739333297   -0.01932222964508083
-0.11562731179146742   -0.08355456739333297   -0.01932222964508083
-0.11562731179146742   -0.08355456739333297   -0.01932222964508083
-0.11562731179146742   -0.08355456739333297   -0.01932222964508083
0.16176729429984452   0.012763141798037163   0.03181505680050777
0.16176729429984452   0.012763141798037163   0.03181505680050777
0.16176729429984452   0.012763141798037163   0.03181505680050777
0.16176729429984452   0.012763141798037163   0.03181505680050777
0.15035525866990285   -0.004746963913947692   -0.017833853364857502
0.15035525866990285   -0.004746963913947692   -0.017833853364857502
0.15035525866990285   -0.004746963913947692   -0.017833853364857502
0.15035525866990285   -0.004746963913947692   -0.017833853364857502
-0.09674763131994046   -0.019352691193584702   0.011818384291853428
-0.09674763131994046   -0.019352691193584702   0.011818384291853428
-0.09674763131994046   -0.019352691193584702   0.011818384291853428
-0.09674763131994046   -0.019352691193584702   0.011818384291853428
0.023916881333532987   -0.02306330044410653   -0.004951567998615409
0.023916881333532987   -0.02306330044410653   -0.004951567998615409
0.023916881333532987   -0.02306330044410653   -0.004951567998615409
0.023916881333532987   -0.02306330044410653   -0.004951567998615409
-0.11166882897993058   -0.05834422484273271   -0.023796070358949175
-0.11166882897993058   -0.05834422484273271   -0.023796070358949175
-0.11166882897993058   -0.05834422484273271   -0.023796070358949175
-0.11166882897993058   -0.05834422484273271   -0.023796070358949175
0.167771941771467   0.036740055176773735   0.027762543052238138
0.167771941771467   0.036740055176773735   0.027762543052238138
0.167771941771467   0.036740055176773735   0.027762543052238138
0.167771941771467   0.036740055176773735   0.027762543052238138
0.15993004757730916   0.021548698499299697   -0.020209987716112248
0.15993004757730916   0.021548698499299697   -0.020209987716112248
0.15993004757730916   0.021548698499299697   -0.020209987716112248
0.15993004757730916   0.021548698499299697   -0.020209987716112248
-0.09303804077267806   0.002979483726023028   0.0064029312731374325
-0.09303804077267806   0.002979483726023028   0.0064029312731374325
-0.09303804077267806   0.002979483726023028   0.0064029312731374325
-0.09303804077267806   0.002979483726023028   0.0064029312731374325
0.029015084553638444   -0.00040963611819287357   0.005090679305420186
0.029015084553638444   -0.00040963611819287357   0.005090679305420186
0.029015084553638444   -0.00040963611819287357   0.005090679305420186
0.029015084553638444   -0.00040963611819287357   0.005090679305420186
-0.10743796544269293   -0.03367195685971762   -0.02894525149119671
-0.10743796544269293   -0.03367195685971762   -0.02894525149119671
-0.10743796544269293   -0.03367195685971762   -0.02894525149119671
-0.10743796544269293   -0.03367195685971762   -0.02894525149119671
0.17649452421372352   0.060364691051439406   0.023796402913817735
0.17649452421372352   0.060364691051439406   0.023796402913817735
0.17649452421372352   0.060364691051439406   0.023796402913817735
0.17649452421372352   0.060364691051439406   0.023796402913817735
0.16764356652429604   0.05150479632625722   -0.023361164613381308
0.16764356652429604   0.05150479632625722   -0.023361164613381308
0.16764356652429604   0.05150479632625722   -0.023361164613381308
0.16764356652429604   0.05150479632625722   -0.023361164613381308
-0.08907428421620356   0.028708920305104982   0.0012511148790389053
-0.08907428421620356   0.028708920305104982   0.0012511148790389053
-0.08907428421620356   0.028708920305104982   0.0012511148790389053
-0.08907428421620356   0.028708920305104982   0.0012511148790389053
0.03687302733747889   0.02421270787172486   0.015482930199689892
0.03687302733747889   0.02421270787172486   0.015482930199689892
0.03687302733747889   0.02421270787172486   0.015482930199689892
0.03687302733747889   0.02421270787172486   0.015482930199689892
0.1283317903438235   -0.08442513911189604   -0.03817418206966304
0.1283317903438235   -0.08442513911189604   -0.03817418206966304
0.1283317903438235   -0.08442513911189604   -0.03817418206966304
0.1283317903438235   -0.08442513911189604   -0.03817418206966304
0.38849816069828813   0.03837309115834966   0.041275653273597064
0.38849816069828813   0.03837309115834966   0.041275653273597064
0.38849816069828813   0.03837309115834966   0.041275653273597064
0.38849816069828813   0.03837309115834966   0.041275653273597064
0.384580973297894   -0.02097314699981176   -0.050262940062597516
0.384580973297894   -0.02097314699981176   -0.050262940062597516
0.384580973297894   -0.02097314699981176   -0.050262940062597516
0.384580973297894   -0.02097314699981176   -0.050262940062597516
0.16244814664501447   0.007070853072346457   0.03081276952440362
0.16244814664501447   0.007070853072346457   0.03081276952440362
0.16244814664501447   0.007070853072346457   0.03081276952440362
0.16244814664501447   0.007070853072346457   0.03081276952440362
0.2520930234976208   -0.017531774363777654   -0.01338653593287454
0.2520930234976208   -0.017531774363777654   -0.01338653593287454
0.2520930234976208   -0.017531774363777654   -0.01338653593287454
0.2520930234976208   -0.017531774363777654   -0.01338653593287454
0.1319842216456531   -0.07027259149812616   -0.044163410901928636
0.1319842216456531   -0.07027259149812616   -0.044163410901928636
0.1319842216456531   -0.07027259149812616   -0.044163410901928636
0.1319842216456531   -0.07027259149812616   -0.044163410901928636
0.4175891574267184   0.05891455670012361   0.03489027688160081
0.4175891574267184   0.05891455670012361   0.03489027688160081
0.4175891574267184   0.05891455670012361   0.03489027688160081
0.4175891574267184   0.05891455670012361   0.03489027688160081
0.4057502246679589   -0.006247247931522842   -0.060306339909259155
0.4057502246679589   -0.006247247931522842   -0.060306339909259155
0.4057502246679589   -0.006247247931522842   -0.060306339909259155
0.4057502246679589   -0.006247247931522842   -0.060306339909259155
0.16804226240019277   0.017859323962479023   0.02404046093512435
0.16804226240019277   0.017859323962479023   0.02404046093512435
0.16804226240019277   0.017859323962479023   0.02404046093512435
0.16804226240019277   0.017859323962479023   0.02404046093512435
0.273438415414518   -0.0026721902094940936   -0.00156587428559812
0.273438415414518   -0.0026721902094940936   -0.00156587428559812
0.273438415414518   -0.0026721902094940936   -0.00156587428559812
0.273438415414518   -0.0026721902094940936   -0.00156587428559812
0.13781176655998134   -0.058020175359964225   -0.051232518943488535
0.13781176655998134   -0.058020175359964225   -0.051232518943488535
0.13781176655998134   -0.058020175359964225   -0.051232518943488535
0.13781176655998134   -0.058020175359964225   -0.051232518943488535
0.43863407499591145   0.07228560587866108   0.025580057920331304
0.43863407499591145   0.07228560587866108   0.025580057920331304
0.43863407499591145   0.07228560587866108   0.025580057920331304
0.43863407499591145   0.07228560587866108   0.025580057920331304
0.4382776974189397   0.02607681983380883   -0.06457723732078716
0.4382776974189397   0.02607681983380883   -0.06457723732078716
0.4382776974189397   0.02607681983380883   -0.06457723732078716
0.4382776974189397   0.02607681983380883   -0.06457723732078716
0.17376576003903893   0.039647406181661245   0.019107193104925178
0.17376576003903893   0.039647406181661245   0.019107193104925178
0.17376576003903893   0.039647406181661245   0.019107193104925178
0.17376576003903893   0.039647406181661245   0.019107193104925178
0.2841468094429846   0.013686582219451508   0.00862359708382454
0.2841468094429846   0.013686582219451508   0.00862359708382454
0.2841468094429846   0.013686582219451508   0.00862359708382454
0.2841468094429846   0.013686582219451508   0.00862359708382454
-0.5248817441195818   -0.008634583783581756   0.05150492683500762
-0.5248817441195818   -0.008634583783581756   0.05150492683500762
-0.5248817441195818   -0.008634583783581756   0.05150492683500762
-0.5248817441195818   -0.008634583783581756   0.05150492683500762
-0.4101305236862268   -0.05217543858053648   -0.02542648729271913
-0.4101305236862268   -0.05217543858053648   -0.02542648729271913
-0.4101305236862268   -0.05217543858053648   -0.02542648729271913
-0.4101305236862268   -0.05217543858053648   -0.02542648729271913
-0.3712115370911565   0.04414647205591701   0.044026106794708475
-0.3712115370911565   0.04414647205591701   0.044026106794708475
-0.3712115370911565   0.04414647205591701   0.044026106794708475
-0.3712115370911565   0.04414647205591701   0.044026106794708475
-0.5227000951185664   -0.056965799307583796   -0.034630503789607456
-0.5227000951185664   -0.056965799307583796   -0.034630503789607456
-0.5227000951185664   -0.056965799307583796   -0.034630503789607456
-0.5227000951185664   -0.056965799307583796   -0.034630503789607456
-0.43976487462799824   -0.01206731022766637   -0.006585247433052038
-0.43976487462799824   -0.01206731022766637   -0.006585247433052038
-0.43976487462799824   -0.01206731022766637   -0.006585247433052038
-0.43976487462799824   -0.01206731022766637   -0.006585247433052038
-0.490267427112997   0.021369566732282075   0.049197470198374116
-0.490267427112997   0.021369566732282075   0.049197470198374116
-0.490267427112997   0.021369566732282075   0.049197470198374116
-0.490267427112997   0.021369566732282075   0.049197470198374116
-0.4013844108562946   -0.0319290997435168   -0.030762690231544258
-0.4013844108562946   -0.0319290997435168   -0.030762690231544258
-0.4013844108562946   -0.0319290997435168   -0.030762690231544258
-0.4013844108562946   -0.0319290997435168   -0.030762690231544258
-0.3620401721577208   0.05560815170159489   0.037226553583671815
-0.3620401721577208   0.05560815170159489   0.037226553583671815
-0.3620401721577208   0.05560815170159489   0.037226553583671815
-0.3620401721577208   0.05560815170159489   0.037226553583671815
-0.4986695383983675   -0.04397594345535363   -0.043249198832904776
-0.4986695383983675   -0.04397594345535363   -0.043249198832904776
-0.4986695383983675   -0.04397594345535363   -0.043249198832904776
-0.4986695383983675   -0.04397594345535363   -0.043249198832904776
-0.42720174846436443   0.0029271283399190245   0.0029938951459708395
-0.42720174846436443   0.0029271283399190245   0.0029938951459708395
-0.42720174846436443   0.0029271283399190245   0.0029938951459708395
-0.42720174846436443   0.0029271283399190245   0.0029938951459708395
-0.4662218119848414   0.035274342479425125   0.03973914729994368
-0.4662218119848414   0.035274342479425125   0.03973914729994368
-0.4662218119848414   0.035274342479425125   0.03973914729994368
-0.4662218119848414   0.035274342479425125   0.03973914729994368
-0.3923512851092138   -0.021505520771150755   -0.03721533870104409
-0.3923512851092138   -0.021505520771150755   -0.03721533870104409
-0.3923512851092138   -0.021505520771150755   -0.03721533870104409
-0.3923512851092138   -0.021505520771150755   -0.03721533870104409
-0.35462302966566106   0.0699113459886842   0.03210426305060624
-0.35462302966566106   0.0699113459886842   0.03210426305060624
-0.35462302966566106   0.0699113459886842   0.03210426305060624
-0.35462302966566106   0.0699113459886842   0.03210426305060624
-0.46639053307621003   -0.023174038242391726   -0.05004374414027292
-0.46639053307621003   -0.023174038242391726   -0.05004374414027292
-0.46639053307621003   -0.023174038242391726   -0.05004374414027292
-0.46639053307621003   -0.023174038242391726   -0.05004374414027292
-0.40187341490267503   0.017728053651445086   0.014865651152274739
-0.40187341490267503   0.017728053651445086   0.014865651152274739
-0.40187341490267503   0.017728053651445086   0.014865651152274739
-0.40187341490267503   0.017728053651445086   0.014865651152274739
-0.3956759813522131   -0.029694281445415416   0.024365067242228367
-0.3956759813522131   -0.029694281445415416   0.024365067242228367
-0.3956759813522131   -0.029694281445415416   0.024365067242228367
-0.3956759813522131   -0.029694281445415416   0.024365067242228367
-0.2911226056434829   -0.039550126878750286   -0.007524030225371784
-0.2911226056434829   -0.039550126878750286   -0.007524030225371784
-0.2911226056434829   -0.039550126878750286   -0.007524030225371784
-0.2911226056434829   -0.039550126878750286   -0.007524030225371784
-0.2694499512646592   0.02004697449792791   0.02250916947867879
-0.2694499512646592   0.02004697449792791   0.02250916947867879
-0.2694499512646592   0.02004697449792791   0.02250916947867879
-0.2694499512646592   0.02004697449792791   0.02250916947867879
-0.40159010759676084   -0.04203079776556132   -0.021689475911830906
-0.40159010759676084   -0.04203079776556132   -0.021689475911830906
-0.40159010759676084   -0.04203079776556132   -0.021689475911830906
-0.40159010759676084   -0.04203079776556132   -0.021689475911830906
-0.3385377415209605   -0.020999308824788697   -0.009156119981407125
-0.3385377415209605   -0.020999308824788697   -0.009156119981407125
-0.3385377415209605   -0.020999308824788697   -0.009156119981407125
-0.3385377415209605   -0.020999308824788697   -0.009156119981407125
-0.3853989230319727   -0.003497936601632737   0.020733585748173616
-0.3853989230319727   -0.003497936601632737   0.020733585748173616
-0.3853989230319727   -0.003497936601632737   0.020733585748173616
-0.3853989230319727   -0.003497936601632737   0.020733585748173616
-0.2838187270973176   -0.016663477933869575   -0.012624257252815432
-0.2838187270973176   -0.016663477933869575   -0.012624257252815432
-0.2838187270973176   -0.016663477933869575   -0.012624257252815432
-0.2838187270973176   -0.016663477933869575   -0.012624257252815432
-0.2615455763365858   0.043371427925520914   0.017998923170764024
-0.2615455763365858   0.043371427925520914   0.017998923170764024
-0.2615455763365858   0.043371427925520914   0.017998923170764024
-0.2615455763365858   0.043371427925520914   0.017998923170764024
-0.3897258820120584   -0.01962389956035017   -0.025969944426063304
-0.3897258820120584   -0.01962389956035017   -0.025969944426063304
-0.3897258820120584   -0.01962389956035017   -0.025969944426063304
-0.3897258820120584   -0.01962389956035017   -0.025969944426063304
-0.32708939180501706   0.001472052580706082   0.0009081579607101466
-0.32708939180501706   0.001472052580706082   0.0009081579607101466
-0.32708939180501706   0.001472052580706082   0.0009081579607101466
-0.32708939180501706   0.001472052580706082   0.0009081579607101466
-0.37258363736511446   0.021322922446101747   0.01879445680219678
-0.37258363736511446   0.021322922446101747   0.01879445680219678
-0.37258363736511446   0.021322922446101747   0.01879445680219678
-0.37258363736511446   0.021322922446101747   0.01879445680219678
-0.2765840340914838   0.004528392811113391   -0.018350330489320103
-0.2765840340914838   0.004528392811113391   -0.018350330489320103
-0.2765840340914838   0.004528392811113391   -0.018350330489320103
-0.2765840340914838   0.004528392811113391   -0.018350330489320103
-0.25366568600797856   0.06870472223814911   0.013703010938313637
-0.25366568600797856   0.06870472223814911   0.013703010938313637
-0.25366568600797856   0.06870472223814911   0.013703010938313637
-0.25366568600797856   0.06870472223814911   0.013703010938313637
-0.3799450575172333   0.004865382341542421   -0.029459912560109346
-0.3799450575172333   0.004865382341542421   -0.029459912560109346
-0.3799450575172333   0.004865382341542421   -0.029459912560109346
-0.3799450575172333   0.004865382341542421   -0.029459912560109346
-0.3188162615156883   0.023520320715168547   0.010759254051147145
-0.3188162615156883   0.023520320715168547   0.010759254051147145
-0.3188162615156883   0.023520320715168547   0.010759254051147145
-0.3188162615156883   0.023520320715168547   0.010759254051147145
-0.29075433675126855   -0.04955975843735477   0.004326945794300386
-0.29075433675126855   -0.04955975843735477   0.004326945794300386
-0.29075433675126855   -0.04955975843735477   0.004326945794300386
-0.29075433675126855   -0.04955975843735477   0.004326945794300386
-0.17367333448093555   -0.02095629586664957   0.01066226030755292
-0.17367333448093555   -0.02095629586664957   0.01066226030755292
-0.17367333448093555   -0.02095629586664957   0.01066226030755292
-0.17367333448093555   -0.02095629586664957   0.01066226030755292
-0.16780386348649848   -0.0005400161650068527   0.001369672864257392
-0.16780386348649848   -0.0005400161650068527   0.001369672864257392
-0.16780386348649848   -0.0005400161650068527   0.001369672864257392
-0.16780386348649848   -0.0005400161650068527   0.001369672864257392
-0.2829737269002015   -0.022565420916782965   -0.0024973132843216506
-0.2829737269002015   -0.022565420916782965   -0.0024973132843216506
-0.2829737269002015   -0.022565420916782965   -0.0024973132843216506
-0.2829737269002015   -0.022565420916782965   -0.0024973132843216506
-0.22916659585521182   -0.022308497823608248   -0.00667364995128563
-0.22916659585521182   -0.022308497823608248   -0.00667364995128563
-0.22916659585521182   -0.022308497823608248   -0.00667364995128563
-0.22916659585521182   -0.022308497823608248   -0.00667364995128563
-0.2826289292854174   -0.023705594269232806   0.00036684814204657364
-0.2826289292854174   -0.023705594269232806   0.00036684814204657364
-0.2826289292854174   -0.023705594269232806   0.00036684814204657364
-0.2826289292854174   -0.023705594269232806   0.00036684814204657364
-0.16633583089442552   0.0024129873942996954   0.005756832265315676
-0.16633583089442552   0.0024129873942996954   0.005756832265315676
-0.16633583089442552   0.0024129873942996954   0.005756832265315676
-0.16633583089442552   0.0024129873942996954   0.005756832265315676
-0.15921268298068605   0.025541766676294687   -0.0023195405784098323
-0.15921268298068605   0.025541766676294687   -0.0023195405784098323
-0.15921268298068605   0.025541766676294687   -0.0023195405784098323
-0.15921268298068605   0.025541766676294687   -0.0023195405784098323
-0.27505423807830454   0.0011380885416071573   -0.007311046153917474
-0.27505423807830454   0.0011380885416071573   -0.007311046153917474
-0.27505423807830454   0.0011380885416071573   -0.007311046153917474
-0.27505423807830454   0.0011380885416071573   -0.007311046153917474
-0.22010161014932106   0.0011321359077224938   0.003090568308500347
-0.22010161014932106   0.0011321359077224938   0.003090568308500347
-0.22010161014932106   0.0011321359077224938   0.003090568308500347
-0.22010161014932106   0.0011321359077224938   0.003090568308500347
-0.2740931030952696   0.002296778524695904   -0.003664061221835581
-0.2740931030952696   0.002296778524695904   -0.003664061221835581
-0.2740931030952696   0.002296778524695904   -0.003664061221835581
-0.2740931030952696   0.002296778524695904   -0.003664061221835581
-0.1585340621964434   0.0260228324604857   0.0005924975586141037
-0.1585340621964434   0.0260228324604857   0.0005924975586141037
-0.1585340621964434   0.0260228324604857   0.0005924975586141037
-0.1585340621964434   0.0260228324604857   0.0005924975586141037
-0.1510972521006353   0.0518645415682706   -0.006522354445213933
-0.1510972521006353   0.0518645415682706   -0.006522354445213933
-0.1510972521006353   0.0518645415682706   -0.006522354445213933
-0.1510972521006353   0.0518645415682706   -0.006522354445213933
-0.26763476374913736   0.02502374954478552   -0.012461405074116385
-0.26763476374913736   0.02502374954478552   -0.012461405074116385
-0.26763476374913736   0.02502374954478552   -0.012461405074116385
-0.26763476374913736   0.02502374954478552   -0.012461405074116385
-0.21153055934454884   0.024657217220903117   0.012461355113188289
-0.21153055934454884   0.024657217220903117   0.012461355113188289
-0.21153055934454884   0.024657217220903117   0.012461355113188289
-0.21153055934454884   0.024657217220903117   0.012461355113188289
-0.1881591636399826   -0.06677483118408065   -0.015948350170254193
-0.1881591636399826   -0.06677483118408065   -0.015948350170254193
-0.1881591636399826   -0.06677483118408065   -0.015948350170254193
-0.1881591636399826   -0.06677483118408065   -0.015948350170254193
-0.05964730442719865   -0.0012169024494140049   0.02794577322485776
-0.05964730442719865   -0.0012169024494140049   0.02794577322485776
-0.05964730442719865   -0.0012169024494140049   0.02794577322485776
-0.05964730442719865   -0.0012169024494140049   0.02794577322485776
-0.06764760121010525   -0.02002132516896814   -0.020624815694883624
-0.06764760121010525   -0.02002132516896814   -0.020624815694883624
-0.06764760121010525   -0.02002132516896814   -0.020624815694883624
-0.06764760121010525   -0.02002132516896814   -0.020624815694883624
-0.16527370269797406   -0.0025441543296699613   0.01602461497154114
-0.16527370269797406   -0.0025441543296699613   0.01602461497154114
-0.16527370269797406   -0.0025441543296699613   0.01602461497154114
-0.16527370269797406   -0.0025441543296699613   0.01602461497154114
-0.12014630508527394   -0.021653483608465245   -0.0048178543108113505
-0.12014630508527394   -0.021653483608465245   -0.0048178543108113505
-0.12014630508527394   -0.021653483608465245   -0.0048178543108113505
-0.12014630508527394   -0.021653483608465245   -0.0048178543108113505
-0.18050871622524747   -0.04250625535993021   -0.020188351634567097
-0.18050871622524747   -0.04250625535993021   -0.020188351634567097
-0.18050871622524747   -0.04250625535993021   -0.020188351634567097
-0.18050871622524747   -0.04250625535993021   -0.020188351634567097
-0.05038217583375943   0.021971187710366845   0.023709798307510552
-0.05038217583375943   0.021971187710366845   0.023709798307510552
-0.05038217583375943   0.021971187710366845   0.023709798307510552
-0.05038217583375943   0.021971187710366845   0.023709798307510552
-0.055056980023016976   0.0046508949509636265   -0.02322107335182068
-0.055056980023016976   0.0046508949509636265   -0.02322107335182068
-0.055056980023016976   0.0046508949509636265   -0.02322107335182068
-0.055056980023016976   0.0046508949509636265   -0.02322107335182068
-0.1579706342342617   0.018737663092932164   0.01069480673707455
-0.1579706342342617   0.018737663092932164   0.01069480673707455
-0.1579706342342617   0.018737663092932164   0.01069480673707455
-0.1579706342342617   0.018737663092932164   0.01069480673707455
-0.1104911356110241   0.00018784877977106804   0.005136187390013948
-0.1104911356110241   0.00018784877977106804   0.005136187390013948
-0.1104911356110241   0.00018784877977106804   0.005136187390013948
-0.1104911356110241   0.00018784877977106804   0.005136187390013948
-0.17272161653162796   -0.01925192167646649   -0.025070519980360265
-0.17272161653162796   -0.01925192167646649   -0.025070519980360265
-0.17272161653162796   -0.01925192167646649   -0.025070519980360265
-0.17272161653162796   -0.01925192167646649   -0.025070519980360265
-0.03841562022658718   0.04453085721942546   0.020105763361866494
-0.03841562022658718   0.04453085721942546   0.020105763361866494
-0.03841562022658718   0.04453085721942546   0.020105763361866494
-0.03841562022658718   0.04453085721942546   0.020105763361866494
-0.04440925647988346   0.03218775478075303   -0.02601974047904094
-0.04440925647988346   0.03218775478075303   -0.02601974047904094
-0.04440925647988346   0.03218775478075303   -0.02601974047904094
-0.04440925647988346   0.03218775478075303   -0.02601974047904094
-0.15049391765305128   0.0428024161548177   0.0055564432061589245
-0.15049391765305128   0.0428024161548177   0.0055564432061589245
-0.15049391765305128   0.0428024161548177   0.0055564432061589245
-0.15049391765305128   0.0428024161548177   0.0055564432061589245
-0.10051039388872364   0.022934242278241458   0.015084293932481814
-0.10051039388872364   0.022934242278241458   0.015084293932481814
-0.10051039388872364   0.022934242278241458   0.015084293932481814
-0.10051039388872364   0.022934242278241458   0.015084293932481814
-0.08629028232895625   -0.07178077654040367   -0.03470524219294054
-0.08629028232895625   -0.07178077654040367   -0.03470524219294054
-0.08629028232895625   -0.07178077654040367   -0.03470524219294054
-0.08629028232895625   -0.07178077654040367   -0.03470524219294054
0.02600741587274482   0.021005316857271458   0.04268399174829346
0.02600741587274482   0.021005316857271458   0.04268399174829346
0.02600741587274482   0.021005316857271458   0.04268399174829346
0.02600741587274482   0.021005316857271458   0.04268399174829346
0.02615783826714225   -0.03554496708017609   -0.04597602286033689
0.02615783826714225   -0.03554496708017609   -0.04597602286033689
0.02615783826714225   -0.03554496708017609   -0.04597602286033689
0.02615783826714225   -0.03554496708017609   -0.04597602286033689
-0.048092990374513526   0.022189080657357783   0.03493783265674914
-0.048092990374513526   0.022189080657357783   0.03493783265674914
-0.048092990374513526   0.022189080657357783   0.03493783265674914
-0.048092990374513526   0.022189080657357783   0.03493783265674914
-0.02138351615507621   -0.015309316049236858   -0.00806450184938113
-0.02138351615507621   -0.015309316049236858   -0.00806450184938113
-0.02138351615507621   -0.015309316049236858   -0.00806450184938113
-0.02138351615507621   -0.015309316049236858   -0.00806450184938113
-0.07855407740230147   -0.055273208339136994   -0.0399053134856977
-0.07855407740230147   -0.055273208339136994   -0.0399053134856977
-0.07855407740230147   -0.055273208339136994   -0.0399053134856977
-0.07855407740230147   -0.055273208339136994   -0.0399053134856977
0.058788574215194525   0.0440869708365827   0.0375457189631657
0.058788574215194525   0.0440869708365827   0.0375457189631657
0.058788574215194525   0.0440869708365827   0.0375457189631657
0.058788574215194525   0.0440869708365827   0.0375457189631657
0.05030828867058612   -0.021422213137913884   -0.05463325083723353
0.05030828867058612   -0.021422213137913884   -0.05463325083723353
0.05030828867058612   -0.021422213137913884   -0.05463325083723353
0.05030828867058612   -0.021422213137913884   -0.05463325083723353
-0.0392495435956454   0.03243743043578404   0.028029573300216798
-0.0392495435956454   0.03243743043578404   0.028029573300216798
-0.0392495435956454   0.03243743043578404   0.028029573300216798
-0.0392495435956454   0.03243743043578404   0.028029573300216798
-0.0015701745371018724   -0.0007689106140111154   0.0027116156177341135
-0.0015701745371018724   -0.0007689106140111154   0.0027116156177341135
-0.0015701745371018724   -0.0007689106140111154   0.0027116156177341135
-0.0015701745371018724   -0.0007689106140111154   0.0027116156177341135
-0.06930678839310597   -0.04365201869455501   -0.04616720155674704
-0.06930678839310597   -0.04365201869455501   -0.04616720155674704
-0.06930678839310597   -0.04365201869455501   -0.04616720155674704
-0.06930678839310597   -0.04365201869455501   -0.04616720155674704
0.08253895746966058   0.05684065999403648   0.02825722002618838
0.08253895746966058   0.05684065999403648   0.02825722002618838
0.08253895746966058   0.05684065999403648   0.02825722002618838
0.08253895746966058   0.05684065999403648   0.02825722002618838
0.084192656062258   0.006206538913434132   -0.05852403925944478
0.084192656062258   0.006206538913434132   -0.05852403925944478
0.084192656062258   0.006206538913434132   -0.05852403925944478
0.084192656062258   0.006206538913434132   -0.05852403925944478
-0.030991263076655316   0.05047793164157249   0.02278004967628227
-0.030991263076655316   0.05047793164157249   0.02278004967628227
-0.030991263076655316   0.05047793164157249   0.02278004967628227
-0.030991263076655316   0.05047793164157249   0.02278004967628227
0.016353693504806775   0.014490576361347556   0.013260449824093898
0.016353693504806775   0.014490576361347556   0.013260449824093898
0.016353693504806775   0.014490576361347556   0.013260449824093898
0.016353693504806775   0.014490576361347556   0.013260449824093898
-0.1727747232315479   0.010136005269589299   0.04877493150323086
-0.1727747232315479   0.010136005269589299   0.04877493150323086
-0.1727747232315479   0.010136005269589299   0.04877493150323086
-0.1727747232315479   0.010136005269589299   0.04877493150323086
-0.2067190324647162   -0.06351791192311507   -0.02868360516574623
-0.2067190324647162   -0.06351791192311507   -0.02868360516574623
-0.2067190324647162   -0.06351791192311507   -0.02868360516574623
-0.2067190324647162   -0.06351791192311507   -0.02868360516574623
-0.1650407208734552   0.029476550517237955   0.039921871089390076
-0.1650407208734552   0.029476550517237955   0.039921871089390076
-0.1650407208734552   0.029476550517237955   0.039921871089390076
-0.1650407208734552   0.029476550517237955   0.039921871089390076
-0.1678144646211264   -0.041596152858361844   -0.036991349933056084
-0.1678144646211264   -0.041596152858361844   -0.036991349933056084
-0.1678144646211264   -0.041596152858361844   -0.036991349933056084
-0.1678144646211264   -0.041596152858361844   -0.036991349933056084
-0.17362750296806595   -0.013347912972921087   -0.013401929462663591
-0.17362750296806595   -0.013347912972921087   -0.013401929462663591
-0.17362750296806595   -0.013347912972921087   -0.013401929462663591
-0.17362750296806595   -0.013347912972921087   -0.013401929462663591
-0.1357243439554105   0.0364400598253337   0.0454230407118241
-0.1357243439554105   0.0364400598253337   0.0454230407118241
-0.1357243439554105   0.0364400598253337   0.0454230407118241
-0.1357243439554105   0.0364400598253337   0.0454230407118241
-0.1951106256094859   -0.04653944623677301   -0.03441165583675242
-0.1951106256094859   -0.04653944623677301   -0.03441165583675242
-0.1951106256094859   -0.04653944623677301   -0.03441165583675242
-0.1951106256094859   -0.04653944623677301   -0.03441165583675242
-0.15224829586920818   0.040675224333309945   0.03358539758123837
-0.15224829586920818   0.040675224333309945   0.03358539758123837
-0.15224829586920818   0.040675224333309945   0.03358539758123837
-0.15224829586920818   0.040675224333309945   0.03358539758123837
-0.1402956605190353   -0.028940195375723912   -0.04605654613134501
-0.1402956605190353   -0.028940195375723912   -0.04605654613134501
-0.1402956605190353   -0.028940195375723912   -0.04605654613134501
-0.1402956605190353   -0.028940195375723912   -0.04605654613134501
-0.1533284521150893   0.0009505891989366189   -0.0028460301842650505
-0.1533284521150893   0.0009505891989366189   -0.0028460301842650505
-0.1533284521150893   0.0009505891989366189   -0.0028460301842650505
-0.1533284521150893   0.0009505891989366189   -0.0028460301842650505
-0.10803007632114778   0.05005668718595609   0.03627449229640871
-0.10803007632114778   0.05005668718595609   0.03627449229640871
-0.10803007632114778   0.05005668718595609   0.03627449229640871
-0.10803007632114778   0.05005668718595609   0.03627449229640871
-0.18261160315123154   -0.03641938131250143   -0.041136533183066995
-0.18261160315123154   -0.03641938131250143   -0.041136533183066995
-0.18261160315123154   -0.03641938131250143   -0.041136533183066995
-0.18261160315123154   -0.03641938131250143   -0.041136533183066995
-0.14055431281838812   0.057803111061973333   0.029005782123745872
-0.14055431281838812   0.057803111061973333   0.029005782123745872
-0.14055431281838812   0.057803111061973333   0.029005782123745872
-0.14055431281838812   0.057803111061973333   0.029005782123745872
-0.10355848200883241   -0.004885272653517299   -0.05187684614066962
-0.10355848200883241   -0.004885272653517299   -0.05187684614066962
-0.10355848200883241   -0.004885272653517299   -0.05187684614066962
-0.10355848200883241   -0.004885272653517299   -0.05187684614066962
-0.12895124330938257   0.015905796026077973   0.008444551390855851
-0.12895124330938257   0.015905796026077973   0.008444551390855851
-0.12895124330938257   0.015905796026077973   0.008444551390855851
-0.12895124330938257   0.015905796026077973   0.008444551390855851
-0.1849725029811449   -0.011257561862841058   0.027788692191836335
-0.1849725029811449   -0.011257561862841058   0.027788692191836335
-0.1849725029811449   -0.011257561862841058   0.027788692191836335
-0.1849725029811449   -0.011257561862841058   0.027788692191836335
-0.23050112189398603   -0.051816918321843916   -0.011204782294232501
-0.23050112189398603   -0.051816918321843916   -0.011204782294232501
-0.23050112189398603   -0.051816918321843916   -0.011204782294232501
-0.23050112189398603   -0.051816918321843916   -0.011204782294232501
-0.2056160454631787   0.005207678417512768   0.018528842869942053
-0.2056160454631787   0.005207678417512768   0.018528842869942053
-0.2056160454631787   0.005207678417512768   0.018528842869942053
-0.2056160454631787   0.005207678417512768   0.018528842869942053
-0.18717722656880284   -0.024343704390138513   -0.016940402479967868
-0.18717722656880284   -0.024343704390138513   -0.016940402479967868
-0.18717722656880284   -0.024343704390138513   -0.016940402479967868
-0.18717722656880284   -0.024343704390138513   -0.016940402479967868
-0.2022250666733536   -0.018969401728699015   -0.009402023630277633
-0.2022250666733536   -0.018969401728699015   -0.009402023630277633
-0.2022250666733536   -0.018969401728699015   -0.009402023630277633
-0.2022250666733536   -0.018969401728699015   -0.009402023630277633
-0.17143235832070697   0.013188911788410446   0.024251322581958716
-0.17143235832070697   0.013188911788410446   0.024251322581958716
-0.17143235832070697   0.013188911788410446   0.024251322581958716
-0.17143235832070697   0.013188911788410446   0.024251322581958716
-0.21977756132800128   -0.03074158537776896   -0.016329472658891023
-0.21977756132800128   -0.03074158537776896   -0.016329472658891023
-0.21977756132800128   -0.03074158537776896   -0.016329472658891023
-0.21977756132800128   -0.03074158537776896   -0.016329472658891023
-0.1941987939914588   0.02750207491667228   0.014132839938464686
-0.1941987939914588   0.02750207491667228   0.014132839938464686
-0.1941987939914588   0.02750207491667228   0.014132839938464686
-0.1941987939914588   0.02750207491667228   0.014132839938464686
-0.1718815518088443   -0.0028730882953017928   -0.021032569488330224
-0.1718815518088443   -0.0028730882953017928   -0.021032569488330224
-0.1718815518088443   -0.0028730882953017928   -0.021032569488330224
-0.1718815518088443   -0.0028730882953017928   -0.021032569488330224
-0.1885733619419263   0.0018190417595896763   0.0003360403035582646
-0.1885733619419263   0.0018190417595896763   0.0003360403035582646
-0.1885733619419263   0.0018190417595896763   0.0003360403035582646
-0.1885733619419263   0.0018190417595896763   0.0003360403035582646
-0.15536955355726986   0.03681018475888761   0.02184414871535238
-0.15536955355726986   0.03681018475888761   0.02184414871535238
-0.15536955355726986   0.03681018475888761   0.02184414871535238
-0.15536955355726986   0.03681018475888761   0.02184414871535238
-0.2090227190930965   -0.010493124987575597   -0.021991585665477698
-0.2090227190930965   -0.010493124987575597   -0.021991585665477698
-0.2090227190930965   -0.010493124987575597   -0.021991585665477698
-0.2090227190930965   -0.010493124987575597   -0.021991585665477698
-0.18272462114741353   0.05219231961977664   0.0099543374612266
-0.18272462114741353   0.05219231961977664   0.0099543374612266
-0.18272462114741353   0.05219231961977664   0.0099543374612266
-0.18272462114741353   0.05219231961977664   0.0099543374612266
-0.15869689891190458   0.02097139899236835   -0.02487543627422764
-0.15869689891190458   0.02097139899236835   -0.02487543627422764
-0.15869689891190458   0.02097139899236835   -0.02487543627422764
-0.15869689891190458   0.02097139899236835   -0.02487543627422764
-0.17566506964668036   0.023303790830591267   0.010253180246690245
-0.17566506964668036   0.023303790830591267   0.010253180246690245
-0.17566506964668036   0.023303790830591267   0.010253180246690245
-0.17566506964668036   0.023303790830591267   0.010253180246690245
-0.22259185884332766   -0.03130627489433311   0.007830889531542694
-0.22259185884332766   -0.03130627489433311   0.007830889531542694
-0.22259185884332766   -0.03130627489433311   0.007830889531542694
-0.22259185884332766   -0.03130627489433311   0.007830889531542694
-0.25416291532799296   -0.032812415600291245   0.006766506364798997
-0.25416291532799296   -0.032812415600291245   0.006766506364798997
-0.25416291532799296   -0.032812415600291245   0.006766506364798997
-0.25416291532799296   -0.032812415600291245   0.006766506364798997
-0.24503057779937723   -0.014959285704497859   -0.002409786323705072
-0.24503057779937723   -0.014959285704497859   -0.002409786323705072
-0.24503057779937723   -0.014959285704497859   -0.002409786323705072
-0.24503057779937723   -0.014959285704497859   -0.002409786323705072
-0.2107999544375386   -0.004401548704808321   0.0022185251204637196
-0.2107999544375386   -0.004401548704808321   0.0022185251204637196
-0.2107999544375386   -0.004401548704808321   0.0022185251204637196
-0.2107999544375386   -0.004401548704808321   0.0022185251204637196
-0.2334962688641032   -0.019687319833018344   -0.006248598647808971
-0.2334962688641032   -0.019687319833018344   -0.006248598647808971
-0.2334962688641032   -0.019687319833018344   -0.006248598647808971
-0.2334962688641032   -0.019687319833018344   -0.006248598647808971
-0.21095900778031484   -0.006882227079658923   0.003903936781427241
-0.21095900778031484   -0.006882227079658923   0.003903936781427241
-0.21095900778031484   -0.006882227079658923   0.003903936781427241
-0.21095900778031484   -0.006882227079658923   0.003903936781427241
-0.2433774643019993   -0.010984547175046218   0.001881042633734965
-0.2433774643019993   -0.010984547175046218   0.001881042633734965
-0.2433774643019993   -0.010984547175046218   0.001881042633734965
-0.2433774643019993   -0.010984547175046218   0.001881042633734965
-0.2330318784188068   0.009783098708964606   -0.00610835497662798
-0.2330318784188068   0.009783098708964606   -0.00610835497662798
-0.2330318784188068   0.009783098708964606   -0.00610835497662798
-0.2330318784188068   0.009783098708964606   -0.00610835497662798
-0.19942104156164892   0.01802794052854438   -0.002504263524357883
-0.19942104156164892   0.01802794052854438   -0.002504263524357883
-0.19942104156164892   0.01802794052854438   -0.002504263524357883
-0.19942104156164892   0.01802794052854438   -0.002504263524357883
-0.2209579974336434   0.0024223155590210182   0.003370290994972755
-0.2209579974336434   0.0024223155590210182   0.003370290994972755
-0.2209579974336434   0.0024223155590210182   0.003370290994972755
-0.2209579974336434   0.0024223155590210182   0.003370290994972755
-0.19900865685976052   0.017772111765687326   -0.00018651125206066085
-0.19900865685976052   0.017772111765687326   -0.00018651125206066085
-0.19900865685976052   0.017772111765687326   -0.00018651125206066085
-0.19900865685976052   0.017772111765687326   -0.00018651125206066085
-0.2321402143642411   0.011342976228275431   -0.0032099122231104213
-0.2321402143642411   0.011342976228275431   -0.0032099122231104213
-0.2321402143642411   0.011342976228275431   -0.0032099122231104213
-0.2321402143642411   0.011342976228275431   -0.0032099122231104213
-0.22154226390192613   0.03467894653555421   -0.010277919967468751
-0.22154226390192613   0.03467894653555421   -0.010277919967468751
-0.22154226390192613   0.03467894653555421   -0.010277919967468751
-0.22154226390192613   0.03467894653555421   -0.010277919967468751
-0.18858312990886503   0.04054929675405326   -0.007695183480305633
-0.18858312990886503   0.04054929675405326   -0.007695183480305633
-0.18858312990886503   0.04054929675405326   -0.007695183480305633
-0.18858312990886503   0.04054929675405326   -0.007695183480305633
-0.20900388495082203   0.024573099581346063   0.01253855805761864
-0.20900388495082203   0.024573099581346063   0.01253855805761864
-0.20900388495082203   0.024573099581346063   0.01253855805761864
-0.20900388495082203   0.024573099581346063   0.01253855805761864
-0.26141759548762517   -0.049686647761001956   -0.012632662272655481
-0.26141759548762517   -0.049686647761001956   -0.012632662272655481
-0.26141759548762517   -0.049686647761001956   -0.012632662272655481
-0.26141759548762517   -0.049686647761001956   -0.012632662272655481
-0.2798938684506745   -0.014195858612982344   0.023930615673720616
-0.2798938684506745   -0.014195858612982344   0.023930615673720616
-0.2798938684506745   -0.014195858612982344   0.023930615673720616
-0.2798938684506745   -0.014195858612982344   0.023930615673720616
-0.28446106969127194   -0.03431382353150992   -0.02363636404437608
-0.28446106969127194   -0.03431382353150992   -0.02363636404437608
-0.28446106969127194   -0.03431382353150992   -0.02363636404437608
-0.28446106969127194   -0.03431382353150992   -0.02363636404437608
-0.2345387215037108   0.014863651000346464   0.02022655844978258
-0.2345387215037108   0.014863651000346464   0.02022655844978258
-0.2345387215037108   0.014863651000346464   0.02022655844978258
-0.2345387215037108   0.014863651000346464   0.02022655844978258
-0.263967397445683   -0.019491102162500037   -0.0039309669379379835
-0.263967397445683   -0.019491102162500037   -0.0039309669379379835
-0.263967397445683   -0.019491102162500037   -0.0039309669379379835
-0.263967397445683   -0.019491102162500037   -0.0039309669379379835
-0.2501055526094402   -0.026053530434976935   -0.016690415643542962
-0.2501055526094402   -0.026053530434976935   -0.016690415643542962
-0.2501055526094402   -0.026053530434976935   -0.016690415643542962
-0.2501055526094402   -0.026053530434976935   -0.016690415643542962
-0.26732787591049934   0.008169720578856364   0.019546060749120634
-0.26732787591049934   0.008169720578856364   0.019546060749120634
-0.26732787591049934   0.008169720578856364   0.019546060749120634
-0.26732787591049934   0.008169720578856364   0.019546060749120634
-0.26870891900458005   -0.010853034148217429   -0.026520394698370427
-0.26870891900458005   -0.010853034148217429   -0.026520394698370427
-0.26870891900458005   -0.010853034148217429   -0.026520394698370427
-0.26870891900458005   -0.010853034148217429   -0.026520394698370427
-0.22374412561829476   0.03509073994117489   0.015022767793719704
-0.22374412561829476   0.03509073994117489   0.015022767793719704
-0.22374412561829476   0.03509073994117489   0.015022767793719704
-0.22374412561829476   0.03509073994117489   0.015022767793719704
-0.24970203428602128   0.0018070852764423342   0.0060011959968594205
-0.24970203428602128   0.0018070852764423342   0.0060011959968594205
-0.24970203428602128   0.0018070852764423342   0.0060011959968594205
-0.24970203428602128   0.0018070852764423342   0.0060011959968594205
-0.2388277046008103   -0.003861324802774735   -0.021443062374911365
-0.2388277046008103   -0.003861324802774735   -0.021443062374911365
-0.2388277046008103   -0.003861324802774735   -0.021443062374911365
-0.2388277046008103   -0.003861324802774735   -0.021443062374911365
-0.2520424138982451   0.029681956719549082   0.01627713996554094
-0.2520424138982451   0.029681956719549082   0.01627713996554094
-0.2520424138982451   0.029681956719549082   0.01627713996554094
-0.2520424138982451   0.029681956719549082   0.01627713996554094
-0.2549285671056597   0.01498291472031002   -0.029106414513771103
-0.2549285671056597   0.01498291472031002   -0.029106414513771103
-0.2549285671056597   0.01498291472031002   -0.029106414513771103
-0.2549285671056597   0.01498291472031002   -0.029106414513771103
-0.21292010292148034   0.057621930542106556   0.009889900928207955
-0.21292010292148034   0.057621930542106556   0.009889900928207955
-0.21292010292148034   0.057621930542106556   0.009889900928207955
-0.21292010292148034   0.057621930542106556   0.009889900928207955
-0.23761180563643394   0.022924614073481925   0.015492014509061323
-0.23761180563643394   0.022924614073481925   0.015492014509061323
-0.23761180563643394   0.022924614073481925   0.015492014509061323
-0.23761180563643394   0.022924614073481925   0.015492014509061323
-0.2999937859772334   -0.05907057331399609   -0.031694257258065996
-0.2999937859772334   -0.05907057331399609   -0.031694257258065996
-0.2999937859772334   -0.05907057331399609   -0.031694257258065996
-0.2999937859772334   -0.05907057331399609   -0.031694257258065996
-0.3326819429253969   0.004349200050818097   0.043137900328455756
-0.3326819429253969   0.004349200050818097   0.043137900328455756
-0.3326819429253969   0.004349200050818097   0.043137900328455756
-0.3326819429253969   0.004349200050818097   0.043137900328455756
-0.32833991127248885   -0.04929705985836308   -0.04224594902387979
-0.32833991127248885   -0.04929705985836308   -0.04224594902387979
-0.32833991127248885   -0.04929705985836308   -0.04224594902387979
-0.32833991127248885   -0.04929705985836308   -0.04224594902387979
-0.25768468617099544   0.03726675514436728   0.03866497488112636
-0.25768468617099544   0.03726675514436728   0.03866497488112636
-0.25768468617099544   0.03726675514436728   0.03866497488112636
-0.25768468617099544   0.03726675514436728   0.03866497488112636
-0.29244697686876525   -0.01275812910639259   -0.0018747161777756937
-0.29244697686876525   -0.01275812910639259   -0.0018747161777756937
-0.29244697686876525   -0.01275812910639259   -0.0018747161777756937
-0.29244697686876525   -0.01275812910639259   -0.0018747161777756937
-0.28813111682535386   -0.040055163177850475   -0.036245260068451794
-0.28813111682535386   -0.040055163177850475   -0.036245260068451794
-0.28813111682535386   -0.040055163177850475   -0.036245260068451794
-0.28813111682535386   -0.040055163177850475   -0.036245260068451794
-0.2962381403746478   0.0296801987073367   0.039285646899625826
-0.2962381403746478   0.0296801987073367   0.039285646899625826
-0.2962381403746478   0.0296801987073367   0.039285646899625826
-0.2962381403746478   0.0296801987073367   0.039285646899625826
-0.3010782093121036   -0.03560752473903444   -0.05036653685741737
-0.3010782093121036   -0.03560752473903444   -0.05036653685741737
-0.3010782093121036   -0.03560752473903444   -0.05036653685741737
-0.3010782093121036   -0.03560752473903444   -0.05036653685741737
-0.2455212632374427   0.04690950901761511   0.03165534097148372
-0.2455212632374427   0.04690950901761511   0.03165534097148372
-0.2455212632374427   0.04690950901761511   0.03165534097148372
-0.2455212632374427   0.04690950901761511   0.03165534097148372
-0.27405466310835835   0.0015575666807128782   0.007646498169994251
-0.27405466310835835   0.0015575666807128782   0.007646498169994251
-0.27405466310835835   0.0015575666807128782   0.007646498169994251
-0.27405466310835835   0.0015575666807128782   0.007646498169994251
-0.27538133124524433   -0.02878494980346783   -0.0419505402464436
-0.27538133124524433   -0.02878494980346783   -0.0419505402464436
-0.27538133124524433   -0.02878494980346783   -0.0419505402464436
-0.27538133124524433   -0.02878494980346783   -0.0419505402464436
-0.26948251310010607   0.04182256228624408   0.030181857177291906
-0.26948251310010607   0.04182256228624408   0.030181857177291906
-0.26948251310010607   0.04182256228624408   0.030181857177291906
-0.26948251310010607   0.04182256228624408   0.030181857177291906
-0.2652542271852427   -0.011942271766793147   -0.05505800325695859
-0.2652542271852427   -0.011942271766793147   -0.05505800325695859
-0.2652542271852427   -0.011942271766793147   -0.05505800325695859
-0.2652542271852427   -0.011942271766793147   -0.05505800325695859
-0.23463708525370006   0.06126007926316275   0.026073830203172284
-0.23463708525370006   0.06126007926316275   0.026073830203172284
-0.23463708525370006   0.06126007926316275   0.026073830203172284
-0.23463708525370006   0.06126007926316275   0.026073830203172284
-0.2487729626056811   0.015845507319934463   0.018684557165925854
-0.2487729626056811   0.015845507319934463   0.018684557165925854
-0.2487729626056811   0.015845507319934463   0.018684557165925854
-0.2487729626056811   0.015845507319934463   0.018684557165925854
0.18169955059458043   0.029321523394005178   0.04709498836055831
0.18169955059458043   0.029321523394005178   0.04709498836055831
0.18169955059458043   0.029321523394005178   0.04709498836055831
0.18169955059458043   0.029321523394005178   0.04709498836055831
-0.004033074828571587   -0.07562932771387021   -0.03105510403129217
-0.004033074828571587   -0.07562932771387021   -0.03105510403129217
-0.004033074828571587   -0.07562932771387021   -0.03105510403129217
-0.004033074828571587   -0.07562932771387021   -0.03105510403129217
0.040332006982166525   0.01470567549016523   0.03637132020628637
0.040332006982166525   0.01470567549016523   0.03637132020628637
0.040332006982166525   0.01470567549016523   0.03637132020628637
0.040332006982166525   0.01470567549016523   0.03637132020628637
0.189404933940073   -0.02631253719306753   -0.03889446788839396
0.189404933940073   -0.02631253719306753   -0.03889446788839396
0.189404933940073   -0.02631253719306753   -0.03889446788839396
0.189404933940073   -0.02631253719306753   -0.03889446788839396
0.0927580014839336   -0.01462424855938197   -0.02246944460702978
0.0927580014839336   -0.01462424855938197   -0.02246944460702978
0.0927580014839336   -0.01462424855938197   -0.02246944460702978
0.0927580014839336   -0.01462424855938197   -0.02246944460702978
0.22137249303487297   0.052138055614964096   0.042492734777574245
0.22137249303487297   0.052138055614964096   0.042492734777574245
0.22137249303487297   0.052138055614964096   0.042492734777574245
0.22137249303487297   0.052138055614964096   0.042492734777574245
0.010339596329273917   -0.06176976887595904   -0.0371152886920524
0.010339596329273917   -0.06176976887595904   -0.0371152886920524
0.010339596329273917   -0.06176976887595904   -0.0371152886920524
0.010339596329273917   -0.06176976887595904   -0.0371152886920524
0.056440272540419   0.02568706569849219   0.030343826180281225
0.056440272540419   0.02568706569849219   0.030343826180281225
0.056440272540419   0.02568706569849219   0.030343826180281225
0.056440272540419   0.02568706569849219   0.030343826180281225
0.22034844177059296   -0.013909584461489204   -0.04863144344519556
0.22034844177059296   -0.013909584461489204   -0.04863144344519556
0.22034844177059296   -0.013909584461489204   -0.04863144344519556
0.22034844177059296   -0.013909584461489204   -0.04863144344519556
0.12069221223296484   -0.0009437500239349098   -0.010591235554700672
0.12069221223296484   -0.0009437500239349098   -0.010591235554700672
0.12069221223296484   -0.0009437500239349098   -0.010591235554700672
0.12069221223296484   -0.0009437500239349098   -0.010591235554700672
0.2526579833760765   0.06555264887809434   0.0334540312426345
0.2526579833760765   0.06555264887809434   0.0334540312426345
0.2526579833760765   0.06555264887809434   0.0334540312426345
0.2526579833760765   0.06555264887809434   0.0334540312426345
0.02605883450715434   -0.051847064068873794   -0.044029234218679894
0.02605883450715434   -0.051847064068873794   -0.044029234218679894
0.02605883450715434   -0.051847064068873794   -0.044029234218679894
0.02605883450715434   -0.051847064068873794   -0.044029234218679894
0.07206923793974118   0.04586702377485103   0.02625691605259843
0.07206923793974118   0.04586702377485103   0.02625691605259843
0.07206923793974118   0.04586702377485103   0.02625691605259843
0.07206923793974118   0.04586702377485103   0.02625691605259843
0.26143521366295436   0.013845250550667442   -0.053623789311135935
0.26143521366295436   0.013845250550667442   -0.053623789311135935
0.26143521366295436   0.013845250550667442   -0.053623789311135935
0.26143521366295436   0.013845250550667442   -0.053623789311135935
0.14408854443898816   0.01440248272231038   0.0006278638657436809
0.14408854443898816   0.01440248272231038   0.0006278638657436809
0.14408854443898816   0.01440248272231038   0.0006278638657436809
0.14408854443898816   0.01440248272231038   0.0006278638657436809
0.02530647008596375   0.00799017924875128   0.03202311357876303
0.02530647008596375   0.00799017924875128   0.03202311357876303
0.02530647008596375   0.00799017924875128   0.03202311357876303
0.02530647008596375   0.00799017924875128   0.03202311357876303
-0.17185092106529123   -0.0642361129219463   -0.014251432673917541
-0.17185092106529123   -0.0642361129219463   -0.014251432673917541
-0.17185092106529123   -0.0642361129219463   -0.014251432673917541
-0.17185092106529123   -0.0642361129219463   -0.014251432673917541
-0.14389503672302723   -0.0093783565043026   0.014604147103466754
-0.14389503672302723   -0.0093783565043026   0.014604147103466754
-0.14389503672302723   -0.0093783565043026   0.014604147103466754
-0.14389503672302723   -0.0093783565043026   0.014604147103466754
0.026412072652484634   -0.007235389133042795   -0.011287286818915058
0.026412072652484634   -0.007235389133042795   -0.011287286818915058
0.026412072652484634   -0.007235389133042795   -0.011287286818915058
0.026412072652484634   -0.007235389133042795   -0.011287286818915058
-0.06743184409645674   -0.016570411681494108   -0.01078690990088022
-0.06743184409645674   -0.016570411681494108   -0.01078690990088022
-0.06743184409645674   -0.016570411681494108   -0.01078690990088022
-0.06743184409645674   -0.016570411681494108   -0.01078690990088022
0.04190683647878318   0.0305428477927327   0.028408295386802163
0.04190683647878318   0.0305428477927327   0.028408295386802163
0.04190683647878318   0.0305428477927327   0.028408295386802163
0.04190683647878318   0.0305428477927327   0.028408295386802163
-0.15794926310646656   -0.045716055987213754   -0.019329285330818673
-0.15794926310646656   -0.045716055987213754   -0.019329285330818673
-0.15794926310646656   -0.045716055987213754   -0.019329285330818673
-0.15794926310646656   -0.045716055987213754   -0.019329285330818673
-0.12921212597263337   0.01193093444495177   0.010318118376726705
-0.12921212597263337   0.01193093444495177   0.010318118376726705
-0.12921212597263337   0.01193093444495177   0.010318118376726705
-0.12921212597263337   0.01193093444495177   0.010318118376726705
0.04477297085736017   0.012974202895601852   -0.015279819432122588
0.04477297085736017   0.012974202895601852   -0.015279819432122588
0.04477297085736017   0.012974202895601852   -0.015279819432122588
0.04477297085736017   0.012974202895601852   -0.015279819432122588
-0.051866160646935236   0.002218090682416572   -0.0013231053410500495
-0.051866160646935236   0.002218090682416572   -0.0013231053410500495
-0.051866160646935236   0.002218090682416572   -0.0013231053410500495
-0.051866160646935236   0.002218090682416572   -0.0013231053410500495
0.06092104898124177   0.05298408381413242   0.025450690268754822
0.06092104898124177   0.05298408381413242   0.025450690268754822
0.06092104898124177   0.05298408381413242   0.025450690268754822
0.06092104898124177   0.05298408381413242   0.025450690268754822
-0.14397282484433668   -0.02669156722140562   -0.024862874315432406
-0.14397282484433668   -0.02669156722140562   -0.024862874315432406
-0.14397282484433668   -0.02669156722140562   -0.024862874315432406
-0.14397282484433668   -0.02669156722140562   -0.024862874315432406
-0.11443952590537544   0.036044475460870945   0.0062325730617562025
-0.11443952590537544   0.036044475460870945   0.0062325730617562025
-0.11443952590537544   0.036044475460870945   0.0062325730617562025
-0.11443952590537544   0.036044475460870945   0.0062325730617562025
0.0609244924642992   0.03590575188643289   -0.019505539436189583
0.0609244924642992   0.03590575188643289   -0.019505539436189583
0.0609244924642992   0.03590575188643289   -0.019505539436189583
0.0609244924642992   0.03590575188643289   -0.019505539436189583
-0.03463593470507608   0.022977894990488735   0.008772183362860217
-0.03463593470507608   0.022977894990488735   0.008772183362860217
-0.03463593470507608   0.022977894990488735   0.008772183362860217
-0.03463593470507608   0.022977894990488735   0.008772183362860217
-0.15630220995644215   -0.012285311507720772   0.01154132145610052
-0.15630220995644215   -0.012285311507720772   0.01154132145610052
-0.15630220995644215   -0.012285311507720772   0.01154132145610052
-0.15630220995644215   -0.012285311507720772   0.01154132145610052
-0.33661659332960625   -0.04573407649798267   0.0029349777915629108
-0.33661659332960625   -0.04573407649798267   0.0029349777915629108
-0.33661659332960625   -0.04573407649798267   0.0029349777915629108
-0.33661659332960625   -0.04573407649798267   0.0029349777915629108
-0.3237784780586329   -0.02870810735975836   -0.006335744533222807
-0.3237784780586329   -0.02870810735975836   -0.006335744533222807
-0.3237784780586329   -0.02870810735975836   -0.006335744533222807
-0.3237784780586329   -0.02870810735975836   -0.006335744533222807
-0.1411233212640573   0.011952548352746131   0.007131819541267735
-0.1411233212640573   0.011952548352746131   0.007131819541267735
-0.1411233212640573   0.011952548352746131   0.007131819541267735
-0.1411233212640573   0.011952548352746131   0.007131819541267735
-0.23980436092452187   -0.017169185657626602   -0.00629210206381344
-0.23980436092452187   -0.017169185657626602   -0.00629210206381344
-0.23980436092452187   -0.017169185657626602   -0.00629210206381344
-0.23980436092452187   -0.017169185657626602   -0.00629210206381344
-0.1412976904251585   0.010581419576063764   0.007631102512444079
-0.1412976904251585   0.010581419576063764   0.007631102512444079
-0.1412976904251585   0.010581419576063764   0.007631102512444079
-0.1412976904251585   0.010581419576063764   0.007631102512444079
-0.32236605728455864   -0.026098926970113123   -0.0018828210524964861
-0.32236605728455864   -0.026098926970113123   -0.0018828210524964861
-0.32236605728455864   -0.026098926970113123   -0.0018828210524964861
-0.32236605728455864   -0.026098926970113123   -0.0018828210524964861
-0.3083348693080637   -0.005246539689959168   -0.009962836870460887
-0.3083348693080637   -0.005246539689959168   -0.009962836870460887
-0.3083348693080637   -0.005246539689959168   -0.009962836870460887
-0.3083348693080637   -0.005246539689959168   -0.009962836870460887
-0.1265866349995935   0.03274171349906753   0.0026347941878121957
-0.1265866349995935   0.03274171349906753   0.0026347941878121957
-0.1265866349995935   0.03274171349906753   0.0026347941878121957
-0.1265866349995935   0.03274171349906753   0.0026347941878121957
-0.22385600370255107   0.003432747500443971   0.0032464489155523708
-0.22385600370255107   0.003432747500443971   0.0032464489155523708
-0.22385600370255107   0.003432747500443971   0.0032464489155523708
-0.22385600370255107   0.003432747500443971   0.0032464489155523708
-0.12620087818096537   0.03386157022129729   0.003443721558723103
-0.12620087818096537   0.03386157022129729   0.003443721558723103
-0.12620087818096537   0.03386157022129729   0.003443721558723103
-0.12620087818096537   0.03386157022129729   0.003443721558723103
-0.3077294078958842   -0.005375178181376644   -0.0068068913181486
-0.3077294078958842   -0.005375178181376644   -0.0068068913181486
-0.3077294078958842   -0.005375178181376644   -0.0068068913181486
-0.3077294078958842   -0.005375178181376644   -0.0068068913181486
-0.2935135789963057   0.01828292453499017   -0.014096595488180395
-0.2935135789963057   0.01828292453499017   -0.014096595488180395
-0.2935135789963057   0.01828292453499017   -0.014096595488180395
-0.2935135789963057   0.01828292453499017   -0.014096595488180395
-0.11268631043183772   0.05359198656580575   -0.0025488606754899557
-0.11268631043183772   0.05359198656580575   -0.0025488606754899557
-0.11268631043183772   0.05359198656580575   -0.0025488606754899557
-0.11268631043183772   0.05359198656580575   -0.0025488606754899557
-0.2087437886292149   0.023979673363159225   0.012162469918212463
-0.2087437886292149   0.023979673363159225   0.012162469918212463
-0.2087437886292149   0.023979673363159225   0.012162469918212463
-0.2087437886292149   0.023979673363159225   0.012162469918212463
-0.3364079805167852   -0.032196675907842566   -0.00955935873446972
-0.3364079805167852   -0.032196675907842566   -0.00955935873446972
-0.3364079805167852   -0.032196675907842566   -0.00955935873446972
-0.3364079805167852   -0.032196675907842566   -0.00955935873446972
-0.499808111705492   -0.028340342722341802   0.019798222472144956
-0.499808111705492   -0.028340342722341802   0.019798222472144956
-0.499808111705492   -0.028340342722341802   0.019798222472144956
-0.499808111705492   -0.028340342722341802   0.019798222472144956
-0.5000775948317691   -0.04764877805333548   -0.026796713490568915
-0.5000775948317691   -0.04764877805333548   -0.026796713490568915
-0.5000775948317691   -0.04764877805333548   -0.026796713490568915
-0.5000775948317691   -0.04764877805333548   -0.026796713490568915
-0.3058515235968548   0.030296761148500065   0.024294159267409354
-0.3058515235968548   0.030296761148500065   0.024294159267409354
-0.3058515235968548   0.030296761148500065   0.024294159267409354
-0.3058515235968548   0.030296761148500065   0.024294159267409354
-0.4082354440788647   -0.017484648172791495   -0.002658436956676811
-0.4082354440788647   -0.017484648172791495   -0.002658436956676811
-0.4082354440788647   -0.017484648172791495   -0.002658436956676811
-0.4082354440788647   -0.017484648172791495   -0.002658436956676811
-0.3212775839388537   -0.0091977578628792   -0.013341623431202893
-0.3212775839388537   -0.0091977578628792   -0.013341623431202893
-0.3212775839388537   -0.0091977578628792   -0.013341623431202893
-0.3212775839388537   -0.0091977578628792   -0.013341623431202893
-0.483624951432092   -0.0071276759842769655   0.014945401438761316
-0.483624951432092   -0.0071276759842769655   0.014945401438761316
-0.483624951432092   -0.0071276759842769655   0.014945401438761316
-0.483624951432092   -0.0071276759842769655   0.014945401438761316
-0.4807063968538461   -0.025269776433065952   -0.029817542841933175
-0.4807063968538461   -0.025269776433065952   -0.029817542841933175
-0.4807063968538461   -0.025269776433065952   -0.029817542841933175
-0.4807063968538461   -0.025269776433065952   -0.029817542841933175
-0.2915829725631326   0.04921377156535334   0.019336335598882013
-0.2915829725631326   0.04921377156535334   0.019336335598882013
-0.2915829725631326   0.04921377156535334   0.019336335598882013
-0.2915829725631326   0.04921377156535334   0.019336335598882013
-0.3890821025609158   0.0032857356311034175   0.00717415761151519
-0.3890821025609158   0.0032857356311034175   0.00717415761151519
-0.3890821025609158   0.0032857356311034175   0.00717415761151519
-0.3890821025609158   0.0032857356311034175   0.00717415761151519
-0.3064965080760403   0.011943496509017479   -0.017961066909321848
-0.3064965080760403   0.011943496509017479   -0.017961066909321848
-0.3064965080760403   0.011943496509017479   -0.017961066909321848
-0.3064965080760403   0.011943496509017479   -0.017961066909321848
-0.4646390841361326   0.013154275828075504   0.012094968485492814
-0.4646390841361326   0.013154275828075504   0.012094968485492814
-0.4646390841361326   0.013154275828075504   0.012094968485492814
-0.4646390841361326   0.013154275828075504   0.012094968485492814
-0.46338007038855733   -0.000868124658579883   -0.0321004076081473
-0.46338007038855733   -0.000868124658579883   -0.0321004076081473
-0.46338007038855733   -0.000868124658579883   -0.0321004076081473
-0.46338007038855733   -0.000868124658579883   -0.0321004076081473
-0.2774636949398824   0.07009538534966597   0.014340363979260279
-0.2774636949398824   0.07009538534966597   0.014340363979260279
-0.2774636949398824   0.07009538534966597   0.014340363979260279
-0.2774636949398824   0.07009538534966597   0.014340363979260279
-0.37478073842326864   0.02264543422321383   0.015983169126116435
-0.37478073842326864   0.02264543422321383   0.015983169126116435
-0.37478073842326864   0.02264543422321383   0.015983169126116435
-0.37478073842326864   0.02264543422321383   0.015983169126116435
-0.5131644947125423   -0.04619974785782649   -0.029124287427621773
-0.5131644947125423   -0.04619974785782649   -0.029124287427621773
-0.5131644947125423   -0.04619974785782649   -0.029124287427621773
-0.5131644947125423   -0.04619974785782649   -0.029124287427621773
-0.6859463617278542   -0.012228328025691071   0.04299341615426912
-0.6859463617278542   -0.012228328025691071   0.04299341615426912
-0.6859463617278542   -0.012228328025691071   0.04299341615426912
-0.6859463617278542   -0.012228328025691071   0.04299341615426912
-0.6765479817846927   -0.06202075879719872   -0.03890929921300637
-0.6765479817846927   -0.06202075879719872   -0.03890929921300637
-0.6765479817846927   -0.06202075879719872   -0.03890929921300637
-0.6765479817846927   -0.06202075879719872   -0.03890929921300637
-0.46646470897947545   0.05123663846312265   0.042382299254440786
-0.46646470897947545   0.05123663846312265   0.042382299254440786
-0.46646470897947545   0.05123663846312265   0.042382299254440786
-0.46646470897947545   0.05123663846312265   0.042382299254440786
-0.5602772714658126   -0.009959044550750404   0.004702882933240008
-0.5602772714658126   -0.009959044550750404   0.004702882933240008
-0.5602772714658126   -0.009959044550750404   0.004702882933240008
-0.5602772714658126   -0.009959044550750404   0.004702882933240008
-0.49675155468726784   -0.0248688930828264   -0.03294639773856961
-0.49675155468726784   -0.0248688930828264   -0.03294639773856961
-0.49675155468726784   -0.0248688930828264   -0.03294639773856961
-0.49675155468726784   -0.0248688930828264   -0.03294639773856961
-0.6453272871191705   0.015018621706478552   0.04015479361091534
-0.6453272871191705   0.015018621706478552   0.04015479361091534
-0.6453272871191705   0.015018621706478552   0.04015479361091534
-0.6453272871191705   0.015018621706478552   0.04015479361091534
-0.6458404468574295   -0.04874954867537358   -0.046320763873472934
-0.6458404468574295   -0.04874954867537358   -0.046320763873472934
-0.6458404468574295   -0.04874954867537358   -0.046320763873472934
-0.6458404468574295   -0.04874954867537358   -0.046320763873472934
-0.4507068234066868   0.059963321433413125   0.03494722652738037
-0.4507068234066868   0.059963321433413125   0.03494722652738037
-0.4507068234066868   0.059963321433413125   0.03494722652738037
-0.4507068234066868   0.059963321433413125   0.03494722652738037
-0.5429474542682415   0.00397655916070036   0.012636895238953873
-0.5429474542682415   0.00397655916070036   0.012636895238953873
-0.5429474542682415   0.00397655916070036   0.012636895238953873
-0.5429474542682415   0.00397655916070036   0.012636895238953873
-0.48008994642313835   -0.013946924365094024   -0.038058142756366334
-0.48008994642313835   -0.013946924365094024   -0.038058142756366334
-0.48008994642313835   -0.013946924365094024   -0.038058142756366334
-0.48008994642313835   -0.013946924365094024   -0.038058142756366334
-0.6153172832445253   0.02630073771958588   0.03124476779608272
-0.6153172832445253   0.02630073771958588   0.03124476779608272
-0.6153172832445253   0.02630073771958588   0.03124476779608272
-0.6153172832445253   0.02630073771958588   0.03124476779608272
-0.607969844820306   -0.028955482307908592   -0.0516712180855786
-0.607969844820306   -0.028955482307908592   -0.0516712180855786
-0.607969844820306   -0.028955482307908592   -0.0516712180855786
-0.607969844820306   -0.028955482307908592   -0.0516712180855786
-0.43687251101480573   0.07045986388157299   0.029109400720457687
-0.43687251101480573   0.07045986388157299   0.029109400720457687
-0.43687251101480573   0.07045986388157299   0.029109400720457687
-0.43687251101480573   0.07045986388157299   0.029109400720457687
-0.5102828052888576   0.017016415662794077   0.023829869408863412
-0.5102828052888576   0.017016415662794077   0.023829869408863412
-0.5102828052888576   0.017016415662794077   0.023829869408863412
-0.5102828052888576   0.017016415662794077   0.023829869408863412
0.5429402055202124   0.04936600826604223   0.04694829551945548
0.5429402055202124   0.04936600826604223   0.04694829551945548
0.5429402055202124   0.04936600826604223   0.04694829551945548
0.5429402055202124   0.04936600826604223   0.04694829551945548
0.19867075383277966   -0.08995108962702433   -0.03089519317956837
0.19867075383277966   -0.08995108962702433   -0.03089519317956837
0.19867075383277966   -0.08995108962702433   -0.03089519317956837
0.19867075383277966   -0.08995108962702433   -0.03089519317956837
0.24507855441581514   -0.0006461479668485523   0.0337638577669895
0.24507855441581514   -0.0006461479668485523   0.0337638577669895
0.24507855441581514   -0.0006461479668485523   0.0337638577669895
0.24507855441581514   -0.0006461479668485523   0.0337638577669895
0.552649121087055   -0.012252175182902045   -0.039454083983380975
0.552649121087055   -0.012252175182902045   -0.039454083983380975
0.552649121087055   -0.012252175182902045   -0.039454083983380975
0.552649121087055   -0.012252175182902045   -0.039454083983380975
0.3611666214415346   -0.01620714408313803   -0.034798976150452486
0.3611666214415346   -0.01620714408313803   -0.034798976150452486
0.3611666214415346   -0.01620714408313803   -0.034798976150452486
0.3611666214415346   -0.01620714408313803   -0.034798976150452486
0.5848965684363407   0.0687257323332385   0.04080524524689915
0.5848965684363407   0.0687257323332385   0.04080524524689915
0.5848965684363407   0.0687257323332385   0.04080524524689915
0.5848965684363407   0.0687257323332385   0.04080524524689915
0.21512121607487938   -0.0793339464746398   -0.037335035429894206
0.21512121607487938   -0.0793339464746398   -0.037335035429894206
0.21512121607487938   -0.0793339464746398   -0.037335035429894206
0.21512121607487938   -0.0793339464746398   -0.037335035429894206
0.2633243908464532   0.009978144625038626   0.02783125291158337
0.2633243908464532   0.009978144625038626   0.02783125291158337
0.2633243908464532   0.009978144625038626   0.02783125291158337
0.2633243908464532   0.009978144625038626   0.02783125291158337
0.5860075777437679   -0.00018236003114062427   -0.04966679410129571
0.5860075777437679   -0.00018236003114062427   -0.04966679410129571
0.5860075777437679   -0.00018236003114062427   -0.04966679410129571
0.5860075777437679   -0.00018236003114062427   -0.04966679410129571
0.39603365441857874   -0.003179085657302863   -0.02109776165484872
0.39603365441857874   -0.003179085657302863   -0.02109776165484872
0.39603365441857874   -0.003179085657302863   -0.02109776165484872
0.39603365441857874   -0.003179085657302863   -0.02109776165484872
0.6186046577779429   0.08174599719725568   0.03139024884117904
0.6186046577779429   0.08174599719725568   0.03139024884117904
0.6186046577779429   0.08174599719725568   0.03139024884117904
0.6186046577779429   0.08174599719725568   0.03139024884117904
0.23315709746872493   -0.06952042594691676   -0.0435066434051026
0.23315709746872493   -0.06952042594691676   -0.0435066434051026
0.23315709746872493   -0.06952042594691676   -0.0435066434051026
0.23315709746872493   -0.06952042594691676   -0.0435066434051026
0.281546494215478   0.03341646524036593   0.02412100358483279
0.281546494215478   0.03341646524036593   0.02412100358483279
0.281546494215478   0.03341646524036593   0.02412100358483279
0.281546494215478   0.03341646524036593   0.02412100358483279
0.6298295832362651   0.031291308836908324   -0.053565714058015926
0.6298295832362651   0.031291308836908324   -0.053565714058015926
0.6298295832362651   0.031291308836908324   -0.053565714058015926
0.6298295832362651   0.031291308836908324   -0.053565714058015926
0.41746254685026346   0.012687020914517622   -0.00926514587254168
0.41746254685026346   0.012687020914517622   -0.00926514587254168
0.41746254685026346   0.012687020914517622   -0.00926514587254168
0.41746254685026346   0.012687020914517622   -0.00926514587254168
0.2358949377443012   0.027681893937465608   0.03759274281354955
0.2358949377443012   0.027681893937465608   0.03759274281354955
0.2358949377443012   0.027681893937465608   0.03759274281354955
0.2358949377443012   0.027681893937465608   0.03759274281354955
-0.1152737933625714   -0.08394165487866224   -0.01619672968004682
-0.1152737933625714   -0.08394165487866224   -0.01619672968004682
-0.1152737933625714   -0.08394165487866224   -0.01619672968004682
-0.1152737933625714   -0.08394165487866224   -0.01619672968004682
-0.08340282674733591   -0.02467065614001181   0.01135127754606042
-0.08340282674733591   -0.02467065614001181   0.01135127754606042
-0.08340282674733591   -0.02467065614001181   0.01135127754606042
-0.08340282674733591   -0.02467065614001181   0.01135127754606042
0.23765520059405507   0.0009241888277075685   -0.004923248136366904
0.23765520059405507   0.0009241888277075685   -0.004923248136366904
0.23765520059405507   0.0009241888277075685   -0.004923248136366904
0.23765520059405507   0.0009241888277075685   -0.004923248136366904
0.06561275896201722   -0.017677016816487413   -0.01480194814550501
0.06561275896201722   -0.017677016816487413   -0.01480194814550501
0.06561275896201722   -0.017677016816487413   -0.01480194814550501
0.06561275896201722   -0.017677016816487413   -0.01480194814550501
0.25464734703907665   0.04738454807612364   0.033577124840325066
0.25464734703907665   0.04738454807612364   0.033577124840325066
0.25464734703907665   0.04738454807612364   0.033577124840325066
0.25464734703907665   0.04738454807612364   0.033577124840325066
-0.0990093545321466   -0.06974539672821728   -0.021606620789789466
-0.0990093545321466   -0.06974539672821728   -0.021606620789789466
-0.0990093545321466   -0.06974539672821728   -0.021606620789789466
-0.0990093545321466   -0.06974539672821728   -0.021606620789789466
-0.06640948823660724   -0.004772863404847982   0.007167308159626343
-0.06640948823660724   -0.004772863404847982   0.007167308159626343
-0.06640948823660724   -0.004772863404847982   0.007167308159626343
-0.06640948823660724   -0.004772863404847982   0.007167308159626343
0.2576747648265588   0.01876566985148395   -0.009204402414333557
0.2576747648265588   0.01876566985148395   -0.009204402414333557
0.2576747648265588   0.01876566985148395   -0.009204402414333557
0.2576747648265588   0.01876566985148395   -0.009204402414333557
0.08202258409318737   -0.0019605538803961417   -0.005882576943673647
0.08202258409318737   -0.0019605538803961417   -0.005882576943673647
0.08202258409318737   -0.0019605538803961417   -0.005882576943673647
0.08202258409318737   -0.0019605538803961417   -0.005882576943673647
0.275348341572426   0.06810922596528059   0.029819925201205306
0.275348341572426   0.06810922596528059   0.029819925201205306
0.275348341572426   0.06810922596528059   0.029819925201205306
0.275348341572426   0.06810922596528059   0.029819925201205306
-0.08269535743238501   -0.05272871196854506   -0.0263061892555654
-0.08269535743238501   -0.05272871196854506   -0.0263061892555654
-0.08269535743238501   -0.05272871196854506   -0.0263061892555654
-0.08269535743238501   -0.05272871196854506   -0.0263061892555654
-0.04962584483999028   0.018297665977871365   0.00300436832529227
-0.04962584483999028   0.018297665977871365   0.00300436832529227
-0.04962584483999028   0.018297665977871365   0.00300436832529227
-0.04962584483999028   0.018297665977871365   0.00300436832529227
0.27541515915120257   0.04002644948586789   -0.013145655982050137
0.27541515915120257   0.04002644948586789   -0.013145655982050137
0.27541515915120257   0.04002644948586789   -0.013145655982050137
0.27541515915120257   0.04002644948586789   -0.013145655982050137
0.10233387735925331   0.01732925591346972   0.004535517258467386
0.10233387735925331   0.01732925591346972   0.004535517258467386
0.10233387735925331   0.01732925591346972   0.004535517258467386
0.10233387735925331   0.01732925591346972   0.004535517258467386
-0.0908378458528249   0.006035790030883285   0.01600556295914203
-0.0908378458528249   0.006035790030883285   0.01600556295914203
-0.0908378458528249   0.006035790030883285   0.01600556295914203
-0.0908378458528249   0.006035790030883285   0.01600556295914203
-0.42299416379313726   -0.07416201233600739   -0.002168492483069902
-0.42299416379313726   -0.07416201233600739   -0.002168492483069902
-0.42299416379313726   -0.07416201233600739   -0.002168492483069902
-0.42299416379313726   -0.07416201233600739   -0.002168492483069902
-0.4028634213647268   -0.043807656332104566   -0.009929103782285578
-0.4028634213647268   -0.043807656332104566   -0.009929103782285578
-0.4028634213647268   -0.043807656332104566   -0.009929103782285578
-0.4028634213647268   -0.043807656332104566   -0.009929103782285578
-0.07636611519282539   0.011242535207470403   0.010621643971128912
-0.07636611519282539   0.011242535207470403   0.010621643971128912
-0.07636611519282539   0.011242535207470403   0.010621643971128912
-0.07636611519282539   0.011242535207470403   0.010621643971128912
-0.24869959844039186   -0.022777665609677436   -0.009246766287373576
-0.24869959844039186   -0.022777665609677436   -0.009246766287373576
-0.24869959844039186   -0.022777665609677436   -0.009246766287373576
-0.24869959844039186   -0.022777665609677436   -0.009246766287373576
-0.07300032692471142   0.026574506180163306   0.012118614339007764
-0.07300032692471142   0.026574506180163306   0.012118614339007764
-0.07300032692471142   0.026574506180163306   0.012118614339007764
-0.07300032692471142   0.026574506180163306   0.012118614339007764
-0.4052978664242194   -0.05820828409617063   -0.00770070131568234
-0.4052978664242194   -0.05820828409617063   -0.00770070131568234
-0.4052978664242194   -0.05820828409617063   -0.00770070131568234
-0.4052978664242194   -0.05820828409617063   -0.00770070131568234
-0.3841304511373276   -0.021976241095667842   -0.013411162648161223
-0.3841304511373276   -0.021976241095667842   -0.013411162648161223
-0.3841304511373276   -0.021976241095667842   -0.013411162648161223
-0.3841304511373276   -0.021976241095667842   -0.013411162648161223
-0.05982823232277622   0.02926836777183784   0.006032356552095632
-0.05982823232277622   0.02926836777183784   0.006032356552095632
-0.05982823232277622   0.02926836777183784   0.006032356552095632
-0.05982823232277622   0.02926836777183784   0.006032356552095632
-0.22980246306029684   -0.004514182548814541   -0.00013822482366576336
-0.22980246306029684   -0.004514182548814541   -0.00013822482366576336
-0.22980246306029684   -0.004514182548814541   -0.00013822482366576336
-0.22980246306029684   -0.004514182548814541   -0.00013822482366576336
-0.055764284164197736   0.047919431543291195   0.007701033573534745
-0.055764284164197736   0.047919431543291195   0.007701033573534745
-0.055764284164197736   0.047919431543291195   0.007701033573534745
-0.055764284164197736   0.047919431543291195   0.007701033573534745
-0.38733055269373834   -0.03976345826495859   -0.011624453260924374
-0.38733055269373834   -0.03976345826495859   -0.011624453260924374
-0.38733055269373834   -0.03976345826495859   -0.011624453260924374
-0.38733055269373834   -0.03976345826495859   -0.011624453260924374
-0.36669051139646736   -0.00021239246711074466   -0.01756655487541206
-0.36669051139646736   -0.00021239246711074466   -0.01756655487541206
-0.36669051139646736   -0.00021239246711074466   -0.01756655487541206
-0.36669051139646736   -0.00021239246711074466   -0.01756655487541206
-0.04405096697062411   0.04767332701625017   0.001503096633746209
-0.04405096697062411   0.04767332701625017   0.001503096633746209
-0.04405096697062411   0.04767332701625017   0.001503096633746209
-0.04405096697062411   0.04767332701625017   0.001503096633746209
-0.212448080817126   0.013681828414410013   0.008526777701518268
-0.212448080817126   0.013681828414410013   0.008526777701518268
-0.212448080817126   0.013681828414410013   0.008526777701518268
-0.212448080817126   0.013681828414410013   0.008526777701518268
-0.4121793067877449   -0.01602122515970314   -0.006234994632408907
-0.4121793067877449   -0.01602122515970314   -0.006234994632408907
-0.4121793067877449   -0.01602122515970314   -0.006234994632408907
-0.4121793067877449   -0.01602122515970314   -0.006234994632408907
-0.7239074334622606   -0.060167006947666926   0.01383315688651247
-0.7239074334622606   -0.060167006947666926   0.01383315688651247
-0.7239074334622606   -0.060167006947666926   0.01383315688651247
-0.7239074334622606   -0.060167006947666926   0.01383315688651247
-0.714222701657308   -0.06220794969981511   -0.02985821691371328
-0.714222701657308   -0.06220794969981511   -0.02985821691371328
-0.714222701657308   -0.06220794969981511   -0.02985821691371328
-0.714222701657308   -0.06220794969981511   -0.02985821691371328
-0.3811695590733246   0.028086433678775016   0.026646117663849105
-0.3811695590733246   0.028086433678775016   0.026646117663849105
-0.3811695590733246   0.028086433678775016   0.026646117663849105
-0.3811695590733246   0.028086433678775016   0.026646117663849105
-0.5540109767764293   -0.024120812578678166   -0.003229596467519611
-0.5540109767764293   -0.024120812578678166   -0.003229596467519611
-0.5540109767764293   -0.024120812578678166   -0.003229596467519611
-0.5540109767764293   -0.024120812578678166   -0.003229596467519611
-0.39279051876515847   0.00614640069837373   -0.009518647814918693
-0.39279051876515847   0.00614640069837373   -0.009518647814918693
-0.39279051876515847   0.00614640069837373   -0.009518647814918693
-0.39279051876515847   0.00614640069837373   -0.009518647814918693
-0.7025367620804418   -0.040202936834380476   0.0065664681051888565
-0.7025367620804418   -0.040202936834380476   0.0065664681051888565
-0.7025367620804418   -0.040202936834380476   0.0065664681051888565
-0.7025367620804418   -0.040202936834380476   0.0065664681051888565
-0.6897239403067297   -0.04088693888646315   -0.033026248916603454
-0.6897239403067297   -0.04088693888646315   -0.033026248916603454
-0.6897239403067297   -0.04088693888646315   -0.033026248916603454
-0.6897239403067297   -0.04088693888646315   -0.033026248916603454
-0.3637390352020585   0.045264128487113586   0.021305547445406678
-0.3637390352020585   0.045264128487113586   0.021305547445406678
-0.3637390352020585   0.045264128487113586   0.021305547445406678
-0.3637390352020585   0.045264128487113586   0.021305547445406678
-0.5290673981337255   -0.003939271890629065   0.005912391191691353
-0.5290673981337255   -0.003939271890629065   0.005912391191691353
-0.5290673981337255   -0.003939271890629065   0.005912391191691353
-0.5290673981337255   -0.003939271890629065   0.005912391191691353
-0.3746485435274282   0.025948180928209788   -0.013926046622540125
-0.3746485435274282   0.025948180928209788   -0.013926046622540125
-0.3746485435274282   0.025948180928209788   -0.013926046622540125
-0.3746485435274282   0.025948180928209788   -0.013926046622540125
-0.6782196993266764   -0.020976258672876197   0.004584275770075724
-0.6782196993266764   -0.020976258672876197   0.004584275770075724
-0.6782196993266764   -0.020976258672876197   0.004584275770075724
-0.6782196993266764   -0.020976258672876197   0.004584275770075724
-0.6678197575755997   -0.017789900257221547   -0.03473000141946002
-0.6678197575755997   -0.017789900257221547   -0.03473000141946002
-0.6678197575755997   -0.017789900257221547   -0.03473000141946002
-0.6678197575755997   -0.017789900257221547   -0.03473000141946002
-0.3468573617874863   0.06413660344088998   0.017250197261495757
-0.3468573617874863   0.06413660344088998   0.017250197261495757
-0.3468573617874863   0.06413660344088998   0.017250197261495757
-0.3468573617874863   0.06413660344088998   0.017250197261495757
-0.5122517103369779   0.013301888694974284   0.013794279646591245
-0.5122517103369779   0.013301888694974284   0.013794279646591245
-0.5122517103369779   0.013301888694974284   0.013794279646591245
-0.5122517103369779   0.013301888694974284   0.013794279646591245
-0.7268812442648276   -0.034378807148947865   -0.026824096925041466
-0.7268812442648276   -0.034378807148947865   -0.026824096925041466
-0.7268812442648276   -0.034378807148947865   -0.026824096925041466
-0.7268812442648276   -0.034378807148947865   -0.026824096925041466
-1.0364121154276376   -0.03743431580791684   0.0464586005695264
-1.0364121154276376   -0.03743431580791684   0.0464586005695264
-1.0364121154276376   -0.03743431580791684   0.0464586005695264
-1.0364121154276376   -0.03743431580791684   0.0464586005695264
-1.0167553429379006   -0.07441926153746964   -0.035606566790095495
-1.0167553429379006   -0.07441926153746964   -0.035606566790095495
-1.0167553429379006   -0.07441926153746964   -0.035606566790095495
-1.0167553429379006   -0.07441926153746964   -0.035606566790095495
-0.6747920987147267   0.05783101906152152   0.04725582903785656
-0.6747920987147267   0.05783101906152152   0.04725582903785656
-0.6747920987147267   0.05783101906152152   0.04725582903785656
-0.6747920987147267   0.05783101906152152   0.04725582903785656
-0.8253863965424031   -0.010197188636257432   0.009652813750433815
-0.8253863965424031   -0.010197188636257432   0.009652813750433815
-0.8253863965424031   -0.010197188636257432   0.009652813750433815
-0.8253863965424031   -0.010197188636257432   0.009652813750433815
-0.7039135627800694   -0.010694738827797645   -0.029825733399536022
-0.7039135627800694   -0.010694738827797645   -0.029825733399536022
-0.7039135627800694   -0.010694738827797645   -0.029825733399536022
-0.7039135627800694   -0.010694738827797645   -0.029825733399536022
-0.9871393764893913   -0.005399001264990294   0.04345300517996221
-0.9871393764893913   -0.005399001264990294   0.04345300517996221
-0.9871393764893913   -0.005399001264990294   0.04345300517996221
-0.9871393764893913   -0.005399001264990294   0.04345300517996221
-0.9796145357997762   -0.06119681504580718   -0.041945743475662545
-0.9796145357997762   -0.06119681504580718   -0.041945743475662545
-0.9796145357997762   -0.06119681504580718   -0.041945743475662545
-0.9796145357997762   -0.06119681504580718   -0.041945743475662545
-0.6542522200171559   0.06598454146673322   0.03746087217806879
-0.6542522200171559   0.06598454146673322   0.03746087217806879
-0.6542522200171559   0.06598454146673322   0.03746087217806879
-0.6542522200171559   0.06598454146673322   0.03746087217806879
-0.8063465386817565   0.004240981761697432   0.01723852369185342
-0.8063465386817565   0.004240981761697432   0.01723852369185342
-0.8063465386817565   0.004240981761697432   0.01723852369185342
-0.8063465386817565   0.004240981761697432   0.01723852369185342
-0.681738344452244   -2.4558156079990123e-05   -0.03396065037455864
-0.681738344452244   -2.4558156079990123e-05   -0.03396065037455864
-0.681738344452244   -2.4558156079990123e-05   -0.03396065037455864
-0.681738344452244   -2.4558156079990123e-05   -0.03396065037455864
-0.9516325587530092   0.005308137188682283   0.03145918952366744
-0.9516325587530092   0.005308137188682283   0.03145918952366744
-0.9516325587530092   0.005308137188682283   0.03145918952366744
-0.9516325587530092   0.005308137188682283   0.03145918952366744
-0.9389812587792077   -0.045347292485784424   -0.047817633351927416
-0.9389812587792077   -0.045347292485784424   -0.047817633351927416
-0.9389812587792077   -0.045347292485784424   -0.047817633351927416
-0.9389812587792077   -0.045347292485784424   -0.047817633351927416
-0.6362193863900564   0.0735853034658833   0.031896650785151616
-0.6362193863900564   0.0735853034658833   0.031896650785151616
-0.6362193863900564   0.0735853034658833   0.031896650785151616
-0.6362193863900564   0.0735853034658833   0.031896650785151616
-0.765297014956859   0.016228783444510952   0.028738523474410083
-0.765297014956859   0.016228783444510952   0.028738523474410083
-0.765297014956859   0.016228783444510952   0.028738523474410083
-0.765297014956859   0.016228783444510952   0.028738523474410083
0.9097333153610968   0.0680448951001543   0.04802216892803829
0.9097333153610968   0.0680448951001543   0.04802216892803829
0.9097333153610968   0.0680448951001543   0.04802216892803829
0.9097333153610968   0.0680448951001543   0.04802216892803829
0.40100730041558885   -0.10681373228470853   -0.02214180400058395
0.40100730041558885   -0.10681373228470853   -0.02214180400058395
0.40100730041558885   -0.10681373228470853   -0.02214180400058395
0.40100730041558885   -0.10681373228470853   -0.02214180400058395
0.4468993211793972   -0.018919969504915896   0.032956744314176833
0.4468993211793972   -0.018919969504915896   0.032956744314176833
0.4468993211793972   -0.018919969504915896   0.032956744314176833
0.4468993211793972   -0.018919969504915896   0.032956744314176833
0.9196345722437731   -0.001360688233456392   -0.03465355024868146
0.9196345722437731   -0.001360688233456392   -0.03465355024868146
0.9196345722437731   -0.001360688233456392   -0.03465355024868146
0.9196345722437731   -0.001360688233456392   -0.03465355024868146
0.6301298257765501   -0.018973115593820117   -0.04917069661116999
0.6301298257765501   -0.018973115593820117   -0.04917069661116999
0.6301298257765501   -0.018973115593820117   -0.04917069661116999
0.6301298257765501   -0.018973115593820117   -0.04917069661116999
0.9515629609759321   0.08345579218940491   0.04017191298924583
0.9515629609759321   0.08345579218940491   0.04017191298924583
0.9515629609759321   0.08345579218940491   0.04017191298924583
0.9515629609759321   0.08345579218940491   0.04017191298924583
0.4180400309220925   -0.10066735145292358   -0.029592325024336945
0.4180400309220925   -0.10066735145292358   -0.029592325024336945
0.4180400309220925   -0.10066735145292358   -0.029592325024336945
0.4180400309220925   -0.10066735145292358   -0.029592325024336945
0.46479351404692615   -0.00916517839413275   0.026633177780616177
0.46479351404692615   -0.00916517839413275   0.026633177780616177
0.46479351404692615   -0.00916517839413275   0.026633177780616177
0.46479351404692615   -0.00916517839413275   0.026633177780616177
0.9509833313507089   0.00939030591773754   -0.04326498605806429
0.9509833313507089   0.00939030591773754   -0.04326498605806429
0.9509833313507089   0.00939030591773754   -0.04326498605806429
0.9509833313507089   0.00939030591773754   -0.04326498605806429
0.669549205309057   -0.007494629365053712   -0.03346674620417955
0.669549205309057   -0.007494629365053712   -0.03346674620417955
0.669549205309057   -0.007494629365053712   -0.03346674620417955
0.669549205309057   -0.007494629365053712   -0.03346674620417955
0.9827201834118904   0.09504619662987754   0.02976338353570336
0.9827201834118904   0.09504619662987754   0.02976338353570336
0.9827201834118904   0.09504619662987754   0.02976338353570336
0.9827201834118904   0.09504619662987754   0.02976338353570336
0.4357398524747423   -0.09213787861727511   -0.035662429857160956
0.4357398524747423   -0.09213787861727511   -0.035662429857160956
0.4357398524747423   -0.09213787861727511   -0.035662429857160956
0.4357398524747423   -0.09213787861727511   -0.035662429857160956
0.48101070710581517   0.016910738713286605   0.023350311454356128
0.48101070710581517   0.016910738713286605   0.023350311454356128
0.48101070710581517   0.016910738713286605   0.023350311454356128
0.48101070710581517   0.016910738713286605   0.023350311454356128
0.9895771322558733   0.04085798808527419   -0.04529548018312217
0.9895771322558733   0.04085798808527419   -0.04529548018312217
0.9895771322558733   0.04085798808527419   -0.04529548018312217
0.9895771322558733   0.04085798808527419   -0.04529548018312217
0.6841858047634044   0.007978708407640034   -0.02261501587857561
0.6841858047634044   0.007978708407640034   -0.02261501587857561
0.6841858047634044   0.007978708407640034   -0.02261501587857561
0.6841858047634044   0.007978708407640034   -0.02261501587857561
0.4435852651110373   0.03988030015871506   0.044053987033231046
0.4435852651110373   0.03988030015871506   0.044053987033231046
0.4435852651110373   0.03988030015871506   0.044053987033231046
0.4435852651110373   0.03988030015871506   0.044053987033231046
-0.05541365097188979   -0.13147724962715285   -0.012628219004963945
-0.05541365097188979   -0.13147724962715285   -0.012628219004963945
-0.05541365097188979   -0.13147724962715285   -0.012628219004963945
-0.05541365097188979   -0.13147724962715285   -0.012628219004963945
-0.015945987734438023   -0.04658329867339723   0.011140502686632858
-0.015945987734438023   -0.04658329867339723   0.011140502686632858
-0.015945987734438023   -0.04658329867339723   0.011140502686632858
-0.015945987734438023   -0.04658329867339723   0.011140502686632858
0.43978463137845775   -0.023760902370306092   0.002224228174869936
0.43978463137845775   -0.023760902370306092   0.002224228174869936
0.43978463137845775   -0.023760902370306092   0.002224228174869936
0.43978463137845775   -0.023760902370306092   0.002224228174869936
0.1974987639557926   -0.03650593615795966   -0.023373211661669804
0.1974987639557926   -0.03650593615795966   -0.023373211661669804
0.1974987639557926   -0.03650593615795966   -0.023373211661669804
0.1974987639557926   -0.03650593615795966   -0.023373211661669804
0.46284810384899994   0.05475296394784926   0.039027724209427336
0.46284810384899994   0.05475296394784926   0.039027724209427336
0.46284810384899994   0.05475296394784926   0.039027724209427336
0.46284810384899994   0.05475296394784926   0.039027724209427336
-0.03738619245749063   -0.1234738972440627   -0.0191699223579647
-0.03738619245749063   -0.1234738972440627   -0.0191699223579647
-0.03738619245749063   -0.1234738972440627   -0.0191699223579647
-0.03738619245749063   -0.1234738972440627   -0.0191699223579647
0.002298076919798199   -0.029112498205986118   0.006781445205046109
0.002298076919798199   -0.029112498205986118   0.006781445205046109
0.002298076919798199   -0.029112498205986118   0.006781445205046109
0.002298076919798199   -0.029112498205986118   0.006781445205046109
0.4584853722505012   -0.010585769272975859   -0.003486940322665673
0.4584853722505012   -0.010585769272975859   -0.003486940322665673
0.4584853722505012   -0.010585769272975859   -0.003486940322665673
0.4584853722505012   -0.010585769272975859   -0.003486940322665673
0.21332474651638655   -0.02577425525247168   -0.015139797022971437
0.21332474651638655   -0.02577425525247168   -0.015139797022971437
0.21332474651638655   -0.02577425525247168   -0.015139797022971437
0.21332474651638655   -0.02577425525247168   -0.015139797022971437
0.48278813231613854   0.07259786831565149   0.03484322241689377
0.48278813231613854   0.07259786831565149   0.03484322241689377
0.48278813231613854   0.07259786831565149   0.03484322241689377
0.48278813231613854   0.07259786831565149   0.03484322241689377
-0.021033918587850194   -0.11132537123662449   -0.027665659302557488
-0.021033918587850194   -0.11132537123662449   -0.027665659302557488
-0.021033918587850194   -0.11132537123662449   -0.027665659302557488
-0.021033918587850194   -0.11132537123662449   -0.027665659302557488
0.016622535761786544   -0.008627414208545382   0.0023776489352688454
0.016622535761786544   -0.008627414208545382   0.0023776489352688454
0.016622535761786544   -0.008627414208545382   0.0023776489352688454
0.016622535761786544   -0.008627414208545382   0.0023776489352688454
0.47247730776360214   0.006234513777091069   -0.008640460320515748
0.47247730776360214   0.006234513777091069   -0.008640460320515748
0.47247730776360214   0.006234513777091069   -0.008640460320515748
0.47247730776360214   0.006234513777091069   -0.008640460320515748
0.23277112966768929   -0.009712601213363842   -0.006290813380509205
0.23277112966768929   -0.009712601213363842   -0.006290813380509205
0.23277112966768929   -0.009712601213363842   -0.006290813380509205
0.23277112966768929   -0.009712601213363842   -0.006290813380509205
-0.019959263915119943   0.01125996622213045   0.021906500429602013
-0.019959263915119943   0.01125996622213045   0.021906500429602013
-0.019959263915119943   0.01125996622213045   0.021906500429602013
-0.019959263915119943   0.01125996622213045   0.021906500429602013
-0.5082856733199341   -0.16486908700125913   -0.010118787103150506
-0.5082856733199341   -0.16486908700125913   -0.010118787103150506
-0.5082856733199341   -0.16486908700125913   -0.010118787103150506
-0.5082856733199341   -0.16486908700125913   -0.010118787103150506
-0.46843286538135176   -0.0714374059282947   -0.010711311519170258
-0.46843286538135176   -0.0714374059282947   -0.010711311519170258
-0.46843286538135176   -0.0714374059282947   -0.010711311519170258
-0.46843286538135176   -0.0714374059282947   -0.010711311519170258
-0.018090218710115926   -0.056079890198312735   0.00991593933315885
-0.018090218710115926   -0.056079890198312735   0.00991593933315885
-0.018090218710115926   -0.056079890198312735   0.00991593933315885
-0.018090218710115926   -0.056079890198312735   0.00991593933315885
-0.2548339958262324   -0.06651209663466114   -0.020862658992949045
-0.2548339958262324   -0.06651209663466114   -0.020862658992949045
-0.2548339958262324   -0.06651209663466114   -0.020862658992949045
-0.2548339958262324   -0.06651209663466114   -0.020862658992949045
0.000307234657155259   0.028014616314572745   0.017808699656629293
0.000307234657155259   0.028014616314572745   0.017808699656629293
0.000307234657155259   0.028014616314572745   0.017808699656629293
0.000307234657155259   0.028014616314572745   0.017808699656629293
-0.48565578804375276   -0.15435738173630495   -0.013905949023165318
-0.48565578804375276   -0.15435738173630495   -0.013905949023165318
-0.48565578804375276   -0.15435738173630495   -0.013905949023165318
-0.48565578804375276   -0.15435738173630495   -0.013905949023165318
-0.445798856792132   -0.05204591348589436   -0.014568425267209613
-0.445798856792132   -0.05204591348589436   -0.014568425267209613
-0.445798856792132   -0.05204591348589436   -0.014568425267209613
-0.445798856792132   -0.05204591348589436   -0.014568425267209613
-0.0010986664381847592   -0.04341427673796985   0.004099506947115045
-0.0010986664381847592   -0.04341427673796985   0.004099506947115045
-0.0010986664381847592   -0.04341427673796985   0.004099506947115045
-0.0010986664381847592   -0.04341427673796985   0.004099506947115045
-0.23286176890631863   -0.05256239163863071   -0.011564117340997054
-0.23286176890631863   -0.05256239163863071   -0.011564117340997054
-0.23286176890631863   -0.05256239163863071   -0.011564117340997054
-0.23286176890631863   -0.05256239163863071   -0.011564117340997054
0.018850921564038718   0.046570301069028514   0.01386286915123406
0.018850921564038718   0.046570301069028514   0.01386286915123406
0.018850921564038718   0.046570301069028514   0.01386286915123406
0.018850921564038718   0.046570301069028514   0.01386286915123406
-0.4657425910617793   -0.1420246375603161   -0.024308372541021694
-0.4657425910617793   -0.1420246375603161   -0.024308372541021694
-0.4657425910617793   -0.1420246375603161   -0.024308372541021694
-0.4657425910617793   -0.1420246375603161   -0.024308372541021694
-0.4298011964310247   -0.03355262111839289   -0.018876414579068503
-0.4298011964310247   -0.03355262111839289   -0.018876414579068503
-0.4298011964310247   -0.03355262111839289   -0.018876414579068503
-0.4298011964310247   -0.03355262111839289   -0.018876414579068503
0.010050663669635803   -0.03327121427524731   -0.005837911458784852
0.010050663669635803   -0.03327121427524731   -0.005837911458784852
0.010050663669635803   -0.03327121427524731   -0.005837911458784852
0.010050663669635803   -0.03327121427524731   -0.005837911458784852
-0.21674917722294645   -0.03954049395776021   -0.005726682749510331
-0.21674917722294645   -0.03954049395776021   -0.005726682749510331
-0.21674917722294645   -0.03954049395776021   -0.005726682749510331
-0.21674917722294645   -0.03954049395776021   -0.005726682749510331
-0.47612272302387704   -0.013509433968426882   -0.0006636886557017559
-0.47612272302387704   -0.013509433968426882   -0.0006636886557017559
-0.47612272302387704   -0.013509433968426882   -0.0006636886557017559
-0.47612272302387704   -0.013509433968426882   -0.0006636886557017559
-0.9633762037216864   -0.17725393216630153   -0.008101379185236611
-0.9633762037216864   -0.17725393216630153   -0.008101379185236611
-0.9633762037216864   -0.17725393216630153   -0.008101379185236611
-0.9633762037216864   -0.17725393216630153   -0.008101379185236611
-0.9206514491370181   -0.09149543420679249   -0.03178133170026413
-0.9206514491370181   -0.09149543420679249   -0.03178133170026413
-0.9206514491370181   -0.09149543420679249   -0.03178133170026413
-0.9206514491370181   -0.09149543420679249   -0.03178133170026413
-0.459467620858335   -0.05828427968483777   0.02096178485245323
-0.459467620858335   -0.05828427968483777   0.02096178485245323
-0.459467620858335   -0.05828427968483777   0.02096178485245323
-0.459467620858335   -0.05828427968483777   0.02096178485245323
-0.6987499304590028   -0.08003108812393007   -0.01469543517818846
-0.6987499304590028   -0.08003108812393007   -0.01469543517818846
-0.6987499304590028   -0.08003108812393007   -0.01469543517818846
-0.6987499304590028   -0.08003108812393007   -0.01469543517818846
-0.4511168991162146   0.008044970760887088   -0.0036138568826698456
-0.4511168991162146   0.008044970760887088   -0.0036138568826698456
-0.4511168991162146   0.008044970760887088   -0.0036138568826698456
-0.4511168991162146   0.008044970760887088   -0.0036138568826698456
-0.9293517942749624   -0.15817430804833993   -0.008604183548430096
-0.9293517942749624   -0.15817430804833993   -0.008604183548430096
-0.9293517942749624   -0.15817430804833993   -0.008604183548430096
-0.9293517942749624   -0.15817430804833993   -0.008604183548430096
-0.8882763061056257   -0.07126313109300175   -0.036793479551572174
-0.8882763061056257   -0.07126313109300175   -0.036793479551572174
-0.8882763061056257   -0.07126313109300175   -0.036793479551572174
-0.8882763061056257   -0.07126313109300175   -0.036793479551572174
-0.4375021888825125   -0.04310603863445636   0.01797503942945245
-0.4375021888825125   -0.04310603863445636   0.01797503942945245
-0.4375021888825125   -0.04310603863445636   0.01797503942945245
-0.4375021888825125   -0.04310603863445636   0.01797503942945245
-0.6654447744230338   -0.06061840485273487   -0.004781189429235472
-0.6654447744230338   -0.06061840485273487   -0.004781189429235472
-0.6654447744230338   -0.06061840485273487   -0.004781189429235472
-0.6654447744230338   -0.06061840485273487   -0.004781189429235472
-0.42843299477688596   0.0267560177897377   -0.006541046466614638
-0.42843299477688596   0.0267560177897377   -0.006541046466614638
-0.42843299477688596   0.0267560177897377   -0.006541046466614638
-0.42843299477688596   0.0267560177897377   -0.006541046466614638
-0.8988870311001618   -0.14266671840610495   -0.018443517211141243
-0.8988870311001618   -0.14266671840610495   -0.018443517211141243
-0.8988870311001618   -0.14266671840610495   -0.018443517211141243
-0.8988870311001618   -0.14266671840610495   -0.018443517211141243
-0.8620452770085424   -0.04994597568955314   -0.03797478316963288
-0.8620452770085424   -0.04994597568955314   -0.03797478316963288
-0.8620452770085424   -0.04994597568955314   -0.03797478316963288
-0.8620452770085424   -0.04994597568955314   -0.03797478316963288
-0.42489154762132625   -0.033456296090081133   0.005575504441115917
-0.42489154762132625   -0.033456296090081133   0.005575504441115917
-0.42489154762132625   -0.033456296090081133   0.005575504441115917
-0.42489154762132625   -0.033456296090081133   0.005575504441115917
-0.6471666514434885   -0.04879097809819294   -0.001534835082454243
-0.6471666514434885   -0.04879097809819294   -0.001534835082454243
-0.6471666514434885   -0.04879097809819294   -0.001534835082454243
-0.6471666514434885   -0.04879097809819294   -0.001534835082454243
-0.9372267037981409   -0.03150876328557062   -0.02309904844823933
-0.9372267037981409   -0.03150876328557062   -0.02309904844823933
-0.9372267037981409   -0.03150876328557062   -0.02309904844823933
-0.9372267037981409   -0.03150876328557062   -0.02309904844823933
-1.4133041008359957   -0.12017512601973157   0.053072573249476535
-1.4133041008359957   -0.12017512601973157   0.053072573249476535
-1.4133041008359957   -0.12017512601973157   0.053072573249476535
-1.4133041008359957   -0.12017512601973157   0.053072573249476535
-1.3652196180010523   -0.09590506037502433   -0.03099704885857764
-1.3652196180010523   -0.09590506037502433   -0.03099704885857764
-1.3652196180010523   -0.09590506037502433   -0.03099704885857764
-1.3652196180010523   -0.09590506037502433   -0.03099704885857764
-0.8811400773328183   0.02540288382344824   0.0488772092904866
-0.8811400773328183   0.02540288382344824   0.0488772092904866
-0.8811400773328183   0.02540288382344824   0.0488772092904866
-0.8811400773328183   0.02540288382344824   0.0488772092904866
-1.0977682115989216   -0.03761485816204638   0.005456150221497334
-1.0977682115989216   -0.03761485816204638   0.005456150221497334
-1.0977682115989216   -0.03761485816204638   0.005456150221497334
-1.0977682115989216   -0.03761485816204638   0.005456150221497334
-0.9015365841492714   -0.0020912766888520617   -0.025611164279466768
-0.9015365841492714   -0.0020912766888520617   -0.025611164279466768
-0.9015365841492714   -0.0020912766888520617   -0.025611164279466768
-0.9015365841492714   -0.0020912766888520617   -0.025611164279466768
-1.341535008241496   -0.06512279691962408   0.05664373648380293
-1.341535008241496   -0.06512279691962408   0.05664373648380293
-1.341535008241496   -0.06512279691962408   0.05664373648380293
-1.341535008241496   -0.06512279691962408   0.05664373648380293
-1.3136122493639255   -0.08076249236105992   -0.03691426761415782
-1.3136122493639255   -0.08076249236105992   -0.03691426761415782
-1.3136122493639255   -0.08076249236105992   -0.03691426761415782
-1.3136122493639255   -0.08076249236105992   -0.03691426761415782
-0.8491386487376062   0.040465307522345395   0.04716636867317779
-0.8491386487376062   0.040465307522345395   0.04716636867317779
-0.8491386487376062   0.040465307522345395   0.04716636867317779
-0.8491386487376062   0.040465307522345395   0.04716636867317779
-1.0674831907844857   -0.015170569257937527   0.021920597462797065
-1.0674831907844857   -0.015170569257937527   0.021920597462797065
-1.0674831907844857   -0.015170569257937527   0.021920597462797065
-1.0674831907844857   -0.015170569257937527   0.021920597462797065
-0.870248238195086   0.009758257647633328   -0.027674528739500465
-0.870248238195086   0.009758257647633328   -0.027674528739500465
-0.870248238195086   0.009758257647633328   -0.027674528739500465
-0.870248238195086   0.009758257647633328   -0.027674528739500465
-1.2918254761499615   -0.04937825872986873   0.040635364824461936
-1.2918254761499615   -0.04937825872986873   0.040635364824461936
-1.2918254761499615   -0.04937825872986873   0.040635364824461936
-1.2918254761499615   -0.04937825872986873   0.040635364824461936
-1.26022079290978   -0.06651908848352353   -0.04462390244212825
-1.26022079290978   -0.06651908848352353   -0.04462390244212825
-1.26022079290978   -0.06651908848352353   -0.04462390244212825
-1.26022079290978   -0.06651908848352353   -0.04462390244212825
-0.8254927302569525   0.058394406883368555   0.03644756801539532
-0.8254927302569525   0.058394406883368555   0.03644756801539532
-0.8254927302569525   0.058394406883368555   0.03644756801539532
-0.8254927302569525   0.058394406883368555   0.03644756801539532
-1.0099746247977381   0.003993621545974019   0.03847407958260144
-1.0099746247977381   0.003993621545974019   0.03847407958260144
-1.0099746247977381   0.003993621545974019   0.03847407958260144
-1.0099746247977381   0.003993621545974019   0.03847407958260144
1.2409255225518236   0.07455586295268657   0.04478795005015687
1.2409255225518236   0.07455586295268657   0.04478795005015687
1.2409255225518236   0.07455586295268657   0.04478795005015687
1.2409255225518236   0.07455586295268657   0.04478795005015687
0.5911751330002489   -0.11048552308270634   0.009819868642097718
0.5911751330002489   -0.11048552308270634   0.009819868642097718
0.5911751330002489   -0.11048552308270634   0.009819868642097718
0.5911751330002489   -0.11048552308270634   0.009819868642097718
0.623619978958483   -0.04675437625812187   0.03439260291331183
0.623619978958483   -0.04675437625812187   0.03439260291331183
0.623619978958483   -0.04675437625812187   0.03439260291331183
0.623619978958483   -0.04675437625812187   0.03439260291331183
1.2473575864088529   0.010987431187391594   -0.010135939166401833
1.2473575864088529   0.010987431187391594   -0.010135939166401833
1.2473575864088529   0.010987431187391594   -0.010135939166401833
1.2473575864088529   0.010987431187391594   -0.010135939166401833
0.8722258965969879   -0.023620214472764106   -0.057826408544668556
0.8722258965969879   -0.023620214472764106   -0.057826408544668556
0.8722258965969879   -0.023620214472764106   -0.057826408544668556
0.8722258965969879   -0.023620214472764106   -0.057826408544668556
1.2708479294095516   0.08289444554527167   0.03540876147921109
1.2708479294095516   0.08289444554527167   0.03540876147921109
1.2708479294095516   0.08289444554527167   0.03540876147921109
1.2708479294095516   0.08289444554527167   0.03540876147921109
0.6057526720344127   -0.11303835453937366   0.011340046574212226
0.6057526720344127   -0.11303835453937366   0.011340046574212226
0.6057526720344127   -0.11303835453937366   0.011340046574212226
0.6057526720344127   -0.11303835453937366   0.011340046574212226
0.6358665491405866   -0.03974871201112995   0.026156706507720583
0.6358665491405866   -0.03974871201112995   0.026156706507720583
0.6358665491405866   -0.03974871201112995   0.026156706507720583
0.6358665491405866   -0.03974871201112995   0.026156706507720583
1.2690738033526674   0.018878351677519223   -0.0032566616224967426
1.2690738033526674   0.018878351677519223   -0.0032566616224967426
1.2690738033526674   0.018878351677519223   -0.0032566616224967426
1.2690738033526674   0.018878351677519223   -0.0032566616224967426
0.9080637356966104   -0.018650335302681342   -0.039543399952796515
0.9080637356966104   -0.018650335302681342   -0.039543399952796515
0.9080637356966104   -0.018650335302681342   -0.039543399952796515
0.9080637356966104   -0.018650335302681342   -0.039543399952796515
1.288961664992919   0.09054264125754038   0.024518356998739825
1.288961664992919   0.09054264125754038   0.024518356998739825
1.288961664992919   0.09054264125754038   0.024518356998739825
1.288961664992919   0.09054264125754038   0.024518356998739825
0.6198898263422266   -0.10750186274925957   0.014026243254050191
0.6198898263422266   -0.10750186274925957   0.014026243254050191
0.6198898263422266   -0.10750186274925957   0.014026243254050191
0.6198898263422266   -0.10750186274925957   0.014026243254050191
0.6539102520657911   -0.012433798707524119   0.02391246604299902
0.6539102520657911   -0.012433798707524119   0.02391246604299902
0.6539102520657911   -0.012433798707524119   0.02391246604299902
0.6539102520657911   -0.012433798707524119   0.02391246604299902
1.2916909144021431   0.03703177405430802   -0.0007050762587469117
1.2916909144021431   0.03703177405430802   -0.0007050762587469117
1.2916909144021431   0.03703177405430802   -0.0007050762587469117
1.2916909144021431   0.03703177405430802   -0.0007050762587469117
0.9123867884150273   -0.008517762098216503   -0.0296122248528154
0.9123867884150273   -0.008517762098216503   -0.0296122248528154
0.9123867884150273   -0.008517762098216503   -0.0296122248528154
0.9123867884150273   -0.008517762098216503   -0.0296122248528154
0.6239954617485944   0.016347845481800516   0.047088143819318605
0.6239954617485944   0.016347845481800516   0.047088143819318605
0.6239954617485944   0.016347845481800516   0.047088143819318605
0.6239954617485944   0.016347845481800516   0.047088143819318605
0.03187929122177671   -0.2195027219000785   0.022343544725191872
0.03187929122177671   -0.2195027219000785   0.022343544725191872
0.03187929122177671   -0.2195027219000785   0.022343544725191872
0.03187929122177671   -0.2195027219000785   0.022343544725191872
0.07408249105017073   -0.09315925438121653   0.02093460844863542
0.07408249105017073   -0.09315925438121653   0.02093460844863542
0.07408249105017073   -0.09315925438121653   0.02093460844863542
0.07408249105017073   -0.09315925438121653   0.02093460844863542
0.6080407307130496   -0.1046234228109863   0.014365408239001481
0.6080407307130496   -0.1046234228109863   0.014365408239001481
0.6080407307130496   -0.1046234228109863   0.014365408239001481
0.6080407307130496   -0.1046234228109863   0.014365408239001481
0.32365613201695786   -0.09810128321154206   -0.036831712184707655
0.32365613201695786   -0.09810128321154206   -0.036831712184707655
0.32365613201695786   -0.09810128321154206   -0.036831712184707655
0.32365613201695786   -0.09810128321154206   -0.036831712184707655
0.6386499442529548   0.02343743766260771   0.039350615464941785
0.6386499442529548   0.02343743766260771   0.039350615464941785
0.6386499442529548   0.02343743766260771   0.039350615464941785
0.6386499442529548   0.02343743766260771   0.039350615464941785
0.05155637620052317   -0.2131370161645512   0.028281795983734176
0.05155637620052317   -0.2131370161645512   0.028281795983734176
0.05155637620052317   -0.2131370161645512   0.028281795983734176
0.05155637620052317   -0.2131370161645512   0.028281795983734176
0.09102255828423958   -0.08035377349360028   0.01513585254047383
0.09102255828423958   -0.08035377349360028   0.01513585254047383
0.09102255828423958   -0.08035377349360028   0.01513585254047383
0.09102255828423958   -0.08035377349360028   0.01513585254047383
0.6225527090417787   -0.09789077573417374   0.017729569736725417
0.6225527090417787   -0.09789077573417374   0.017729569736725417
0.6225527090417787   -0.09789077573417374   0.017729569736725417
0.6225527090417787   -0.09789077573417374   0.017729569736725417
0.33804579996838624   -0.09317901406684805   -0.01841974712301555
0.33804579996838624   -0.09317901406684805   -0.01841974712301555
0.33804579996838624   -0.09317901406684805   -0.01841974712301555
0.33804579996838624   -0.09317901406684805   -0.01841974712301555
0.6523254224105212   0.03551675082734504   0.033185610018918864
0.6523254224105212   0.03551675082734504   0.033185610018918864
0.6523254224105212   0.03551675082734504   0.033185610018918864
0.6523254224105212   0.03551675082734504   0.033185610018918864
0.06902385023823793   -0.20598729473237828   0.030775833549243542
0.06902385023823793   -0.20598729473237828   0.030775833549243542
0.06902385023823793   -0.20598729473237828   0.030775833549243542
0.06902385023823793   -0.20598729473237828   0.030775833549243542
0.11704206813125201   -0.06112658294537316   0.00998929569951322
0.11704206813125201   -0.06112658294537316   0.00998929569951322
0.11704206813125201   -0.06112658294537316   0.00998929569951322
0.11704206813125201   -0.06112658294537316   0.00998929569951322
0.6384206361595031   -0.0876684916361006   0.021699079440137298
0.6384206361595031   -0.0876684916361006   0.021699079440137298
0.6384206361595031   -0.0876684916361006   0.021699079440137298
0.6384206361595031   -0.0876684916361006   0.021699079440137298
0.3633835632120183   -0.0812894107214933   0.003018935775715423
0.3633835632120183   -0.0812894107214933   0.003018935775715423
0.3633835632120183   -0.0812894107214933   0.003018935775715423
0.3633835632120183   -0.0812894107214933   0.003018935775715423
0.06911285356256071   -0.04130324774860283   0.030311882277636162
0.06911285356256071   -0.04130324774860283   0.030311882277636162
0.06911285356256071   -0.04130324774860283   0.030311882277636162
0.06911285356256071   -0.04130324774860283   0.030311882277636162
-0.5318702185720395   -0.37660709057014263   0.03251402283250325
-0.5318702185720395   -0.37660709057014263   0.03251402283250325
-0.5318702185720395   -0.37660709057014263   0.03251402283250325
-0.5318702185720395   -0.37660709057014263   0.03251402283250325
-0.46522650066020643   -0.14708016821786804   0.002050831185472876
-0.46522650066020643   -0.14708016821786804   0.002050831185472876
-0.46522650066020643   -0.14708016821786804   0.002050831185472876
-0.46522650066020643   -0.14708016821786804   0.002050831185472876
0.036448372688343125   -0.2729609526168651   0.012565714875147835
0.036448372688343125   -0.2729609526168651   0.012565714875147835
0.036448372688343125   -0.2729609526168651   0.012565714875147835
0.036448372688343125   -0.2729609526168651   0.012565714875147835
-0.22977443547721432   -0.2109795467561703   -0.04418745822425714
-0.22977443547721432   -0.2109795467561703   -0.04418745822425714
-0.22977443547721432   -0.2109795467561703   -0.04418745822425714
-0.22977443547721432   -0.2109795467561703   -0.04418745822425714
0.08685187283504749   -0.0322918392979591   0.023914102289763643
0.08685187283504749   -0.0322918392979591   0.023914102289763643
0.08685187283504749   -0.0322918392979591   0.023914102289763643
0.08685187283504749   -0.0322918392979591   0.023914102289763643
-0.5039083684280086   -0.37602764915787634   0.037588973286474175
-0.5039083684280086   -0.37602764915787634   0.037588973286474175
-0.5039083684280086   -0.37602764915787634   0.037588973286474175
-0.5039083684280086   -0.37602764915787634   0.037588973286474175
-0.4395155190407986   -0.1319571171072755   -0.0001978422967685977
-0.4395155190407986   -0.1319571171072755   -0.0001978422967685977
-0.4395155190407986   -0.1319571171072755   -0.0001978422967685977
-0.4395155190407986   -0.1319571171072755   -0.0001978422967685977
0.054314652848588024   -0.2668485855647013   0.018091137433317125
0.054314652848588024   -0.2668485855647013   0.018091137433317125
0.054314652848588024   -0.2668485855647013   0.018091137433317125
0.054314652848588024   -0.2668485855647013   0.018091137433317125
-0.20371297153275944   -0.20367210244262263   -0.01641473829062845
-0.20371297153275944   -0.20367210244262263   -0.01641473829062845
-0.20371297153275944   -0.20367210244262263   -0.01641473829062845
-0.20371297153275944   -0.20367210244262263   -0.01641473829062845
0.10307120103390029   -0.02032928839495036   0.015354581190127434
0.10307120103390029   -0.02032928839495036   0.015354581190127434
0.10307120103390029   -0.02032928839495036   0.015354581190127434
0.10307120103390029   -0.02032928839495036   0.015354581190127434
-0.477713766200881   -0.3679181132517901   0.044771918047342374
-0.477713766200881   -0.3679181132517901   0.044771918047342374
-0.477713766200881   -0.3679181132517901   0.044771918047342374
-0.477713766200881   -0.3679181132517901   0.044771918047342374
-0.3970820815190044   -0.11454630171385329   -0.0050806034631745295
-0.3970820815190044   -0.11454630171385329   -0.0050806034631745295
-0.3970820815190044   -0.11454630171385329   -0.0050806034631745295
-0.3970820815190044   -0.11454630171385329   -0.0050806034631745295
0.08219779073262252   -0.24997229569466983   0.02461362145566255
0.08219779073262252   -0.24997229569466983   0.02461362145566255
0.08219779073262252   -0.24997229569466983   0.02461362145566255
0.08219779073262252   -0.24997229569466983   0.02461362145566255
-0.16991506754106   -0.18746932390027082   0.01259034006159563
-0.16991506754106   -0.18746932390027082   0.01259034006159563
-0.16991506754106   -0.18746932390027082   0.01259034006159563
-0.16991506754106   -0.18746932390027082   0.01259034006159563
-0.4751812974227422   -0.07510363955641403   0.014455177565256534
-0.4751812974227422   -0.07510363955641403   0.014455177565256534
-0.4751812974227422   -0.07510363955641403   0.014455177565256534
-0.4751812974227422   -0.07510363955641403   0.014455177565256534
-1.1813136662688302   -0.5856174175857749   -0.027118495615533977
-1.1813136662688302   -0.5856174175857749   -0.027118495615533977
-1.1813136662688302   -0.5856174175857749   -0.027118495615533977
-1.1813136662688302   -0.5856174175857749   -0.027118495615533977
-1.0714163775791568   -0.19137303490019464   -0.032533234503509284
-1.0714163775791568   -0.19137303490019464   -0.032533234503509284
-1.0714163775791568   -0.19137303490019464   -0.032533234503509284
-1.0714163775791568   -0.19137303490019464   -0.032533234503509284
-0.5319895471872182   -0.48888012074245807   0.01003555107500366
-0.5319895471872182   -0.48888012074245807   0.01003555107500366
-0.5319895471872182   -0.48888012074245807   0.01003555107500366
-0.5319895471872182   -0.48888012074245807   0.01003555107500366
-0.8140724598570208   -0.34642807252980135   -0.046464934313182785
-0.8140724598570208   -0.34642807252980135   -0.046464934313182785
-0.8140724598570208   -0.34642807252980135   -0.046464934313182785
-0.8140724598570208   -0.34642807252980135   -0.046464934313182785
-0.4448247112682569   -0.05679344395986858   0.013773053887221135
-0.4448247112682569   -0.05679344395986858   0.013773053887221135
-0.4448247112682569   -0.05679344395986858   0.013773053887221135
-0.4448247112682569   -0.05679344395986858   0.013773053887221135
-1.1558060980813687   -0.6206845962660297   -0.025170275648734725
-1.1558060980813687   -0.6206845962660297   -0.025170275648734725
-1.1558060980813687   -0.6206845962660297   -0.025170275648734725
-1.1558060980813687   -0.6206845962660297   -0.025170275648734725
-1.0371322541336097   -0.17326264828402568   -0.033177943567297065
-1.0371322541336097   -0.17326264828402568   -0.033177943567297065
-1.0371322541336097   -0.17326264828402568   -0.033177943567297065
-1.0371322541336097   -0.17326264828402568   -0.033177943567297065
-0.507023327335749   -0.4848879268460773   0.015193925967285138
-0.507023327335749   -0.4848879268460773   0.015193925967285138
-0.507023327335749   -0.4848879268460773   0.015193925967285138
-0.507023327335749   -0.4848879268460773   0.015193925967285138
-0.7780067896981818   -0.3368808188187633   -0.032347141789061756
-0.7780067896981818   -0.3368808188187633   -0.032347141789061756
-0.7780067896981818   -0.3368808188187633   -0.032347141789061756
-0.7780067896981818   -0.3368808188187633   -0.032347141789061756
-0.4206371233890024   -0.04240052470888067   0.004637543563820783
-0.4206371233890024   -0.04240052470888067   0.004637543563820783
-0.4206371233890024   -0.04240052470888067   0.004637543563820783
-0.4206371233890024   -0.04240052470888067   0.004637543563820783
-1.1233772936130206   -0.6156088859538804   -0.022056903294490116
-1.1233772936130206   -0.6156088859538804   -0.022056903294490116
-1.1233772936130206   -0.6156088859538804   -0.022056903294490116
-1.1233772936130206   -0.6156088859538804   -0.022056903294490116
-0.9835975252509278   -0.15383650726691603   -0.037619573813457055
-0.9835975252509278   -0.15383650726691603   -0.037619573813457055
-0.9835975252509278   -0.15383650726691603   -0.037619573813457055
-0.9835975252509278   -0.15383650726691603   -0.037619573813457055
-0.4530005888126505   -0.4354313481838322   0.036211906538579655
-0.4530005888126505   -0.4354313481838322   0.036211906538579655
-0.4530005888126505   -0.4354313481838322   0.036211906538579655
-0.4530005888126505   -0.4354313481838322   0.036211906538579655
-0.7378505943329629   -0.30502810616704923   -0.017691264144471586
-0.7378505943329629   -0.30502810616704923   -0.017691264144471586
-0.7378505943329629   -0.30502810616704923   -0.017691264144471586
-0.7378505943329629   -0.30502810616704923   -0.017691264144471586
-1.0731028075067595   -0.06423808823497051   -0.007443531155984992
-1.0731028075067595   -0.06423808823497051   -0.007443531155984992
-1.0731028075067595   -0.06423808823497051   -0.007443531155984992
-1.0731028075067595   -0.06423808823497051   -0.007443531155984992
-1.8913962908832187   -0.3744126576990442   0.019333002387997622
-1.8913962908832187   -0.3744126576990442   0.019333002387997622
-1.8913962908832187   -0.3744126576990442   0.019333002387997622
-1.8913962908832187   -0.3744126576990442   0.019333002387997622
-1.8172694970893817   -0.1795161855681381   -0.0395887179108816
-1.8172694970893817   -0.1795161855681381   -0.0395887179108816
-1.8172694970893817   -0.1795161855681381   -0.0395887179108816
-1.8172694970893817   -0.1795161855681381   -0.0395887179108816
-1.0500757704550747   -0.1945465007063965   0.07734326692309235
-1.0500757704550747   -0.1945465007063965   0.07734326692309235
-1.0500757704550747   -0.1945465007063965   0.07734326692309235
-1.0500757704550747   -0.1945465007063965   0.07734326692309235
-1.3989548967484815   -0.21697475357979773   0.019720904352926255
-1.3989548967484815   -0.21697475357979773   0.019720904352926255
-1.3989548967484815   -0.21697475357979773   0.019720904352926255
-1.3989548967484815   -0.21697475357979773   0.019720904352926255
-1.0293844445681988   -0.013975626959590703   0.00022902261067246632
-1.0293844445681988   -0.013975626959590703   0.00022902261067246632
-1.0293844445681988   -0.013975626959590703   0.00022902261067246632
-1.0293844445681988   -0.013975626959590703   0.00022902261067246632
-1.8449503089995838   -0.3670765453382716   0.009567582308225742
-1.8449503089995838   -0.3670765453382716   0.009567582308225742
-1.8449503089995838   -0.3670765453382716   0.009567582308225742
-1.8449503089995838   -0.3670765453382716   0.009567582308225742
-1.776649658296881   -0.16452197390918205   -0.050259028925184815
-1.776649658296881   -0.16452197390918205   -0.050259028925184815
-1.776649658296881   -0.16452197390918205   -0.050259028925184815
-1.776649658296881   -0.16452197390918205   -0.050259028925184815
-1.0147912999535111   -0.18492118681738906   0.09018536586656573
-1.0147912999535111   -0.18492118681738906   0.09018536586656573
-1.0147912999535111   -0.18492118681738906   0.09018536586656573
-1.0147912999535111   -0.18492118681738906   0.09018536586656573
-1.377692546498171   -0.17876916449757016   0.019033417377442775
-1.377692546498171   -0.17876916449757016   0.019033417377442775
-1.377692546498171   -0.17876916449757016   0.019033417377442775
-1.377692546498171   -0.17876916449757016   0.019033417377442775
-0.9979582074522338   -0.0007049580367527175   -0.00986540040768523
-0.9979582074522338   -0.0007049580367527175   -0.00986540040768523
-0.9979582074522338   -0.0007049580367527175   -0.00986540040768523
-0.9979582074522338   -0.0007049580367527175   -0.00986540040768523
-1.7959865154349441   -0.3512419673266066   0.0397766788019111
-1.7959865154349441   -0.3512419673266066   0.0397766788019111
-1.7959865154349441   -0.3512419673266066   0.0397766788019111
-1.7959865154349441   -0.3512419673266066   0.0397766788019111
-1.6922777465180388   -0.13350833070058718   -0.05628110364329685
-1.6922777465180388   -0.13350833070058718   -0.05628110364329685
-1.6922777465180388   -0.13350833070058718   -0.05628110364329685
-1.6922777465180388   -0.13350833070058718   -0.05628110364329685
-0.9598569176445914   -0.17210166011554573   0.09934861706686265
-0.9598569176445914   -0.17210166011554573   0.09934861706686265
-0.9598569176445914   -0.17210166011554573   0.09934861706686265
-0.9598569176445914   -0.17210166011554573   0.09934861706686265
-1.2957605300467285   -0.1367198085998799   0.03932291550105003
-1.2957605300467285   -0.1367198085998799   0.03932291550105003
-1.2957605300467285   -0.1367198085998799   0.03932291550105003
-1.2957605300467285   -0.1367198085998799   0.03932291550105003
1.3592406539114237   0.04497108853170406   0.019037405802974805
1.3592406539114237   0.04497108853170406   0.019037405802974805
1.3592406539114237   0.04497108853170406   0.019037405802974805
1.3592406539114237   0.04497108853170406   0.019037405802974805
0.6933796047607675   -0.03678860673546647   0.013834790878704754
0.6933796047607675   -0.03678860673546647   0.013834790878704754
0.6933796047607675   -0.03678860673546647   0.013834790878704754
0.6933796047607675   -0.03678860673546647   0.013834790878704754
0.6664905061670034   -0.0976695702596875   0.027446133840052386
0.6664905061670034   -0.0976695702596875   0.027446133840052386
0.6664905061670034   -0.0976695702596875   0.027446133840052386
0.6664905061670034   -0.0976695702596875   0.027446133840052386
1.3493997719246065   0.07599879170929993   0.0099488678148364
1.3493997719246065   0.07599879170929993   0.0099488678148364
1.3493997719246065   0.07599879170929993   0.0099488678148364
1.3493997719246065   0.07599879170929993   0.0099488678148364
0.9629228879199376   -0.01356267448031892   -0.03559548342834595
0.9629228879199376   -0.01356267448031892   -0.03559548342834595
0.9629228879199376   -0.01356267448031892   -0.03559548342834595
0.9629228879199376   -0.01356267448031892   -0.03559548342834595
1.3420936025526344   0.03487098731856958   0.01454582534570674
1.3420936025526344   0.03487098731856958   0.01454582534570674
1.3420936025526344   0.03487098731856958   0.01454582534570674
1.3420936025526344   0.03487098731856958   0.01454582534570674
0.6716078516021253   -0.05873058980580728   0.014093880561781465
0.6716078516021253   -0.05873058980580728   0.014093880561781465
0.6716078516021253   -0.05873058980580728   0.014093880561781465
0.6716078516021253   -0.05873058980580728   0.014093880561781465
0.6493103112449177   -0.09988663057780603   0.022681919208626736
0.6493103112449177   -0.09988663057780603   0.022681919208626736
0.6493103112449177   -0.09988663057780603   0.022681919208626736
0.6493103112449177   -0.09988663057780603   0.022681919208626736
1.3337263064236327   0.07275333273817053   0.017330679653912648
1.3337263064236327   0.07275333273817053   0.017330679653912648
1.3337263064236327   0.07275333273817053   0.017330679653912648
1.3337263064236327   0.07275333273817053   0.017330679653912648
0.9602005384643032   -0.01870138027569665   -0.04110757756487868
0.9602005384643032   -0.01870138027569665   -0.04110757756487868
0.9602005384643032   -0.01870138027569665   -0.04110757756487868
0.9602005384643032   -0.01870138027569665   -0.04110757756487868
1.322806479211756   0.031144328700311585   0.004340547632376374
1.322806479211756   0.031144328700311585   0.004340547632376374
1.322806479211756   0.031144328700311585   0.004340547632376374
1.322806479211756   0.031144328700311585   0.004340547632376374
0.6562847333911724   -0.062223031605570966   0.01989043096766553
0.6562847333911724   -0.062223031605570966   0.01989043096766553
0.6562847333911724   -0.062223031605570966   0.01989043096766553
0.6562847333911724   -0.062223031605570966   0.01989043096766553
0.6312043751571887   -0.09100688898911946   0.019588147769070266
0.6312043751571887   -0.09100688898911946   0.019588147769070266
0.6312043751571887   -0.09100688898911946   0.019588147769070266
0.6312043751571887   -0.09100688898911946   0.019588147769070266
1.3095957250618582   0.07370642405111641   0.025013967980474512
1.3095957250618582   0.07370642405111641   0.025013967980474512
1.3095957250618582   0.07370642405111641   0.025013967980474512
1.3095957250618582   0.07370642405111641   0.025013967980474512
0.9242646829806067   -0.018793390044851643   -0.055414879733572966
0.9242646829806067   -0.018793390044851643   -0.055414879733572966
0.9242646829806067   -0.018793390044851643   -0.055414879733572966
0.9242646829806067   -0.018793390044851643   -0.055414879733572966
0.687560035915999   -0.0860380116019944   0.033986351521390123
0.687560035915999   -0.0860380116019944   0.033986351521390123
0.687560035915999   -0.0860380116019944   0.033986351521390123
0.687560035915999   -0.0860380116019944   0.033986351521390123
0.13199746416857175   -0.08184749595388997   0.007087076238697389
0.13199746416857175   -0.08184749595388997   0.007087076238697389
0.13199746416857175   -0.08184749595388997   0.007087076238697389
0.13199746416857175   -0.08184749595388997   0.007087076238697389
0.08561074999143009   -0.20477544211592602   0.03603529243595305
0.08561074999143009   -0.20477544211592602   0.03603529243595305
0.08561074999143009   -0.20477544211592602   0.03603529243595305
0.08561074999143009   -0.20477544211592602   0.03603529243595305
0.6912168210526751   0.02720681877045311   0.02620131923827019
0.6912168210526751   0.02720681877045311   0.02620131923827019
0.6912168210526751   0.02720681877045311   0.02620131923827019
0.6912168210526751   0.02720681877045311   0.02620131923827019
0.39295485389061485   -0.08671313560013369   -0.0015404693661948757
0.39295485389061485   -0.08671313560013369   -0.0015404693661948757
0.39295485389061485   -0.08671313560013369   -0.0015404693661948757
0.39295485389061485   -0.08671313560013369   -0.0015404693661948757
0.6682870295215365   -0.08974617385540298   0.028505354208431116
0.6682870295215365   -0.08974617385540298   0.028505354208431116
0.6682870295215365   -0.08974617385540298   0.028505354208431116
0.6682870295215365   -0.08974617385540298   0.028505354208431116
0.1027457846700254   -0.09361720634260848   0.010552230055612052
0.1027457846700254   -0.09361720634260848   0.010552230055612052
0.1027457846700254   -0.09361720634260848   0.010552230055612052
0.1027457846700254   -0.09361720634260848   0.010552230055612052
0.0648079674334793   -0.20653514011513707   0.032252489440208226
0.0648079674334793   -0.20653514011513707   0.032252489440208226
0.0648079674334793   -0.20653514011513707   0.032252489440208226
0.0648079674334793   -0.20653514011513707   0.032252489440208226
0.6753762812619548   0.022109545217581517   0.03101559349842513
0.6753762812619548   0.022109545217581517   0.03101559349842513
0.6753762812619548   0.022109545217581517   0.03101559349842513
0.6753762812619548   0.022109545217581517   0.03101559349842513
0.36467743566096067   -0.0923958298782557   -0.018763054202332152
0.36467743566096067   -0.0923958298782557   -0.018763054202332152
0.36467743566096067   -0.0923958298782557   -0.018763054202332152
0.36467743566096067   -0.0923958298782557   -0.018763054202332152
0.6512795647557224   -0.0909691727514686   0.023610728936307557
0.6512795647557224   -0.0909691727514686   0.023610728936307557
0.6512795647557224   -0.0909691727514686   0.023610728936307557
0.6512795647557224   -0.0909691727514686   0.023610728936307557
0.08260408795156901   -0.09975701813423062   0.014454970049750299
0.08260408795156901   -0.09975701813423062   0.014454970049750299
0.08260408795156901   -0.09975701813423062   0.014454970049750299
0.08260408795156901   -0.09975701813423062   0.014454970049750299
0.04153706449565436   -0.20634357790360128   0.025207219766482616
0.04153706449565436   -0.20634357790360128   0.025207219766482616
0.04153706449565436   -0.20634357790360128   0.025207219766482616
0.04153706449565436   -0.20634357790360128   0.025207219766482616
0.657398564119804   0.022495333465436224   0.03705687012759291
0.657398564119804   0.022495333465436224   0.03705687012759291
0.657398564119804   0.022495333465436224   0.03705687012759291
0.657398564119804   0.022495333465436224   0.03705687012759291
0.34745470213842655   -0.0916104950204715   -0.03339160671394145
0.34745470213842655   -0.0916104950204715   -0.03339160671394145
0.34745470213842655   -0.0916104950204715   -0.03339160671394145
0.34745470213842655   -0.0916104950204715   -0.03339160671394145
0.10303626996807218   -0.2500348963101328   0.03046850559244048
0.10303626996807218   -0.2500348963101328   0.03046850559244048
0.10303626996807218   -0.2500348963101328   0.03046850559244048
0.10303626996807218   -0.2500348963101328   0.03046850559244048
-0.4077965076187422   -0.12678112819310972   0.00029240597769119615
-0.4077965076187422   -0.12678112819310972   0.00029240597769119615
-0.4077965076187422   -0.12678112819310972   0.00029240597769119615
-0.4077965076187422   -0.12678112819310972   0.00029240597769119615
-0.49171524237274844   -0.37284742850712616   0.04129695048496476
-0.49171524237274844   -0.37284742850712616   0.04129695048496476
-0.49171524237274844   -0.37284742850712616   0.04129695048496476
-0.49171524237274844   -0.37284742850712616   0.04129695048496476
0.1185292108846241   -0.02075897498890692   0.016611129774904088
0.1185292108846241   -0.02075897498890692   0.016611129774904088
0.1185292108846241   -0.02075897498890692   0.016611129774904088
0.1185292108846241   -0.02075897498890692   0.016611129774904088
-0.16724924477838782   -0.18988773731387937   0.007175220499787055
-0.16724924477838782   -0.18988773731387937   0.007175220499787055
-0.16724924477838782   -0.18988773731387937   0.007175220499787055
-0.16724924477838782   -0.18988773731387937   0.007175220499787055
0.0709081315435209   -0.2641939935039691   0.02194075158445015
0.0709081315435209   -0.2641939935039691   0.02194075158445015
0.0709081315435209   -0.2641939935039691   0.02194075158445015
0.0709081315435209   -0.2641939935039691   0.02194075158445015
-0.4522178002471193   -0.13753604720753354   0.0034727798135143536
-0.4522178002471193   -0.13753604720753354   0.0034727798135143536
-0.4522178002471193   -0.13753604720753354   0.0034727798135143536
-0.4522178002471193   -0.13753604720753354   0.0034727798135143536
-0.5206664429131749   -0.37872339016616047   0.0336982101877841
-0.5206664429131749   -0.37872339016616047   0.0336982101877841
-0.5206664429131749   -0.37872339016616047   0.0336982101877841
-0.5206664429131749   -0.37872339016616047   0.0336982101877841
0.09903170516350764   -0.02641401453968113   0.023250052514893968
0.09903170516350764   -0.02641401453968113   0.023250052514893968
0.09903170516350764   -0.02641401453968113   0.023250052514893968
0.09903170516350764   -0.02641401453968113   0.023250052514893968
-0.20343954720003066   -0.20136794919329498   -0.016981429348282256
-0.20343954720003066   -0.20136794919329498   -0.016981429348282256
-0.20343954720003066   -0.20136794919329498   -0.016981429348282256
-0.20343954720003066   -0.20136794919329498   -0.016981429348282256
0.04874910252801376   -0.26874609846327574   0.014169123261019226
0.04874910252801376   -0.26874609846327574   0.014169123261019226
0.04874910252801376   -0.26874609846327574   0.014169123261019226
0.04874910252801376   -0.26874609846327574   0.014169123261019226
-0.48006808252762434   -0.14607554849250945   0.004042170441884291
-0.48006808252762434   -0.14607554849250945   0.004042170441884291
-0.48006808252762434   -0.14607554849250945   0.004042170441884291
-0.48006808252762434   -0.14607554849250945   0.004042170441884291
-0.5520710511946978   -0.3760958037827906   0.02826492294237891
-0.5520710511946978   -0.3760958037827906   0.02826492294237891
-0.5520710511946978   -0.3760958037827906   0.02826492294237891
-0.5520710511946978   -0.3760958037827906   0.02826492294237891
0.07734492682797302   -0.02954298993950217   0.027445943463976788
0.07734492682797302   -0.02954298993950217   0.027445943463976788
0.07734492682797302   -0.02954298993950217   0.027445943463976788
0.07734492682797302   -0.02954298993950217   0.027445943463976788
-0.23282426017765828   -0.2057042409751344   -0.04115726635007368
-0.23282426017765828   -0.2057042409751344   -0.04115726635007368
-0.23282426017765828   -0.2057042409751344   -0.04115726635007368
-0.23282426017765828   -0.2057042409751344   -0.04115726635007368
-0.4610323759029443   -0.4288925609306466   0.0362244972942215
-0.4610323759029443   -0.4288925609306466   0.0362244972942215
-0.4610323759029443   -0.4288925609306466   0.0362244972942215
-0.4610323759029443   -0.4288925609306466   0.0362244972942215
-1.0207216333301958   -0.15777392909098906   -0.023527276484946284
-1.0207216333301958   -0.15777392909098906   -0.023527276484946284
-1.0207216333301958   -0.15777392909098906   -0.023527276484946284
-1.0207216333301958   -0.15777392909098906   -0.023527276484946284
-1.1674384789059697   -0.6243968877357962   -0.032099352172966195
-1.1674384789059697   -0.6243968877357962   -0.032099352172966195
-1.1674384789059697   -0.6243968877357962   -0.032099352172966195
-1.1674384789059697   -0.6243968877357962   -0.032099352172966195
-0.42949161889895743   -0.03478497501123352   0.014352614358023394
-0.42949161889895743   -0.03478497501123352   0.014352614358023394
-0.42949161889895743   -0.03478497501123352   0.014352614358023394
-0.42949161889895743   -0.03478497501123352   0.014352614358023394
-0.7622576286042233   -0.2992373586206314   -0.025454298914407612
-0.7622576286042233   -0.2992373586206314   -0.025454298914407612
-0.7622576286042233   -0.2992373586206314   -0.025454298914407612
-0.7622576286042233   -0.2992373586206314   -0.025454298914407612
-0.5201482588304508   -0.48605173779019484   0.012336177479521648
-0.5201482588304508   -0.48605173779019484   0.012336177479521648
-0.5201482588304508   -0.48605173779019484   0.012336177479521648
-0.5201482588304508   -0.48605173779019484   0.012336177479521648
-1.0745210410050148   -0.1708693269873675   -0.02103972341661983
-1.0745210410050148   -0.1708693269873675   -0.02103972341661983
-1.0745210410050148   -0.1708693269873675   -0.02103972341661983
-1.0745210410050148   -0.1708693269873675   -0.02103972341661983
-1.2019028055191499   -0.6343261950550264   -0.037117936894090264
-1.2019028055191499   -0.6343261950550264   -0.037117936894090264
-1.2019028055191499   -0.6343261950550264   -0.037117936894090264
-1.2019028055191499   -0.6343261950550264   -0.037117936894090264
-0.4562088065226007   -0.04409898835452649   0.02136199032901947
-0.4562088065226007   -0.04409898835452649   0.02136199032901947
-0.4562088065226007   -0.04409898835452649   0.02136199032901947
-0.4562088065226007   -0.04409898835452649   0.02136199032901947
-0.8044067887055397   -0.33167670431750906   -0.03630256372901759
-0.8044067887055397   -0.33167670431750906   -0.03630256372901759
-0.8044067887055397   -0.33167670431750906   -0.03630256372901759
-0.8044067887055397   -0.33167670431750906   -0.03630256372901759
-0.5497970500845839   -0.495514249796989   0.004836033961561612
-0.5497970500845839   -0.495514249796989   0.004836033961561612
-0.5497970500845839   -0.495514249796989   0.004836033961561612
-0.5497970500845839   -0.495514249796989   0.004836033961561612
-1.1085620742565159   -0.18315844591192063   -0.021582029724036174
-1.1085620742565159   -0.18315844591192063   -0.021582029724036174
-1.1085620742565159   -0.18315844591192063   -0.021582029724036174
-1.1085620742565159   -0.18315844591192063   -0.021582029724036174
-1.2312633280965541   -0.6066966082795968   -0.04185165465634012
-1.2312633280965541   -0.6066966082795968   -0.04185165465634012
-1.2312633280965541   -0.6066966082795968   -0.04185165465634012
-1.2312633280965541   -0.6066966082795968   -0.04185165465634012
-0.48999459437441084   -0.05726714542501302   0.019818548686026276
-0.48999459437441084   -0.05726714542501302   0.019818548686026276
-0.48999459437441084   -0.05726714542501302   0.019818548686026276
-0.48999459437441084   -0.05726714542501302   0.019818548686026276
-0.8432970043614766   -0.3426875140572983   -0.046728290946993926
-0.8432970043614766   -0.3426875140572983   -0.046728290946993926
-0.8432970043614766   -0.3426875140572983   -0.046728290946993926
-0.8432970043614766   -0.3426875140572983   -0.046728290946993926
-1.0032160688068432   -0.18283157529433877   0.08905819233514944
-1.0032160688068432   -0.18283157529433877   0.08905819233514944
-1.0032160688068432   -0.18283157529433877   0.08905819233514944
-1.0032160688068432   -0.18283157529433877   0.08905819233514944
-1.7635866432488991   -0.13161904482505205   -0.03099646116268452
-1.7635866432488991   -0.13161904482505205   -0.03099646116268452
-1.7635866432488991   -0.13161904482505205   -0.03099646116268452
-1.7635866432488991   -0.13161904482505205   -0.03099646116268452
-1.8710963374543002   -0.36933766934181456   0.02440799074522726
-1.8710963374543002   -0.36933766934181456   0.02440799074522726
-1.8710963374543002   -0.36933766934181456   0.02440799074522726
-1.8710963374543002   -0.36933766934181456   0.02440799074522726
-1.0313167153069693   0.015170070956943837   0.00894250712928521
-1.0313167153069693   0.015170070956943837   0.00894250712928521
-1.0313167153069693   0.015170070956943837   0.00894250712928521
-1.0313167153069693   0.015170070956943837   0.00894250712928521
-1.3498140202350621   -0.12971693721697053   0.027058246633610256
-1.3498140202350621   -0.12971693721697053   0.027058246633610256
-1.3498140202350621   -0.12971693721697053   0.027058246633610256
-1.3498140202350621   -0.12971693721697053   0.027058246633610256
-1.059563627910031   -0.19611426880651922   0.07899228387743495
-1.059563627910031   -0.19611426880651922   0.07899228387743495
-1.059563627910031   -0.19611426880651922   0.07899228387743495
-1.059563627910031   -0.19611426880651922   0.07899228387743495
-1.838202777713226   -0.15340668244033728   -0.027055197450863544
-1.838202777713226   -0.15340668244033728   -0.027055197450863544
-1.838202777713226   -0.15340668244033728   -0.027055197450863544
-1.838202777713226   -0.15340668244033728   -0.027055197450863544
-1.9165236786663795   -0.38496988775497054   -0.00832576010847319
-1.9165236786663795   -0.38496988775497054   -0.00832576010847319
-1.9165236786663795   -0.38496988775497054   -0.00832576010847319
-1.9165236786663795   -0.38496988775497054   -0.00832576010847319
-1.063418474600832   0.0046857228173111665   0.016291799825151707
-1.063418474600832   0.0046857228173111665   0.016291799825151707
-1.063418474600832   0.0046857228173111665   0.016291799825151707
-1.063418474600832   0.0046857228173111665   0.016291799825151707
-1.430115315459101   -0.17114759346078226   0.011075821188466554
-1.430115315459101   -0.17114759346078226   0.011075821188466554
-1.430115315459101   -0.17114759346078226   0.011075821188466554
-1.430115315459101   -0.17114759346078226   0.011075821188466554
-1.0957543288606688   -0.20607601291956518   0.06537426426284287
-1.0957543288606688   -0.20607601291956518   0.06537426426284287
-1.0957543288606688   -0.20607601291956518   0.06537426426284287
-1.0957543288606688   -0.20607601291956518   0.06537426426284287
-1.8747937895616669   -0.16481411717321276   -0.019832085166633054
-1.8747937895616669   -0.16481411717321276   -0.019832085166633054
-1.8747937895616669   -0.16481411717321276   -0.019832085166633054
-1.8747937895616669   -0.16481411717321276   -0.019832085166633054
-1.9558541998490548   -0.39120888843013424   -0.00019024230161657218
-1.9558541998490548   -0.39120888843013424   -0.00019024230161657218
-1.9558541998490548   -0.39120888843013424   -0.00019024230161657218
-1.9558541998490548   -0.39120888843013424   -0.00019024230161657218
-1.1085362779836279   -0.04163985923685856   0.006726846865553852
-1.1085362779836279   -0.04163985923685856   0.006726846865553852
-1.1085362779836279   -0.04163985923685856   0.006726846865553852
-1.1085362779836279   -0.04163985923685856   0.006726846865553852
-1.4472177597857718   -0.20667140863516342   0.017459832009045443
-1.4472177597857718   -0.20667140863516342   0.017459832009045443
-1.4472177597857718   -0.20667140863516342   0.017459832009045443
-1.4472177597857718   -0.20667140863516342   0.017459832009045443
1.192196589188815   0.05507242349954117   -0.025677042374274026
1.192196589188815   0.05507242349954117   -0.025677042374274026
1.192196589188815   0.05507242349954117   -0.025677042374274026
1.192196589188815   0.05507242349954117   -0.025677042374274026
0.5995954980931633   -0.012381060155620432   0.012545331043704283
0.5995954980931633   -0.012381060155620432   0.012545331043704283
0.5995954980931633   -0.012381060155620432   0.012545331043704283
0.5995954980931633   -0.012381060155620432   0.012545331043704283
0.561690562409815   -0.08808529479740015   -0.022762355203872507
0.561690562409815   -0.08808529479740015   -0.022762355203872507
0.561690562409815   -0.08808529479740015   -0.022762355203872507
0.561690562409815   -0.08808529479740015   -0.022762355203872507
1.1784588308294988   0.08594012875386994   0.01467783857902357
1.1784588308294988   0.08594012875386994   0.01467783857902357
1.1784588308294988   0.08594012875386994   0.01467783857902357
1.1784588308294988   0.08594012875386994   0.01467783857902357
0.8367022294041085   0.002058531210378328   -0.03231247525302192
0.8367022294041085   0.002058531210378328   -0.03231247525302192
0.8367022294041085   0.002058531210378328   -0.03231247525302192
0.8367022294041085   0.002058531210378328   -0.03231247525302192
1.1593068791762877   0.030801734508365403   -0.025943525441517394
1.1593068791762877   0.030801734508365403   -0.025943525441517394
1.1593068791762877   0.030801734508365403   -0.025943525441517394
1.1593068791762877   0.030801734508365403   -0.025943525441517394
0.5797858945010311   -0.03400352011388952   0.01363253056869388
0.5797858945010311   -0.03400352011388952   0.01363253056869388
0.5797858945010311   -0.03400352011388952   0.01363253056869388
0.5797858945010311   -0.03400352011388952   0.01363253056869388
0.5412709235127651   -0.09296808041017848   -0.01882100317696482
0.5412709235127651   -0.09296808041017848   -0.01882100317696482
0.5412709235127651   -0.09296808041017848   -0.01882100317696482
0.5412709235127651   -0.09296808041017848   -0.01882100317696482
1.1501135784344934   0.07900508875789186   0.02151095512383988
1.1501135784344934   0.07900508875789186   0.02151095512383988
1.1501135784344934   0.07900508875789186   0.02151095512383988
1.1501135784344934   0.07900508875789186   0.02151095512383988
0.8256642089817852   -0.0082959207953541   -0.03849288495022131
0.8256642089817852   -0.0082959207953541   -0.03849288495022131
0.8256642089817852   -0.0082959207953541   -0.03849288495022131
0.8256642089817852   -0.0082959207953541   -0.03849288495022131
1.1308158200869802   0.024592124974075757   -0.020564872829908834
1.1308158200869802   0.024592124974075757   -0.020564872829908834
1.1308158200869802   0.024592124974075757   -0.020564872829908834
1.1308158200869802   0.024592124974075757   -0.020564872829908834
0.5590944754232354   -0.040029323063405065   0.01735799902861314
0.5590944754232354   -0.040029323063405065   0.01735799902861314
0.5590944754232354   -0.040029323063405065   0.01735799902861314
0.5590944754232354   -0.040029323063405065   0.01735799902861314
0.5215100314271557   -0.09149738426324745   -0.012919379956673117
0.5215100314271557   -0.09149738426324745   -0.012919379956673117
0.5215100314271557   -0.09149738426324745   -0.012919379956673117
0.5215100314271557   -0.09149738426324745   -0.012919379956673117
1.1150317200991042   0.07438716151078173   0.02804066463431211
1.1150317200991042   0.07438716151078173   0.02804066463431211
1.1150317200991042   0.07438716151078173   0.02804066463431211
1.1150317200991042   0.07438716151078173   0.02804066463431211
0.7850144310286848   -0.014453696630897794   -0.05050796729462732
0.7850144310286848   -0.014453696630897794   -0.05050796729462732
0.7850144310286848   -0.014453696630897794   -0.05050796729462732
0.7850144310286848   -0.014453696630897794   -0.05050796729462732
0.603084100805692   0.012061560846615735   0.005545723604105709
0.603084100805692   0.012061560846615735   0.005545723604105709
0.603084100805692   0.012061560846615735   0.005545723604105709
0.603084100805692   0.012061560846615735   0.005545723604105709
0.057144584851421924   -0.03629612588375151   -0.0014674259913523766
0.057144584851421924   -0.03629612588375151   -0.0014674259913523766
0.057144584851421924   -0.03629612588375151   -0.0014674259913523766
0.057144584851421924   -0.03629612588375151   -0.0014674259913523766
0.021423903775761477   -0.11637880818999474   -0.021933898287086005
0.021423903775761477   -0.11637880818999474   -0.021933898287086005
0.021423903775761477   -0.11637880818999474   -0.021933898287086005
0.021423903775761477   -0.11637880818999474   -0.021933898287086005
0.6037579041671897   0.06969586207996985   0.029793196705627637
0.6037579041671897   0.06969586207996985   0.029793196705627637
0.6037579041671897   0.06969586207996985   0.029793196705627637
0.6037579041671897   0.06969586207996985   0.029793196705627637
0.315457092631443   -0.016214964176880356   -0.012438315645762778
0.315457092631443   -0.016214964176880356   -0.012438315645762778
0.315457092631443   -0.016214964176880356   -0.012438315645762778
0.315457092631443   -0.016214964176880356   -0.012438315645762778
0.5863005523764078   0.0028531342949079386   0.009349165536781015
0.5863005523764078   0.0028531342949079386   0.009349165536781015
0.5863005523764078   0.0028531342949079386   0.009349165536781015
0.5863005523764078   0.0028531342949079386   0.009349165536781015
0.03954933943325058   -0.04886799653822546   0.0011824683485902494
0.03954933943325058   -0.04886799653822546   0.0011824683485902494
0.03954933943325058   -0.04886799653822546   0.0011824683485902494
0.03954933943325058   -0.04886799653822546   0.0011824683485902494
0.0017346814354727291   -0.12188250344995336   -0.015303050012767078
0.0017346814354727291   -0.12188250344995336   -0.015303050012767078
0.0017346814354727291   -0.12188250344995336   -0.015303050012767078
0.0017346814354727291   -0.12188250344995336   -0.015303050012767078
0.5821462109086641   0.059735046266128106   0.032852307126224015
0.5821462109086641   0.059735046266128106   0.032852307126224015
0.5821462109086641   0.059735046266128106   0.032852307126224015
0.5821462109086641   0.059735046266128106   0.032852307126224015
0.29276891044504316   -0.025396441335295006   -0.017609696554652693
0.29276891044504316   -0.025396441335295006   -0.017609696554652693
0.29276891044504316   -0.025396441335295006   -0.017609696554652693
0.29276891044504316   -0.025396441335295006   -0.017609696554652693
0.5656733949435617   -0.0033245800270110815   0.013547853593855366
0.5656733949435617   -0.0033245800270110815   0.013547853593855366
0.5656733949435617   -0.0033245800270110815   0.013547853593855366
0.5656733949435617   -0.0033245800270110815   0.013547853593855366
0.018117525954364402   -0.058912848603024225   0.0036415177347621716
0.018117525954364402   -0.058912848603024225   0.0036415177347621716
0.018117525954364402   -0.058912848603024225   0.0036415177347621716
0.018117525954364402   -0.058912848603024225   0.0036415177347621716
-0.019393029623095567   -0.12236767632951645   -0.010466585104240169
-0.019393029623095567   -0.12236767632951645   -0.010466585104240169
-0.019393029623095567   -0.12236767632951645   -0.010466585104240169
-0.019393029623095567   -0.12236767632951645   -0.010466585104240169
0.5603402779911689   0.053434537037722635   0.036299931562425766
0.5603402779911689   0.053434537037722635   0.036299931562425766
0.5603402779911689   0.053434537037722635   0.036299931562425766
0.5603402779911689   0.053434537037722635   0.036299931562425766
0.27507104010664774   -0.029011113121099844   -0.02203415358267036
0.27507104010664774   -0.029011113121099844   -0.02203415358267036
0.27507104010664774   -0.029011113121099844   -0.02203415358267036
0.27507104010664774   -0.029011113121099844   -0.02203415358267036
0.05849054323239775   -0.03315745934372076   0.0021236993734960515
0.05849054323239775   -0.03315745934372076   0.0021236993734960515
0.05849054323239775   -0.03315745934372076   0.0021236993734960515
0.05849054323239775   -0.03315745934372076   0.0021236993734960515
-0.4672972513299947   -0.05394846359736171   -0.014686383886144265
-0.4672972513299947   -0.05394846359736171   -0.014686383886144265
-0.4672972513299947   -0.05394846359736171   -0.014686383886144265
-0.4672972513299947   -0.05394846359736171   -0.014686383886144265
-0.5070100515548129   -0.15419569673537023   -0.025033216517975444
-0.5070100515548129   -0.15419569673537023   -0.025033216517975444
-0.5070100515548129   -0.15419569673537023   -0.025033216517975444
-0.5070100515548129   -0.15419569673537023   -0.025033216517975444
0.06274097315563977   0.05113463631339103   0.0171380041089197
0.06274097315563977   0.05113463631339103   0.0171380041089197
0.06274097315563977   0.05113463631339103   0.0171380041089197
0.06274097315563977   0.05113463631339103   0.0171380041089197
-0.2138889167657859   -0.04526811091092792   -0.012325289766489495
-0.2138889167657859   -0.04526811091092792   -0.012325289766489495
-0.2138889167657859   -0.04526811091092792   -0.012325289766489495
-0.2138889167657859   -0.04526811091092792   -0.012325289766489495
0.04369034765389681   -0.037037559172762004   0.010057072086356008
0.04369034765389681   -0.037037559172762004   0.010057072086356008
0.04369034765389681   -0.037037559172762004   0.010057072086356008
0.04369034765389681   -0.037037559172762004   0.010057072086356008
-0.48649595279635705   -0.06456002799250463   -0.012098391468561695
-0.48649595279635705   -0.06456002799250463   -0.012098391468561695
-0.48649595279635705   -0.06456002799250463   -0.012098391468561695
-0.48649595279635705   -0.06456002799250463   -0.012098391468561695
-0.5300928318492557   -0.16021659985238934   -0.016638337035883716
-0.5300928318492557   -0.16021659985238934   -0.016638337035883716
-0.5300928318492557   -0.16021659985238934   -0.016638337035883716
-0.5300928318492557   -0.16021659985238934   -0.016638337035883716
0.041140821813901975   0.04047565358088349   0.01936949484854232
0.041140821813901975   0.04047565358088349   0.01936949484854232
0.041140821813901975   0.04047565358088349   0.01936949484854232
0.041140821813901975   0.04047565358088349   0.01936949484854232
-0.23299200982558457   -0.05159731819477939   -0.014777497973137628
-0.23299200982558457   -0.05159731819477939   -0.014777497973137628
-0.23299200982558457   -0.05159731819477939   -0.014777497973137628
-0.23299200982558457   -0.05159731819477939   -0.014777497973137628
0.023250655145274565   -0.04345114335754066   0.013845458443829402
0.023250655145274565   -0.04345114335754066   0.013845458443829402
0.023250655145274565   -0.04345114335754066   0.013845458443829402
0.023250655145274565   -0.04345114335754066   0.013845458443829402
-0.5118916916368146   -0.07597882937015243   -0.009870406455920857
-0.5118916916368146   -0.07597882937015243   -0.009870406455920857
-0.5118916916368146   -0.07597882937015243   -0.009870406455920857
-0.5118916916368146   -0.07597882937015243   -0.009870406455920857
-0.5556972807041753   -0.16459826253928334   -0.014788212002780703
-0.5556972807041753   -0.16459826253928334   -0.014788212002780703
-0.5556972807041753   -0.16459826253928334   -0.014788212002780703
-0.5556972807041753   -0.16459826253928334   -0.014788212002780703
0.017775912980464464   0.03137890560288043   0.021631545981163115
0.017775912980464464   0.03137890560288043   0.021631545981163115
0.017775912980464464   0.03137890560288043   0.021631545981163115
0.017775912980464464   0.03137890560288043   0.021631545981163115
-0.2578013116064353   -0.059174012478580354   -0.020694944807205257
-0.2578013116064353   -0.059174012478580354   -0.020694944807205257
-0.2578013116064353   -0.059174012478580354   -0.020694944807205257
-0.2578013116064353   -0.059174012478580354   -0.020694944807205257
-0.4599992614780747   -0.03946081589029831   0.00731591766638621
-0.4599992614780747   -0.03946081589029831   0.00731591766638621
-0.4599992614780747   -0.03946081589029831   0.00731591766638621
-0.4599992614780747   -0.03946081589029831   0.00731591766638621
-0.9794419607671161   -0.06315359582693794   -0.025822938166456248
-0.9794419607671161   -0.06315359582693794   -0.025822938166456248
-0.9794419607671161   -0.06315359582693794   -0.025822938166456248
-0.9794419607671161   -0.06315359582693794   -0.025822938166456248
-1.0245598170047088   -0.16168454477532557   -0.02507703635671615
-1.0245598170047088   -0.16168454477532557   -0.02507703635671615
-1.0245598170047088   -0.16168454477532557   -0.02507703635671615
-1.0245598170047088   -0.16168454477532557   -0.02507703635671615
-0.462354892361705   0.03912925173766538   0.00491763097451909
-0.462354892361705   0.03912925173766538   0.00491763097451909
-0.462354892361705   0.03912925173766538   0.00491763097451909
-0.462354892361705   0.03912925173766538   0.00491763097451909
-0.7255751364779414   -0.05368737182134155   -0.010313716011623186
-0.7255751364779414   -0.05368737182134155   -0.010313716011623186
-0.7255751364779414   -0.05368737182134155   -0.010313716011623186
-0.7255751364779414   -0.05368737182134155   -0.010313716011623186
-0.4763863056708797   -0.04354706000329457   0.017436876169609653
-0.4763863056708797   -0.04354706000329457   0.017436876169609653
-0.4763863056708797   -0.04354706000329457   0.017436876169609653
-0.4763863056708797   -0.04354706000329457   0.017436876169609653
-1.0076691307299575   -0.07614896006879504   -0.026159189689499998
-1.0076691307299575   -0.07614896006879504   -0.026159189689499998
-1.0076691307299575   -0.07614896006879504   -0.026159189689499998
-1.0076691307299575   -0.07614896006879504   -0.026159189689499998
-1.0564745509258486   -0.17195400760587767   -0.0176473615244886
-1.0564745509258486   -0.17195400760587767   -0.0176473615244886
-1.0564745509258486   -0.17195400760587767   -0.0176473615244886
-1.0564745509258486   -0.17195400760587767   -0.0176473615244886
-0.4880322994150668   0.0274511503970567   0.005996574885608626
-0.4880322994150668   0.0274511503970567   0.005996574885608626
-0.4880322994150668   0.0274511503970567   0.005996574885608626
-0.4880322994150668   0.0274511503970567   0.005996574885608626
-0.7457031036529752   -0.059342440528225376   -0.010323631849967485
-0.7457031036529752   -0.059342440528225376   -0.010323631849967485
-0.7457031036529752   -0.059342440528225376   -0.010323631849967485
-0.7457031036529752   -0.059342440528225376   -0.010323631849967485
-0.5018739184323051   -0.0538804023024804   0.018120032498954323
-0.5018739184323051   -0.0538804023024804   0.018120032498954323
-0.5018739184323051   -0.0538804023024804   0.018120032498954323
-0.5018739184323051   -0.0538804023024804   0.018120032498954323
-1.0407146843672854   -0.08870420736501597   -0.022097828972535906
-1.0407146843672854   -0.08870420736501597   -0.022097828972535906
-1.0407146843672854   -0.08870420736501597   -0.022097828972535906
-1.0407146843672854   -0.08870420736501597   -0.022097828972535906
-1.0925718792073729   -0.185517471286641   -0.018855795789151676
-1.0925718792073729   -0.185517471286641   -0.018855795789151676
-1.0925718792073729   -0.185517471286641   -0.018855795789151676
-1.0925718792073729   -0.185517471286641   -0.018855795789151676
-0.515786004248301   0.013019509034571941   0.007150398702726733
-0.515786004248301   0.013019509034571941   0.007150398702726733
-0.515786004248301   0.013019509034571941   0.007150398702726733
-0.515786004248301   0.013019509034571941   0.007150398702726733
-0.7815888763624255   -0.0732876433562667   -0.016836981383081887
-0.7815888763624255   -0.0732876433562667   -0.016836981383081887
-0.7815888763624255   -0.0732876433562667   -0.016836981383081887
-0.7815888763624255   -0.0732876433562667   -0.016836981383081887
-0.9464214455047744   0.044365412849982244   0.0317606294683315
-0.9464214455047744   0.044365412849982244   0.0317606294683315
-0.9464214455047744   0.044365412849982244   0.0317606294683315
-0.9464214455047744   0.044365412849982244   0.0317606294683315
-1.467185270274856   -0.07307551660715425   -0.019543207235743897
-1.467185270274856   -0.07307551660715425   -0.019543207235743897
-1.467185270274856   -0.07307551660715425   -0.019543207235743897
-1.467185270274856   -0.07307551660715425   -0.019543207235743897
-1.5029559137978379   -0.07443288690477012   0.03256691631158409
-1.5029559137978379   -0.07443288690477012   0.03256691631158409
-1.5029559137978379   -0.07443288690477012   0.03256691631158409
-1.5029559137978379   -0.07443288690477012   0.03256691631158409
-0.9826236248907024   0.030623276053137638   -0.007703896615157663
-0.9826236248907024   0.030623276053137638   -0.007703896615157663
-0.9826236248907024   0.030623276053137638   -0.007703896615157663
-0.9826236248907024   0.030623276053137638   -0.007703896615157663
-1.1676984369273984   0.0008082750796160054   0.029677452555525327
-1.1676984369273984   0.0008082750796160054   0.029677452555525327
-1.1676984369273984   0.0008082750796160054   0.029677452555525327
-1.1676984369273984   0.0008082750796160054   0.029677452555525327
-0.972540761205237   0.033169583270411473   0.04016411459489111
-0.972540761205237   0.033169583270411473   0.04016411459489111
-0.972540761205237   0.033169583270411473   0.04016411459489111
-0.972540761205237   0.033169583270411473   0.04016411459489111
-1.512365972809051   -0.07630638944779755   -0.012609876201454262
-1.512365972809051   -0.07630638944779755   -0.012609876201454262
-1.512365972809051   -0.07630638944779755   -0.012609876201454262
-1.512365972809051   -0.07630638944779755   -0.012609876201454262
-1.5480758999584392   -0.08663939510584229   0.04432363556699169
-1.5480758999584392   -0.08663939510584229   0.04432363556699169
-1.5480758999584392   -0.08663939510584229   0.04432363556699169
-1.5480758999584392   -0.08663939510584229   0.04432363556699169
-1.0157036775930695   0.022324420484903268   -0.00807142295138237
-1.0157036775930695   0.022324420484903268   -0.00807142295138237
-1.0157036775930695   0.022324420484903268   -0.00807142295138237
-1.0157036775930695   0.022324420484903268   -0.00807142295138237
-1.2260687508036898   -0.013460051884677193   0.01636077280106392
-1.2260687508036898   -0.013460051884677193   0.01636077280106392
-1.2260687508036898   -0.013460051884677193   0.01636077280106392
-1.2260687508036898   -0.013460051884677193   0.01636077280106392
-1.0064844378658324   0.020736674527685073   0.039612521642021656
-1.0064844378658324   0.020736674527685073   0.039612521642021656
-1.0064844378658324   0.020736674527685073   0.039612521642021656
-1.0064844378658324   0.020736674527685073   0.039612521642021656
-1.5590317073804996   -0.0867882168434525   -0.010306579805700489
-1.5590317073804996   -0.0867882168434525   -0.010306579805700489
-1.5590317073804996   -0.0867882168434525   -0.010306579805700489
-1.5590317073804996   -0.0867882168434525   -0.010306579805700489
-1.6122619115144596   -0.13604472139651244   0.03842816959814727
-1.6122619115144596   -0.13604472139651244   0.03842816959814727
-1.6122619115144596   -0.13604472139651244   0.03842816959814727
-1.6122619115144596   -0.13604472139651244   0.03842816959814727
-1.0538457171136322   -0.0031327187985862037   -0.007609737808519625
-1.0538457171136322   -0.0031327187985862037   -0.007609737808519625
-1.0538457171136322   -0.0031327187985862037   -0.007609737808519625
-1.0538457171136322   -0.0031327187985862037   -0.007609737808519625
-1.2506642527758243   -0.03147105698375924   0.004713649536141118
-1.2506642527758243   -0.03147105698375924   0.004713649536141118
-1.2506642527758243   -0.03147105698375924   0.004713649536141118
-1.2506642527758243   -0.03147105698375924   0.004713649536141118
0.9679250180953028   0.05192957051286318   -0.03423103561601719
0.9679250180953028   0.05192957051286318   -0.03423103561601719
0.9679250180953028   0.05192957051286318   -0.03423103561601719
0.9679250180953028   0.05192957051286318   -0.03423103561601719
0.47942049336606674   -0.0007879532616575924   0.01232571625328788
0.47942049336606674   -0.0007879532616575924   0.01232571625328788
0.47942049336606674   -0.0007879532616575924   0.01232571625328788
0.47942049336606674   -0.0007879532616575924   0.01232571625328788
0.43846914885327704   -0.07128554240814056   -0.031460835254776595
0.43846914885327704   -0.07128554240814056   -0.031460835254776595
0.43846914885327704   -0.07128554240814056   -0.031460835254776595
0.43846914885327704   -0.07128554240814056   -0.031460835254776595
0.9498432846024626   0.07812809356569725   0.015468001418566586
0.9498432846024626   0.07812809356569725   0.015468001418566586
0.9498432846024626   0.07812809356569725   0.015468001418566586
0.9498432846024626   0.07812809356569725   0.015468001418566586
0.672264335300838   0.005924326666546076   -0.02213237678386
0.672264335300838   0.005924326666546076   -0.02213237678386
0.672264335300838   0.005924326666546076   -0.02213237678386
0.672264335300838   0.005924326666546076   -0.02213237678386
0.9298600774944338   0.02668401854989816   -0.03300395910577037
0.9298600774944338   0.02668401854989816   -0.03300395910577037
0.9298600774944338   0.02668401854989816   -0.03300395910577037
0.9298600774944338   0.02668401854989816   -0.03300395910577037
0.45760165250268625   -0.020692170850955885   0.013608311435077229
0.45760165250268625   -0.020692170850955885   0.013608311435077229
0.45760165250268625   -0.020692170850955885   0.013608311435077229
0.45760165250268625   -0.020692170850955885   0.013608311435077229
0.4179900057767497   -0.07719479732198095   -0.027364902617780684
0.4179900057767497   -0.07719479732198095   -0.027364902617780684
0.4179900057767497   -0.07719479732198095   -0.027364902617780684
0.4179900057767497   -0.07719479732198095   -0.027364902617780684
0.9192206902400165   0.06999146796453312   0.02119173417248186
0.9192206902400165   0.06999146796453312   0.02119173417248186
0.9192206902400165   0.06999146796453312   0.02119173417248186
0.9192206902400165   0.06999146796453312   0.02119173417248186
0.6563516227738634   -0.004757965993618468   -0.02898264404680599
0.6563516227738634   -0.004757965993618468   -0.02898264404680599
0.6563516227738634   -0.004757965993618468   -0.02898264404680599
0.6563516227738634   -0.004757965993618468   -0.02898264404680599
0.899659241558058   0.0194060184194087   -0.026030059692171356
0.899659241558058   0.0194060184194087   -0.026030059692171356
0.899659241558058   0.0194060184194087   -0.026030059692171356
0.899659241558058   0.0194060184194087   -0.026030059692171356
0.4367830618198284   -0.027377740415729393   0.016783320691357455
0.4367830618198284   -0.027377740415729393   0.016783320691357455
0.4367830618198284   -0.027377740415729393   0.016783320691357455
0.4367830618198284   -0.027377740415729393   0.016783320691357455
0.3993044139181037   -0.07883881498356995   -0.022361911656445785
0.3993044139181037   -0.07883881498356995   -0.022361911656445785
0.3993044139181037   -0.07883881498356995   -0.022361911656445785
0.3993044139181037   -0.07883881498356995   -0.022361911656445785
0.8846989683277395   0.0629403968773865   0.026413144359441754
0.8846989683277395   0.0629403968773865   0.026413144359441754
0.8846989683277395   0.0629403968773865   0.026413144359441754
0.8846989683277395   0.0629403968773865   0.026413144359441754
0.6189038342884844   -0.012079347689569475   -0.03931958483305474
0.6189038342884844   -0.012079347689569475   -0.03931958483305474
0.6189038342884844   -0.012079347689569475   -0.03931958483305474
0.6189038342884844   -0.012079347689569475   -0.03931958483305474
0.48781184690872026   0.05069143155579853   0.002803099149099479
0.48781184690872026   0.05069143155579853   0.002803099149099479
0.48781184690872026   0.05069143155579853   0.002803099149099479
0.48781184690872026   0.05069143155579853   0.002803099149099479
0.01606363106041566   -0.0161966555211806   -0.002069696244244701
0.01606363106041566   -0.0161966555211806   -0.002069696244244701
0.01606363106041566   -0.0161966555211806   -0.002069696244244701
0.01606363106041566   -0.0161966555211806   -0.002069696244244701
-0.014807512349396663   -0.06426623397439574   -0.021451867049644555
-0.014807512349396663   -0.06426623397439574   -0.021451867049644555
-0.014807512349396663   -0.06426623397439574   -0.021451867049644555
-0.014807512349396663   -0.06426623397439574   -0.021451867049644555
0.47847148825361474   0.07080984454636219   0.02645547479240143
0.47847148825361474   0.07080984454636219   0.02645547479240143
0.47847148825361474   0.07080984454636219   0.02645547479240143
0.47847148825361474   0.07080984454636219   0.02645547479240143
0.23811325747112644   0.010090760113819104   -0.0026923682046440713
0.23811325747112644   0.010090760113819104   -0.0026923682046440713
0.23811325747112644   0.010090760113819104   -0.0026923682046440713
0.23811325747112644   0.010090760113819104   -0.0026923682046440713
0.4676487208722553   0.037621402138542454   0.005530080293425114
0.4676487208722553   0.037621402138542454   0.005530080293425114
0.4676487208722553   0.037621402138542454   0.005530080293425114
0.4676487208722553   0.037621402138542454   0.005530080293425114
-0.003790443737765839   -0.03088349033630954   0.00025073237042337083
-0.003790443737765839   -0.03088349033630954   0.00025073237042337083
-0.003790443737765839   -0.03088349033630954   0.00025073237042337083
-0.003790443737765839   -0.03088349033630954   0.00025073237042337083
-0.03420613308612189   -0.07381759304958524   -0.018558545457556582
-0.03420613308612189   -0.07381759304958524   -0.018558545457556582
-0.03420613308612189   -0.07381759304958524   -0.018558545457556582
-0.03420613308612189   -0.07381759304958524   -0.018558545457556582
0.4564945913832658   0.05869824559285906   0.029264982499956134
0.4564945913832658   0.05869824559285906   0.029264982499956134
0.4564945913832658   0.05869824559285906   0.029264982499956134
0.4564945913832658   0.05869824559285906   0.029264982499956134
0.214389723722918   -0.0018561841562559356   -0.00947672159380885
0.214389723722918   -0.0018561841562559356   -0.00947672159380885
0.214389723722918   -0.0018561841562559356   -0.00947672159380885
0.214389723722918   -0.0018561841562559356   -0.00947672159380885
0.44608002618738885   0.027607856932757455   0.00828254518067673
0.44608002618738885   0.027607856932757455   0.00828254518067673
0.44608002618738885   0.027607856932757455   0.00828254518067673
0.44608002618738885   0.027607856932757455   0.00828254518067673
-0.02377364277808612   -0.04270927927732929   0.002495592310366326
-0.02377364277808612   -0.04270927927732929   0.002495592310366326
-0.02377364277808612   -0.04270927927732929   0.002495592310366326
-0.02377364277808612   -0.04270927927732929   0.002495592310366326
-0.053403844767446876   -0.07953157412946324   -0.014786501514887888
-0.053403844767446876   -0.07953157412946324   -0.014786501514887888
-0.053403844767446876   -0.07953157412946324   -0.014786501514887888
-0.053403844767446876   -0.07953157412946324   -0.014786501514887888
0.43559141082159963   0.04851143275216805   0.03172282512529119
0.43559141082159963   0.04851143275216805   0.03172282512529119
0.43559141082159963   0.04851143275216805   0.03172282512529119
0.43559141082159963   0.04851143275216805   0.03172282512529119
0.19689367267931773   -0.009459186157043782   -0.014464267000796142
0.19689367267931773   -0.009459186157043782   -0.014464267000796142
0.19689367267931773   -0.009459186157043782   -0.014464267000796142
0.19689367267931773   -0.009459186157043782   -0.014464267000796142
0.032132986476384136   0.051075788170021945   0.01100463714439514
0.032132986476384136   0.051075788170021945   0.01100463714439514
0.032132986476384136   0.051075788170021945   0.01100463714439514
0.032132986476384136   0.051075788170021945   0.01100463714439514
-0.43300428043573164   -0.02817936778673137   -0.014877780371540247
-0.43300428043573164   -0.02817936778673137   -0.014877780371540247
-0.43300428043573164   -0.02817936778673137   -0.014877780371540247
-0.43300428043573164   -0.02817936778673137   -0.014877780371540247
-0.45708766383184374   -0.05898921524927509   -0.013652616716896744
-0.45708766383184374   -0.05898921524927509   -0.013652616716896744
-0.45708766383184374   -0.05898921524927509   -0.013652616716896744
-0.45708766383184374   -0.05898921524927509   -0.013652616716896744
0.016507312432267184   0.05799804312493102   0.012857979759347929
0.016507312432267184   0.05799804312493102   0.012857979759347929
0.016507312432267184   0.05799804312493102   0.012857979759347929
0.016507312432267184   0.05799804312493102   0.012857979759347929
-0.21009719885970757   0.006442486872008955   0.0008191001384482508
-0.21009719885970757   0.006442486872008955   0.0008191001384482508
-0.21009719885970757   0.006442486872008955   0.0008191001384482508
-0.21009719885970757   0.006442486872008955   0.0008191001384482508
0.01320818668102873   0.04056046418524674   0.013799929942839937
0.01320818668102873   0.04056046418524674   0.013799929942839937
0.01320818668102873   0.04056046418524674   0.013799929942839937
0.01320818668102873   0.04056046418524674   0.013799929942839937
-0.45325806391313705   -0.04102116214212262   -0.012472670230515986
-0.45325806391313705   -0.04102116214212262   -0.012472670230515986
-0.45325806391313705   -0.04102116214212262   -0.012472670230515986
-0.45325806391313705   -0.04102116214212262   -0.012472670230515986
-0.4779029944687921   -0.0694797577982014   -0.011363745764188056
-0.4779029944687921   -0.0694797577982014   -0.011363745764188056
-0.4779029944687921   -0.0694797577982014   -0.011363745764188056
-0.4779029944687921   -0.0694797577982014   -0.011363745764188056
-0.0035041304111549758   0.04554098480390442   0.015592890063788337
-0.0035041304111549758   0.04554098480390442   0.015592890063788337
-0.0035041304111549758   0.04554098480390442   0.015592890063788337
-0.0035041304111549758   0.04554098480390442   0.015592890063788337
-0.23004232044262   -0.0038404403250486413   -0.00427165611610302
-0.23004232044262   -0.0038404403250486413   -0.00427165611610302
-0.23004232044262   -0.0038404403250486413   -0.00427165611610302
-0.23004232044262   -0.0038404403250486413   -0.00427165611610302
-0.0063192913960774515   0.030434454964834462   0.01662361497824592
-0.0063192913960774515   0.030434454964834462   0.01662361497824592
-0.0063192913960774515   0.030434454964834462   0.01662361497824592
-0.0063192913960774515   0.030434454964834462   0.01662361497824592
-0.4746342855015437   -0.053919679976799736   -0.010580278749343728
-0.4746342855015437   -0.053919679976799736   -0.010580278749343728
-0.4746342855015437   -0.053919679976799736   -0.010580278749343728
-0.4746342855015437   -0.053919679976799736   -0.010580278749343728
-0.498573632244707   -0.07772866497820859   -0.0075567616991105745
-0.498573632244707   -0.07772866497820859   -0.0075567616991105745
-0.498573632244707   -0.07772866497820859   -0.0075567616991105745
-0.498573632244707   -0.07772866497820859   -0.0075567616991105745
-0.024237828560732727   0.033806161983262376   0.017705843405955338
-0.024237828560732727   0.033806161983262376   0.017705843405955338
-0.024237828560732727   0.033806161983262376   0.017705843405955338
-0.024237828560732727   0.033806161983262376   0.017705843405955338
-0.2515044624434816   -0.014297104310795318   -0.009839030945239682
-0.2515044624434816   -0.014297104310795318   -0.009839030945239682
-0.2515044624434816   -0.014297104310795318   -0.009839030945239682
-0.2515044624434816   -0.014297104310795318   -0.009839030945239682
-0.40836368337700374   0.06021317892620941   0.019932658209168154
-0.40836368337700374   0.06021317892620941   0.019932658209168154
-0.40836368337700374   0.06021317892620941   0.019932658209168154
-0.40836368337700374   0.06021317892620941   0.019932658209168154
-0.8674437568637307   -0.03870573688993967   -0.02434591644124863
-0.8674437568637307   -0.03870573688993967   -0.02434591644124863
-0.8674437568637307   -0.03870573688993967   -0.02434591644124863
-0.8674437568637307   -0.03870573688993967   -0.02434591644124863
-0.8862123998525865   -0.047432330540680495   -0.0040327729262981254
-0.8862123998525865   -0.047432330540680495   -0.0040327729262981254
-0.8862123998525865   -0.047432330540680495   -0.0040327729262981254
-0.8862123998525865   -0.047432330540680495   -0.0040327729262981254
-0.43390347806201446   0.04391736935202188   -0.0006382724690457697
-0.43390347806201446   0.04391736935202188   -0.0006382724690457697
-0.43390347806201446   0.04391736935202188   -0.0006382724690457697
-0.43390347806201446   0.04391736935202188   -0.0006382724690457697
-0.6442899151505076   0.006466991653130388   0.004711294877788784
-0.6442899151505076   0.006466991653130388   0.004711294877788784
-0.6442899151505076   0.006466991653130388   0.004711294877788784
-0.6442899151505076   0.006466991653130388   0.004711294877788784
-0.428196578069481   0.04945008980860742   0.02236350703703592
-0.428196578069481   0.04945008980860742   0.02236350703703592
-0.428196578069481   0.04945008980860742   0.02236350703703592
-0.428196578069481   0.04945008980860742   0.02236350703703592
-0.8912047227186363   -0.05225047387078294   -0.02417624392644807
-0.8912047227186363   -0.05225047387078294   -0.02417624392644807
-0.8912047227186363   -0.05225047387078294   -0.02417624392644807
-0.8912047227186363   -0.05225047387078294   -0.02417624392644807
-0.9118424175002612   -0.059232290836525175   -0.0036105131971064033
-0.9118424175002612   -0.059232290836525175   -0.0036105131971064033
-0.9118424175002612   -0.059232290836525175   -0.0036105131971064033
-0.9118424175002612   -0.059232290836525175   -0.0036105131971064033
-0.4549691873663019   0.03203016203565798   0.0017953699144075547
-0.4549691873663019   0.03203016203565798   0.0017953699144075547
-0.4549691873663019   0.03203016203565798   0.0017953699144075547
-0.4549691873663019   0.03203016203565798   0.0017953699144075547
-0.6621975482719812   -0.002917818348459722   0.0005390450808454295
-0.6621975482719812   -0.002917818348459722   0.0005390450808454295
-0.6621975482719812   -0.002917818348459722   0.0005390450808454295
-0.6621975482719812   -0.002917818348459722   0.0005390450808454295
-0.4487153283268994   0.039278495889153026   0.02581633125792287
-0.4487153283268994   0.039278495889153026   0.02581633125792287
-0.4487153283268994   0.039278495889153026   0.02581633125792287
-0.4487153283268994   0.039278495889153026   0.02581633125792287
-0.916636535114737   -0.0650208832650952   -0.021792508840923153
-0.916636535114737   -0.0650208832650952   -0.021792508840923153
-0.916636535114737   -0.0650208832650952   -0.021792508840923153
-0.916636535114737   -0.0650208832650952   -0.021792508840923153
-0.9354325907206599   -0.07187500182758391   0.0023244308642756603
-0.9354325907206599   -0.07187500182758391   0.0023244308642756603
-0.9354325907206599   -0.07187500182758391   0.0023244308642756603
-0.9354325907206599   -0.07187500182758391   0.0023244308642756603
-0.4772940410859534   0.01786735248943505   0.0032451766270212984
-0.4772940410859534   0.01786735248943505   0.0032451766270212984
-0.4772940410859534   0.01786735248943505   0.0032451766270212984
-0.4772940410859534   0.01786735248943505   0.0032451766270212984
-0.6902506072496972   -0.016138785186357557   -0.0050882255174128435
-0.6902506072496972   -0.016138785186357557   -0.0050882255174128435
-0.6902506072496972   -0.016138785186357557   -0.0050882255174128435
-0.6902506072496972   -0.016138785186357557   -0.0050882255174128435
-0.8367687090951774   0.06248429514854198   0.027839290363027812
-0.8367687090951774   0.06248429514854198   0.027839290363027812
-0.8367687090951774   0.06248429514854198   0.027839290363027812
-0.8367687090951774   0.06248429514854198   0.027839290363027812
-1.2807253602388866   -0.05927895248040699   -0.022342909637968242
-1.2807253602388866   -0.05927895248040699   -0.022342909637968242
-1.2807253602388866   -0.05927895248040699   -0.022342909637968242
-1.2807253602388866   -0.05927895248040699   -0.022342909637968242
-1.2981264231044594   -0.026208094961078288   0.023642046527550253
-1.2981264231044594   -0.026208094961078288   0.023642046527550253
-1.2981264231044594   -0.026208094961078288   0.023642046527550253
-1.2981264231044594   -0.026208094961078288   0.023642046527550253
-0.8731213924743743   0.026441858007893726   -0.012451924583810656
-0.8731213924743743   0.026441858007893726   -0.012451924583810656
-0.8731213924743743   0.026441858007893726   -0.012451924583810656
-0.8731213924743743   0.026441858007893726   -0.012451924583810656
-1.024775218844681   0.012929784564989721   0.02361606681041445
-1.024775218844681   0.012929784564989721   0.02361606681041445
-1.024775218844681   0.012929784564989721   0.02361606681041445
-1.024775218844681   0.012929784564989721   0.02361606681041445
-0.8567734188367213   0.06373338075786106   0.03199642085447843
-0.8567734188367213   0.06373338075786106   0.03199642085447843
-0.8567734188367213   0.06373338075786106   0.03199642085447843
-0.8567734188367213   0.06373338075786106   0.03199642085447843
-1.3135103046773506   -0.06253552564627646   -0.016949930651685055
-1.3135103046773506   -0.06253552564627646   -0.016949930651685055
-1.3135103046773506   -0.06253552564627646   -0.016949930651685055
-1.3135103046773506   -0.06253552564627646   -0.016949930651685055
-1.3299658580477733   -0.03238275634134902   0.032654873372091
-1.3299658580477733   -0.03238275634134902   0.032654873372091
-1.3299658580477733   -0.03238275634134902   0.032654873372091
-1.3299658580477733   -0.03238275634134902   0.032654873372091
-0.8975667469737365   0.01961175216858585   -0.011076203569593983
-0.8975667469737365   0.01961175216858585   -0.011076203569593983
-0.8975667469737365   0.01961175216858585   -0.011076203569593983
-0.8975667469737365   0.01961175216858585   -0.011076203569593983
-1.0687205422245165   0.006393343716307565   0.015255079681284353
-1.0687205422245165   0.006393343716307565   0.015255079681284353
-1.0687205422245165   0.006393343716307565   0.015255079681284353
-1.0687205422245165   0.006393343716307565   0.015255079681284353
-0.879508343557341   0.0591194041820943   0.03970816149887507
-0.879508343557341   0.0591194041820943   0.03970816149887507
-0.879508343557341   0.0591194041820943   0.03970816149887507
-0.879508343557341   0.0591194041820943   0.03970816149887507
-1.3470895103445513   -0.07095565723523609   -0.014390487217888902
-1.3470895103445513   -0.07095565723523609   -0.014390487217888902
-1.3470895103445513   -0.07095565723523609   -0.014390487217888902
-1.3470895103445513   -0.07095565723523609   -0.014390487217888902
-1.3731564264398315   -0.05898717619989316   0.03242868451114463
-1.3731564264398315   -0.05898717619989316   0.03242868451114463
-1.3731564264398315   -0.05898717619989316   0.03242868451114463
-1.3731564264398315   -0.05898717619989316   0.03242868451114463
-0.9237983401621872   -0.0009655208112929747   -0.01041379735965238
-0.9237983401621872   -0.0009655208112929747   -0.01041379735965238
-0.9237983401621872   -0.0009655208112929747   -0.01041379735965238
-0.9237983401621872   -0.0009655208112929747   -0.01041379735965238
-1.08132329402133   -0.003057915739412581   0.012526829446097919
-1.08132329402133   -0.003057915739412581   0.012526829446097919
-1.08132329402133   -0.003057915739412581   0.012526829446097919
-1.08132329402133   -0.003057915739412581   0.012526829446097919
0.7354330272332483   0.04098070469524796   -0.03484352782936592
0.7354330272332483   0.04098070469524796   -0.03484352782936592
0.7354330272332483   0.04098070469524796   -0.03484352782936592
0.7354330272332483   0.04098070469524796   -0.03484352782936592
0.34945521434525595   0.006759845883587717   0.013225344443531573
0.34945521434525595   0.006759845883587717   0.013225344443531573
0.34945521434525595   0.006759845883587717   0.013225344443531573
0.34945521434525595   0.006759845883587717   0.013225344443531573
0.31077327809285443   -0.05940493255181491   -0.03312712265938605
0.31077327809285443   -0.05940493255181491   -0.03312712265938605
0.31077327809285443   -0.05940493255181491   -0.03312712265938605
0.31077327809285443   -0.05940493255181491   -0.03312712265938605
0.7196543992544062   0.06746285114748582   0.016362749236305263
0.7196543992544062   0.06746285114748582   0.016362749236305263
0.7196543992544062   0.06746285114748582   0.016362749236305263
0.7196543992544062   0.06746285114748582   0.016362749236305263
0.5015171674042702   0.006772331698293305   -0.01483690785299302
0.5015171674042702   0.006772331698293305   -0.01483690785299302
0.5015171674042702   0.006772331698293305   -0.01483690785299302
0.5015171674042702   0.006772331698293305   -0.01483690785299302
0.6999922932232376   0.018472757543107177   -0.032957687315158905
0.6999922932232376   0.018472757543107177   -0.032957687315158905
0.6999922932232376   0.018472757543107177   -0.032957687315158905
0.6999922932232376   0.018472757543107177   -0.032957687315158905
0.3300499184527098   -0.010800304618750006   0.014651451206822638
0.3300499184527098   -0.010800304618750006   0.014651451206822638
0.3300499184527098   -0.010800304618750006   0.014651451206822638
0.3300499184527098   -0.010800304618750006   0.014651451206822638
0.29271410535419257   -0.06520244647084808   -0.028271253118600133
0.29271410535419257   -0.06520244647084808   -0.028271253118600133
0.29271410535419257   -0.06520244647084808   -0.028271253118600133
0.29271410535419257   -0.06520244647084808   -0.028271253118600133
0.6915709907030608   0.059168025952194586   0.021554915068475865
0.6915709907030608   0.059168025952194586   0.021554915068475865
0.6915709907030608   0.059168025952194586   0.021554915068475865
0.6915709907030608   0.059168025952194586   0.021554915068475865
0.485434568925417   -0.0033027273450077638   -0.02076227756578856
0.485434568925417   -0.0033027273450077638   -0.02076227756578856
0.485434568925417   -0.0033027273450077638   -0.02076227756578856
0.485434568925417   -0.0033027273450077638   -0.02076227756578856
0.6723610734433759   0.011096557262632395   -0.026423202540381212
0.6723610734433759   0.011096557262632395   -0.026423202540381212
0.6723610734433759   0.011096557262632395   -0.026423202540381212
0.6723610734433759   0.011096557262632395   -0.026423202540381212
0.31143235277502057   -0.017622647620142318   0.01774018513483172
0.31143235277502057   -0.017622647620142318   0.01774018513483172
0.31143235277502057   -0.017622647620142318   0.01774018513483172
0.31143235277502057   -0.017622647620142318   0.01774018513483172
0.2764498189739943   -0.06870168523352449   -0.023548116841367997
0.2764498189739943   -0.06870168523352449   -0.023548116841367997
0.2764498189739943   -0.06870168523352449   -0.023548116841367997
0.2764498189739943   -0.06870168523352449   -0.023548116841367997
0.6598917723024714   0.05023972578752928   0.025635248781230482
0.6598917723024714   0.05023972578752928   0.025635248781230482
0.6598917723024714   0.05023972578752928   0.025635248781230482
0.6598917723024714   0.05023972578752928   0.025635248781230482
0.45338867261098054   -0.010890636622990335   -0.029574044394213732
0.45338867261098054   -0.010890636622990335   -0.029574044394213732
0.45338867261098054   -0.010890636622990335   -0.029574044394213732
0.45338867261098054   -0.010890636622990335   -0.029574044394213732
0.35539901968536536   0.05168767071516061   -0.001983453687488366
0.35539901968536536   0.05168767071516061   -0.001983453687488366
0.35539901968536536   0.05168767071516061   -0.001983453687488366
0.35539901968536536   0.05168767071516061   -0.001983453687488366
-0.023486767670236997   -0.005220868073175245   -0.000252798784616475
-0.023486767670236997   -0.005220868073175245   -0.000252798784616475
-0.023486767670236997   -0.005220868073175245   -0.000252798784616475
-0.023486767670236997   -0.005220868073175245   -0.000252798784616475
-0.05073823178829357   -0.04454306454421859   -0.021099350618594144
-0.05073823178829357   -0.04454306454421859   -0.021099350618594144
-0.05073823178829357   -0.04454306454421859   -0.021099350618594144
-0.05073823178829357   -0.04454306454421859   -0.021099350618594144
0.3462516774357536   0.061356061348648475   0.023503880154643258
0.3462516774357536   0.061356061348648475   0.023503880154643258
0.3462516774357536   0.061356061348648475   0.023503880154643258
0.3462516774357536   0.061356061348648475   0.023503880154643258
0.15443559672265214   0.015107361944144276   0.0011199719108135869
0.15443559672265214   0.015107361944144276   0.0011199719108135869
0.15443559672265214   0.015107361944144276   0.0011199719108135869
0.15443559672265214   0.015107361944144276   0.0011199719108135869
0.33699156210618564   0.037445531107906015   0.0011138337475496713
0.33699156210618564   0.037445531107906015   0.0011138337475496713
0.33699156210618564   0.037445531107906015   0.0011138337475496713
0.33699156210618564   0.037445531107906015   0.0011138337475496713
-0.041320895392440334   -0.020475313237185117   0.0019195800536385738
-0.041320895392440334   -0.020475313237185117   0.0019195800536385738
-0.041320895392440334   -0.020475313237185117   0.0019195800536385738
-0.041320895392440334   -0.020475313237185117   0.0019195800536385738
-0.06774601580198991   -0.05549542618668252   -0.017462769212496038
-0.06774601580198991   -0.05549542618668252   -0.017462769212496038
-0.06774601580198991   -0.05549542618668252   -0.017462769212496038
-0.06774601580198991   -0.05549542618668252   -0.017462769212496038
0.32619715041432623   0.04825047265693479   0.025691053054282886
0.32619715041432623   0.04825047265693479   0.025691053054282886
0.32619715041432623   0.04825047265693479   0.025691053054282886
0.32619715041432623   0.04825047265693479   0.025691053054282886
0.13345038034492146   0.0021398135101121304   -0.00538758313222713
0.13345038034492146   0.0021398135101121304   -0.00538758313222713
0.13345038034492146   0.0021398135101121304   -0.00538758313222713
0.13345038034492146   0.0021398135101121304   -0.00538758313222713
0.3172455467541892   0.02569345137429959   0.003490056036235414
0.3172455467541892   0.02569345137429959   0.003490056036235414
0.3172455467541892   0.02569345137429959   0.003490056036235414
0.3172455467541892   0.02569345137429959   0.003490056036235414
-0.05892738800391106   -0.03307138076610508   0.004206324357320754
-0.05892738800391106   -0.03307138076610508   0.004206324357320754
-0.05892738800391106   -0.03307138076610508   0.004206324357320754
-0.05892738800391106   -0.03307138076610508   0.004206324357320754
-0.08452785367633366   -0.06466631664087533   -0.014046657341992388
-0.08452785367633366   -0.06466631664087533   -0.014046657341992388
-0.08452785367633366   -0.06466631664087533   -0.014046657341992388
-0.08452785367633366   -0.06466631664087533   -0.014046657341992388
0.30768075033648357   0.036158717138666085   0.027746137598885997
0.30768075033648357   0.036158717138666085   0.027746137598885997
0.30768075033648357   0.036158717138666085   0.027746137598885997
0.30768075033648357   0.036158717138666085   0.027746137598885997
0.11739283422196353   -0.007655054301113684   -0.010797422470767532
0.11739283422196353   -0.007655054301113684   -0.010797422470767532
0.11739283422196353   -0.007655054301113684   -0.010797422470767532
0.11739283422196353   -0.007655054301113684   -0.010797422470767532
-0.008392828936689915   0.0614314032911448   0.00856462351879888
-0.008392828936689915   0.0614314032911448   0.00856462351879888
-0.008392828936689915   0.0614314032911448   0.00856462351879888
-0.008392828936689915   0.0614314032911448   0.00856462351879888
-0.3885042560091318   -0.017029867311576977   -0.012883924909180538
-0.3885042560091318   -0.017029867311576977   -0.012883924909180538
-0.3885042560091318   -0.017029867311576977   -0.012883924909180538
-0.3885042560091318   -0.017029867311576977   -0.012883924909180538
-0.40606434324460267   -0.031102778997402186   -0.010074475175448225
-0.40606434324460267   -0.031102778997402186   -0.010074475175448225
-0.40606434324460267   -0.031102778997402186   -0.010074475175448225
-0.40606434324460267   -0.031102778997402186   -0.010074475175448225
-0.025646703208694836   0.04954653334404495   0.010268694391135997
-0.025646703208694836   0.04954653334404495   0.010268694391135997
-0.025646703208694836   0.04954653334404495   0.010268694391135997
-0.025646703208694836   0.04954653334404495   0.010268694391135997
-0.2066599510115286   0.015808130257586518   0.004050155393876889
-0.2066599510115286   0.015808130257586518   0.004050155393876889
-0.2066599510115286   0.015808130257586518   0.004050155393876889
-0.2066599510115286   0.015808130257586518   0.004050155393876889
-0.02531346976418823   0.04946547477109428   0.012015920186619657
-0.02531346976418823   0.04946547477109428   0.012015920186619657
-0.02531346976418823   0.04946547477109428   0.012015920186619657
-0.02531346976418823   0.04946547477109428   0.012015920186619657
-0.40607073587739084   -0.03069487961273818   -0.010514337724052936
-0.40607073587739084   -0.03069487961273818   -0.010514337724052936
-0.40607073587739084   -0.03069487961273818   -0.010514337724052936
-0.40607073587739084   -0.03069487961273818   -0.010514337724052936
-0.4234863554400467   -0.04295505982929819   -0.006905108073333031
-0.4234863554400467   -0.04295505982929819   -0.006905108073333031
-0.4234863554400467   -0.04295505982929819   -0.006905108073333031
-0.4234863554400467   -0.04295505982929819   -0.006905108073333031
-0.04338120412315793   0.036052735033374556   0.0128131279616068
-0.04338120412315793   0.036052735033374556   0.0128131279616068
-0.04338120412315793   0.036052735033374556   0.0128131279616068
-0.04338120412315793   0.036052735033374556   0.0128131279616068
-0.22426145165982575   0.004100311899078932   -0.0012233949463877625
-0.22426145165982575   0.004100311899078932   -0.0012233949463877625
-0.22426145165982575   0.004100311899078932   -0.0012233949463877625
-0.22426145165982575   0.004100311899078932   -0.0012233949463877625
-0.04269502702605267   0.037536314303557285   0.014760434176950329
-0.04269502702605267   0.037536314303557285   0.014760434176950329
-0.04269502702605267   0.037536314303557285   0.014760434176950329
-0.04269502702605267   0.037536314303557285   0.014760434176950329
-0.4240793714833053   -0.044345478045634275   -0.008479770073289964
-0.4240793714833053   -0.044345478045634275   -0.008479770073289964
-0.4240793714833053   -0.044345478045634275   -0.008479770073289964
-0.4240793714833053   -0.044345478045634275   -0.008479770073289964
-0.44069875779024514   -0.05378024998560001   -0.00376528720884408
-0.44069875779024514   -0.05378024998560001   -0.00376528720884408
-0.44069875779024514   -0.05378024998560001   -0.00376528720884408
-0.44069875779024514   -0.05378024998560001   -0.00376528720884408
-0.06119118827665652   0.023002093799606035   0.014968259215913887
-0.06119118827665652   0.023002093799606035   0.014968259215913887
-0.06119118827665652   0.023002093799606035   0.014968259215913887
-0.06119118827665652   0.023002093799606035   0.014968259215913887
-0.2426725875542909   -0.007704172504462377   -0.007098829109064895
-0.2426725875542909   -0.007704172504462377   -0.007098829109064895
-0.2426725875542909   -0.007704172504462377   -0.007098829109064895
-0.2426725875542909   -0.007704172504462377   -0.007098829109064895
-0.36474301200442005   0.07040173410894368   0.018490693693857474
-0.36474301200442005   0.07040173410894368   0.018490693693857474
-0.36474301200442005   0.07040173410894368   0.018490693693857474
-0.36474301200442005   0.07040173410894368   0.018490693693857474
-0.7453749557975861   -0.029107306642579878   -0.0231862622940053
-0.7453749557975861   -0.029107306642579878   -0.0231862622940053
-0.7453749557975861   -0.029107306642579878   -0.0231862622940053
-0.7453749557975861   -0.029107306642579878   -0.0231862622940053
-0.754962730316573   -0.019779728495673443   0.0019354905470361505
-0.754962730316573   -0.019779728495673443   0.0019354905470361505
-0.754962730316573   -0.019779728495673443   0.0019354905470361505
-0.754962730316573   -0.019779728495673443   0.0019354905470361505
-0.3912893435354694   0.03561059443746194   -0.002912850064640281
-0.3912893435354694   0.03561059443746194   -0.002912850064640281
-0.3912893435354694   0.03561059443746194   -0.002912850064640281
-0.3912893435354694   0.03561059443746194   -0.002912850064640281
-0.5604182291616892   0.01498362821380271   0.006859729900517295
-0.5604182291616892   0.01498362821380271   0.006859729900517295
-0.5604182291616892   0.01498362821380271   0.006859729900517295
-0.5604182291616892   0.01498362821380271   0.006859729900517295
-0.3816962986670447   0.05884921122317742   0.021813757491762106
-0.3816962986670447   0.05884921122317742   0.021813757491762106
-0.3816962986670447   0.05884921122317742   0.021813757491762106
-0.3816962986670447   0.05884921122317742   0.021813757491762106
-0.7644721062772863   -0.042934676373678454   -0.022456441378525337
-0.7644721062772863   -0.042934676373678454   -0.022456441378525337
-0.7644721062772863   -0.042934676373678454   -0.022456441378525337
-0.7644721062772863   -0.042934676373678454   -0.022456441378525337
-0.7752531564760586   -0.03176340932284383   0.003111482231655277
-0.7752531564760586   -0.03176340932284383   0.003111482231655277
-0.7752531564760586   -0.03176340932284383   0.003111482231655277
-0.7752531564760586   -0.03176340932284383   0.003111482231655277
-0.408958083233097   0.02311168700397445   -0.00033049387185146023
-0.408958083233097   0.02311168700397445   -0.00033049387185146023
-0.408958083233097   0.02311168700397445   -0.00033049387185146023
-0.408958083233097   0.02311168700397445   -0.00033049387185146023
-0.5752677064675275   0.004559749420876474   0.0019556627146426614
-0.5752677064675275   0.004559749420876474   0.0019556627146426614
-0.5752677064675275   0.004559749420876474   0.0019556627146426614
-0.5752677064675275   0.004559749420876474   0.0019556627146426614
-0.398961624323812   0.04785441516415308   0.02490907251439317
-0.398961624323812   0.04785441516415308   0.02490907251439317
-0.398961624323812   0.04785441516415308   0.02490907251439317
-0.398961624323812   0.04785441516415308   0.02490907251439317
-0.7847372818786567   -0.055993803976335715   -0.02007875012784275
-0.7847372818786567   -0.055993803976335715   -0.02007875012784275
-0.7847372818786567   -0.055993803976335715   -0.02007875012784275
-0.7847372818786567   -0.055993803976335715   -0.02007875012784275
-0.7936473879784953   -0.044677554965217386   0.006873986246301117
-0.7936473879784953   -0.044677554965217386   0.006873986246301117
-0.7936473879784953   -0.044677554965217386   0.006873986246301117
-0.7936473879784953   -0.044677554965217386   0.006873986246301117
-0.4271234605949158   0.008792034223911296   0.0015389145582972372
-0.4271234605949158   0.008792034223911296   0.0015389145582972372
-0.4271234605949158   0.008792034223911296   0.0015389145582972372
-0.4271234605949158   0.008792034223911296   0.0015389145582972372
-0.5979791556432682   -0.008555745625294889   -0.004287525817703922
-0.5979791556432682   -0.008555745625294889   -0.004287525817703922
-0.5979791556432682   -0.008555745625294889   -0.004287525817703922
-0.5979791556432682   -0.008555745625294889   -0.004287525817703922
-0.7170684122879518   0.06314070729974225   0.02609844131184315
-0.7170684122879518   0.06314070729974225   0.02609844131184315
-0.7170684122879518   0.06314070729974225   0.02609844131184315
-0.7170684122879518   0.06314070729974225   0.02609844131184315
-1.0851655055078984   -0.050123721307250235   -0.025433909914539782
-1.0851655055078984   -0.050123721307250235   -0.025433909914539782
-1.0851655055078984   -0.050123721307250235   -0.025433909914539782
-1.0851655055078984   -0.050123721307250235   -0.025433909914539782
-1.097098041930671   -0.01105772714859618   0.024026799090036674
-1.097098041930671   -0.01105772714859618   0.024026799090036674
-1.097098041930671   -0.01105772714859618   0.024026799090036674
-1.097098041930671   -0.01105772714859618   0.024026799090036674
-0.7507360607606004   0.018105109824431503   -0.014815999993205528
-0.7507360607606004   0.018105109824431503   -0.014815999993205528
-0.7507360607606004   0.018105109824431503   -0.014815999993205528
-0.7507360607606004   0.018105109824431503   -0.014815999993205528
-0.8721216825347883   0.01411445611629708   0.02141840519564262
-0.8721216825347883   0.01411445611629708   0.02141840519564262
-0.8721216825347883   0.01411445611629708   0.02141840519564262
-0.8721216825347883   0.01411445611629708   0.02141840519564262
-0.7326400594712259   0.06315194398408713   0.030617172294008024
-0.7326400594712259   0.06315194398408713   0.030617172294008024
-0.7326400594712259   0.06315194398408713   0.030617172294008024
-0.7326400594712259   0.06315194398408713   0.030617172294008024
-1.1148938269040949   -0.05580434499229961   -0.020205507933366604
-1.1148938269040949   -0.05580434499229961   -0.020205507933366604
-1.1148938269040949   -0.05580434499229961   -0.020205507933366604
-1.1148938269040949   -0.05580434499229961   -0.020205507933366604
-1.1236727561805193   -0.017384658461942454   0.030047752484547587
-1.1236727561805193   -0.017384658461942454   0.030047752484547587
-1.1236727561805193   -0.017384658461942454   0.030047752484547587
-1.1236727561805193   -0.017384658461942454   0.030047752484547587
-0.7698092520378261   0.011253775296559632   -0.012686180196585677
-0.7698092520378261   0.011253775296559632   -0.012686180196585677
-0.7698092520378261   0.011253775296559632   -0.012686180196585677
-0.7698092520378261   0.011253775296559632   -0.012686180196585677
-0.9093739368216928   0.007063722441236792   0.013098196971964342
-0.9093739368216928   0.007063722441236792   0.013098196971964342
-0.9093739368216928   0.007063722441236792   0.013098196971964342
-0.9093739368216928   0.007063722441236792   0.013098196971964342
-0.7506143797552745   0.05843821469061958   0.036103741822112685
-0.7506143797552745   0.05843821469061958   0.036103741822112685
-0.7506143797552745   0.05843821469061958   0.036103741822112685
-0.7506143797552745   0.05843821469061958   0.036103741822112685
-1.1423664022570763   -0.06406787165000624   -0.0167372647101647
-1.1423664022570763   -0.06406787165000624   -0.0167372647101647
-1.1423664022570763   -0.06406787165000624   -0.0167372647101647
-1.1423664022570763   -0.06406787165000624   -0.0167372647101647
-1.1587500038210445   -0.03997852600455035   0.029472840332948808
-1.1587500038210445   -0.03997852600455035   0.029472840332948808
-1.1587500038210445   -0.03997852600455035   0.029472840332948808
-1.1587500038210445   -0.03997852600455035   0.029472840332948808
-0.789962269014009   -0.007877489280698868   -0.011500484615785865
-0.789962269014009   -0.007877489280698868   -0.011500484615785865
-0.789962269014009   -0.007877489280698868   -0.011500484615785865
-0.789962269014009   -0.007877489280698868   -0.011500484615785865
-0.9188087752588908   -0.001739154201355314   0.010352861126800443
-0.9188087752588908   -0.001739154201355314   0.010352861126800443
-0.9188087752588908   -0.001739154201355314   0.010352861126800443
-0.9188087752588908   -0.001739154201355314   0.010352861126800443
0.5068033667193085   0.02879625205172477   -0.03394077708986634
0.5068033667193085   0.02879625205172477   -0.03394077708986634
0.5068033667193085   0.02879625205172477   -0.03394077708986634
0.5068033667193085   0.02879625205172477   -0.03394077708986634
0.2164621576915284   0.013576690030721768   0.01451366146882896
0.2164621576915284   0.013576690030721768   0.01451366146882896
0.2164621576915284   0.013576690030721768   0.01451366146882896
0.2164621576915284   0.013576690030721768   0.01451366146882896
0.18151931403506066   -0.049770288231968086   -0.031667862441618636
0.18151931403506066   -0.049770288231968086   -0.031667862441618636
0.18151931403506066   -0.049770288231968086   -0.031667862441618636
0.18151931403506066   -0.049770288231968086   -0.031667862441618636
0.49505722576473793   0.05740000484538608   0.017640201225903047
0.49505722576473793   0.05740000484538608   0.017640201225903047
0.49505722576473793   0.05740000484538608   0.017640201225903047
0.49505722576473793   0.05740000484538608   0.017640201225903047
0.33143285607321615   0.007335069769489347   -0.009050603677547096
0.33143285607321615   0.007335069769489347   -0.009050603677547096
0.33143285607321615   0.007335069769489347   -0.009050603677547096
0.33143285607321615   0.007335069769489347   -0.009050603677547096
0.4755175753857478   0.009026106134799969   -0.031684151958465495
0.4755175753857478   0.009026106134799969   -0.031684151958465495
0.4755175753857478   0.009026106134799969   -0.031684151958465495
0.4755175753857478   0.009026106134799969   -0.031684151958465495
0.2006914283297309   -0.001763925605702002   0.01618634640546971
0.2006914283297309   -0.001763925605702002   0.01618634640546971
0.2006914283297309   -0.001763925605702002   0.01618634640546971
0.2006914283297309   -0.001763925605702002   0.01618634640546971
0.16664984518418374   -0.05552175694781514   -0.02697285391269559
0.16664984518418374   -0.05552175694781514   -0.02697285391269559
0.16664984518418374   -0.05552175694781514   -0.02697285391269559
0.16664984518418374   -0.05552175694781514   -0.02697285391269559
0.47058366491733833   0.049236109598382094   0.022765517104364884
0.47058366491733833   0.049236109598382094   0.022765517104364884
0.47058366491733833   0.049236109598382094   0.022765517104364884
0.47058366491733833   0.049236109598382094   0.022765517104364884
0.31612505182084166   -0.002167914734869214   -0.014674326380669803
0.31612505182084166   -0.002167914734869214   -0.014674326380669803
0.31612505182084166   -0.002167914734869214   -0.014674326380669803
0.31612505182084166   -0.002167914734869214   -0.014674326380669803
0.4513569867411879   0.0016565744254358333   -0.025788338603444906
0.4513569867411879   0.0016565744254358333   -0.025788338603444906
0.4513569867411879   0.0016565744254358333   -0.025788338603444906
0.4513569867411879   0.0016565744254358333   -0.025788338603444906
0.18533094801479996   -0.008487797120403422   0.019398700412975693
0.18533094801479996   -0.008487797120403422   0.019398700412975693
0.18533094801479996   -0.008487797120403422   0.019398700412975693
0.18533094801479996   -0.008487797120403422   0.019398700412975693
0.15336754192102908   -0.06068939536186759   -0.022486126584311622
0.15336754192102908   -0.06068939536186759   -0.022486126584311622
0.15336754192102908   -0.06068939536186759   -0.022486126584311622
0.15336754192102908   -0.06068939536186759   -0.022486126584311622
0.44199741395646824   0.03854245578207312   0.026008132518900107
0.44199741395646824   0.03854245578207312   0.026008132518900107
0.44199741395646824   0.03854245578207312   0.026008132518900107
0.44199741395646824   0.03854245578207312   0.026008132518900107
0.2900374542473729   -0.00994281860877054   -0.02242886229210624
0.2900374542473729   -0.00994281860877054   -0.02242886229210624
0.2900374542473729   -0.00994281860877054   -0.02242886229210624
0.2900374542473729   -0.00994281860877054   -0.02242886229210624
0.21802381310612065   0.04192627796126769   -0.006027649388759482
0.21802381310612065   0.04192627796126769   -0.006027649388759482
0.21802381310612065   0.04192627796126769   -0.006027649388759482
0.21802381310612065   0.04192627796126769   -0.006027649388759482
-0.06662637790003632   0.0034622671707986545   0.0019138583986645042
-0.06662637790003632   0.0034622671707986545   0.0019138583986645042
-0.06662637790003632   0.0034622671707986545   0.0019138583986645042
-0.06662637790003632   0.0034622671707986545   0.0019138583986645042
-0.09051588971919595   -0.03460533128043609   -0.01953551583586063
-0.09051588971919595   -0.03460533128043609   -0.01953551583586063
-0.09051588971919595   -0.03460533128043609   -0.01953551583586063
-0.09051588971919595   -0.03460533128043609   -0.01953551583586063
0.21208088116635307   0.050373014021024225   0.020996670961854386
0.21208088116635307   0.050373014021024225   0.020996670961854386
0.21208088116635307   0.050373014021024225   0.020996670961854386
0.21208088116635307   0.050373014021024225   0.020996670961854386
0.06674669533472631   0.014543306827776558   0.00256773943938712
0.06674669533472631   0.014543306827776558   0.00256773943938712
0.06674669533472631   0.014543306827776558   0.00256773943938712
0.06674669533472631   0.014543306827776558   0.00256773943938712
0.20262062637492143   0.02728563109225262   -0.0032172200665344995
0.20262062637492143   0.02728563109225262   -0.0032172200665344995
0.20262062637492143   0.02728563109225262   -0.0032172200665344995
0.20262062637492143   0.02728563109225262   -0.0032172200665344995
-0.08119833651842202   -0.011660649942322554   0.004107568829895573
-0.08119833651842202   -0.011660649942322554   0.004107568829895573
-0.08119833651842202   -0.011660649942322554   0.004107568829895573
-0.08119833651842202   -0.011660649942322554   0.004107568829895573
-0.10434247130714527   -0.04615999666103037   -0.015821671814071465
-0.10434247130714527   -0.04615999666103037   -0.015821671814071465
-0.10434247130714527   -0.04615999666103037   -0.015821671814071465
-0.10434247130714527   -0.04615999666103037   -0.015821671814071465
0.195118366942915   0.03701956556991719   0.022828432363230372
0.195118366942915   0.03701956556991719   0.022828432363230372
0.195118366942915   0.03701956556991719   0.022828432363230372
0.195118366942915   0.03701956556991719   0.022828432363230372
0.04967607475773121   0.001448613536192989   -0.0037221861975132837
0.04967607475773121   0.001448613536192989   -0.0037221861975132837
0.04967607475773121   0.001448613536192989   -0.0037221861975132837
0.04967607475773121   0.001448613536192989   -0.0037221861975132837
0.18595726263672607   0.01489398314249843   -0.0008515067402988276
0.18595726263672607   0.01489398314249843   -0.0008515067402988276
0.18595726263672607   0.01489398314249843   -0.0008515067402988276
0.18595726263672607   0.01489398314249843   -0.0008515067402988276
-0.09553909032729081   -0.024392137559941515   0.0064273739841119925
-0.09553909032729081   -0.024392137559941515   0.0064273739841119925
-0.09553909032729081   -0.024392137559941515   0.0064273739841119925
-0.09553909032729081   -0.024392137559941515   0.0064273739841119925
-0.11798262125579546   -0.05700132700784784   -0.012390711541404677
-0.11798262125579546   -0.05700132700784784   -0.012390711541404677
-0.11798262125579546   -0.05700132700784784   -0.012390711541404677
-0.11798262125579546   -0.05700132700784784   -0.012390711541404677
0.17981142112872672   0.024209599693725423   0.024834274398586813
0.17981142112872672   0.024209599693725423   0.024834274398586813
0.17981142112872672   0.024209599693725423   0.024834274398586813
0.17981142112872672   0.024209599693725423   0.024834274398586813
0.03600066851172408   -0.009391909200436602   -0.009269273981447064
0.03600066851172408   -0.009391909200436602   -0.009269273981447064
0.03600066851172408   -0.009391909200436602   -0.009269273981447064
0.03600066851172408   -0.009391909200436602   -0.009269273981447064
-0.05613053189432469   0.05299394467734857   0.004861410920670748
-0.05613053189432469   0.05299394467734857   0.004861410920670748
-0.05613053189432469   0.05299394467734857   0.004861410920670748
-0.05613053189432469   0.05299394467734857   0.004861410920670748
-0.345486326624791   -0.008887089157233408   -0.010522549501259075
-0.345486326624791   -0.008887089157233408   -0.010522549501259075
-0.345486326624791   -0.008887089157233408   -0.010522549501259075
-0.345486326624791   -0.008887089157233408   -0.010522549501259075
-0.3591400105414723   -0.020757174449379537   -0.007756537243208971
-0.3591400105414723   -0.020757174449379537   -0.007756537243208971
-0.3591400105414723   -0.020757174449379537   -0.007756537243208971
-0.3591400105414723   -0.020757174449379537   -0.007756537243208971
-0.0703772299614535   0.03840101426682699   0.008151437405586735
-0.0703772299614535   0.03840101426682699   0.008151437405586735
-0.0703772299614535   0.03840101426682699   0.008151437405586735
-0.0703772299614535   0.03840101426682699   0.008151437405586735
-0.2072748659138441   0.01519009311705035   0.00411268026326324
-0.2072748659138441   0.01519009311705035   0.00411268026326324
-0.2072748659138441   0.01519009311705035   0.00411268026326324
-0.2072748659138441   0.01519009311705035   0.00411268026326324
-0.06995831230462013   0.040299900531619214   0.008347139424963292
-0.06995831230462013   0.040299900531619214   0.008347139424963292
-0.06995831230462013   0.040299900531619214   0.008347139424963292
-0.06995831230462013   0.040299900531619214   0.008347139424963292
-0.3596013700325164   -0.02269850254838726   -0.00812200659942158
-0.3596013700325164   -0.02269850254838726   -0.00812200659942158
-0.3596013700325164   -0.02269850254838726   -0.00812200659942158
-0.3596013700325164   -0.02269850254838726   -0.00812200659942158
-0.37311156159877285   -0.03334652858669384   -0.0044528326631202795
-0.37311156159877285   -0.03334652858669384   -0.0044528326631202795
-0.37311156159877285   -0.03334652858669384   -0.0044528326631202795
-0.37311156159877285   -0.03334652858669384   -0.0044528326631202795
-0.08488755865603224   0.024659200324686145   0.010633694455775269
-0.08488755865603224   0.024659200324686145   0.010633694455775269
-0.08488755865603224   0.024659200324686145   0.010633694455775269
-0.08488755865603224   0.024659200324686145   0.010633694455775269
-0.22163823875681396   0.00292311748288817   -0.0012897847337385755
-0.22163823875681396   0.00292311748288817   -0.0012897847337385755
-0.22163823875681396   0.00292311748288817   -0.0012897847337385755
-0.22163823875681396   0.00292311748288817   -0.0012897847337385755
-0.08417003390874747   0.02759037265609395   0.01129014586079328
-0.08417003390874747   0.02759037265609395   0.01129014586079328
-0.08417003390874747   0.02759037265609395   0.01129014586079328
-0.08417003390874747   0.02759037265609395   0.01129014586079328
-0.3740572469595457   -0.03650586153159455   -0.006021926522084008
-0.3740572469595457   -0.03650586153159455   -0.006021926522084008
-0.3740572469595457   -0.03650586153159455   -0.006021926522084008
-0.3740572469595457   -0.03650586153159455   -0.006021926522084008
-0.386843421575646   -0.04536948083323005   -0.0012373806492770676
-0.386843421575646   -0.04536948083323005   -0.0012373806492770676
-0.386843421575646   -0.04536948083323005   -0.0012373806492770676
-0.386843421575646   -0.04536948083323005   -0.0012373806492770676
-0.09927875698265476   0.011307845542851299   0.012819437273597767
-0.09927875698265476   0.011307845542851299   0.012819437273597767
-0.09927875698265476   0.011307845542851299   0.012819437273597767
-0.09927875698265476   0.011307845542851299   0.012819437273597767
-0.23659709490972528   -0.00935596203796598   -0.007148060972766525
-0.23659709490972528   -0.00935596203796598   -0.007148060972766525
-0.23659709490972528   -0.00935596203796598   -0.007148060972766525
-0.23659709490972528   -0.00935596203796598   -0.007148060972766525
-0.3259971552337956   0.06251062465690191   0.015525593639582669
-0.3259971552337956   0.06251062465690191   0.015525593639582669
-0.3259971552337956   0.06251062465690191   0.015525593639582669
-0.3259971552337956   0.06251062465690191   0.015525593639582669
-0.6195728720583719   -0.021191770576721322   -0.021365696820883653
-0.6195728720583719   -0.021191770576721322   -0.021365696820883653
-0.6195728720583719   -0.021191770576721322   -0.021365696820883653
-0.6195728720583719   -0.021191770576721322   -0.021365696820883653
-0.6246920398651148   -0.009513560803477095   0.004869070060309878
-0.6246920398651148   -0.009513560803477095   0.004869070060309878
-0.6246920398651148   -0.009513560803477095   0.004869070060309878
-0.6246920398651148   -0.009513560803477095   0.004869070060309878
-0.34932998038263136   0.025041917935824526   -0.0045054788342155545
-0.34932998038263136   0.025041917935824526   -0.0045054788342155545
-0.34932998038263136   0.025041917935824526   -0.0045054788342155545
-0.34932998038263136   0.025041917935824526   -0.0045054788342155545
-0.4770367179061895   0.014345946190530756   0.0059609836744671865
-0.4770367179061895   0.014345946190530756   0.0059609836744671865
-0.4770367179061895   0.014345946190530756   0.0059609836744671865
-0.4770367179061895   0.014345946190530756   0.0059609836744671865
-0.3395720150778782   0.050334902722487196   0.018991362902894847
-0.3395720150778782   0.050334902722487196   0.018991362902894847
-0.3395720150778782   0.050334902722487196   0.018991362902894847
-0.3395720150778782   0.050334902722487196   0.018991362902894847
-0.6348818053600758   -0.03523834578034199   -0.02035497243763442
-0.6348818053600758   -0.03523834578034199   -0.02035497243763442
-0.6348818053600758   -0.03523834578034199   -0.02035497243763442
-0.6348818053600758   -0.03523834578034199   -0.02035497243763442
-0.641168115247077   -0.021985377295834135   0.006394216643085419
-0.641168115247077   -0.021985377295834135   0.006394216643085419
-0.641168115247077   -0.021985377295834135   0.006394216643085419
-0.641168115247077   -0.021985377295834135   0.006394216643085419
-0.3634523589698637   0.01237429647661803   -0.001877644581890374
-0.3634523589698637   0.01237429647661803   -0.001877644581890374
-0.3634523589698637   0.01237429647661803   -0.001877644581890374
-0.3634523589698637   0.01237429647661803   -0.001877644581890374
-0.4891030626494862   0.003237260760989971   0.000548737297523666
-0.4891030626494862   0.003237260760989971   0.000548737297523666
-0.4891030626494862   0.003237260760989971   0.000548737297523666
-0.4891030626494862   0.003237260760989971   0.000548737297523666
-0.35334226531604934   0.038758644495429095   0.022288475668374087
-0.35334226531604934   0.038758644495429095   0.022288475668374087
-0.35334226531604934   0.038758644495429095   0.022288475668374087
-0.35334226531604934   0.038758644495429095   0.022288475668374087
-0.6513187888799957   -0.04841030529375026   -0.017934223523599906
-0.6513187888799957   -0.04841030529375026   -0.017934223523599906
-0.6513187888799957   -0.04841030529375026   -0.017934223523599906
-0.6513187888799957   -0.04841030529375026   -0.017934223523599906
-0.6558277241029525   -0.03528772598421087   0.009844377025723043
-0.6558277241029525   -0.03528772598421087   0.009844377025723043
-0.6558277241029525   -0.03528772598421087   0.009844377025723043
-0.6558277241029525   -0.03528772598421087   0.009844377025723043
-0.3778236993267038   -0.0016951712905056981   0.00018692105270195353
-0.3778236993267038   -0.0016951712905056981   0.00018692105270195353
-0.3778236993267038   -0.0016951712905056981   0.00018692105270195353
-0.3778236993267038   -0.0016951712905056981   0.00018692105270195353
-0.5072872944618586   -0.009691295607660827   -0.0057468643010703535
-0.5072872944618586   -0.009691295607660827   -0.0057468643010703535
-0.5072872944618586   -0.009691295607660827   -0.0057468643010703535
-0.5072872944618586   -0.009691295607660827   -0.0057468643010703535
-0.5945942117622606   0.057953738534479604   0.024382095548471677
-0.5945942117622606   0.057953738534479604   0.024382095548471677
-0.5945942117622606   0.057953738534479604   0.024382095548471677
-0.5945942117622606   0.057953738534479604   0.024382095548471677
-0.8778027110842773   -0.04048524542091905   -0.027629384029645966
-0.8778027110842773   -0.04048524542091905   -0.027629384029645966
-0.8778027110842773   -0.04048524542091905   -0.027629384029645966
-0.8778027110842773   -0.04048524542091905   -0.027629384029645966
-0.8861786743215172   -0.0011901799711182548   0.024150164589962483
-0.8861786743215172   -0.0011901799711182548   0.024150164589962483
-0.8861786743215172   -0.0011901799711182548   0.024150164589962483
-0.8861786743215172   -0.0011901799711182548   0.024150164589962483
-0.6253357795306533   0.0086806126076035   -0.01654380167847519
-0.6253357795306533   0.0086806126076035   -0.01654380167847519
-0.6253357795306533   0.0086806126076035   -0.01654380167847519
-0.6253357795306533   0.0086806126076035   -0.01654380167847519
-0.7131264021580696   0.013360513580223637   0.01810921919969479
-0.7131264021580696   0.013360513580223637   0.01810921919969479
-0.7131264021580696   0.013360513580223637   0.01810921919969479
-0.7131264021580696   0.013360513580223637   0.01810921919969479
-0.6068922582608505   0.055589961482210515   0.028764455795939628
-0.6068922582608505   0.055589961482210515   0.028764455795939628
-0.6068922582608505   0.055589961482210515   0.028764455795939628
-0.6068922582608505   0.055589961482210515   0.028764455795939628
-0.9049926322530907   -0.04846996550749849   -0.022639839531517207
-0.9049926322530907   -0.04846996550749849   -0.022639839531517207
-0.9049926322530907   -0.04846996550749849   -0.022639839531517207
-0.9049926322530907   -0.04846996550749849   -0.022639839531517207
-0.9094743067037778   -0.00805640268362734   0.030427984568431245
-0.9094743067037778   -0.00805640268362734   0.030427984568431245
-0.9094743067037778   -0.00805640268362734   0.030427984568431245
-0.9094743067037778   -0.00805640268362734   0.030427984568431245
-0.6405204071564322   0.001735336201083848   -0.01408795640062073
-0.6405204071564322   0.001735336201083848   -0.01408795640062073
-0.6405204071564322   0.001735336201083848   -0.01408795640062073
-0.6405204071564322   0.001735336201083848   -0.01408795640062073
-0.7446468782113828   0.005478183945033577   0.009561872070815512
-0.7446468782113828   0.005478183945033577   0.009561872070815512
-0.7446468782113828   0.005478183945033577   0.009561872070815512
-0.7446468782113828   0.005478183945033577   0.009561872070815512
-0.6212164454665308   0.05028584191677682   0.03388134633320492
-0.6212164454665308   0.05028584191677682   0.03388134633320492
-0.6212164454665308   0.05028584191677682   0.03388134633320492
-0.6212164454665308   0.05028584191677682   0.03388134633320492
-0.9290450299303925   -0.0568736699360316   -0.018608364312237682
-0.9290450299303925   -0.0568736699360316   -0.018608364312237682
-0.9290450299303925   -0.0568736699360316   -0.018608364312237682
-0.9290450299303925   -0.0568736699360316   -0.018608364312237682
-0.9406383702826937   -0.029612738967016772   0.03049936822130931
-0.9406383702826937   -0.029612738967016772   0.03049936822130931
-0.9406383702826937   -0.029612738967016772   0.03049936822130931
-0.9406383702826937   -0.029612738967016772   0.03049936822130931
-0.6564176098342261   -0.015934042465976572   -0.012458735148891065
-0.6564176098342261   -0.015934042465976572   -0.012458735148891065
-0.6564176098342261   -0.015934042465976572   -0.012458735148891065
-0.6564176098342261   -0.015934042465976572   -0.012458735148891065
-0.753422146251584   -0.0035419448915809393   0.005522621929372869
-0.753422146251584   -0.0035419448915809393   0.005522621929372869
-0.753422146251584   -0.0035419448915809393   0.005522621929372869
-0.753422146251584   -0.0035419448915809393   0.005522621929372869
0.28083235719174043   0.01688650306817046   -0.03330747284413958
0.28083235719174043   0.01688650306817046   -0.03330747284413958
0.28083235719174043   0.01688650306817046   -0.03330747284413958
0.28083235719174043   0.01688650306817046   -0.03330747284413958
0.08226451214335449   0.019918930916904165   0.01588220514665314
0.08226451214335449   0.019918930916904165   0.01588220514665314
0.08226451214335449   0.019918930916904165   0.01588220514665314
0.08226451214335449   0.019918930916904165   0.01588220514665314
0.05128983349780722   -0.04075910638374872   -0.029387962652809567
0.05128983349780722   -0.04075910638374872   -0.029387962652809567
0.05128983349780722   -0.04075910638374872   -0.029387962652809567
0.05128983349780722   -0.04075910638374872   -0.029387962652809567
0.2732307204681649   0.047517224388950285   0.019107007564374716
0.2732307204681649   0.047517224388950285   0.019107007564374716
0.2732307204681649   0.047517224388950285   0.019107007564374716
0.2732307204681649   0.047517224388950285   0.019107007564374716
0.16188953970526646   0.00793747078683716   -0.0037259028095285376
0.16188953970526646   0.00793747078683716   -0.0037259028095285376
0.16188953970526646   0.00793747078683716   -0.0037259028095285376
0.16188953970526646   0.00793747078683716   -0.0037259028095285376
0.25369043832179977   -0.0005140238700687763   -0.030563154908433095
0.25369043832179977   -0.0005140238700687763   -0.030563154908433095
0.25369043832179977   -0.0005140238700687763   -0.030563154908433095
0.25369043832179977   -0.0005140238700687763   -0.030563154908433095
0.07022065732067484   0.006662683551777824   0.017844366526002388
0.07022065732067484   0.006662683551777824   0.017844366526002388
0.07022065732067484   0.006662683551777824   0.017844366526002388
0.07022065732067484   0.006662683551777824   0.017844366526002388
0.03960365188495799   -0.046509042897322606   -0.02498023234180899
0.03960365188495799   -0.046509042897322606   -0.02498023234180899
0.03960365188495799   -0.046509042897322606   -0.02498023234180899
0.03960365188495799   -0.046509042897322606   -0.02498023234180899
0.2522228447406011   0.0395856547859367   0.024574590118060333
0.2522228447406011   0.0395856547859367   0.024574590118060333
0.2522228447406011   0.0395856547859367   0.024574590118060333
0.2522228447406011   0.0395856547859367   0.024574590118060333
0.14728225279503243   -0.0010559167271965292   -0.009543062676680732
0.14728225279503243   -0.0010559167271965292   -0.009543062676680732
0.14728225279503243   -0.0010559167271965292   -0.009543062676680732
0.14728225279503243   -0.0010559167271965292   -0.009543062676680732
0.2327860041123449   -0.007901098025788984   -0.025122860211497074
0.2327860041123449   -0.007901098025788984   -0.025122860211497074
0.2327860041123449   -0.007901098025788984   -0.025122860211497074
0.2327860041123449   -0.007901098025788984   -0.025122860211497074
0.05822192109717096   0.00015913849835453436   0.02144293232357968
0.05822192109717096   0.00015913849835453436   0.02144293232357968
0.05822192109717096   0.00015913849835453436   0.02144293232357968
0.05822192109717096   0.00015913849835453436   0.02144293232357968
0.0291605984070742   -0.05338968317551004   -0.020815746719590973
0.0291605984070742   -0.05338968317551004   -0.020815746719590973
0.0291605984070742   -0.05338968317551004   -0.020815746719590973
0.0291605984070742   -0.05338968317551004   -0.020815746719590973
0.2261928882412951   0.026934562028275835   0.027307603680217958
0.2261928882412951   0.026934562028275835   0.027307603680217958
0.2261928882412951   0.026934562028275835   0.027307603680217958
0.2261928882412951   0.026934562028275835   0.027307603680217958
0.126945482520152   -0.00904159902935775   -0.0166809817409639
0.126945482520152   -0.00904159902935775   -0.0166809817409639
0.126945482520152   -0.00904159902935775   -0.0166809817409639
0.126945482520152   -0.00904159902935775   -0.0166809817409639
0.07925772297722732   0.030341461427580436   -0.009574271194659523
0.07925772297722732   0.030341461427580436   -0.009574271194659523
0.07925772297722732   0.030341461427580436   -0.009574271194659523
0.07925772297722732   0.030341461427580436   -0.009574271194659523
-0.11249160787587666   0.009616830931157467   0.003815756144317301
-0.11249160787587666   0.009616830931157467   0.003815756144317301
-0.11249160787587666   0.009616830931157467   0.003815756144317301
-0.11249160787587666   0.009616830931157467   0.003815756144317301
-0.13245069565477624   -0.02616804922173037   -0.017177068430789283
-0.13245069565477624   -0.02616804922173037   -0.017177068430789283
-0.13245069565477624   -0.02616804922173037   -0.017177068430789283
-0.13245069565477624   -0.02616804922173037   -0.017177068430789283
0.07650098258019994   0.037635802770636446   0.018272873604769264
0.07650098258019994   0.037635802770636446   0.018272873604769264
0.07650098258019994   0.037635802770636446   0.018272873604769264
0.07650098258019994   0.037635802770636446   0.018272873604769264
-0.022972177951730892   0.012310713173609038   0.00316278753496348
-0.022972177951730892   0.012310713173609038   0.00316278753496348
-0.022972177951730892   0.012310713173609038   0.00316278753496348
-0.022972177951730892   0.012310713173609038   0.00316278753496348
0.0670653718545895   0.01576391876314271   -0.007033296015789623
0.0670653718545895   0.01576391876314271   -0.007033296015789623
0.0670653718545895   0.01576391876314271   -0.007033296015789623
0.0670653718545895   0.01576391876314271   -0.007033296015789623
-0.12353746714020943   -0.0048185474252803485   0.006039572345594658
-0.12353746714020943   -0.0048185474252803485   0.006039572345594658
-0.12353746714020943   -0.0048185474252803485   0.006039572345594658
-0.12353746714020943   -0.0048185474252803485   0.006039572345594658
-0.142902514608478   -0.03784429643013705   -0.01346999608567852
-0.142902514608478   -0.03784429643013705   -0.01346999608567852
-0.142902514608478   -0.03784429643013705   -0.01346999608567852
-0.142902514608478   -0.03784429643013705   -0.01346999608567852
0.06278848860729563   0.02450792691632169   0.0199269814562359
0.06278848860729563   0.02450792691632169   0.0199269814562359
0.06278848860729563   0.02450792691632169   0.0199269814562359
0.06278848860729563   0.02450792691632169   0.0199269814562359
-0.0358987568166716   -0.00030761002445497433   -0.0028864808575162965
-0.0358987568166716   -0.00030761002445497433   -0.0028864808575162965
-0.0358987568166716   -0.00030761002445497433   -0.0028864808575162965
-0.0358987568166716   -0.00030761002445497433   -0.0028864808575162965
0.05362952879831154   0.0032367777782313766   -0.004596668450595224
0.05362952879831154   0.0032367777782313766   -0.004596668450595224
0.05362952879831154   0.0032367777782313766   -0.004596668450595224
0.05362952879831154   0.0032367777782313766   -0.004596668450595224
-0.13442008875221734   -0.017249681244775134   0.008347518010264744
-0.13442008875221734   -0.017249681244775134   0.008347518010264744
-0.13442008875221734   -0.017249681244775134   0.008347518010264744
-0.13442008875221734   -0.017249681244775134   0.008347518010264744
-0.15327291620374284   -0.04939824519616427   -0.01012061271842278
-0.15327291620374284   -0.04939824519616427   -0.01012061271842278
-0.15327291620374284   -0.04939824519616427   -0.01012061271842278
-0.15327291620374284   -0.04939824519616427   -0.01012061271842278
0.050781835750901755   0.01164805772448477   0.02225269909955246
0.050781835750901755   0.01164805772448477   0.02225269909955246
0.050781835750901755   0.01164805772448477   0.02225269909955246
0.050781835750901755   0.01164805772448477   0.02225269909955246
-0.04706172746900166   -0.011572902518390266   -0.008589894601668254
-0.04706172746900166   -0.011572902518390266   -0.008589894601668254
-0.04706172746900166   -0.011572902518390266   -0.008589894601668254
-0.04706172746900166   -0.011572902518390266   -0.008589894601668254
-0.10662531515316606   0.0412853609792908   0.0014786897097369862
-0.10662531515316606   0.0412853609792908   0.0014786897097369862
-0.10662531515316606   0.0412853609792908   0.0014786897097369862
-0.10662531515316606   0.0412853609792908   0.0014786897097369862
-0.30458756158691525   -0.0037856668055503556   -0.008409347331533396
-0.30458756158691525   -0.0037856668055503556   -0.008409347331533396
-0.30458756158691525   -0.0037856668055503556   -0.008409347331533396
-0.30458756158691525   -0.0037856668055503556   -0.008409347331533396
-0.31401197719966784   -0.012964869811344565   -0.00504323574705667
-0.31401197719966784   -0.012964869811344565   -0.00504323574705667
-0.31401197719966784   -0.012964869811344565   -0.00504323574705667
-0.31401197719966784   -0.012964869811344565   -0.00504323574705667
-0.11766141701604652   0.024785706175896108   0.00581556936523096
-0.11766141701604652   0.024785706175896108   0.00581556936523096
-0.11766141701604652   0.024785706175896108   0.00581556936523096
-0.11766141701604652   0.024785706175896108   0.00581556936523096
-0.21021761105699865   0.012062573436683509   0.00326737970268255
-0.21021761105699865   0.012062573436683509   0.00326737970268255
-0.21021761105699865   0.012062573436683509   0.00326737970268255
-0.21021761105699865   0.012062573436683509   0.00326737970268255
-0.11711143044362339   0.028411773641603813   0.004939434761640767
-0.11711143044362339   0.028411773641603813   0.004939434761640767
-0.11711143044362339   0.028411773641603813   0.004939434761640767
-0.11711143044362339   0.028411773641603813   0.004939434761640767
-0.3150204861649027   -0.017049459669863695   -0.00600119071471188
-0.3150204861649027   -0.017049459669863695   -0.00600119071471188
-0.3150204861649027   -0.017049459669863695   -0.00600119071471188
-0.3150204861649027   -0.017049459669863695   -0.00600119071471188
-0.3244204779181949   -0.0257118207836287   -0.0016884918236055695
-0.3244204779181949   -0.0257118207836287   -0.0016884918236055695
-0.3244204779181949   -0.0257118207836287   -0.0016884918236055695
-0.3244204779181949   -0.0257118207836287   -0.0016884918236055695
-0.12869206694863575   0.01147131992869186   0.008266625854703745
-0.12869206694863575   0.01147131992869186   0.008266625854703745
-0.12869206694863575   0.01147131992869186   0.008266625854703745
-0.12869206694863575   0.01147131992869186   0.008266625854703745
-0.22107467454633656   -5.0211620025129855e-05   -0.002151930313587189
-0.22107467454633656   -5.0211620025129855e-05   -0.002151930313587189
-0.22107467454633656   -5.0211620025129855e-05   -0.002151930313587189
-0.22107467454633656   -5.0211620025129855e-05   -0.002151930313587189
-0.12795417547082527   0.015503848920880272   0.007923554251569643
-0.12795417547082527   0.015503848920880272   0.007923554251569643
-0.12795417547082527   0.015503848920880272   0.007923554251569643
-0.12795417547082527   0.015503848920880272   0.007923554251569643
-0.3258097646643492   -0.030395745044161232   -0.003951001293848226
-0.3258097646643492   -0.030395745044161232   -0.003951001293848226
-0.3258097646643492   -0.030395745044161232   -0.003951001293848226
-0.3258097646643492   -0.030395745044161232   -0.003951001293848226
-0.3346254036393047   -0.03801275870161222   0.0015630627079608536
-0.3346254036393047   -0.03801275870161222   0.0015630627079608536
-0.3346254036393047   -0.03801275870161222   0.0015630627079608536
-0.3346254036393047   -0.03801275870161222   0.0015630627079608536
-0.13953850338076357   -0.0013504709443358104   0.01050367714464317
-0.13953850338076357   -0.0013504709443358104   0.01050367714464317
-0.13953850338076357   -0.0013504709443358104   0.01050367714464317
-0.13953850338076357   -0.0013504709443358104   0.01050367714464317
-0.2325014033923068   -0.012189813378339617   -0.008037707917463773
-0.2325014033923068   -0.012189813378339617   -0.008037707917463773
-0.2325014033923068   -0.012189813378339617   -0.008037707917463773
-0.2325014033923068   -0.012189813378339617   -0.008037707917463773
-0.2892350439399218   0.05171870769226844   0.012848866405615143
-0.2892350439399218   0.05171870769226844   0.012848866405615143
-0.2892350439399218   0.05171870769226844   0.012848866405615143
-0.2892350439399218   0.05171870769226844   0.012848866405615143
-0.4926327924081237   -0.014832218687077472   -0.019129039461913414
-0.4926327924081237   -0.014832218687077472   -0.019129039461913414
-0.4926327924081237   -0.014832218687077472   -0.019129039461913414
-0.4926327924081237   -0.014832218687077472   -0.019129039461913414
-0.49356008752339   -0.0013416300887359595   0.007806888183709983
-0.49356008752339   -0.0013416300887359595   0.007806888183709983
-0.49356008752339   -0.0013416300887359595   0.007806888183709983
-0.49356008752339   -0.0013416300887359595   0.007806888183709983
-0.3090565057764539   0.012762711971663301   -0.005993460413998581
-0.3090565057764539   0.012762711971663301   -0.005993460413998581
-0.3090565057764539   0.012762711971663301   -0.005993460413998581
-0.3090565057764539   0.012762711971663301   -0.005993460413998581
-0.39408424385109203   0.012046280709863133   0.004280647230814356
-0.39408424385109203   0.012046280709863133   0.004280647230814356
-0.39408424385109203   0.012046280709863133   0.004280647230814356
-0.39408424385109203   0.012046280709863133   0.004280647230814356
-0.29930401295999753   0.03921212526265881   0.01631959037729141
-0.29930401295999753   0.03921212526265881   0.01631959037729141
-0.29930401295999753   0.03921212526265881   0.01631959037729141
-0.29930401295999753   0.03921212526265881   0.01631959037729141
-0.5041910127376731   -0.02866947577755878   -0.01801989219888991
-0.5041910127376731   -0.02866947577755878   -0.01801989219888991
-0.5041910127376731   -0.02866947577755878   -0.01801989219888991
-0.5041910127376731   -0.02866947577755878   -0.01801989219888991
-0.5063782120716396   -0.013913189741807122   0.009610777427759794
-0.5063782120716396   -0.013913189741807122   0.009610777427759794
-0.5063782120716396   -0.013913189741807122   0.009610777427759794
-0.5063782120716396   -0.013913189741807122   0.009610777427759794
-0.3195197069877895   0.0004955708250849455   -0.0033920287802995074
-0.3195197069877895   0.0004955708250849455   -0.0033920287802995074
-0.3195197069877895   0.0004955708250849455   -0.0033920287802995074
-0.3195197069877895   0.0004955708250849455   -0.0033920287802995074
-0.40329287443592327   0.0007679908744652741   -0.0013979151693211123
-0.40329287443592327   0.0007679908744652741   -0.0013979151693211123
-0.40329287443592327   0.0007679908744652741   -0.0013979151693211123
-0.40329287443592327   0.0007679908744652741   -0.0013979151693211123
-0.30950851922885453   0.027475407924242246   0.019684072915221583
-0.30950851922885453   0.027475407924242246   0.019684072915221583
-0.30950851922885453   0.027475407924242246   0.019684072915221583
-0.30950851922885453   0.027475407924242246   0.019684072915221583
-0.5169376561465104   -0.04144128315690104   -0.015658349531508364
-0.5169376561465104   -0.04144128315690104   -0.015658349531508364
-0.5169376561465104   -0.04144128315690104   -0.015658349531508364
-0.5169376561465104   -0.04144128315690104   -0.015658349531508364
-0.5174412670071281   -0.027032709015818876   0.013116800106560293
-0.5174412670071281   -0.027032709015818876   0.013116800106560293
-0.5174412670071281   -0.027032709015818876   0.013116800106560293
-0.5174412670071281   -0.027032709015818876   0.013116800106560293
-0.3301161549039236   -0.012641934986515495   -0.0012615173302340642
-0.3301161549039236   -0.012641934986515495   -0.0012615173302340642
-0.3301161549039236   -0.012641934986515495   -0.0012615173302340642
-0.3301161549039236   -0.012641934986515495   -0.0012615173302340642
-0.4170429688354677   -0.011551431348405139   -0.007598679862490344
-0.4170429688354677   -0.011551431348405139   -0.007598679862490344
-0.4170429688354677   -0.011551431348405139   -0.007598679862490344
-0.4170429688354677   -0.011551431348405139   -0.007598679862490344
-0.47110382161258363   0.050930940370915376   0.022752655457801717
-0.47110382161258363   0.050930940370915376   0.022752655457801717
-0.47110382161258363   0.050930940370915376   0.022752655457801717
-0.47110382161258363   0.050930940370915376   0.022752655457801717
-0.663871833974072   -0.030643299867913726   -0.028907422940368674
-0.663871833974072   -0.030643299867913726   -0.028907422940368674
-0.663871833974072   -0.030643299867913726   -0.028907422940368674
-0.663871833974072   -0.030643299867913726   -0.028907422940368674
-0.6686832972466944   0.008102269754682367   0.02391200177299089
-0.6686832972466944   0.008102269754682367   0.02391200177299089
-0.6686832972466944   0.008102269754682367   0.02391200177299089
-0.6686832972466944   0.008102269754682367   0.02391200177299089
-0.4986484651630593   -0.0013424165232456542   -0.017634213580134166
-0.4986484651630593   -0.0013424165232456542   -0.017634213580134166
-0.4986484651630593   -0.0013424165232456542   -0.017634213580134166
-0.4986484651630593   -0.0013424165232456542   -0.017634213580134166
-0.5508062158924374   0.012120700056309247   0.013409377601545737
-0.5508062158924374   0.012120700056309247   0.013409377601545737
-0.5508062158924374   0.012120700056309247   0.013409377601545737
-0.5508062158924374   0.012120700056309247   0.013409377601545737
-0.48019082498046134   0.0464005650127106   0.026911005796898986
-0.48019082498046134   0.0464005650127106   0.026911005796898986
-0.48019082498046134   0.0464005650127106   0.026911005796898986
-0.48019082498046134   0.0464005650127106   0.026911005796898986
-0.6880774710815356   -0.04057724543351707   -0.024379352213014967
-0.6880774710815356   -0.04057724543351707   -0.024379352213014967
-0.6880774710815356   -0.04057724543351707   -0.024379352213014967
-0.6880774710815356   -0.04057724543351707   -0.024379352213014967
-0.688664595293875   0.0010292104646777434   0.030525603054760785
-0.688664595293875   0.0010292104646777434   0.030525603054760785
-0.688664595293875   0.0010292104646777434   0.030525603054760785
-0.688664595293875   0.0010292104646777434   0.030525603054760785
-0.5101793518410388   -0.00818703858083257   -0.015121072580218001
-0.5101793518410388   -0.00818703858083257   -0.015121072580218001
-0.5101793518410388   -0.00818703858083257   -0.015121072580218001
-0.5101793518410388   -0.00818703858083257   -0.015121072580218001
-0.5764196355129353   0.003766527801476599   0.0049300986524417195
-0.5764196355129353   0.003766527801476599   0.0049300986524417195
-0.5764196355129353   0.003766527801476599   0.0049300986524417195
-0.5764196355129353   0.003766527801476599   0.0049300986524417195
-0.4909450872810205   0.04086719482008273   0.03199601681896193
-0.4909450872810205   0.04086719482008273   0.03199601681896193
-0.4909450872810205   0.04086719482008273   0.03199601681896193
-0.4909450872810205   0.04086719482008273   0.03199601681896193
-0.708782007854351   -0.04890817093669976   -0.020124078346241765
-0.708782007854351   -0.04890817093669976   -0.020124078346241765
-0.708782007854351   -0.04890817093669976   -0.020124078346241765
-0.708782007854351   -0.04890817093669976   -0.020124078346241765
-0.7162812824610637   -0.019115839716463662   0.031495951225541656
-0.7162812824610637   -0.019115839716463662   0.031495951225541656
-0.7162812824610637   -0.019115839716463662   0.031495951225541656
-0.7162812824610637   -0.019115839716463662   0.031495951225541656
-0.522083522408329   -0.023939933135649377   -0.013187252779621742
-0.522083522408329   -0.023939933135649377   -0.013187252779621742
-0.522083522408329   -0.023939933135649377   -0.013187252779621742
-0.522083522408329   -0.023939933135649377   -0.013187252779621742
-0.5846581456042164   -0.005141959957624134   -8.896731845413688e-05
-0.5846581456042164   -0.005141959957624134   -8.896731845413688e-05
-0.5846581456042164   -0.005141959957624134   -8.896731845413688e-05
-0.5846581456042164   -0.005141959957624134   -8.896731845413688e-05
0.05408976911045944   0.004440224754166836   -0.033336582634123105
0.05408976911045944   0.004440224754166836   -0.033336582634123105
0.05408976911045944   0.004440224754166836   -0.033336582634123105
0.05408976911045944   0.004440224754166836   -0.033336582634123105
-0.05222866084069875   0.024911486623442083   0.01699758691852264
-0.05222866084069875   0.024911486623442083   0.01699758691852264
-0.05222866084069875   0.024911486623442083   0.01699758691852264
-0.05222866084069875   0.024911486623442083   0.01699758691852264
-0.07940173294696723   -0.032205868560322225   -0.026876003766855804
-0.07940173294696723   -0.032205868560322225   -0.026876003766855804
-0.07940173294696723   -0.032205868560322225   -0.026876003766855804
-0.07940173294696723   -0.032205868560322225   -0.026876003766855804
0.049973298002247535   0.035632242570944585   0.020841752868360538
0.049973298002247535   0.035632242570944585   0.020841752868360538
0.049973298002247535   0.035632242570944585   0.020841752868360538
0.049973298002247535   0.035632242570944585   0.020841752868360538
-0.00817576314787196   0.007825144249328442   0.002876101470348537
-0.00817576314787196   0.007825144249328442   0.002876101470348537
-0.00817576314787196   0.007825144249328442   0.002876101470348537
-0.00817576314787196   0.007825144249328442   0.002876101470348537
0.030549045736872546   -0.0108083043730809   -0.02983896151448894
0.030549045736872546   -0.0108083043730809   -0.02983896151448894
0.030549045736872546   -0.0108083043730809   -0.02983896151448894
0.030549045736872546   -0.0108083043730809   -0.02983896151448894
-0.06111803523058534   0.013094123834710144   0.019242492420021223
-0.06111803523058534   0.013094123834710144   0.019242492420021223
-0.06111803523058534   0.013094123834710144   0.019242492420021223
-0.06111803523058534   0.013094123834710144   0.019242492420021223
-0.08837291168566501   -0.038010199291724764   -0.022808923843965528
-0.08837291168566501   -0.038010199291724764   -0.022808923843965528
-0.08837291168566501   -0.038010199291724764   -0.022808923843965528
-0.08837291168566501   -0.038010199291724764   -0.022808923843965528
0.031546659234492465   0.027760732450201164   0.028618229661060098
0.031546659234492465   0.027760732450201164   0.028618229661060098
0.031546659234492465   0.027760732450201164   0.028618229661060098
0.031546659234492465   0.027760732450201164   0.028618229661060098
-0.02265597045199699   -0.0008754588232011721   -0.0038130587931699926
-0.02265597045199699   -0.0008754588232011721   -0.0038130587931699926
-0.02265597045199699   -0.0008754588232011721   -0.0038130587931699926
-0.02265597045199699   -0.0008754588232011721   -0.0038130587931699926
0.011664374635962753   -0.01837287452906964   -0.02465958635231766
0.011664374635962753   -0.01837287452906964   -0.02465958635231766
0.011664374635962753   -0.01837287452906964   -0.02465958635231766
0.011664374635962753   -0.01837287452906964   -0.02465958635231766
-0.07007685857351771   0.00653717620116348   0.024123966223881854
-0.07007685857351771   0.00653717620116348   0.024123966223881854
-0.07007685857351771   0.00653717620116348   0.024123966223881854
-0.07007685857351771   0.00653717620116348   0.024123966223881854
-0.09658764330899237   -0.046867944447177   -0.018924397146758722
-0.09658764330899237   -0.046867944447177   -0.018924397146758722
-0.09658764330899237   -0.046867944447177   -0.018924397146758722
-0.09658764330899237   -0.046867944447177   -0.018924397146758722
0.005954277766651616   0.011303907687099208   0.03265855379427167
0.005954277766651616   0.011303907687099208   0.03265855379427167
0.005954277766651616   0.011303907687099208   0.03265855379427167
0.005954277766651616   0.011303907687099208   0.03265855379427167
-0.03834434678055351   -0.009608493981879062   -0.011552557766105557
-0.03834434678055351   -0.009608493981879062   -0.011552557766105557
-0.03834434678055351   -0.009608493981879062   -0.011552557766105557
-0.03834434678055351   -0.009608493981879062   -0.011552557766105557
-0.059901217884526486   0.01673417947094104   -0.013187891148115007
-0.059901217884526486   0.01673417947094104   -0.013187891148115007
-0.059901217884526486   0.01673417947094104   -0.013187891148115007
-0.059901217884526486   0.01673417947094104   -0.013187891148115007
-0.15916686444568506   0.006709054648249377   0.004406380924650344
-0.15916686444568506   0.006709054648249377   0.004406380924650344
-0.15916686444568506   0.006709054648249377   0.004406380924650344
-0.15916686444568506   0.006709054648249377   0.004406380924650344
-0.17321992311672213   -0.018764174695540075   -0.014006108029191302
-0.17321992311672213   -0.018764174695540075   -0.014006108029191302
-0.17321992311672213   -0.018764174695540075   -0.014006108029191302
-0.17321992311672213   -0.018764174695540075   -0.014006108029191302
-0.061643028428839466   0.016316028489378857   0.013395621774081847
-0.061643028428839466   0.016316028489378857   0.013395621774081847
-0.061643028428839466   0.016316028489378857   0.013395621774081847
-0.061643028428839466   0.016316028489378857   0.013395621774081847
-0.11326387552643379   0.004915917973169735   0.0026427551994243894
-0.11326387552643379   0.004915917973169735   0.0026427551994243894
-0.11326387552643379   0.004915917973169735   0.0026427551994243894
-0.11326387552643379   0.004915917973169735   0.0026427551994243894
-0.06922019556693661   0.0026684627790419836   -0.010842648206066497
-0.06922019556693661   0.0026684627790419836   -0.010842648206066497
-0.06922019556693661   0.0026684627790419836   -0.010842648206066497
-0.06922019556693661   0.0026684627790419836   -0.010842648206066497
-0.16658446858918413   -0.006058321595762594   0.006465311508719267
-0.16658446858918413   -0.006058321595762594   0.006465311508719267
-0.16658446858918413   -0.006058321595762594   0.006465311508719267
-0.16658446858918413   -0.006058321595762594   0.006465311508719267
-0.18021226018585143   -0.030149952592969223   -0.01036166729707161
-0.18021226018585143   -0.030149952592969223   -0.01036166729707161
-0.18021226018585143   -0.030149952592969223   -0.01036166729707161
-0.18021226018585143   -0.030149952592969223   -0.01036166729707161
-0.07244197768292578   0.003730556429494908   0.015104990448510089
-0.07244197768292578   0.003730556429494908   0.015104990448510089
-0.07244197768292578   0.003730556429494908   0.015104990448510089
-0.07244197768292578   0.003730556429494908   0.015104990448510089
-0.12209516942235617   -0.006530466910230265   -0.003107863255447124
-0.12209516942235617   -0.006530466910230265   -0.003107863255447124
-0.12209516942235617   -0.006530466910230265   -0.003107863255447124
-0.12209516942235617   -0.006530466910230265   -0.003107863255447124
-0.07975133192389366   -0.009606398622108376   -0.00810482570472516
-0.07975133192389366   -0.009606398622108376   -0.00810482570472516
-0.07975133192389366   -0.009606398622108376   -0.00810482570472516
-0.07975133192389366   -0.009606398622108376   -0.00810482570472516
-0.17391495335100532   -0.01782504494748755   0.008799959231677347
-0.17391495335100532   -0.01782504494748755   0.008799959231677347
-0.17391495335100532   -0.01782504494748755   0.008799959231677347
-0.17391495335100532   -0.01782504494748755   0.008799959231677347
-0.18725064626718504   -0.041836156195625945   -0.00713588848289896
-0.18725064626718504   -0.041836156195625945   -0.00713588848289896
-0.18725064626718504   -0.041836156195625945   -0.00713588848289896
-0.18725064626718504   -0.041836156195625945   -0.00713588848289896
-0.08147829187850605   -0.008984857303463382   0.01873927286195881
-0.08147829187850605   -0.008984857303463382   0.01873927286195881
-0.08147829187850605   -0.008984857303463382   0.01873927286195881
-0.08147829187850605   -0.008984857303463382   0.01873927286195881
-0.1308950364916189   -0.017814609948255407   -0.008946350607923481
-0.1308950364916189   -0.017814609948255407   -0.008946350607923481
-0.1308950364916189   -0.017814609948255407   -0.008946350607923481
-0.1308950364916189   -0.017814609948255407   -0.008946350607923481
-0.15620982770268277   0.027293227745987206   -0.001392608458078072
-0.15620982770268277   0.027293227745987206   -0.001392608458078072
-0.15620982770268277   0.027293227745987206   -0.001392608458078072
-0.15620982770268277   0.027293227745987206   -0.001392608458078072
-0.26500226793149717   -0.009155158214781897   -0.007534926982880986
-0.26500226793149717   -0.009155158214781897   -0.007534926982880986
-0.26500226793149717   -0.009155158214781897   -0.007534926982880986
-0.26500226793149717   -0.009155158214781897   -0.007534926982880986
-0.2678165251019666   -0.00673753192606015   -0.0016455130586456208
-0.2678165251019666   -0.00673753192606015   -0.0016455130586456208
-0.2678165251019666   -0.00673753192606015   -0.0016455130586456208
-0.2678165251019666   -0.00673753192606015   -0.0016455130586456208
-0.16589691411017643   0.0017718352049108863   0.002072927103084375
-0.16589691411017643   0.0017718352049108863   0.002072927103084375
-0.16589691411017643   0.0017718352049108863   0.002072927103084375
-0.16589691411017643   0.0017718352049108863   0.002072927103084375
-0.21327960464124798   0.0030767657449115166   0.0009423114270078053
-0.21327960464124798   0.0030767657449115166   0.0009423114270078053
-0.21327960464124798   0.0030767657449115166   0.0009423114270078053
-0.21327960464124798   0.0030767657449115166   0.0009423114270078053
-0.16327717092287414   0.014906780975323976   0.0020366972691825795
-0.16327717092287414   0.014906780975323976   0.0020366972691825795
-0.16327717092287414   0.014906780975323976   0.0020366972691825795
-0.16327717092287414   0.014906780975323976   0.0020366972691825795
-0.27134402882106   -0.020780238228264435   -0.005240325351908647
-0.27134402882106   -0.020780238228264435   -0.005240325351908647
-0.27134402882106   -0.020780238228264435   -0.005240325351908647
-0.27134402882106   -0.020780238228264435   -0.005240325351908647
-0.2743772824000958   -0.01897039576884723   0.0017432628184529935
-0.2743772824000958   -0.01897039576884723   0.0017432628184529935
-0.2743772824000958   -0.01897039576884723   0.0017432628184529935
-0.2743772824000958   -0.01897039576884723   0.0017432628184529935
-0.17330537043096275   -0.010258305479261213   0.004281134363663819
-0.17330537043096275   -0.010258305479261213   0.004281134363663819
-0.17330537043096275   -0.010258305479261213   0.004281134363663819
-0.17330537043096275   -0.010258305479261213   0.004281134363663819
-0.22038550493969328   -0.00804902307523618   -0.004337995353935007
-0.22038550493969328   -0.00804902307523618   -0.004337995353935007
-0.22038550493969328   -0.00804902307523618   -0.004337995353935007
-0.22038550493969328   -0.00804902307523618   -0.004337995353935007
-0.1706116290761746   0.002443657886595882   0.0050478777717474
-0.1706116290761746   0.002443657886595882   0.0050478777717474
-0.1706116290761746   0.002443657886595882   0.0050478777717474
-0.1706116290761746   0.002443657886595882   0.0050478777717474
-0.2781660343369911   -0.03276736971681214   -0.003403522918062508
-0.2781660343369911   -0.03276736971681214   -0.003403522918062508
-0.2781660343369911   -0.03276736971681214   -0.003403522918062508
-0.2781660343369911   -0.03276736971681214   -0.003403522918062508
-0.2807649479665346   -0.03069695112448561   0.0049977208296499084
-0.2807649479665346   -0.03069695112448561   0.0049977208296499084
-0.2807649479665346   -0.03069695112448561   0.0049977208296499084
-0.2807649479665346   -0.03069695112448561   0.0049977208296499084
-0.18042714986534594   -0.021597576323031727   0.006743013653700385
-0.18042714986534594   -0.021597576323031727   0.006743013653700385
-0.18042714986534594   -0.021597576323031727   0.006743013653700385
-0.18042714986534594   -0.021597576323031727   0.006743013653700385
-0.2280318657881519   -0.019239713395052337   -0.010076424635384334
-0.2280318657881519   -0.019239713395052337   -0.010076424635384334
-0.2280318657881519   -0.019239713395052337   -0.010076424635384334
-0.2280318657881519   -0.019239713395052337   -0.010076424635384334
-0.2516309882038811   0.03935601061186503   0.010810302828556512
-0.2516309882038811   0.03935601061186503   0.010810302828556512
-0.2516309882038811   0.03935601061186503   0.010810302828556512
-0.2516309882038811   0.03935601061186503   0.010810302828556512
-0.36679796802136844   -0.015299771916044536   -0.016873399220046457
-0.36679796802136844   -0.015299771916044536   -0.016873399220046457
-0.36679796802136844   -0.015299771916044536   -0.016873399220046457
-0.36679796802136844   -0.015299771916044536   -0.016873399220046457
-0.3619449816130069   0.005602814764640085   0.011095529387453631
-0.3619449816130069   0.005602814764640085   0.011095529387453631
-0.3619449816130069   0.005602814764640085   0.011095529387453631
-0.3619449816130069   0.005602814764640085   0.011095529387453631
-0.2686680054779386   -0.005169503346127674   -0.007470943518438435
-0.2686680054779386   -0.005169503346127674   -0.007470943518438435
-0.2686680054779386   -0.005169503346127674   -0.007470943518438435
-0.2686680054779386   -0.005169503346127674   -0.007470943518438435
-0.3111576787202847   0.006157733691784836   0.0015470310756223182
-0.3111576787202847   0.006157733691784836   0.0015470310756223182
-0.3111576787202847   0.006157733691784836   0.0015470310756223182
-0.3111576787202847   0.006157733691784836   0.0015470310756223182
-0.257881711321697   0.0270454731072831   0.014245550809358812
-0.257881711321697   0.0270454731072831   0.014245550809358812
-0.257881711321697   0.0270454731072831   0.014245550809358812
-0.257881711321697   0.0270454731072831   0.014245550809358812
-0.37405752347129423   -0.027938409390819548   -0.01592595574852692
-0.37405752347129423   -0.027938409390819548   -0.01592595574852692
-0.37405752347129423   -0.027938409390819548   -0.01592595574852692
-0.37405752347129423   -0.027938409390819548   -0.01592595574852692
-0.37072960646835024   -0.0064445275759062864   0.01311737869530515
-0.37072960646835024   -0.0064445275759062864   0.01311737869530515
-0.37072960646835024   -0.0064445275759062864   0.01311737869530515
-0.37072960646835024   -0.0064445275759062864   0.01311737869530515
-0.2751712273310751   -0.016122616830859887   -0.005074240774430746
-0.2751712273310751   -0.016122616830859887   -0.005074240774430746
-0.2751712273310751   -0.016122616830859887   -0.005074240774430746
-0.2751712273310751   -0.016122616830859887   -0.005074240774430746
-0.31711947583328864   -0.004560387239459465   -0.00417619839690949
-0.31711947583328864   -0.004560387239459465   -0.00417619839690949
-0.31711947583328864   -0.004560387239459465   -0.00417619839690949
-0.31711947583328864   -0.004560387239459465   -0.00417619839690949
-0.26426650128153   0.015741643542402407   0.01758512910002834
-0.26426650128153   0.015741643542402407   0.01758512910002834
-0.26426650128153   0.015741643542402407   0.01758512910002834
-0.26426650128153   0.015741643542402407   0.01758512910002834
-0.3826816471701779   -0.0393561026014531   -0.013731249788293983
-0.3826816471701779   -0.0393561026014531   -0.013731249788293983
-0.3826816471701779   -0.0393561026014531   -0.013731249788293983
-0.3826816471701779   -0.0393561026014531   -0.013731249788293983
-0.3778681912669887   -0.018595082060340017   0.016724783663708415
-0.3778681912669887   -0.018595082060340017   0.016724783663708415
-0.3778681912669887   -0.018595082060340017   0.016724783663708415
-0.3778681912669887   -0.018595082060340017   0.016724783663708415
-0.2817011123151683   -0.02735248955639351   -0.003027562481614225
-0.2817011123151683   -0.02735248955639351   -0.003027562481614225
-0.2817011123151683   -0.02735248955639351   -0.003027562481614225
-0.2817011123151683   -0.02735248955639351   -0.003027562481614225
-0.32611298801784316   -0.01551686166003556   -0.010051362092048734
-0.32611298801784316   -0.01551686166003556   -0.010051362092048734
-0.32611298801784316   -0.01551686166003556   -0.010051362092048734
-0.32611298801784316   -0.01551686166003556   -0.010051362092048734
-0.34754911691791746   0.04268078750635053   0.021390296874813426
-0.34754911691791746   0.04268078750635053   0.021390296874813426
-0.34754911691791746   0.04268078750635053   0.021390296874813426
-0.34754911691791746   0.04268078750635053   0.021390296874813426
-0.4485280791934237   -0.022530227978518197   -0.02810253251631557
-0.4485280791934237   -0.022530227978518197   -0.02810253251631557
-0.4485280791934237   -0.022530227978518197   -0.02810253251631557
-0.4485280791934237   -0.022530227978518197   -0.02810253251631557
-0.44891900034568044   0.016846541570870177   0.023581112073066214
-0.44891900034568044   0.016846541570870177   0.023581112073066214
-0.44891900034568044   0.016846541570870177   0.023581112073066214
-0.44891900034568044   0.016846541570870177   0.023581112073066214
-0.3712120582703634   -0.012450646873376547   -0.017186392261312036
-0.3712120582703634   -0.012450646873376547   -0.017186392261312036
-0.3712120582703634   -0.012450646873376547   -0.017186392261312036
-0.3712120582703634   -0.012450646873376547   -0.017186392261312036
-0.3876641965176539   0.010032309152853455   0.007590456163467509
-0.3876641965176539   0.010032309152853455   0.007590456163467509
-0.3876641965176539   0.010032309152853455   0.007590456163467509
-0.3876641965176539   0.010032309152853455   0.007590456163467509
-0.352964521401152   0.036367786656198844   0.025232858555165823
-0.352964521401152   0.036367786656198844   0.025232858555165823
-0.352964521401152   0.036367786656198844   0.025232858555165823
-0.352964521401152   0.036367786656198844   0.025232858555165823
-0.468547708432341   -0.03335306317614867   -0.024362823613210356
-0.468547708432341   -0.03335306317614867   -0.024362823613210356
-0.468547708432341   -0.03335306317614867   -0.024362823613210356
-0.468547708432341   -0.03335306317614867   -0.024362823613210356
-0.46489289148492424   0.009967781838579201   0.03036656916072634
-0.46489289148492424   0.009967781838579201   0.03036656916072634
-0.46489289148492424   0.009967781838579201   0.03036656916072634
-0.46489289148492424   0.009967781838579201   0.03036656916072634
-0.37882245611020676   -0.018750113909782   -0.015041283180101925
-0.37882245611020676   -0.018750113909782   -0.015041283180101925
-0.37882245611020676   -0.018750113909782   -0.015041283180101925
-0.37882245611020676   -0.018750113909782   -0.015041283180101925
-0.4067186549240757   0.0016798852965797667   -0.0003770284804819751
-0.4067186549240757   0.0016798852965797667   -0.0003770284804819751
-0.4067186549240757   0.0016798852965797667   -0.0003770284804819751
-0.4067186549240757   0.0016798852965797667   -0.0003770284804819751
-0.35982395059342426   0.0309570685696164   0.03024406192441238
-0.35982395059342426   0.0309570685696164   0.03024406192441238
-0.35982395059342426   0.0309570685696164   0.03024406192441238
-0.35982395059342426   0.0309570685696164   0.03024406192441238
-0.48529428635498684   -0.041142289994097955   -0.020530333356901607
-0.48529428635498684   -0.041142289994097955   -0.020530333356901607
-0.48529428635498684   -0.041142289994097955   -0.020530333356901607
-0.48529428635498684   -0.041142289994097955   -0.020530333356901607
-0.4884535518298968   -0.008158165682129001   0.03209161390956321
-0.4884535518298968   -0.008158165682129001   0.03209161390956321
-0.4884535518298968   -0.008158165682129001   0.03209161390956321
-0.4884535518298968   -0.008158165682129001   0.03209161390956321
-0.3864669072964826   -0.03187233104236733   -0.012991547501737774
-0.3864669072964826   -0.03187233104236733   -0.012991547501737774
-0.3864669072964826   -0.03187233104236733   -0.012991547501737774
-0.3864669072964826   -0.03187233104236733   -0.012991547501737774
-0.41397269236917417   -0.006614758228923531   -0.006011965510503207
-0.41397269236917417   -0.006614758228923531   -0.006011965510503207
-0.41397269236917417   -0.006614758228923531   -0.006011965510503207
-0.41397269236917417   -0.006614758228923531   -0.006011965510503207
-0.18411531678282722   -0.01196442257214251   -0.03549530311727183
-0.18411531678282722   -0.01196442257214251   -0.03549530311727183
-0.18411531678282722   -0.01196442257214251   -0.03549530311727183
-0.18411531678282722   -0.01196442257214251   -0.03549530311727183
-0.18448940534153688   0.02703462720732276   0.015931370307291425
-0.18448940534153688   0.02703462720732276   0.015931370307291425
-0.18448940534153688   0.02703462720732276   0.015931370307291425
-0.18448940534153688   0.02703462720732276   0.015931370307291425
-0.20796911079052285   -0.024949114417195547   -0.024122623279569707
-0.20796911079052285   -0.024949114417195547   -0.024122623279569707
-0.20796911079052285   -0.024949114417195547   -0.024122623279569707
-0.20796911079052285   -0.024949114417195547   -0.024122623279569707
-0.18808523999353674   0.014533041189606674   0.023839279357659324
-0.18808523999353674   0.014533041189606674   0.023839279357659324
-0.18808523999353674   0.014533041189606674   0.023839279357659324
-0.18808523999353674   0.014533041189606674   0.023839279357659324
-0.18155767146433144   0.00465125117314788   0.016255848617754046
-0.18155767146433144   0.00465125117314788   0.016255848617754046
-0.18155767146433144   0.00465125117314788   0.016255848617754046
-0.18155767146433144   0.00465125117314788   0.016255848617754046
-0.2068924535252825   -0.02586833977543807   -0.029795407336022713
-0.2068924535252825   -0.02586833977543807   -0.029795407336022713
-0.2068924535252825   -0.02586833977543807   -0.029795407336022713
-0.2068924535252825   -0.02586833977543807   -0.029795407336022713
-0.19147365722996199   0.013140506576664664   0.02026502352937449
-0.19147365722996199   0.013140506576664664   0.02026502352937449
-0.19147365722996199   0.013140506576664664   0.02026502352937449
-0.19147365722996199   0.013140506576664664   0.02026502352937449
-0.21510008208829243   -0.031382093844021124   -0.020449160487266443
-0.21510008208829243   -0.031382093844021124   -0.020449160487266443
-0.21510008208829243   -0.031382093844021124   -0.020449160487266443
-0.21510008208829243   -0.031382093844021124   -0.020449160487266443
-0.2062957829349979   0.005800394563995691   0.0444273108234925
-0.2062957829349979   0.005800394563995691   0.0444273108234925
-0.2062957829349979   0.005800394563995691   0.0444273108234925
-0.2062957829349979   0.005800394563995691   0.0444273108234925
-0.19827741819821293   -0.006390523580276794   0.006542376372160933
-0.19827741819821293   -0.006390523580276794   0.006542376372160933
-0.19827741819821293   -0.006390523580276794   0.006542376372160933
-0.19827741819821293   -0.006390523580276794   0.006542376372160933
-0.22789739574315873   -0.03450649684016993   -0.02327386181314417
-0.22789739574315873   -0.03450649684016993   -0.02327386181314417
-0.22789739574315873   -0.03450649684016993   -0.02327386181314417
-0.22789739574315873   -0.03450649684016993   -0.02327386181314417
-0.19900536151546605   0.0034179053248103303   0.025224443208033846
-0.19900536151546605   0.0034179053248103303   0.025224443208033846
-0.19900536151546605   0.0034179053248103303   0.025224443208033846
-0.19900536151546605   0.0034179053248103303   0.025224443208033846
-0.22095164247468188   -0.0438340336243142   -0.016125232521446518
-0.22095164247468188   -0.0438340336243142   -0.016125232521446518
-0.22095164247468188   -0.0438340336243142   -0.016125232521446518
-0.22095164247468188   -0.0438340336243142   -0.016125232521446518
-0.23457086903344485   -0.023059838872276004   0.041558604896142645
-0.23457086903344485   -0.023059838872276004   0.041558604896142645
-0.23457086903344485   -0.023059838872276004   0.041558604896142645
-0.23457086903344485   -0.023059838872276004   0.041558604896142645
-0.21290585874382548   -0.019430391120956233   -0.008903691268698919
-0.21290585874382548   -0.019430391120956233   -0.008903691268698919
-0.21290585874382548   -0.019430391120956233   -0.008903691268698919
-0.21290585874382548   -0.019430391120956233   -0.008903691268698919
-0.19783562396205748   -0.005549160464627799   -0.018215935123363083
-0.19783562396205748   -0.005549160464627799   -0.018215935123363083
-0.19783562396205748   -0.005549160464627799   -0.018215935123363083
-0.19783562396205748   -0.005549160464627799   -0.018215935123363083
-0.20220709179888988   -0.024912357190072797   -0.001070554840428845
-0.20220709179888988   -0.024912357190072797   -0.001070554840428845
-0.20220709179888988   -0.024912357190072797   -0.001070554840428845
-0.20220709179888988   -0.024912357190072797   -0.001070554840428845
-0.20379968435515974   -0.01663211025841395   -0.00918841603857726
-0.20379968435515974   -0.01663211025841395   -0.00918841603857726
-0.20379968435515974   -0.01663211025841395   -0.00918841603857726
-0.20379968435515974   -0.01663211025841395   -0.00918841603857726
-0.2049194792785698   -0.033551675179516766   -0.0002719049574830619
-0.2049194792785698   -0.033551675179516766   -0.0002719049574830619
-0.2049194792785698   -0.033551675179516766   -0.0002719049574830619
-0.2049194792785698   -0.033551675179516766   -0.0002719049574830619
-0.20047760671837228   -0.021040268337364533   -0.000612529703670794
-0.20047760671837228   -0.021040268337364533   -0.000612529703670794
-0.20047760671837228   -0.021040268337364533   -0.000612529703670794
-0.20047760671837228   -0.021040268337364533   -0.000612529703670794
-0.20494618569031908   -0.018179291464066535   -0.015777820731680863
-0.20494618569031908   -0.018179291464066535   -0.015777820731680863
-0.20494618569031908   -0.018179291464066535   -0.015777820731680863
-0.20494618569031908   -0.018179291464066535   -0.015777820731680863
-0.20507171863552698   -0.0333032346659812   0.0011225369671519765
-0.20507171863552698   -0.0333032346659812   0.0011225369671519765
-0.20507171863552698   -0.0333032346659812   0.0011225369671519765
-0.20507171863552698   -0.0333032346659812   0.0011225369671519765
-0.20732222717058438   -0.027458965349396316   -0.005962368958287425
-0.20732222717058438   -0.027458965349396316   -0.005962368958287425
-0.20732222717058438   -0.027458965349396316   -0.005962368958287425
-0.20732222717058438   -0.027458965349396316   -0.005962368958287425
-0.21250973452371008   -0.04359101938638977   0.004711502878013987
-0.21250973452371008   -0.04359101938638977   0.004711502878013987
-0.21250973452371008   -0.04359101938638977   0.004711502878013987
-0.21250973452371008   -0.04359101938638977   0.004711502878013987
-0.20521768949514202   -0.029805233222881415   -0.0056512724819390864
-0.20521768949514202   -0.029805233222881415   -0.0056512724819390864
-0.20521768949514202   -0.029805233222881415   -0.0056512724819390864
-0.20521768949514202   -0.029805233222881415   -0.0056512724819390864
-0.2130292967537238   -0.029752809171710477   -0.011724518486734137
-0.2130292967537238   -0.029752809171710477   -0.011724518486734137
-0.2130292967537238   -0.029752809171710477   -0.011724518486734137
-0.2130292967537238   -0.029752809171710477   -0.011724518486734137
-0.20846204333831733   -0.04295655396181914   0.003836138815466748
-0.20846204333831733   -0.04295655396181914   0.003836138815466748
-0.20846204333831733   -0.04295655396181914   0.003836138815466748
-0.20846204333831733   -0.04295655396181914   0.003836138815466748
-0.21049930067668124   -0.039090931129460674   -0.0027700874698524634
-0.21049930067668124   -0.039090931129460674   -0.0027700874698524634
-0.21049930067668124   -0.039090931129460674   -0.0027700874698524634
-0.21049930067668124   -0.039090931129460674   -0.0027700874698524634
-0.2183337480359204   -0.05628748232577927   0.00941768837382506
-0.2183337480359204   -0.05628748232577927   0.00941768837382506
-0.2183337480359204   -0.05628748232577927   0.00941768837382506
-0.2183337480359204   -0.05628748232577927   0.00941768837382506
-0.21167998197082435   -0.04034298337645521   -0.012038162123738122
-0.21167998197082435   -0.04034298337645521   -0.012038162123738122
-0.21167998197082435   -0.04034298337645521   -0.012038162123738122
-0.21167998197082435   -0.04034298337645521   -0.012038162123738122
-0.19660883719970318   0.00536015460103384   -0.003351793635596293
-0.19660883719970318   0.00536015460103384   -0.003351793635596293
-0.19660883719970318   0.00536015460103384   -0.003351793635596293
-0.19660883719970318   0.00536015460103384   -0.003351793635596293
-0.22386590205703652   -0.04251862398584177   -0.010767645929067602
-0.22386590205703652   -0.04251862398584177   -0.010767645929067602
-0.22386590205703652   -0.04251862398584177   -0.010767645929067602
-0.22386590205703652   -0.04251862398584177   -0.010767645929067602
-0.21483560081809647   -0.00787979160493632   0.002753479761768372
-0.21483560081809647   -0.00787979160493632   0.002753479761768372
-0.21483560081809647   -0.00787979160493632   0.002753479761768372
-0.21483560081809647   -0.00787979160493632   0.002753479761768372
-0.20908903630447082   -0.045669011450015055   -0.006598274593533467
-0.20908903630447082   -0.045669011450015055   -0.006598274593533467
-0.20908903630447082   -0.045669011450015055   -0.006598274593533467
-0.20908903630447082   -0.045669011450015055   -0.006598274593533467
-0.21095135363995698   -0.0233992128218683   -0.004713629053477425
-0.21095135363995698   -0.0233992128218683   -0.004713629053477425
-0.21095135363995698   -0.0233992128218683   -0.004713629053477425
-0.21095135363995698   -0.0233992128218683   -0.004713629053477425
-0.19972550395305777   -0.005415327534648753   -3.429675183249693e-05
-0.19972550395305777   -0.005415327534648753   -3.429675183249693e-05
-0.19972550395305777   -0.005415327534648753   -3.429675183249693e-05
-0.19972550395305777   -0.005415327534648753   -3.429675183249693e-05
-0.2253806022437259   -0.04931494459451933   -0.008536374376799737
-0.2253806022437259   -0.04931494459451933   -0.008536374376799737
-0.2253806022437259   -0.04931494459451933   -0.008536374376799737
-0.2253806022437259   -0.04931494459451933   -0.008536374376799737
-0.21739679789332647   -0.0187414418214672   0.0059568801149976055
-0.21739679789332647   -0.0187414418214672   0.0059568801149976055
-0.21739679789332647   -0.0187414418214672   0.0059568801149976055
-0.21739679789332647   -0.0187414418214672   0.0059568801149976055
-0.2123870098113869   -0.05422114431406197   -0.0045241031976362076
-0.2123870098113869   -0.05422114431406197   -0.0045241031976362076
-0.2123870098113869   -0.05422114431406197   -0.0045241031976362076
-0.2123870098113869   -0.05422114431406197   -0.0045241031976362076
-0.21366073692568147   -0.03166403336830208   -0.009035114153499411
-0.21366073692568147   -0.03166403336830208   -0.009035114153499411
-0.21366073692568147   -0.03166403336830208   -0.009035114153499411
-0.21366073692568147   -0.03166403336830208   -0.009035114153499411
-0.20329370572517022   -0.01647328735579584   0.0031945602751828044
-0.20329370572517022   -0.01647328735579584   0.0031945602751828044
-0.20329370572517022   -0.01647328735579584   0.0031945602751828044
-0.20329370572517022   -0.01647328735579584   0.0031945602751828044
-0.2278100263822812   -0.05780922318246917   -0.007041480968777894
-0.2278100263822812   -0.05780922318246917   -0.007041480968777894
-0.2278100263822812   -0.05780922318246917   -0.007041480968777894
-0.2278100263822812   -0.05780922318246917   -0.007041480968777894
-0.21950019832989026   -0.02894183864722564   0.009094750497275143
-0.21950019832989026   -0.02894183864722564   0.009094750497275143
-0.21950019832989026   -0.02894183864722564   0.009094750497275143
-0.21950019832989026   -0.02894183864722564   0.009094750497275143
-0.2148743200703412   -0.06240092485753408   -0.0013351907100809897
-0.2148743200703412   -0.06240092485753408   -0.0013351907100809897
-0.2148743200703412   -0.06240092485753408   -0.0013351907100809897
-0.2148743200703412   -0.06240092485753408   -0.0013351907100809897
-0.21687590395701736   -0.04030292032924995   -0.013781788876887012
-0.21687590395701736   -0.04030292032924995   -0.013781788876887012
-0.21687590395701736   -0.04030292032924995   -0.013781788876887012
-0.21687590395701736   -0.04030292032924995   -0.013781788876887012
-0.20669542569933483   0.02217386563924277   0.010392246234356417
-0.20669542569933483   0.02217386563924277   0.010392246234356417
-0.20669542569933483   0.02217386563924277   0.010392246234356417
-0.20669542569933483   0.02217386563924277   0.010392246234356417
-0.24554410445264446   -0.0318875706678657   -0.015060636433756994
-0.24554410445264446   -0.0318875706678657   -0.015060636433756994
-0.24554410445264446   -0.0318875706678657   -0.015060636433756994
-0.24554410445264446   -0.0318875706678657   -0.015060636433756994
-0.23247206852584948   0.006431478917112522   0.014338030845688748
-0.23247206852584948   0.006431478917112522   0.014338030845688748
-0.23247206852584948   0.006431478917112522   0.014338030845688748
-0.23247206852584948   0.006431478917112522   0.014338030845688748
-0.22268149334124115   -0.035273945891792655   -0.009081828567098799
-0.22268149334124115   -0.035273945891792655   -0.009081828567098799
-0.22268149334124115   -0.035273945891792655   -0.009081828567098799
-0.22268149334124115   -0.035273945891792655   -0.009081828567098799
-0.22680829773716646   -0.009406338887637714   -0.0028135697961401
-0.22680829773716646   -0.009406338887637714   -0.0028135697961401
-0.22680829773716646   -0.009406338887637714   -0.0028135697961401
-0.22680829773716646   -0.009406338887637714   -0.0028135697961401
-0.20888848313520847   0.011002037616964465   0.013607238954307444
-0.20888848313520847   0.011002037616964465   0.013607238954307444
-0.20888848313520847   0.011002037616964465   0.013607238954307444
-0.20888848313520847   0.011002037616964465   0.013607238954307444
-0.2478370025763004   -0.04141642843606283   -0.01463873205339039
-0.2478370025763004   -0.04141642843606283   -0.01463873205339039
-0.2478370025763004   -0.04141642843606283   -0.01463873205339039
-0.2478370025763004   -0.04141642843606283   -0.01463873205339039
-0.23684416354991644   -0.004189037809332795   0.01626659055204609
-0.23684416354991644   -0.004189037809332795   0.01626659055204609
-0.23684416354991644   -0.004189037809332795   0.01626659055204609
-0.23684416354991644   -0.004189037809332795   0.01626659055204609
-0.22492321819610694   -0.04319562881000297   -0.0072210344103727135
-0.22492321819610694   -0.04319562881000297   -0.0072210344103727135
-0.22492321819610694   -0.04319562881000297   -0.0072210344103727135
-0.22492321819610694   -0.04319562881000297   -0.0072210344103727135
-0.22905065502952277   -0.018373732903590158   -0.007884982977754603
-0.22905065502952277   -0.018373732903590158   -0.007884982977754603
-0.22905065502952277   -0.018373732903590158   -0.007884982977754603
-0.22905065502952277   -0.018373732903590158   -0.007884982977754603
-0.21129164097921968   0.00101366097267519   0.01672756189138924
-0.21129164097921968   0.00101366097267519   0.01672756189138924
-0.21129164097921968   0.00101366097267519   0.01672756189138924
-0.21129164097921968   0.00101366097267519   0.01672756189138924
-0.25183724946278857   -0.049759836287995206   -0.013128040533652238
-0.25183724946278857   -0.049759836287995206   -0.013128040533652238
-0.25183724946278857   -0.049759836287995206   -0.013128040533652238
-0.25183724946278857   -0.049759836287995206   -0.013128040533652238
-0.23976141683980978   -0.014389827713942566   0.019846051255281945
-0.23976141683980978   -0.014389827713942566   0.019846051255281945
-0.23976141683980978   -0.014389827713942566   0.019846051255281945
-0.23976141683980978   -0.014389827713942566   0.019846051255281945
-0.22686682747955494   -0.05115769778877932   -0.005522536109494633
-0.22686682747955494   -0.05115769778877932   -0.005522536109494633
-0.22686682747955494   -0.05115769778877932   -0.005522536109494633
-0.22686682747955494   -0.05115769778877932   -0.005522536109494633
-0.23293137545016304   -0.02684574460747339   -0.012806245055430435
-0.23293137545016304   -0.02684574460747339   -0.012806245055430435
-0.23293137545016304   -0.02684574460747339   -0.012806245055430435
-0.23293137545016304   -0.02684574460747339   -0.012806245055430435
-0.22563216916622694   0.03182646199689834   0.02078500733357042
-0.22563216916622694   0.03182646199689834   0.02078500733357042
-0.22563216916622694   0.03182646199689834   0.02078500733357042
-0.22563216916622694   0.03182646199689834   0.02078500733357042
-0.2426538253185635   -0.01939663477514999   -0.021776513838938118
-0.2426538253185635   -0.01939663477514999   -0.021776513838938118
-0.2426538253185635   -0.01939663477514999   -0.021776513838938118
-0.2426538253185635   -0.01939663477514999   -0.021776513838938118
-0.23738317368650244   0.02237386180397452   0.02310726654156702
-0.23738317368650244   0.02237386180397452   0.02310726654156702
-0.23738317368650244   0.02237386180397452   0.02310726654156702
-0.23738317368650244   0.02237386180397452   0.02310726654156702
-0.24419037804327293   -0.02450805067166859   -0.013313987152643366
-0.24419037804327293   -0.02450805067166859   -0.013313987152643366
-0.24419037804327293   -0.02450805067166859   -0.013313987152643366
-0.24419037804327293   -0.02450805067166859   -0.013313987152643366
-0.2293407411658513   0.005600219675112927   0.001009034525346805
-0.2293407411658513   0.005600219675112927   0.001009034525346805
-0.2293407411658513   0.005600219675112927   0.001009034525346805
-0.2293407411658513   0.005600219675112927   0.001009034525346805
-0.2268893355157735   0.02465650924370006   0.024026665569481145
-0.2268893355157735   0.02465650924370006   0.024026665569481145
-0.2268893355157735   0.02465650924370006   0.024026665569481145
-0.2268893355157735   0.02465650924370006   0.024026665569481145
-0.25597212596817254   -0.028078607865566724   -0.019385025197234455
-0.25597212596817254   -0.028078607865566724   -0.019385025197234455
-0.25597212596817254   -0.028078607865566724   -0.019385025197234455
-0.25597212596817254   -0.028078607865566724   -0.019385025197234455
-0.24783365939178945   0.016402106079112244   0.029731020045951958
-0.24783365939178945   0.016402106079112244   0.029731020045951958
-0.24783365939178945   0.016402106079112244   0.029731020045951958
-0.24783365939178945   0.016402106079112244   0.029731020045951958
-0.24752149955476047   -0.029180651266367333   -0.012128476015143403
-0.24752149955476047   -0.029180651266367333   -0.012128476015143403
-0.24752149955476047   -0.029180651266367333   -0.012128476015143403
-0.24752149955476047   -0.029180651266367333   -0.012128476015143403
-0.24061475220614753   -0.0016247600814452423   -0.005009001191528386
-0.24061475220614753   -0.0016247600814452423   -0.005009001191528386
-0.24061475220614753   -0.0016247600814452423   -0.005009001191528386
-0.24061475220614753   -0.0016247600814452423   -0.005009001191528386
-0.22953882285542263   0.01986310051685912   0.028741155698319514
-0.22953882285542263   0.01986310051685912   0.028741155698319514
-0.22953882285542263   0.01986310051685912   0.028741155698319514
-0.22953882285542263   0.01986310051685912   0.028741155698319514
-0.2674857195013604   -0.03431102911434602   -0.01781614530843691
-0.2674857195013604   -0.03431102911434602   -0.01781614530843691
-0.2674857195013604   -0.03431102911434602   -0.01781614530843691
-0.2674857195013604   -0.03431102911434602   -0.01781614530843691
-0.2661418750191118   0.0011424023909093403   0.031757087387274764
-0.2661418750191118   0.0011424023909093403   0.031757087387274764
-0.2661418750191118   0.0011424023909093403   0.031757087387274764
-0.2661418750191118   0.0011424023909093403   0.031757087387274764
-0.2505713631787777   -0.0380588434452108   -0.01053466470829318
-0.2505713631787777   -0.0380588434452108   -0.01053466470829318
-0.2505713631787777   -0.0380588434452108   -0.01053466470829318
-0.2505713631787777   -0.0380588434452108   -0.01053466470829318
-0.24595262305064855   -0.008292482635290588   -0.010415010009614133
-0.24595262305064855   -0.008292482635290588   -0.010415010009614133
-0.24595262305064855   -0.008292482635290588   -0.010415010009614133
-0.24595262305064855   -0.008292482635290588   -0.010415010009614133
-0.4763752624664936   -0.0436186301605183   -0.04544905940695709
-0.4763752624664936   -0.0436186301605183   -0.04544905940695709
-0.4763752624664936   -0.0436186301605183   -0.04544905940695709
-0.4763752624664936   -0.0436186301605183   -0.04544905940695709
-0.3032781300418505   0.025480844859441784   0.010680221952439558
-0.3032781300418505   0.025480844859441784   0.010680221952439558
-0.3032781300418505   0.025480844859441784   0.010680221952439558
-0.3032781300418505   0.025480844859441784   0.010680221952439558
-0.3185830792575555   -0.02040962553979616   -0.020376215025336077
-0.3185830792575555   -0.02040962553979616   -0.020376215025336077
-0.3185830792575555   -0.02040962553979616   -0.020376215025336077
-0.3185830792575555   -0.02040962553979616   -0.020376215025336077
-0.507022119892957   -0.05768901917332562   0.05069114170507858
-0.507022119892957   -0.05768901917332562   0.05069114170507858
-0.507022119892957   -0.05768901917332562   0.05069114170507858
-0.507022119892957   -0.05768901917332562   0.05069114170507858
-0.36880062981342177   -0.014230489198170396   0.04928611411881939
-0.36880062981342177   -0.014230489198170396   0.04928611411881939
-0.36880062981342177   -0.014230489198170396   0.04928611411881939
-0.36880062981342177   -0.014230489198170396   0.04928611411881939
-0.5251615432729884   -0.06432422850957964   -0.03337076585882061
-0.5251615432729884   -0.06432422850957964   -0.03337076585882061
-0.5251615432729884   -0.06432422850957964   -0.03337076585882061
-0.5251615432729884   -0.06432422850957964   -0.03337076585882061
-0.31321656939194303   -0.02654732971796043   0.012594038480890487
-0.31321656939194303   -0.02654732971796043   0.012594038480890487
-0.31321656939194303   -0.02654732971796043   0.012594038480890487
-0.31321656939194303   -0.02654732971796043   0.012594038480890487
-0.32366274660499483   -0.029498582778015807   -0.014700612216568062
-0.32366274660499483   -0.029498582778015807   -0.014700612216568062
-0.32366274660499483   -0.029498582778015807   -0.014700612216568062
-0.32366274660499483   -0.029498582778015807   -0.014700612216568062
-0.5234355887819323   -0.08053294820361417   0.001101557623078308
-0.5234355887819323   -0.08053294820361417   0.001101557623078308
-0.5234355887819323   -0.08053294820361417   0.001101557623078308
-0.5234355887819323   -0.08053294820361417   0.001101557623078308
-0.4087118223234289   -0.048587904258661434   0.011441148278766996
-0.4087118223234289   -0.048587904258661434   0.011441148278766996
-0.4087118223234289   -0.048587904258661434   0.011441148278766996
-0.4087118223234289   -0.048587904258661434   0.011441148278766996
-0.5274828908888112   -0.0727133911787089   -0.02695450993621712
-0.5274828908888112   -0.0727133911787089   -0.02695450993621712
-0.5274828908888112   -0.0727133911787089   -0.02695450993621712
-0.5274828908888112   -0.0727133911787089   -0.02695450993621712
-0.32346584437967796   -0.041168539684482836   -0.002046144183519289
-0.32346584437967796   -0.041168539684482836   -0.002046144183519289
-0.32346584437967796   -0.041168539684482836   -0.002046144183519289
-0.32346584437967796   -0.041168539684482836   -0.002046144183519289
-0.324056773373345   -0.05141940079706807   -0.010753300387917514
-0.324056773373345   -0.05141940079706807   -0.010753300387917514
-0.324056773373345   -0.05141940079706807   -0.010753300387917514
-0.324056773373345   -0.05141940079706807   -0.010753300387917514
-0.5362995433719299   -0.12286124561230272   0.00784513577488577
-0.5362995433719299   -0.12286124561230272   0.00784513577488577
-0.5362995433719299   -0.12286124561230272   0.00784513577488577
-0.5362995433719299   -0.12286124561230272   0.00784513577488577
-0.4084868809828367   -0.06674538778476335   0.0009239200548540475
-0.4084868809828367   -0.06674538778476335   0.0009239200548540475
-0.4084868809828367   -0.06674538778476335   0.0009239200548540475
-0.4084868809828367   -0.06674538778476335   0.0009239200548540475
-0.3274655209847177   -0.05558759136636922   -0.02918829653608305
-0.3274655209847177   -0.05558759136636922   -0.02918829653608305
-0.3274655209847177   -0.05558759136636922   -0.02918829653608305
-0.3274655209847177   -0.05558759136636922   -0.02918829653608305
-0.22587093282256437   -0.14698414778770796   -0.027508809811643914
-0.22587093282256437   -0.14698414778770796   -0.027508809811643914
-0.22587093282256437   -0.14698414778770796   -0.027508809811643914
-0.22587093282256437   -0.14698414778770796   -0.027508809811643914
-0.1983380069209181   -0.032545680210264376   -0.001823402468872783
-0.1983380069209181   -0.032545680210264376   -0.001823402468872783
-0.1983380069209181   -0.032545680210264376   -0.001823402468872783
-0.1983380069209181   -0.032545680210264376   -0.001823402468872783
-0.3484675637041628   -0.15562869087188136   -0.034579571926287536
-0.3484675637041628   -0.15562869087188136   -0.034579571926287536
-0.3484675637041628   -0.15562869087188136   -0.034579571926287536
-0.3484675637041628   -0.15562869087188136   -0.034579571926287536
-0.27186601687333245   -0.10362042027121585   -0.007951275681227133
-0.27186601687333245   -0.10362042027121585   -0.007951275681227133
-0.27186601687333245   -0.10362042027121585   -0.007951275681227133
-0.27186601687333245   -0.10362042027121585   -0.007951275681227133
-0.32730149701399724   -0.06237440300381117   -0.02200352634352761
-0.32730149701399724   -0.06237440300381117   -0.02200352634352761
-0.32730149701399724   -0.06237440300381117   -0.02200352634352761
-0.32730149701399724   -0.06237440300381117   -0.02200352634352761
-0.22082625774910924   -0.12712215221636008   -0.01968818460373476
-0.22082625774910924   -0.12712215221636008   -0.01968818460373476
-0.22082625774910924   -0.12712215221636008   -0.01968818460373476
-0.22082625774910924   -0.12712215221636008   -0.01968818460373476
-0.20074957974982402   -0.04213725694970584   0.00022016028754759344
-0.20074957974982402   -0.04213725694970584   0.00022016028754759344
-0.20074957974982402   -0.04213725694970584   0.00022016028754759344
-0.20074957974982402   -0.04213725694970584   0.00022016028754759344
-0.34986180230540365   -0.1548074427820173   -0.020387030714613
-0.34986180230540365   -0.1548074427820173   -0.020387030714613
-0.34986180230540365   -0.1548074427820173   -0.020387030714613
-0.34986180230540365   -0.1548074427820173   -0.020387030714613
-0.2689527041766361   -0.09712538788823742   -0.008449538113738143
-0.2689527041766361   -0.09712538788823742   -0.008449538113738143
-0.2689527041766361   -0.09712538788823742   -0.008449538113738143
-0.2689527041766361   -0.09712538788823742   -0.008449538113738143
-0.3324947413987216   -0.07183512927469866   -0.016524039688518954
-0.3324947413987216   -0.07183512927469866   -0.016524039688518954
-0.3324947413987216   -0.07183512927469866   -0.016524039688518954
-0.3324947413987216   -0.07183512927469866   -0.016524039688518954
-0.2208700994856092   -0.12786302928612756   -0.014656666054958634
-0.2208700994856092   -0.12786302928612756   -0.014656666054958634
-0.2208700994856092   -0.12786302928612756   -0.014656666054958634
-0.2208700994856092   -0.12786302928612756   -0.014656666054958634
-0.20084930234838985   -0.054045970106119744   0.003140803784592151
-0.20084930234838985   -0.054045970106119744   0.003140803784592151
-0.20084930234838985   -0.054045970106119744   0.003140803784592151
-0.20084930234838985   -0.054045970106119744   0.003140803784592151
-0.34915256677375556   -0.15725157288466926   -0.030400095302372095
-0.34915256677375556   -0.15725157288466926   -0.030400095302372095
-0.34915256677375556   -0.15725157288466926   -0.030400095302372095
-0.34915256677375556   -0.15725157288466926   -0.030400095302372095
-0.2731803471393466   -0.10443599040235231   -0.01571341310148872
-0.2731803471393466   -0.10443599040235231   -0.01571341310148872
-0.2731803471393466   -0.10443599040235231   -0.01571341310148872
-0.2731803471393466   -0.10443599040235231   -0.01571341310148872
-0.19864665128945364   -0.03582962886105944   -0.0025419210727388544
-0.19864665128945364   -0.03582962886105944   -0.0025419210727388544
-0.19864665128945364   -0.03582962886105944   -0.0025419210727388544
-0.19864665128945364   -0.03582962886105944   -0.0025419210727388544
-0.1674925017873038   -0.11264006855035884   -0.019442559091148774
-0.1674925017873038   -0.11264006855035884   -0.019442559091148774
-0.1674925017873038   -0.11264006855035884   -0.019442559091148774
-0.1674925017873038   -0.11264006855035884   -0.019442559091148774
-0.14438315490985099   -0.02987672353424671   0.007657283590688423
-0.14438315490985099   -0.02987672353424671   0.007657283590688423
-0.14438315490985099   -0.02987672353424671   0.007657283590688423
-0.14438315490985099   -0.02987672353424671   0.007657283590688423
-0.22019516121588442   -0.12223169018433691   -0.021423163969633837
-0.22019516121588442   -0.12223169018433691   -0.021423163969633837
-0.22019516121588442   -0.12223169018433691   -0.021423163969633837
-0.22019516121588442   -0.12223169018433691   -0.021423163969633837
-0.18188621803546312   -0.07616426548525199   -0.008954445732580587
-0.18188621803546312   -0.07616426548525199   -0.008954445732580587
-0.18188621803546312   -0.07616426548525199   -0.008954445732580587
-0.18188621803546312   -0.07616426548525199   -0.008954445732580587
-0.1998863286620338   -0.04244246106647041   0.0003317696817527196
-0.1998863286620338   -0.04244246106647041   0.0003317696817527196
-0.1998863286620338   -0.04244246106647041   0.0003317696817527196
-0.1998863286620338   -0.04244246106647041   0.0003317696817527196
-0.16587019900058306   -0.11084416418899465   -0.018810496208223917
-0.16587019900058306   -0.11084416418899465   -0.018810496208223917
-0.16587019900058306   -0.11084416418899465   -0.018810496208223917
-0.16587019900058306   -0.11084416418899465   -0.018810496208223917
-0.14457220014814343   -0.037766357030876975   0.009935023555045289
-0.14457220014814343   -0.037766357030876975   0.009935023555045289
-0.14457220014814343   -0.037766357030876975   0.009935023555045289
-0.14457220014814343   -0.037766357030876975   0.009935023555045289
-0.2210269220574114   -0.12416660098164485   -0.019137207218452187
-0.2210269220574114   -0.12416660098164485   -0.019137207218452187
-0.2210269220574114   -0.12416660098164485   -0.019137207218452187
-0.2210269220574114   -0.12416660098164485   -0.019137207218452187
-0.18167908135175237   -0.07911280074007275   -0.011623506213189255
-0.18167908135175237   -0.07911280074007275   -0.011623506213189255
-0.18167908135175237   -0.07911280074007275   -0.011623506213189255
-0.18167908135175237   -0.07911280074007275   -0.011623506213189255
-0.20171769586286978   -0.05044499694192425   0.003687319714535279
-0.20171769586286978   -0.05044499694192425   0.003687319714535279
-0.20171769586286978   -0.05044499694192425   0.003687319714535279
-0.20171769586286978   -0.05044499694192425   0.003687319714535279
-0.16453150303649877   -0.11213803776441131   -0.015489810153197153
-0.16453150303649877   -0.11213803776441131   -0.015489810153197153
-0.16453150303649877   -0.11213803776441131   -0.015489810153197153
-0.16453150303649877   -0.11213803776441131   -0.015489810153197153
-0.14302588360962354   -0.045279959353046725   0.012421200351638125
-0.14302588360962354   -0.045279959353046725   0.012421200351638125
-0.14302588360962354   -0.045279959353046725   0.012421200351638125
-0.14302588360962354   -0.045279959353046725   0.012421200351638125
-0.21856092970230334   -0.1257008973750192   -0.013762405716075829
-0.21856092970230334   -0.1257008973750192   -0.013762405716075829
-0.21856092970230334   -0.1257008973750192   -0.013762405716075829
-0.21856092970230334   -0.1257008973750192   -0.013762405716075829
-0.18128932689247618   -0.08302118030544693   -0.013497369283273615
-0.18128932689247618   -0.08302118030544693   -0.013497369283273615
-0.18128932689247618   -0.08302118030544693   -0.013497369283273615
-0.18128932689247618   -0.08302118030544693   -0.013497369283273615
-0.13932257451307956   -0.004898113039398841   0.01366512176901238
-0.13932257451307956   -0.004898113039398841   0.01366512176901238
-0.13932257451307956   -0.004898113039398841   0.01366512176901238
-0.13932257451307956   -0.004898113039398841   0.01366512176901238
-0.13260586290937118   -0.05980219277539968   -0.01171883979191696
-0.13260586290937118   -0.05980219277539968   -0.01171883979191696
-0.13260586290937118   -0.05980219277539968   -0.01171883979191696
-0.13260586290937118   -0.05980219277539968   -0.01171883979191696
-0.11447449611922081   -0.008656271729863201   0.01579954502052814
-0.11447449611922081   -0.008656271729863201   0.01579954502052814
-0.11447449611922081   -0.008656271729863201   0.01579954502052814
-0.11447449611922081   -0.008656271729863201   0.01579954502052814
-0.15537040860256926   -0.06888798471918284   -0.008267723687966761
-0.15537040860256926   -0.06888798471918284   -0.008267723687966761
-0.15537040860256926   -0.06888798471918284   -0.008267723687966761
-0.15537040860256926   -0.06888798471918284   -0.008267723687966761
-0.1358884151613396   -0.035218283084036364   -0.004866398834175865
-0.1358884151613396   -0.035218283084036364   -0.004866398834175865
-0.1358884151613396   -0.035218283084036364   -0.004866398834175865
-0.1358884151613396   -0.035218283084036364   -0.004866398834175865
-0.1395210039455091   -0.01367268276966353   0.01576399764781479
-0.1395210039455091   -0.01367268276966353   0.01576399764781479
-0.1395210039455091   -0.01367268276966353   0.01576399764781479
-0.1395210039455091   -0.01367268276966353   0.01576399764781479
-0.13158658864930176   -0.0651342615524033   -0.013282927807336607
-0.13158658864930176   -0.0651342615524033   -0.013282927807336607
-0.13158658864930176   -0.0651342615524033   -0.013282927807336607
-0.13158658864930176   -0.0651342615524033   -0.013282927807336607
-0.1147713908770334   -0.016322417988936053   0.016993192375888363
-0.1147713908770334   -0.016322417988936053   0.016993192375888363
-0.1147713908770334   -0.016322417988936053   0.016993192375888363
-0.1147713908770334   -0.016322417988936053   0.016993192375888363
-0.15546111792509243   -0.0730967293377115   -0.009179193022869236
-0.15546111792509243   -0.0730967293377115   -0.009179193022869236
-0.15546111792509243   -0.0730967293377115   -0.009179193022869236
-0.15546111792509243   -0.0730967293377115   -0.009179193022869236
-0.13541534505173797   -0.041361506677277254   -0.008273267702341235
-0.13541534505173797   -0.041361506677277254   -0.008273267702341235
-0.13541534505173797   -0.041361506677277254   -0.008273267702341235
-0.13541534505173797   -0.041361506677277254   -0.008273267702341235
-0.13964115087678805   -0.021108521573230978   0.017932434454168377
-0.13964115087678805   -0.021108521573230978   0.017932434454168377
-0.13964115087678805   -0.021108521573230978   0.017932434454168377
-0.13964115087678805   -0.021108521573230978   0.017932434454168377
-0.13135666340131097   -0.06907593122939036   -0.013179657005045076
-0.13135666340131097   -0.06907593122939036   -0.013179657005045076
-0.13135666340131097   -0.06907593122939036   -0.013179657005045076
-0.13135666340131097   -0.06907593122939036   -0.013179657005045076
-0.11393260986975359   -0.023526433454591496   0.0196995679516355
-0.11393260986975359   -0.023526433454591496   0.0196995679516355
-0.11393260986975359   -0.023526433454591496   0.0196995679516355
-0.11393260986975359   -0.023526433454591496   0.0196995679516355
-0.15316231639188194   -0.0772937980344241   -0.006247124878276493
-0.15316231639188194   -0.0772937980344241   -0.006247124878276493
-0.15316231639188194   -0.0772937980344241   -0.006247124878276493
-0.15316231639188194   -0.0772937980344241   -0.006247124878276493
-0.13515877064501897   -0.046670813112864765   -0.010661363964868158
-0.13515877064501897   -0.046670813112864765   -0.010661363964868158
-0.13515877064501897   -0.046670813112864765   -0.010661363964868158
-0.13515877064501897   -0.046670813112864765   -0.010661363964868158
-0.11091430387137116   0.015578270672177347   0.02135849195050618
-0.11091430387137116   0.015578270672177347   0.02135849195050618
-0.11091430387137116   0.015578270672177347   0.02135849195050618
-0.11091430387137116   0.015578270672177347   0.02135849195050618
-0.07488394958530616   -0.019797850632226627   -0.007266028925691876
-0.07488394958530616   -0.019797850632226627   -0.007266028925691876
-0.07488394958530616   -0.019797850632226627   -0.007266028925691876
-0.07488394958530616   -0.019797850632226627   -0.007266028925691876
-0.06569150184444188   0.018076643292509936   0.021110606469418196
-0.06569150184444188   0.018076643292509936   0.021110606469418196
-0.06569150184444188   0.018076643292509936   0.021110606469418196
-0.06569150184444188   0.018076643292509936   0.021110606469418196
-0.12266245763295122   -0.030022345080361713   -0.0037741891976254723
-0.12266245763295122   -0.030022345080361713   -0.0037741891976254723
-0.12266245763295122   -0.030022345080361713   -0.0037741891976254723
-0.12266245763295122   -0.030022345080361713   -0.0037741891976254723
-0.09220529662133856   -0.001959906351350911   -0.003790011429178293
-0.09220529662133856   -0.001959906351350911   -0.003790011429178293
-0.09220529662133856   -0.001959906351350911   -0.003790011429178293
-0.09220529662133856   -0.001959906351350911   -0.003790011429178293
-0.1092799518313384   0.009800025789385321   0.02331596894069164
-0.1092799518313384   0.009800025789385321   0.02331596894069164
-0.1092799518313384   0.009800025789385321   0.02331596894069164
-0.1092799518313384   0.009800025789385321   0.02331596894069164
-0.07921340985149448   -0.02188512978267497   -0.006537160490652316
-0.07921340985149448   -0.02188512978267497   -0.006537160490652316
-0.07921340985149448   -0.02188512978267497   -0.006537160490652316
-0.07921340985149448   -0.02188512978267497   -0.006537160490652316
-0.06870478526996193   0.014317937184088818   0.02654775195233878
-0.06870478526996193   0.014317937184088818   0.02654775195233878
-0.06870478526996193   0.014317937184088818   0.02654775195233878
-0.06870478526996193   0.014317937184088818   0.02654775195233878
-0.12225934680690907   -0.031981981778373754   -0.004787023484052255
-0.12225934680690907   -0.031981981778373754   -0.004787023484052255
-0.12225934680690907   -0.031981981778373754   -0.004787023484052255
-0.12225934680690907   -0.031981981778373754   -0.004787023484052255
-0.09510945943878023   -0.006060424743851038   -0.005441871640955609
-0.09510945943878023   -0.006060424743851038   -0.005441871640955609
-0.09510945943878023   -0.006060424743851038   -0.005441871640955609
-0.09510945943878023   -0.006060424743851038   -0.005441871640955609
-0.10824485070932709   0.006467557292370675   0.026835917933113237
-0.10824485070932709   0.006467557292370675   0.026835917933113237
-0.10824485070932709   0.006467557292370675   0.026835917933113237
-0.10824485070932709   0.006467557292370675   0.026835917933113237
-0.0836789347513658   -0.025091255270476235   -0.008913803000107927
-0.0836789347513658   -0.025091255270476235   -0.008913803000107927
-0.0836789347513658   -0.025091255270476235   -0.008913803000107927
-0.0836789347513658   -0.025091255270476235   -0.008913803000107927
-0.07855365616906003   0.0039772140985102535   0.02762791600059442
-0.07855365616906003   0.0039772140985102535   0.02762791600059442
-0.07855365616906003   0.0039772140985102535   0.02762791600059442
-0.07855365616906003   0.0039772140985102535   0.02762791600059442
-0.12072477760654834   -0.03379134215559597   -0.003996362031333772
-0.12072477760654834   -0.03379134215559597   -0.003996362031333772
-0.12072477760654834   -0.03379134215559597   -0.003996362031333772
-0.12072477760654834   -0.03379134215559597   -0.003996362031333772
-0.09656826605843577   -0.009057149275656172   -0.0080603539621241
-0.09656826605843577   -0.009057149275656172   -0.0080603539621241
-0.09656826605843577   -0.009057149275656172   -0.0080603539621241
-0.09656826605843577   -0.009057149275656172   -0.0080603539621241
-1.1304373274600559   -0.16101860230148152   -0.09465781643397178
-1.1304373274600559   -0.16101860230148152   -0.09465781643397178
-1.1304373274600559   -0.16101860230148152   -0.09465781643397178
-1.1304373274600559   -0.16101860230148152   -0.09465781643397178
-0.39345595949662093   -0.6280923668063673   -0.07391554119626646
-0.39345595949662093   -0.6280923668063673   -0.07391554119626646
-0.39345595949662093   -0.6280923668063673   -0.07391554119626646
-0.39345595949662093   -0.6280923668063673   -0.07391554119626646
-0.30281207442691915   -0.02692686000044401   0.00029189210344871507
-0.30281207442691915   -0.02692686000044401   0.00029189210344871507
-0.30281207442691915   -0.02692686000044401   0.00029189210344871507
-0.30281207442691915   -0.02692686000044401   0.00029189210344871507
-1.2094607949672262   -0.7363455281420148   -0.3891612646218482
-1.2094607949672262   -0.7363455281420148   -0.3891612646218482
-1.2094607949672262   -0.7363455281420148   -0.3891612646218482
-1.2094607949672262   -0.7363455281420148   -0.3891612646218482
-0.7400226251495049   -0.3660454761487887   -0.053373283718608326
-0.7400226251495049   -0.3660454761487887   -0.053373283718608326
-0.7400226251495049   -0.3660454761487887   -0.053373283718608326
-0.7400226251495049   -0.3660454761487887   -0.053373283718608326
-1.0505459178259362   -0.20226540709368443   -0.1286669999637363
-1.0505459178259362   -0.20226540709368443   -0.1286669999637363
-1.0505459178259362   -0.20226540709368443   -0.1286669999637363
-1.0505459178259362   -0.20226540709368443   -0.1286669999637363
-0.4252640883536743   -0.5245441178342403   -0.11435091969652784
-0.4252640883536743   -0.5245441178342403   -0.11435091969652784
-0.4252640883536743   -0.5245441178342403   -0.11435091969652784
-0.4252640883536743   -0.5245441178342403   -0.11435091969652784
-0.3092483292276388   -0.03560039304781583   0.011577073847780343
-0.3092483292276388   -0.03560039304781583   0.011577073847780343
-0.3092483292276388   -0.03560039304781583   0.011577073847780343
-0.3092483292276388   -0.03560039304781583   0.011577073847780343
-1.1319986089006624   -0.6579048645461092   -0.3579806946893543
-1.1319986089006624   -0.6579048645461092   -0.3579806946893543
-1.1319986089006624   -0.6579048645461092   -0.3579806946893543
-1.1319986089006624   -0.6579048645461092   -0.3579806946893543
-0.6971905427798042   -0.33042170004475113   0.027951041762300073
-0.6971905427798042   -0.33042170004475113   0.027951041762300073
-0.6971905427798042   -0.33042170004475113   0.027951041762300073
-0.6971905427798042   -0.33042170004475113   0.027951041762300073
-0.9865763435039955   -0.19261354760255894   -0.09616068464957833
-0.9865763435039955   -0.19261354760255894   -0.09616068464957833
-0.9865763435039955   -0.19261354760255894   -0.09616068464957833
-0.9865763435039955   -0.19261354760255894   -0.09616068464957833
-0.4141194305492089   -0.4603405459162704   -0.08803827989161399
-0.4141194305492089   -0.4603405459162704   -0.08803827989161399
-0.4141194305492089   -0.4603405459162704   -0.08803827989161399
-0.4141194305492089   -0.4603405459162704   -0.08803827989161399
-0.3561441226101789   -0.09215500728486983   -0.01877909334969683
-0.3561441226101789   -0.09215500728486983   -0.01877909334969683
-0.3561441226101789   -0.09215500728486983   -0.01877909334969683
-0.3561441226101789   -0.09215500728486983   -0.01877909334969683
-1.0318653580803692   -0.5543230869203013   -0.31723768900013405
-1.0318653580803692   -0.5543230869203013   -0.31723768900013405
-1.0318653580803692   -0.5543230869203013   -0.31723768900013405
-1.0318653580803692   -0.5543230869203013   -0.31723768900013405
-0.6460140662598954   -0.2867260335081965   0.11991756570876429
-0.6460140662598954   -0.2867260335081965   0.11991756570876429
-0.6460140662598954   -0.2867260335081965   0.11991756570876429
-0.6460140662598954   -0.2867260335081965   0.11991756570876429
-0.28952389773786674   -0.15890208220851046   -0.02344551700035409
-0.28952389773786674   -0.15890208220851046   -0.02344551700035409
-0.28952389773786674   -0.15890208220851046   -0.02344551700035409
-0.28952389773786674   -0.15890208220851046   -0.02344551700035409
-0.13490332678797567   -0.2013803111572406   -0.03338156670415283
-0.13490332678797567   -0.2013803111572406   -0.03338156670415283
-0.13490332678797567   -0.2013803111572406   -0.03338156670415283
-0.13490332678797567   -0.2013803111572406   -0.03338156670415283
-0.11834689878069751   -0.10209383144903812   0.0029740602644633372
-0.11834689878069751   -0.10209383144903812   0.0029740602644633372
-0.11834689878069751   -0.10209383144903812   0.0029740602644633372
-0.11834689878069751   -0.10209383144903812   0.0029740602644633372
-0.35585714540144925   -0.29256918146140354   0.000708858691760593
-0.35585714540144925   -0.29256918146140354   0.000708858691760593
-0.35585714540144925   -0.29256918146140354   0.000708858691760593
-0.35585714540144925   -0.29256918146140354   0.000708858691760593
-0.19067158619483834   -0.1416120014318322   0.06146013385349124
-0.19067158619483834   -0.1416120014318322   0.06146013385349124
-0.19067158619483834   -0.1416120014318322   0.06146013385349124
-0.19067158619483834   -0.1416120014318322   0.06146013385349124
-0.3301146580091666   -0.14805981042439273   -0.015088075383840605
-0.3301146580091666   -0.14805981042439273   -0.015088075383840605
-0.3301146580091666   -0.14805981042439273   -0.015088075383840605
-0.3301146580091666   -0.14805981042439273   -0.015088075383840605
-0.15424804205434836   -0.25676185836741744   -0.021863629185409718
-0.15424804205434836   -0.25676185836741744   -0.021863629185409718
-0.15424804205434836   -0.25676185836741744   -0.021863629185409718
-0.15424804205434836   -0.25676185836741744   -0.021863629185409718
-0.12812832923191664   -0.10575851637062725   0.0031241282688503243
-0.12812832923191664   -0.10575851637062725   0.0031241282688503243
-0.12812832923191664   -0.10575851637062725   0.0031241282688503243
-0.12812832923191664   -0.10575851637062725   0.0031241282688503243
-0.3736776565353971   -0.2892042883106675   -0.056965667428157764
-0.3736776565353971   -0.2892042883106675   -0.056965667428157764
-0.3736776565353971   -0.2892042883106675   -0.056965667428157764
-0.3736776565353971   -0.2892042883106675   -0.056965667428157764
-0.22794335789542497   -0.18131017303284622   0.027780564606707824
-0.22794335789542497   -0.18131017303284622   0.027780564606707824
-0.22794335789542497   -0.18131017303284622   0.027780564606707824
-0.22794335789542497   -0.18131017303284622   0.027780564606707824
-0.3410143347497855   -0.15460934374177074   -0.028244003068998318
-0.3410143347497855   -0.15460934374177074   -0.028244003068998318
-0.3410143347497855   -0.15460934374177074   -0.028244003068998318
-0.3410143347497855   -0.15460934374177074   -0.028244003068998318
-0.15985967611496799   -0.23942148603696375   -0.021869636480068032
-0.15985967611496799   -0.23942148603696375   -0.021869636480068032
-0.15985967611496799   -0.23942148603696375   -0.021869636480068032
-0.15985967611496799   -0.23942148603696375   -0.021869636480068032
-0.14330842972472685   -0.10908028298281212   0.0046122171578810225
-0.14330842972472685   -0.10908028298281212   0.0046122171578810225
-0.14330842972472685   -0.10908028298281212   0.0046122171578810225
-0.14330842972472685   -0.10908028298281212   0.0046122171578810225
-0.40009898183664844   -0.2812852631675547   -0.049423133599358585
-0.40009898183664844   -0.2812852631675547   -0.049423133599358585
-0.40009898183664844   -0.2812852631675547   -0.049423133599358585
-0.40009898183664844   -0.2812852631675547   -0.049423133599358585
-0.2389082012475721   -0.17095053202362226   0.02933707896273178
-0.2389082012475721   -0.17095053202362226   0.02933707896273178
-0.2389082012475721   -0.17095053202362226   0.02933707896273178
-0.2389082012475721   -0.17095053202362226   0.02933707896273178
-0.10555407081306824   -0.0949724917788777   0.006956893792021357
-0.10555407081306824   -0.0949724917788777   0.006956893792021357
-0.10555407081306824   -0.0949724917788777   0.006956893792021357
-0.10555407081306824   -0.0949724917788777   0.006956893792021357
-0.0653327270467926   -0.06432691786821897   -0.01637292164857123
-0.0653327270467926   -0.06432691786821897   -0.01637292164857123
-0.0653327270467926   -0.06432691786821897   -0.01637292164857123
-0.0653327270467926   -0.06432691786821897   -0.01637292164857123
-0.0630637596678725   -0.08513180882525696   0.006944841277757831
-0.0630637596678725   -0.08513180882525696   0.006944841277757831
-0.0630637596678725   -0.08513180882525696   0.006944841277757831
-0.0630637596678725   -0.08513180882525696   0.006944841277757831
-0.11740498286749146   -0.08733696327494564   -0.00707322834359694
-0.11740498286749146   -0.08733696327494564   -0.00707322834359694
-0.11740498286749146   -0.08733696327494564   -0.00707322834359694
-0.11740498286749146   -0.08733696327494564   -0.00707322834359694
-0.07408054456244512   -0.06988433656917259   0.030886869541371757
-0.07408054456244512   -0.06988433656917259   0.030886869541371757
-0.07408054456244512   -0.06988433656917259   0.030886869541371757
-0.07408054456244512   -0.06988433656917259   0.030886869541371757
-0.11613841831472346   -0.09562598548426571   0.007548616629561182
-0.11613841831472346   -0.09562598548426571   0.007548616629561182
-0.11613841831472346   -0.09562598548426571   0.007548616629561182
-0.11613841831472346   -0.09562598548426571   0.007548616629561182
-0.06540883987182165   -0.07792130226711773   -0.011991066300127133
-0.06540883987182165   -0.07792130226711773   -0.011991066300127133
-0.06540883987182165   -0.07792130226711773   -0.011991066300127133
-0.06540883987182165   -0.07792130226711773   -0.011991066300127133
-0.06395497071776132   -0.08768384667999637   0.006204612950140107
-0.06395497071776132   -0.08768384667999637   0.006204612950140107
-0.06395497071776132   -0.08768384667999637   0.006204612950140107
-0.06395497071776132   -0.08768384667999637   0.006204612950140107
-0.1249474643912145   -0.10173243493247079   0.015002371034206475
-0.1249474643912145   -0.10173243493247079   0.015002371034206475
-0.1249474643912145   -0.10173243493247079   0.015002371034206475
-0.1249474643912145   -0.10173243493247079   0.015002371034206475
-0.08086021653706299   -0.07793071185447518   0.02598033191726056
-0.08086021653706299   -0.07793071185447518   0.02598033191726056
-0.08086021653706299   -0.07793071185447518   0.02598033191726056
-0.08086021653706299   -0.07793071185447518   0.02598033191726056
-0.12540267274259126   -0.09917960900501696   0.010173503349867063
-0.12540267274259126   -0.09917960900501696   0.010173503349867063
-0.12540267274259126   -0.09917960900501696   0.010173503349867063
-0.12540267274259126   -0.09917960900501696   0.010173503349867063
-0.068976524146574   -0.09571343438763992   -0.010873566486279686
-0.068976524146574   -0.09571343438763992   -0.010873566486279686
-0.068976524146574   -0.09571343438763992   -0.010873566486279686
-0.068976524146574   -0.09571343438763992   -0.010873566486279686
-0.06500842019453394   -0.0904889911839943   0.008744615731279187
-0.06500842019453394   -0.0904889911839943   0.008744615731279187
-0.06500842019453394   -0.0904889911839943   0.008744615731279187
-0.06500842019453394   -0.0904889911839943   0.008744615731279187
-0.14662122811965772   -0.12474534010497687   0.003713282305391495
-0.14662122811965772   -0.12474534010497687   0.003713282305391495
-0.14662122811965772   -0.12474534010497687   0.003713282305391495
-0.14662122811965772   -0.12474534010497687   0.003713282305391495
-0.0906145690199821   -0.08869600613937711   0.012018231359354765
-0.0906145690199821   -0.08869600613937711   0.012018231359354765
-0.0906145690199821   -0.08869600613937711   0.012018231359354765
-0.0906145690199821   -0.08869600613937711   0.012018231359354765
-0.053090092731249275   -0.03787717030767282   0.01839050236859926
-0.053090092731249275   -0.03787717030767282   0.01839050236859926
-0.053090092731249275   -0.03787717030767282   0.01839050236859926
-0.053090092731249275   -0.03787717030767282   0.01839050236859926
-0.037830177658019326   -0.0013386122759568957   -0.0037146864870214544
-0.037830177658019326   -0.0013386122759568957   -0.0037146864870214544
-0.037830177658019326   -0.0013386122759568957   -0.0037146864870214544
-0.037830177658019326   -0.0013386122759568957   -0.0037146864870214544
-0.0358582578114124   -0.0410560269445908   0.011379914393836524
-0.0358582578114124   -0.0410560269445908   0.011379914393836524
-0.0358582578114124   -0.0410560269445908   0.011379914393836524
-0.0358582578114124   -0.0410560269445908   0.011379914393836524
-0.049571746644230655   -0.00864296702906236   -0.002083935400227521
-0.049571746644230655   -0.00864296702906236   -0.002083935400227521
-0.049571746644230655   -0.00864296702906236   -0.002083935400227521
-0.049571746644230655   -0.00864296702906236   -0.002083935400227521
-0.040734383709641636   -0.021246318720394723   0.009118971879790678
-0.040734383709641636   -0.021246318720394723   0.009118971879790678
-0.040734383709641636   -0.021246318720394723   0.009118971879790678
-0.040734383709641636   -0.021246318720394723   0.009118971879790678
-0.052592624018020756   -0.04320428410360654   0.017372994805366165
-0.052592624018020756   -0.04320428410360654   0.017372994805366165
-0.052592624018020756   -0.04320428410360654   0.017372994805366165
-0.052592624018020756   -0.04320428410360654   0.017372994805366165
-0.0319417670609945   -0.0055990964934188175   -0.004494562305245963
-0.0319417670609945   -0.0055990964934188175   -0.004494562305245963
-0.0319417670609945   -0.0055990964934188175   -0.004494562305245963
-0.0319417670609945   -0.0055990964934188175   -0.004494562305245963
-0.03302443039168686   -0.0446690437453366   0.010522547405599669
-0.03302443039168686   -0.0446690437453366   0.010522547405599669
-0.03302443039168686   -0.0446690437453366   0.010522547405599669
-0.03302443039168686   -0.0446690437453366   0.010522547405599669
-0.050145914380911455   -0.01589977608090447   0.003465824035297569
-0.050145914380911455   -0.01589977608090447   0.003465824035297569
-0.050145914380911455   -0.01589977608090447   0.003465824035297569
-0.050145914380911455   -0.01589977608090447   0.003465824035297569
-0.037577893152898445   -0.024398433390929963   0.010731951134962319
-0.037577893152898445   -0.024398433390929963   0.010731951134962319
-0.037577893152898445   -0.024398433390929963   0.010731951134962319
-0.037577893152898445   -0.024398433390929963   0.010731951134962319
-0.05304474028563741   -0.04680269293257831   0.019874611363341642
-0.05304474028563741   -0.04680269293257831   0.019874611363341642
-0.05304474028563741   -0.04680269293257831   0.019874611363341642
-0.05304474028563741   -0.04680269293257831   0.019874611363341642
-0.030453963687290024   -0.014094486093991875   -0.007199676723760875
-0.030453963687290024   -0.014094486093991875   -0.007199676723760875
-0.030453963687290024   -0.014094486093991875   -0.007199676723760875
-0.030453963687290024   -0.014094486093991875   -0.007199676723760875
-0.02790151809644633   -0.04867385597845965   0.011591787106113942
-0.02790151809644633   -0.04867385597845965   0.011591787106113942
-0.02790151809644633   -0.04867385597845965   0.011591787106113942
-0.02790151809644633   -0.04867385597845965   0.011591787106113942
-0.05442598389586007   -0.03334285200061404   0.004510658041268299
-0.05442598389586007   -0.03334285200061404   0.004510658041268299
-0.05442598389586007   -0.03334285200061404   0.004510658041268299
-0.05442598389586007   -0.03334285200061404   0.004510658041268299
-0.036403726337419035   -0.030709169441985977   0.009113590727254612
-0.036403726337419035   -0.030709169441985977   0.009113590727254612
-0.036403726337419035   -0.030709169441985977   0.009113590727254612
-0.036403726337419035   -0.030709169441985977   0.009113590727254612
-0.03441198755741214   -0.006535601744580978   0.01857325348463854
-0.03441198755741214   -0.006535601744580978   0.01857325348463854
-0.03441198755741214   -0.006535601744580978   0.01857325348463854
-0.03441198755741214   -0.006535601744580978   0.01857325348463854
-0.0064735221621187175   0.003779460192887056   -0.00037544409715715814
-0.0064735221621187175   0.003779460192887056   -0.00037544409715715814
-0.0064735221621187175   0.003779460192887056   -0.00037544409715715814
-0.0064735221621187175   0.003779460192887056   -0.00037544409715715814
0.0014893669913426779   -0.0021286473049595784   0.0115424750550913
0.0014893669913426779   -0.0021286473049595784   0.0115424750550913
0.0014893669913426779   -0.0021286473049595784   0.0115424750550913
0.0014893669913426779   -0.0021286473049595784   0.0115424750550913
-0.02964256399434806   0.002676498194719358   -0.0012741416601519504
-0.02964256399434806   0.002676498194719358   -0.0012741416601519504
-0.02964256399434806   0.002676498194719358   -0.0012741416601519504
-0.02964256399434806   0.002676498194719358   -0.0012741416601519504
-0.01752618971815161   -0.001365886577208418   -0.0013920166548083727
-0.01752618971815161   -0.001365886577208418   -0.0013920166548083727
-0.01752618971815161   -0.001365886577208418   -0.0013920166548083727
-0.01752618971815161   -0.001365886577208418   -0.0013920166548083727
-0.02732386519063367   -0.006333848868121674   0.019329699421253337
-0.02732386519063367   -0.006333848868121674   0.019329699421253337
-0.02732386519063367   -0.006333848868121674   0.019329699421253337
-0.02732386519063367   -0.006333848868121674   0.019329699421253337
0.0001878710342869583   0.00789890260453948   -0.0049925546396863574
0.0001878710342869583   0.00789890260453948   -0.0049925546396863574
0.0001878710342869583   0.00789890260453948   -0.0049925546396863574
0.0001878710342869583   0.00789890260453948   -0.0049925546396863574
0.005407182693940752   -0.00264424415249857   0.014235135144470012
0.005407182693940752   -0.00264424415249857   0.014235135144470012
0.005407182693940752   -0.00264424415249857   0.014235135144470012
0.005407182693940752   -0.00264424415249857   0.014235135144470012
-0.02619951144184377   0.0018369919101754607   -0.001858893500696963
-0.02619951144184377   0.0018369919101754607   -0.001858893500696963
-0.02619951144184377   0.0018369919101754607   -0.001858893500696963
-0.02619951144184377   0.0018369919101754607   -0.001858893500696963
-0.011736075260815484   -0.00042224252908870663   0.0017857001702649656
-0.011736075260815484   -0.00042224252908870663   0.0017857001702649656
-0.011736075260815484   -0.00042224252908870663   0.0017857001702649656
-0.011736075260815484   -0.00042224252908870663   0.0017857001702649656
-0.02345732508167894   -0.007105305578713955   0.02079433578901661
-0.02345732508167894   -0.007105305578713955   0.02079433578901661
-0.02345732508167894   -0.007105305578713955   0.02079433578901661
-0.02345732508167894   -0.007105305578713955   0.02079433578901661
0.0035614290834837005   0.007194486086097986   -0.0048323631464118055
0.0035614290834837005   0.007194486086097986   -0.0048323631464118055
0.0035614290834837005   0.007194486086097986   -0.0048323631464118055
0.0035614290834837005   0.007194486086097986   -0.0048323631464118055
0.009313031799385653   -0.004212437078453036   0.013860353948446907
0.009313031799385653   -0.004212437078453036   0.013860353948446907
0.009313031799385653   -0.004212437078453036   0.013860353948446907
0.009313031799385653   -0.004212437078453036   0.013860353948446907
-0.020584848201192666   0.0015901975097213673   -0.002088916905798756
-0.020584848201192666   0.0015901975097213673   -0.002088916905798756
-0.020584848201192666   0.0015901975097213673   -0.002088916905798756
-0.020584848201192666   0.0015901975097213673   -0.002088916905798756
-0.00660231990224562   9.837993813350317e-05   0.004530154684897693
-0.00660231990224562   9.837993813350317e-05   0.004530154684897693
-0.00660231990224562   9.837993813350317e-05   0.004530154684897693
-0.00660231990224562   9.837993813350317e-05   0.004530154684897693
              </DataArray>   
             <DataArray type="Float64" NumberOfComponents="3" Name="Displacements" format="ascii">   
0.0   0.0   0.0
-0.0031540164059562447   -0.002074344014332557   -0.0010568747920603199
0.0   0.0   0.0
0.0   0.0   0.0
-0.0031540164059562447   -0.002074344014332557   -0.0010568747920603199
-0.002006530711482334   -0.0018650482074583693   -0.0007765500593145329
0.0   0.0   0.0
-0.001966555577617786   -0.0019583454163239963   -0.0006506809899447675
0.0   0.0   0.0
0.0   0.0   0.0
-0.001966555577617786   -0.0019583454163239963   -0.0006506809899447675
0.0   0.0   0.0
0.0   0.0   0.0
-0.001966555577617786   -0.0019583454163239963   -0.0006506809899447675
-0.0033004657924074264   -0.002209676563314747   -0.0008486705985897749
-0.0031540164059562447   -0.002074344014332557   -0.0010568747920603199
0.0   0.0   0.0
-0.001966555577617786   -0.0019583454163239963   -0.0006506809899447675
-0.0031540164059562447   -0.002074344014332557   -0.0010568747920603199
0.0   0.0   0.0
0.0   0.0   0.0
-0.0033004657924074264   -0.002209676563314747   -0.0008486705985897749
0.0   0.0   0.0
0.0   0.0   0.0
-0.0033004657924074264   -0.002209676563314747   -0.0008486705985897749
-0.001966555577617786   -0.0019583454163239963   -0.0006506809899447675
0.0   0.0   0.0
-0.001971785378098615   -0.002006193713075027   -0.0005250292869007206
0.0   0.0   0.0
0.0   0.0   0.0
-0.001971785378098615   -0.002006193713075027   -0.0005250292869007206
0.0   0.0   0.0
0.0   0.0   0.0
-0.001971785378098615   -0.002006193713075027   -0.0005250292869007206
-0.0034031705847044225   -0.0022755022313250164   -0.0006492470407498248
-0.0033004657924074264   -0.002209676563314747   -0.0008486705985897749
0.0   0.0   0.0
-0.001971785378098615   -0.002006193713075027   -0.0005250292869007206
-0.0033004657924074264   -0.002209676563314747   -0.0008486705985897749
0.0   0.0   0.0
0.0   0.0   0.0
-0.0034031705847044225   -0.0022755022313250164   -0.0006492470407498248
0.0   0.0   0.0
0.0   0.0   0.0
-0.0034031705847044225   -0.0022755022313250164   -0.0006492470407498248
-0.001971785378098615   -0.002006193713075027   -0.0005250292869007206
0.0   0.0   0.0
-0.001970392479841741   -0.002018538683844802   -0.00039514872100623367
0.0   0.0   0.0
0.0   0.0   0.0
-0.001970392479841741   -0.002018538683844802   -0.00039514872100623367
0.0   0.0   0.0
0.0   0.0   0.0
-0.001970392479841741   -0.002018538683844802   -0.00039514872100623367
-0.0036247388296652937   -0.002325477035355919   -0.0004179318670265703
-0.0034031705847044225   -0.0022755022313250164   -0.0006492470407498248
0.0   0.0   0.0
-0.001970392479841741   -0.002018538683844802   -0.00039514872100623367
-0.0034031705847044225   -0.0022755022313250164   -0.0006492470407498248
0.0   0.0   0.0
0.0   0.0   0.0
-0.002006530711482334   -0.0018650482074583693   -0.0007765500593145329
0.0   0.0   0.0
0.0   0.0   0.0
-0.002006530711482334   -0.0018650482074583693   -0.0007765500593145329
-0.0009141506383383275   -0.0017883536700188912   -0.0005907956209697233
0.0   0.0   0.0
-0.000878908937220737   -0.0018490418696597785   -0.0005313359826863581
0.0   0.0   0.0
0.0   0.0   0.0
-0.000878908937220737   -0.0018490418696597785   -0.0005313359826863581
0.0   0.0   0.0
0.0   0.0   0.0
-0.000878908937220737   -0.0018490418696597785   -0.0005313359826863581
-0.001966555577617786   -0.0019583454163239963   -0.0006506809899447675
-0.002006530711482334   -0.0018650482074583693   -0.0007765500593145329
0.0   0.0   0.0
-0.000878908937220737   -0.0018490418696597785   -0.0005313359826863581
-0.002006530711482334   -0.0018650482074583693   -0.0007765500593145329
0.0   0.0   0.0
0.0   0.0   0.0
-0.001966555577617786   -0.0019583454163239963   -0.0006506809899447675
0.0   0.0   0.0
0.0   0.0   0.0
-0.001966555577617786   -0.0019583454163239963   -0.0006506809899447675
-0.000878908937220737   -0.0018490418696597785   -0.0005313359826863581
0.0   0.0   0.0
-0.000858986844189593   -0.0018721869358372567   -0.00047346461830571424
0.0   0.0   0.0
0.0   0.0   0.0
-0.000858986844189593   -0.0018721869358372567   -0.00047346461830571424
0.0   0.0   0.0
0.0   0.0   0.0
-0.000858986844189593   -0.0018721869358372567   -0.00047346461830571424
-0.001971785378098615   -0.002006193713075027   -0.0005250292869007206
-0.001966555577617786   -0.0019583454163239963   -0.0006506809899447675
0.0   0.0   0.0
-0.000858986844189593   -0.0018721869358372567   -0.00047346461830571424
-0.001966555577617786   -0.0019583454163239963   -0.0006506809899447675
0.0   0.0   0.0
0.0   0.0   0.0
-0.001971785378098615   -0.002006193713075027   -0.0005250292869007206
0.0   0.0   0.0
0.0   0.0   0.0
-0.001971785378098615   -0.002006193713075027   -0.0005250292869007206
-0.000858986844189593   -0.0018721869358372567   -0.00047346461830571424
0.0   0.0   0.0
-0.0008407939779049243   -0.0018625611523145392   -0.00041367317327542513
0.0   0.0   0.0
0.0   0.0   0.0
-0.0008407939779049243   -0.0018625611523145392   -0.00041367317327542513
0.0   0.0   0.0
0.0   0.0   0.0
-0.0008407939779049243   -0.0018625611523145392   -0.00041367317327542513
-0.001970392479841741   -0.002018538683844802   -0.00039514872100623367
-0.001971785378098615   -0.002006193713075027   -0.0005250292869007206
0.0   0.0   0.0
-0.0008407939779049243   -0.0018625611523145392   -0.00041367317327542513
-0.001971785378098615   -0.002006193713075027   -0.0005250292869007206
0.0   0.0   0.0
0.0   0.0   0.0
-0.0009141506383383275   -0.0017883536700188912   -0.0005907956209697233
0.0   0.0   0.0
0.0   0.0   0.0
-0.0009141506383383275   -0.0017883536700188912   -0.0005907956209697233
0.00011767305670604667   -0.001798229745575674   -0.00047252557979022186
0.0   0.0   0.0
0.00014031436866852938   -0.0018296417961913294   -0.0004806617414586732
0.0   0.0   0.0
0.0   0.0   0.0
0.00014031436866852938   -0.0018296417961913294   -0.0004806617414586732
0.0   0.0   0.0
0.0   0.0   0.0
0.00014031436866852938   -0.0018296417961913294   -0.0004806617414586732
-0.000878908937220737   -0.0018490418696597785   -0.0005313359826863581
-0.0009141506383383275   -0.0017883536700188912   -0.0005907956209697233
0.0   0.0   0.0
0.00014031436866852938   -0.0018296417961913294   -0.0004806617414586732
-0.0009141506383383275   -0.0017883536700188912   -0.0005907956209697233
0.0   0.0   0.0
0.0   0.0   0.0
-0.000878908937220737   -0.0018490418696597785   -0.0005313359826863581
0.0   0.0   0.0
0.0   0.0   0.0
-0.000878908937220737   -0.0018490418696597785   -0.0005313359826863581
0.00014031436866852938   -0.0018296417961913294   -0.0004806617414586732
0.0   0.0   0.0
0.00015822612531365962   -0.0018269999329612447   -0.00048804170684541644
0.0   0.0   0.0
0.0   0.0   0.0
0.00015822612531365962   -0.0018269999329612447   -0.00048804170684541644
0.0   0.0   0.0
0.0   0.0   0.0
0.00015822612531365962   -0.0018269999329612447   -0.00048804170684541644
-0.000858986844189593   -0.0018721869358372567   -0.00047346461830571424
-0.000878908937220737   -0.0018490418696597785   -0.0005313359826863581
0.0   0.0   0.0
0.00015822612531365962   -0.0018269999329612447   -0.00048804170684541644
-0.000878908937220737   -0.0018490418696597785   -0.0005313359826863581
0.0   0.0   0.0
0.0   0.0   0.0
-0.000858986844189593   -0.0018721869358372567   -0.00047346461830571424
0.0   0.0   0.0
0.0   0.0   0.0
-0.000858986844189593   -0.0018721869358372567   -0.00047346461830571424
0.00015822612531365962   -0.0018269999329612447   -0.00048804170684541644
0.0   0.0   0.0
0.00018222150357074222   -0.0017875175944020631   -0.0004956636792108341
0.0   0.0   0.0
0.0   0.0   0.0
0.00018222150357074222   -0.0017875175944020631   -0.0004956636792108341
0.0   0.0   0.0
0.0   0.0   0.0
0.00018222150357074222   -0.0017875175944020631   -0.0004956636792108341
-0.0008407939779049243   -0.0018625611523145392   -0.00041367317327542513
-0.000858986844189593   -0.0018721869358372567   -0.00047346461830571424
0.0   0.0   0.0
0.00018222150357074222   -0.0017875175944020631   -0.0004956636792108341
-0.000858986844189593   -0.0018721869358372567   -0.00047346461830571424
0.0   0.0   0.0
0.0   0.0   0.0
0.00011767305670604667   -0.001798229745575674   -0.00047252557979022186
0.0   0.0   0.0
0.0   0.0   0.0
0.00011767305670604667   -0.001798229745575674   -0.00047252557979022186
0.0012379711096367513   -0.0018853515651709757   -0.0004141663337128714
0.0   0.0   0.0
0.0012405507618527486   -0.0018952666367872814   -0.0004934312923752919
0.0   0.0   0.0
0.0   0.0   0.0
0.0012405507618527486   -0.0018952666367872814   -0.0004934312923752919
0.0   0.0   0.0
0.0   0.0   0.0
0.0012405507618527486   -0.0018952666367872814   -0.0004934312923752919
0.00014031436866852938   -0.0018296417961913294   -0.0004806617414586732
0.00011767305670604667   -0.001798229745575674   -0.00047252557979022186
0.0   0.0   0.0
0.0012405507618527486   -0.0018952666367872814   -0.0004934312923752919
0.00011767305670604667   -0.001798229745575674   -0.00047252557979022186
0.0   0.0   0.0
0.0   0.0   0.0
0.00014031436866852938   -0.0018296417961913294   -0.0004806617414586732
0.0   0.0   0.0
0.0   0.0   0.0
0.00014031436866852938   -0.0018296417961913294   -0.0004806617414586732
0.0012405507618527486   -0.0018952666367872814   -0.0004934312923752919
0.0   0.0   0.0
0.0012355637015820048   -0.0018682056552210026   -0.0005695186178293259
0.0   0.0   0.0
0.0   0.0   0.0
0.0012355637015820048   -0.0018682056552210026   -0.0005695186178293259
0.0   0.0   0.0
0.0   0.0   0.0
0.0012355637015820048   -0.0018682056552210026   -0.0005695186178293259
0.00015822612531365962   -0.0018269999329612447   -0.00048804170684541644
0.00014031436866852938   -0.0018296417961913294   -0.0004806617414586732
0.0   0.0   0.0
0.0012355637015820048   -0.0018682056552210026   -0.0005695186178293259
0.00014031436866852938   -0.0018296417961913294   -0.0004806617414586732
0.0   0.0   0.0
0.0   0.0   0.0
0.00015822612531365962   -0.0018269999329612447   -0.00048804170684541644
0.0   0.0   0.0
0.0   0.0   0.0
0.00015822612531365962   -0.0018269999329612447   -0.00048804170684541644
0.0012355637015820048   -0.0018682056552210026   -0.0005695186178293259
0.0   0.0   0.0
0.0012598061325456151   -0.0017959213949198757   -0.0006441942473678773
0.0   0.0   0.0
0.0   0.0   0.0
0.0012598061325456151   -0.0017959213949198757   -0.0006441942473678773
0.0   0.0   0.0
0.0   0.0   0.0
0.0012598061325456151   -0.0017959213949198757   -0.0006441942473678773
0.00018222150357074222   -0.0017875175944020631   -0.0004956636792108341
0.00015822612531365962   -0.0018269999329612447   -0.00048804170684541644
0.0   0.0   0.0
0.0012598061325456151   -0.0017959213949198757   -0.0006441942473678773
0.00015822612531365962   -0.0018269999329612447   -0.00048804170684541644
0.0   0.0   0.0
0.0   0.0   0.0
0.0012379711096367513   -0.0018853515651709757   -0.0004141663337128714
0.0   0.0   0.0
0.0   0.0   0.0
0.0012379711096367513   -0.0018853515651709757   -0.0004141663337128714
0.0027968969438168776   -0.002106357686482605   -0.0003911215665150914
0.0   0.0   0.0
0.0026272290143130547   -0.0020831877831599976   -0.0005709620043625164
0.0   0.0   0.0
0.0   0.0   0.0
0.0026272290143130547   -0.0020831877831599976   -0.0005709620043625164
0.0   0.0   0.0
0.0   0.0   0.0
0.0026272290143130547   -0.0020831877831599976   -0.0005709620043625164
0.0012405507618527486   -0.0018952666367872814   -0.0004934312923752919
0.0012379711096367513   -0.0018853515651709757   -0.0004141663337128714
0.0   0.0   0.0
0.0026272290143130547   -0.0020831877831599976   -0.0005709620043625164
0.0012379711096367513   -0.0018853515651709757   -0.0004141663337128714
0.0   0.0   0.0
0.0   0.0   0.0
0.0012405507618527486   -0.0018952666367872814   -0.0004934312923752919
0.0   0.0   0.0
0.0   0.0   0.0
0.0012405507618527486   -0.0018952666367872814   -0.0004934312923752919
0.0026272290143130547   -0.0020831877831599976   -0.0005709620043625164
0.0   0.0   0.0
0.0025491356163239694   -0.0020398807431404008   -0.0007230773465481318
0.0   0.0   0.0
0.0   0.0   0.0
0.0025491356163239694   -0.0020398807431404008   -0.0007230773465481318
0.0   0.0   0.0
0.0   0.0   0.0
0.0025491356163239694   -0.0020398807431404008   -0.0007230773465481318
0.0012355637015820048   -0.0018682056552210026   -0.0005695186178293259
0.0012405507618527486   -0.0018952666367872814   -0.0004934312923752919
0.0   0.0   0.0
0.0025491356163239694   -0.0020398807431404008   -0.0007230773465481318
0.0012405507618527486   -0.0018952666367872814   -0.0004934312923752919
0.0   0.0   0.0
0.0   0.0   0.0
0.0012355637015820048   -0.0018682056552210026   -0.0005695186178293259
0.0   0.0   0.0
0.0   0.0   0.0
0.0012355637015820048   -0.0018682056552210026   -0.0005695186178293259
0.0025491356163239694   -0.0020398807431404008   -0.0007230773465481318
0.0   0.0   0.0
0.0024326486301923427   -0.001929210486168656   -0.0008841306878726301
0.0   0.0   0.0
0.0   0.0   0.0
0.0024326486301923427   -0.001929210486168656   -0.0008841306878726301
0.0   0.0   0.0
0.0   0.0   0.0
0.0024326486301923427   -0.001929210486168656   -0.0008841306878726301
0.0012598061325456151   -0.0017959213949198757   -0.0006441942473678773
0.0012355637015820048   -0.0018682056552210026   -0.0005695186178293259
0.0   0.0   0.0
0.0024326486301923427   -0.001929210486168656   -0.0008841306878726301
0.0012355637015820048   -0.0018682056552210026   -0.0005695186178293259
0.0   0.0   0.0
-0.0031540164059562447   -0.002074344014332557   -0.0010568747920603199
-0.005887348035789835   -0.005783136718863373   -0.0014240677240510387
-0.002006530711482334   -0.0018650482074583693   -0.0007765500593145329
-0.0033004657924074264   -0.002209676563314747   -0.0008486705985897749
-0.005887348035789835   -0.005783136718863373   -0.0014240677240510387
-0.0037574973801438737   -0.005595037774400809   -0.001172553019670624
-0.002006530711482334   -0.0018650482074583693   -0.0007765500593145329
-0.0037614128358867305   -0.005690421522987766   -0.001056234774999929
-0.0033004657924074264   -0.002209676563314747   -0.0008486705985897749
-0.001966555577617786   -0.0019583454163239963   -0.0006506809899447675
-0.0037614128358867305   -0.005690421522987766   -0.001056234774999929
-0.002006530711482334   -0.0018650482074583693   -0.0007765500593145329
-0.0033004657924074264   -0.002209676563314747   -0.0008486705985897749
-0.0037614128358867305   -0.005690421522987766   -0.001056234774999929
-0.006063041570393294   -0.005916289645182457   -0.001235264401573869
-0.005887348035789835   -0.005783136718863373   -0.0014240677240510387
-0.0033004657924074264   -0.002209676563314747   -0.0008486705985897749
-0.0037614128358867305   -0.005690421522987766   -0.001056234774999929
-0.005887348035789835   -0.005783136718863373   -0.0014240677240510387
-0.002006530711482334   -0.0018650482074583693   -0.0007765500593145329
-0.0033004657924074264   -0.002209676563314747   -0.0008486705985897749
-0.006063041570393294   -0.005916289645182457   -0.001235264401573869
-0.001966555577617786   -0.0019583454163239963   -0.0006506809899447675
-0.0034031705847044225   -0.0022755022313250164   -0.0006492470407498248
-0.006063041570393294   -0.005916289645182457   -0.001235264401573869
-0.0037614128358867305   -0.005690421522987766   -0.001056234774999929
-0.001966555577617786   -0.0019583454163239963   -0.0006506809899447675
-0.0037756639290898973   -0.005748616540064749   -0.0009444919002909769
-0.0034031705847044225   -0.0022755022313250164   -0.0006492470407498248
-0.001971785378098615   -0.002006193713075027   -0.0005250292869007206
-0.0037756639290898973   -0.005748616540064749   -0.0009444919002909769
-0.001966555577617786   -0.0019583454163239963   -0.0006506809899447675
-0.0034031705847044225   -0.0022755022313250164   -0.0006492470407498248
-0.0037756639290898973   -0.005748616540064749   -0.0009444919002909769
-0.006184891070834897   -0.0059915350534896225   -0.0010504409289702873
-0.006063041570393294   -0.005916289645182457   -0.001235264401573869
-0.0034031705847044225   -0.0022755022313250164   -0.0006492470407498248
-0.0037756639290898973   -0.005748616540064749   -0.0009444919002909769
-0.006063041570393294   -0.005916289645182457   -0.001235264401573869
-0.001966555577617786   -0.0019583454163239963   -0.0006506809899447675
-0.0034031705847044225   -0.0022755022313250164   -0.0006492470407498248
-0.006184891070834897   -0.0059915350534896225   -0.0010504409289702873
-0.001971785378098615   -0.002006193713075027   -0.0005250292869007206
-0.0036247388296652937   -0.002325477035355919   -0.0004179318670265703
-0.006184891070834897   -0.0059915350534896225   -0.0010504409289702873
-0.0037756639290898973   -0.005748616540064749   -0.0009444919002909769
-0.001971785378098615   -0.002006193713075027   -0.0005250292869007206
-0.003763831312173475   -0.005778896166514536   -0.0008399309114270586
-0.0036247388296652937   -0.002325477035355919   -0.0004179318670265703
-0.001970392479841741   -0.002018538683844802   -0.00039514872100623367
-0.003763831312173475   -0.005778896166514536   -0.0008399309114270586
-0.001971785378098615   -0.002006193713075027   -0.0005250292869007206
-0.0036247388296652937   -0.002325477035355919   -0.0004179318670265703
-0.003763831312173475   -0.005778896166514536   -0.0008399309114270586
-0.006328888330984913   -0.006035429881789103   -0.0008823617894258076
-0.006184891070834897   -0.0059915350534896225   -0.0010504409289702873
-0.0036247388296652937   -0.002325477035355919   -0.0004179318670265703
-0.003763831312173475   -0.005778896166514536   -0.0008399309114270586
-0.006184891070834897   -0.0059915350534896225   -0.0010504409289702873
-0.001971785378098615   -0.002006193713075027   -0.0005250292869007206
-0.002006530711482334   -0.0018650482074583693   -0.0007765500593145329
-0.0037574973801438737   -0.005595037774400809   -0.001172553019670624
-0.0009141506383383275   -0.0017883536700188912   -0.0005907956209697233
-0.001966555577617786   -0.0019583454163239963   -0.0006506809899447675
-0.0037574973801438737   -0.005595037774400809   -0.001172553019670624
-0.001744375560727639   -0.0055075087608778125   -0.0010009115185983547
-0.0009141506383383275   -0.0017883536700188912   -0.0005907956209697233
-0.0017287943186548086   -0.005568163806045505   -0.0009412552839208807
-0.001966555577617786   -0.0019583454163239963   -0.0006506809899447675
-0.000878908937220737   -0.0018490418696597785   -0.0005313359826863581
-0.0017287943186548086   -0.005568163806045505   -0.0009412552839208807
-0.0009141506383383275   -0.0017883536700188912   -0.0005907956209697233
-0.001966555577617786   -0.0019583454163239963   -0.0006506809899447675
-0.0017287943186548086   -0.005568163806045505   -0.0009412552839208807
-0.0037614128358867305   -0.005690421522987766   -0.001056234774999929
-0.0037574973801438737   -0.005595037774400809   -0.001172553019670624
-0.001966555577617786   -0.0019583454163239963   -0.0006506809899447675
-0.0017287943186548086   -0.005568163806045505   -0.0009412552839208807
-0.0037574973801438737   -0.005595037774400809   -0.001172553019670624
-0.0009141506383383275   -0.0017883536700188912   -0.0005907956209697233
-0.001966555577617786   -0.0019583454163239963   -0.0006506809899447675
-0.0037614128358867305   -0.005690421522987766   -0.001056234774999929
-0.000878908937220737   -0.0018490418696597785   -0.0005313359826863581
-0.001971785378098615   -0.002006193713075027   -0.0005250292869007206
-0.0037614128358867305   -0.005690421522987766   -0.001056234774999929
-0.0017287943186548086   -0.005568163806045505   -0.0009412552839208807
-0.000878908937220737   -0.0018490418696597785   -0.0005313359826863581
-0.0017149269063343306   -0.005597599890003432   -0.0008871986947767222
-0.001971785378098615   -0.002006193713075027   -0.0005250292869007206
-0.000858986844189593   -0.0018721869358372567   -0.00047346461830571424
-0.0017149269063343306   -0.005597599890003432   -0.0008871986947767222
-0.000878908937220737   -0.0018490418696597785   -0.0005313359826863581
-0.001971785378098615   -0.002006193713075027   -0.0005250292869007206
-0.0017149269063343306   -0.005597599890003432   -0.0008871986947767222
-0.0037756639290898973   -0.005748616540064749   -0.0009444919002909769
-0.0037614128358867305   -0.005690421522987766   -0.001056234774999929
-0.001971785378098615   -0.002006193713075027   -0.0005250292869007206
-0.0017149269063343306   -0.005597599890003432   -0.0008871986947767222
-0.0037614128358867305   -0.005690421522987766   -0.001056234774999929
-0.000878908937220737   -0.0018490418696597785   -0.0005313359826863581
-0.001971785378098615   -0.002006193713075027   -0.0005250292869007206
-0.0037756639290898973   -0.005748616540064749   -0.0009444919002909769
-0.000858986844189593   -0.0018721869358372567   -0.00047346461830571424
-0.001970392479841741   -0.002018538683844802   -0.00039514872100623367
-0.0037756639290898973   -0.005748616540064749   -0.0009444919002909769
-0.0017149269063343306   -0.005597599890003432   -0.0008871986947767222
-0.000858986844189593   -0.0018721869358372567   -0.00047346461830571424
-0.0016944807343513535   -0.005596925239135508   -0.0008401632746970484
-0.001970392479841741   -0.002018538683844802   -0.00039514872100623367
-0.0008407939779049243   -0.0018625611523145392   -0.00041367317327542513
-0.0016944807343513535   -0.005596925239135508   -0.0008401632746970484
-0.000858986844189593   -0.0018721869358372567   -0.00047346461830571424
-0.001970392479841741   -0.002018538683844802   -0.00039514872100623367
-0.0016944807343513535   -0.005596925239135508   -0.0008401632746970484
-0.003763831312173475   -0.005778896166514536   -0.0008399309114270586
-0.0037756639290898973   -0.005748616540064749   -0.0009444919002909769
-0.001970392479841741   -0.002018538683844802   -0.00039514872100623367
-0.0016944807343513535   -0.005596925239135508   -0.0008401632746970484
-0.0037756639290898973   -0.005748616540064749   -0.0009444919002909769
-0.000858986844189593   -0.0018721869358372567   -0.00047346461830571424
-0.0009141506383383275   -0.0017883536700188912   -0.0005907956209697233
-0.001744375560727639   -0.0055075087608778125   -0.0010009115185983547
0.00011767305670604667   -0.001798229745575674   -0.00047252557979022186
-0.000878908937220737   -0.0018490418696597785   -0.0005313359826863581
-0.001744375560727639   -0.0055075087608778125   -0.0010009115185983547
0.0001965453551772398   -0.00551014674413614   -0.0008925236544944247
0.00011767305670604667   -0.001798229745575674   -0.00047252557979022186
0.00021560438063454454   -0.005538798378007441   -0.0008884751401534267
-0.000878908937220737   -0.0018490418696597785   -0.0005313359826863581
0.00014031436866852938   -0.0018296417961913294   -0.0004806617414586732
0.00021560438063454454   -0.005538798378007441   -0.0008884751401534267
0.00011767305670604667   -0.001798229745575674   -0.00047252557979022186
-0.000878908937220737   -0.0018490418696597785   -0.0005313359826863581
0.00021560438063454454   -0.005538798378007441   -0.0008884751401534267
-0.0017287943186548086   -0.005568163806045505   -0.0009412552839208807
-0.001744375560727639   -0.0055075087608778125   -0.0010009115185983547
-0.000878908937220737   -0.0018490418696597785   -0.0005313359826863581
0.00021560438063454454   -0.005538798378007441   -0.0008884751401534267
-0.001744375560727639   -0.0055075087608778125   -0.0010009115185983547
0.00011767305670604667   -0.001798229745575674   -0.00047252557979022186
-0.000878908937220737   -0.0018490418696597785   -0.0005313359826863581
-0.0017287943186548086   -0.005568163806045505   -0.0009412552839208807
0.00014031436866852938   -0.0018296417961913294   -0.0004806617414586732
-0.000858986844189593   -0.0018721869358372567   -0.00047346461830571424
-0.0017287943186548086   -0.005568163806045505   -0.0009412552839208807
0.00021560438063454454   -0.005538798378007441   -0.0008884751401534267
0.00014031436866852938   -0.0018296417961913294   -0.0004806617414586732
0.00022859720625734482   -0.005536961027863764   -0.0008907801080646747
-0.000858986844189593   -0.0018721869358372567   -0.00047346461830571424
0.00015822612531365962   -0.0018269999329612447   -0.00048804170684541644
0.00022859720625734482   -0.005536961027863764   -0.0008907801080646747
0.00014031436866852938   -0.0018296417961913294   -0.0004806617414586732
-0.000858986844189593   -0.0018721869358372567   -0.00047346461830571424
0.00022859720625734482   -0.005536961027863764   -0.0008907801080646747
-0.0017149269063343306   -0.005597599890003432   -0.0008871986947767222
-0.0017287943186548086   -0.005568163806045505   -0.0009412552839208807
-0.000858986844189593   -0.0018721869358372567   -0.00047346461830571424
0.00022859720625734482   -0.005536961027863764   -0.0008907801080646747
-0.0017287943186548086   -0.005568163806045505   -0.0009412552839208807
0.00014031436866852938   -0.0018296417961913294   -0.0004806617414586732
-0.000858986844189593   -0.0018721869358372567   -0.00047346461830571424
-0.0017149269063343306   -0.005597599890003432   -0.0008871986947767222
0.00015822612531365962   -0.0018269999329612447   -0.00048804170684541644
-0.0008407939779049243   -0.0018625611523145392   -0.00041367317327542513
-0.0017149269063343306   -0.005597599890003432   -0.0008871986947767222
0.00022859720625734482   -0.005536961027863764   -0.0008907801080646747
0.00015822612531365962   -0.0018269999329612447   -0.00048804170684541644
0.00024249693399772124   -0.005503706908539453   -0.0008995383503694502
-0.0008407939779049243   -0.0018625611523145392   -0.00041367317327542513
0.00018222150357074222   -0.0017875175944020631   -0.0004956636792108341
0.00024249693399772124   -0.005503706908539453   -0.0008995383503694502
0.00015822612531365962   -0.0018269999329612447   -0.00048804170684541644
-0.0008407939779049243   -0.0018625611523145392   -0.00041367317327542513
0.00024249693399772124   -0.005503706908539453   -0.0008995383503694502
-0.0016944807343513535   -0.005596925239135508   -0.0008401632746970484
-0.0017149269063343306   -0.005597599890003432   -0.0008871986947767222
-0.0008407939779049243   -0.0018625611523145392   -0.00041367317327542513
0.00024249693399772124   -0.005503706908539453   -0.0008995383503694502
-0.0017149269063343306   -0.005597599890003432   -0.0008871986947767222
0.00015822612531365962   -0.0018269999329612447   -0.00048804170684541644
0.00011767305670604667   -0.001798229745575674   -0.00047252557979022186
0.0001965453551772398   -0.00551014674413614   -0.0008925236544944247
0.0012379711096367513   -0.0018853515651709757   -0.0004141663337128714
0.00014031436866852938   -0.0018296417961913294   -0.0004806617414586732
0.0001965453551772398   -0.00551014674413614   -0.0008925236544944247
0.0022536736330745467   -0.005599707464488181   -0.0008421697179669809
0.0012379711096367513   -0.0018853515651709757   -0.0004141663337128714
0.002264770052558651   -0.005599258867708761   -0.0008955284868666366
0.00014031436866852938   -0.0018296417961913294   -0.0004806617414586732
0.0012405507618527486   -0.0018952666367872814   -0.0004934312923752919
0.002264770052558651   -0.005599258867708761   -0.0008955284868666366
0.0012379711096367513   -0.0018853515651709757   -0.0004141663337128714
0.00014031436866852938   -0.0018296417961913294   -0.0004806617414586732
0.002264770052558651   -0.005599258867708761   -0.0008955284868666366
0.00021560438063454454   -0.005538798378007441   -0.0008884751401534267
0.0001965453551772398   -0.00551014674413614   -0.0008925236544944247
0.00014031436866852938   -0.0018296417961913294   -0.0004806617414586732
0.002264770052558651   -0.005599258867708761   -0.0008955284868666366
0.0001965453551772398   -0.00551014674413614   -0.0008925236544944247
0.0012379711096367513   -0.0018853515651709757   -0.0004141663337128714
0.00014031436866852938   -0.0018296417961913294   -0.0004806617414586732
0.00021560438063454454   -0.005538798378007441   -0.0008884751401534267
0.0012405507618527486   -0.0018952666367872814   -0.0004934312923752919
0.00015822612531365962   -0.0018269999329612447   -0.00048804170684541644
0.00021560438063454454   -0.005538798378007441   -0.0008884751401534267
0.002264770052558651   -0.005599258867708761   -0.0008955284868666366
0.0012405507618527486   -0.0018952666367872814   -0.0004934312923752919
0.0022549205424386366   -0.0055689301375579925   -0.0009560750681138122
0.00015822612531365962   -0.0018269999329612447   -0.00048804170684541644
0.0012355637015820048   -0.0018682056552210026   -0.0005695186178293259
0.0022549205424386366   -0.0055689301375579925   -0.0009560750681138122
0.0012405507618527486   -0.0018952666367872814   -0.0004934312923752919
0.00015822612531365962   -0.0018269999329612447   -0.00048804170684541644
0.0022549205424386366   -0.0055689301375579925   -0.0009560750681138122
0.00022859720625734482   -0.005536961027863764   -0.0008907801080646747
0.00021560438063454454   -0.005538798378007441   -0.0008884751401534267
0.00015822612531365962   -0.0018269999329612447   -0.00048804170684541644
0.0022549205424386366   -0.0055689301375579925   -0.0009560750681138122
0.00021560438063454454   -0.005538798378007441   -0.0008884751401534267
0.0012405507618527486   -0.0018952666367872814   -0.0004934312923752919
0.00015822612531365962   -0.0018269999329612447   -0.00048804170684541644
0.00022859720625734482   -0.005536961027863764   -0.0008907801080646747
0.0012355637015820048   -0.0018682056552210026   -0.0005695186178293259
0.00018222150357074222   -0.0017875175944020631   -0.0004956636792108341
0.00022859720625734482   -0.005536961027863764   -0.0008907801080646747
0.0022549205424386366   -0.0055689301375579925   -0.0009560750681138122
0.0012355637015820048   -0.0018682056552210026   -0.0005695186178293259
0.0022494995788477335   -0.0055004528376368465   -0.0010215672295285684
0.00018222150357074222   -0.0017875175944020631   -0.0004956636792108341
0.0012598061325456151   -0.0017959213949198757   -0.0006441942473678773
0.0022494995788477335   -0.0055004528376368465   -0.0010215672295285684
0.0012355637015820048   -0.0018682056552210026   -0.0005695186178293259
0.00018222150357074222   -0.0017875175944020631   -0.0004956636792108341
0.0022494995788477335   -0.0055004528376368465   -0.0010215672295285684
0.00024249693399772124   -0.005503706908539453   -0.0008995383503694502
0.00022859720625734482   -0.005536961027863764   -0.0008907801080646747
0.00018222150357074222   -0.0017875175944020631   -0.0004956636792108341
0.0022494995788477335   -0.0055004528376368465   -0.0010215672295285684
0.00022859720625734482   -0.005536961027863764   -0.0008907801080646747
0.0012355637015820048   -0.0018682056552210026   -0.0005695186178293259
0.0012379711096367513   -0.0018853515651709757   -0.0004141663337128714
0.0022536736330745467   -0.005599707464488181   -0.0008421697179669809
0.0027968969438168776   -0.002106357686482605   -0.0003911215665150914
0.0012405507618527486   -0.0018952666367872814   -0.0004934312923752919
0.0022536736330745467   -0.005599707464488181   -0.0008421697179669809
0.004736840485961775   -0.005766069544417916   -0.0008290487772048896
0.0027968969438168776   -0.002106357686482605   -0.0003911215665150914
0.004641389609858973   -0.005750082109110403   -0.0009491759015588377
0.0012405507618527486   -0.0018952666367872814   -0.0004934312923752919
0.0026272290143130547   -0.0020831877831599976   -0.0005709620043625164
0.004641389609858973   -0.005750082109110403   -0.0009491759015588377
0.0027968969438168776   -0.002106357686482605   -0.0003911215665150914
0.0012405507618527486   -0.0018952666367872814   -0.0004934312923752919
0.004641389609858973   -0.005750082109110403   -0.0009491759015588377
0.002264770052558651   -0.005599258867708761   -0.0008955284868666366
0.0022536736330745467   -0.005599707464488181   -0.0008421697179669809
0.0012405507618527486   -0.0018952666367872814   -0.0004934312923752919
0.004641389609858973   -0.005750082109110403   -0.0009491759015588377
0.0022536736330745467   -0.005599707464488181   -0.0008421697179669809
0.0027968969438168776   -0.002106357686482605   -0.0003911215665150914
0.0012405507618527486   -0.0018952666367872814   -0.0004934312923752919
0.002264770052558651   -0.005599258867708761   -0.0008955284868666366
0.0026272290143130547   -0.0020831877831599976   -0.0005709620043625164
0.0012355637015820048   -0.0018682056552210026   -0.0005695186178293259
0.002264770052558651   -0.005599258867708761   -0.0008955284868666366
0.004641389609858973   -0.005750082109110403   -0.0009491759015588377
0.0026272290143130547   -0.0020831877831599976   -0.0005709620043625164
0.004556008453716953   -0.0057033600657151   -0.001084419274697167
0.0012355637015820048   -0.0018682056552210026   -0.0005695186178293259
0.0025491356163239694   -0.0020398807431404008   -0.0007230773465481318
0.004556008453716953   -0.0057033600657151   -0.001084419274697167
0.0026272290143130547   -0.0020831877831599976   -0.0005709620043625164
0.0012355637015820048   -0.0018682056552210026   -0.0005695186178293259
0.004556008453716953   -0.0057033600657151   -0.001084419274697167
0.0022549205424386366   -0.0055689301375579925   -0.0009560750681138122
0.002264770052558651   -0.005599258867708761   -0.0008955284868666366
0.0012355637015820048   -0.0018682056552210026   -0.0005695186178293259
0.004556008453716953   -0.0057033600657151   -0.001084419274697167
0.002264770052558651   -0.005599258867708761   -0.0008955284868666366
0.0026272290143130547   -0.0020831877831599976   -0.0005709620043625164
0.0012355637015820048   -0.0018682056552210026   -0.0005695186178293259
0.0022549205424386366   -0.0055689301375579925   -0.0009560750681138122
0.0025491356163239694   -0.0020398807431404008   -0.0007230773465481318
0.0012598061325456151   -0.0017959213949198757   -0.0006441942473678773
0.0022549205424386366   -0.0055689301375579925   -0.0009560750681138122
0.004556008453716953   -0.0057033600657151   -0.001084419274697167
0.0025491356163239694   -0.0020398807431404008   -0.0007230773465481318
0.004427677113697429   -0.005599614103304912   -0.0012252652765136597
0.0012598061325456151   -0.0017959213949198757   -0.0006441942473678773
0.0024326486301923427   -0.001929210486168656   -0.0008841306878726301
0.004427677113697429   -0.005599614103304912   -0.0012252652765136597
0.0025491356163239694   -0.0020398807431404008   -0.0007230773465481318
0.0012598061325456151   -0.0017959213949198757   -0.0006441942473678773
0.004427677113697429   -0.005599614103304912   -0.0012252652765136597
0.0022494995788477335   -0.0055004528376368465   -0.0010215672295285684
0.0022549205424386366   -0.0055689301375579925   -0.0009560750681138122
0.0012598061325456151   -0.0017959213949198757   -0.0006441942473678773
0.004427677113697429   -0.005599614103304912   -0.0012252652765136597
0.0022549205424386366   -0.0055689301375579925   -0.0009560750681138122
0.0025491356163239694   -0.0020398807431404008   -0.0007230773465481318
-0.005887348035789835   -0.005783136718863373   -0.0014240677240510387
-0.008062040762471563   -0.010835925596964226   -0.0016225562648347768
-0.0037574973801438737   -0.005595037774400809   -0.001172553019670624
-0.006063041570393294   -0.005916289645182457   -0.001235264401573869
-0.008062040762471563   -0.010835925596964226   -0.0016225562648347768
-0.005183848005277889   -0.010692337344314398   -0.0014188501511593937
-0.0037574973801438737   -0.005595037774400809   -0.001172553019670624
-0.005194566321483914   -0.010774564544356267   -0.001328700170639317
-0.006063041570393294   -0.005916289645182457   -0.001235264401573869
-0.0037614128358867305   -0.005690421522987766   -0.001056234774999929
-0.005194566321483914   -0.010774564544356267   -0.001328700170639317
-0.0037574973801438737   -0.005595037774400809   -0.001172553019670624
-0.006063041570393294   -0.005916289645182457   -0.001235264401573869
-0.005194566321483914   -0.010774564544356267   -0.001328700170639317
-0.008204510748118727   -0.010948340093736878   -0.0014819675210003807
-0.008062040762471563   -0.010835925596964226   -0.0016225562648347768
-0.006063041570393294   -0.005916289645182457   -0.001235264401573869
-0.005194566321483914   -0.010774564544356267   -0.001328700170639317
-0.008062040762471563   -0.010835925596964226   -0.0016225562648347768
-0.0037574973801438737   -0.005595037774400809   -0.001172553019670624
-0.006063041570393294   -0.005916289645182457   -0.001235264401573869
-0.008204510748118727   -0.010948340093736878   -0.0014819675210003807
-0.0037614128358867305   -0.005690421522987766   -0.001056234774999929
-0.006184891070834897   -0.0059915350534896225   -0.0010504409289702873
-0.008204510748118727   -0.010948340093736878   -0.0014819675210003807
-0.005194566321483914   -0.010774564544356267   -0.001328700170639317
-0.0037614128358867305   -0.005690421522987766   -0.001056234774999929
-0.005207266967079688   -0.010831843414943627   -0.0012450980396378657
-0.006184891070834897   -0.0059915350534896225   -0.0010504409289702873
-0.0037756639290898973   -0.005748616540064749   -0.0009444919002909769
-0.005207266967079688   -0.010831843414943627   -0.0012450980396378657
-0.0037614128358867305   -0.005690421522987766   -0.001056234774999929
-0.006184891070834897   -0.0059915350534896225   -0.0010504409289702873
-0.005207266967079688   -0.010831843414943627   -0.0012450980396378657
-0.00829402842095752   -0.011018895123080543   -0.001350974690962453
-0.008204510748118727   -0.010948340093736878   -0.0014819675210003807
-0.006184891070834897   -0.0059915350534896225   -0.0010504409289702873
-0.005207266967079688   -0.010831843414943627   -0.0012450980396378657
-0.008204510748118727   -0.010948340093736878   -0.0014819675210003807
-0.0037614128358867305   -0.005690421522987766   -0.001056234774999929
-0.006184891070834897   -0.0059915350534896225   -0.0010504409289702873
-0.00829402842095752   -0.011018895123080543   -0.001350974690962453
-0.0037756639290898973   -0.005748616540064749   -0.0009444919002909769
-0.006328888330984913   -0.006035429881789103   -0.0008823617894258076
-0.00829402842095752   -0.011018895123080543   -0.001350974690962453
-0.005207266967079688   -0.010831843414943627   -0.0012450980396378657
-0.0037756639290898973   -0.005748616540064749   -0.0009444919002909769
-0.005196820642001782   -0.010869613420295774   -0.0011666471590687322
-0.006328888330984913   -0.006035429881789103   -0.0008823617894258076
-0.003763831312173475   -0.005778896166514536   -0.0008399309114270586
-0.005196820642001782   -0.010869613420295774   -0.0011666471590687322
-0.0037756639290898973   -0.005748616540064749   -0.0009444919002909769
-0.006328888330984913   -0.006035429881789103   -0.0008823617894258076
-0.005196820642001782   -0.010869613420295774   -0.0011666471590687322
-0.008395880873269845   -0.011069776070187892   -0.0012304757480011027
-0.00829402842095752   -0.011018895123080543   -0.001350974690962453
-0.006328888330984913   -0.006035429881789103   -0.0008823617894258076
-0.005196820642001782   -0.010869613420295774   -0.0011666471590687322
-0.00829402842095752   -0.011018895123080543   -0.001350974690962453
-0.0037756639290898973   -0.005748616540064749   -0.0009444919002909769
-0.0037574973801438737   -0.005595037774400809   -0.001172553019670624
-0.005183848005277889   -0.010692337344314398   -0.0014188501511593937
-0.001744375560727639   -0.0055075087608778125   -0.0010009115185983547
-0.0037614128358867305   -0.005690421522987766   -0.001056234774999929
-0.005183848005277889   -0.010692337344314398   -0.0014188501511593937
-0.0024710333837095915   -0.010620687481325133   -0.001277354110577571
-0.001744375560727639   -0.0055075087608778125   -0.0010009115185983547
-0.002464203269714826   -0.010673214561656612   -0.0012263411827951336
-0.0037614128358867305   -0.005690421522987766   -0.001056234774999929
-0.0017287943186548086   -0.005568163806045505   -0.0009412552839208807
-0.002464203269714826   -0.010673214561656612   -0.0012263411827951336
-0.001744375560727639   -0.0055075087608778125   -0.0010009115185983547
-0.0037614128358867305   -0.005690421522987766   -0.001056234774999929
-0.002464203269714826   -0.010673214561656612   -0.0012263411827951336
-0.005194566321483914   -0.010774564544356267   -0.001328700170639317
-0.005183848005277889   -0.010692337344314398   -0.0014188501511593937
-0.0037614128358867305   -0.005690421522987766   -0.001056234774999929
-0.002464203269714826   -0.010673214561656612   -0.0012263411827951336
-0.005183848005277889   -0.010692337344314398   -0.0014188501511593937
-0.001744375560727639   -0.0055075087608778125   -0.0010009115185983547
-0.0037614128358867305   -0.005690421522987766   -0.001056234774999929
-0.005194566321483914   -0.010774564544356267   -0.001328700170639317
-0.0017287943186548086   -0.005568163806045505   -0.0009412552839208807
-0.0037756639290898973   -0.005748616540064749   -0.0009444919002909769
-0.005194566321483914   -0.010774564544356267   -0.001328700170639317
-0.002464203269714826   -0.010673214561656612   -0.0012263411827951336
-0.0017287943186548086   -0.005568163806045505   -0.0009412552839208807
-0.0024559850372419343   -0.010704090666897384   -0.001181559246492547
-0.0037756639290898973   -0.005748616540064749   -0.0009444919002909769
-0.0017149269063343306   -0.005597599890003432   -0.0008871986947767222
-0.0024559850372419343   -0.010704090666897384   -0.001181559246492547
-0.0017287943186548086   -0.005568163806045505   -0.0009412552839208807
-0.0037756639290898973   -0.005748616540064749   -0.0009444919002909769
-0.0024559850372419343   -0.010704090666897384   -0.001181559246492547
-0.005207266967079688   -0.010831843414943627   -0.0012450980396378657
-0.005194566321483914   -0.010774564544356267   -0.001328700170639317
-0.0037756639290898973   -0.005748616540064749   -0.0009444919002909769
-0.0024559850372419343   -0.010704090666897384   -0.001181559246492547
-0.005194566321483914   -0.010774564544356267   -0.001328700170639317
-0.0017287943186548086   -0.005568163806045505   -0.0009412552839208807
-0.0037756639290898973   -0.005748616540064749   -0.0009444919002909769
-0.005207266967079688   -0.010831843414943627   -0.0012450980396378657
-0.0017149269063343306   -0.005597599890003432   -0.0008871986947767222
-0.003763831312173475   -0.005778896166514536   -0.0008399309114270586
-0.005207266967079688   -0.010831843414943627   -0.0012450980396378657
-0.0024559850372419343   -0.010704090666897384   -0.001181559246492547
-0.0017149269063343306   -0.005597599890003432   -0.0008871986947767222
-0.0024428765404272772   -0.010713757060646192   -0.001142991637847482
-0.003763831312173475   -0.005778896166514536   -0.0008399309114270586
-0.0016944807343513535   -0.005596925239135508   -0.0008401632746970484
-0.0024428765404272772   -0.010713757060646192   -0.001142991637847482
-0.0017149269063343306   -0.005597599890003432   -0.0008871986947767222
-0.003763831312173475   -0.005778896166514536   -0.0008399309114270586
-0.0024428765404272772   -0.010713757060646192   -0.001142991637847482
-0.005196820642001782   -0.010869613420295774   -0.0011666471590687322
-0.005207266967079688   -0.010831843414943627   -0.0012450980396378657
-0.003763831312173475   -0.005778896166514536   -0.0008399309114270586
-0.0024428765404272772   -0.010713757060646192   -0.001142991637847482
-0.005207266967079688   -0.010831843414943627   -0.0012450980396378657
-0.0017149269063343306   -0.005597599890003432   -0.0008871986947767222
-0.001744375560727639   -0.0055075087608778125   -0.0010009115185983547
-0.0024710333837095915   -0.010620687481325133   -0.001277354110577571
0.0001965453551772398   -0.00551014674413614   -0.0008925236544944247
-0.0017287943186548086   -0.005568163806045505   -0.0009412552839208807
-0.0024710333837095915   -0.010620687481325133   -0.001277354110577571
0.00016183305538790827   -0.010616862568488927   -0.0011897638843360934
0.0001965453551772398   -0.00551014674413614   -0.0008925236544944247
0.0001738799020945371   -0.010640138874289547   -0.0011776825261547747
-0.0017287943186548086   -0.005568163806045505   -0.0009412552839208807
0.00021560438063454454   -0.005538798378007441   -0.0008884751401534267
0.0001738799020945371   -0.010640138874289547   -0.0011776825261547747
0.0001965453551772398   -0.00551014674413614   -0.0008925236544944247
-0.0017287943186548086   -0.005568163806045505   -0.0009412552839208807
0.0001738799020945371   -0.010640138874289547   -0.0011776825261547747
-0.002464203269714826   -0.010673214561656612   -0.0012263411827951336
-0.0024710333837095915   -0.010620687481325133   -0.001277354110577571
-0.0017287943186548086   -0.005568163806045505   -0.0009412552839208807
0.0001738799020945371   -0.010640138874289547   -0.0011776825261547747
-0.0024710333837095915   -0.010620687481325133   -0.001277354110577571
0.0001965453551772398   -0.00551014674413614   -0.0008925236544944247
-0.0017287943186548086   -0.005568163806045505   -0.0009412552839208807
-0.002464203269714826   -0.010673214561656612   -0.0012263411827951336
0.00021560438063454454   -0.005538798378007441   -0.0008884751401534267
-0.0017149269063343306   -0.005597599890003432   -0.0008871986947767222
-0.002464203269714826   -0.010673214561656612   -0.0012263411827951336
0.0001738799020945371   -0.010640138874289547   -0.0011776825261547747
0.00021560438063454454   -0.005538798378007441   -0.0008884751401534267
0.00018183181432841525   -0.010641849807103488   -0.001171671607188
-0.0017149269063343306   -0.005597599890003432   -0.0008871986947767222
0.00022859720625734482   -0.005536961027863764   -0.0008907801080646747
0.00018183181432841525   -0.010641849807103488   -0.001171671607188
0.00021560438063454454   -0.005538798378007441   -0.0008884751401534267
-0.0017149269063343306   -0.005597599890003432   -0.0008871986947767222
0.00018183181432841525   -0.010641849807103488   -0.001171671607188
-0.0024559850372419343   -0.010704090666897384   -0.001181559246492547
-0.002464203269714826   -0.010673214561656612   -0.0012263411827951336
-0.0017149269063343306   -0.005597599890003432   -0.0008871986947767222
0.00018183181432841525   -0.010641849807103488   -0.001171671607188
-0.002464203269714826   -0.010673214561656612   -0.0012263411827951336
0.00021560438063454454   -0.005538798378007441   -0.0008884751401534267
-0.0017149269063343306   -0.005597599890003432   -0.0008871986947767222
-0.0024559850372419343   -0.010704090666897384   -0.001181559246492547
0.00022859720625734482   -0.005536961027863764   -0.0008907801080646747
-0.0016944807343513535   -0.005596925239135508   -0.0008401632746970484
-0.0024559850372419343   -0.010704090666897384   -0.001181559246492547
0.00018183181432841525   -0.010641849807103488   -0.001171671607188
0.00022859720625734482   -0.005536961027863764   -0.0008907801080646747
0.00018776869714854185   -0.010621674731461774   -0.0011720975595029084
-0.0016944807343513535   -0.005596925239135508   -0.0008401632746970484
0.00024249693399772124   -0.005503706908539453   -0.0008995383503694502
0.00018776869714854185   -0.010621674731461774   -0.0011720975595029084
0.00022859720625734482   -0.005536961027863764   -0.0008907801080646747
-0.0016944807343513535   -0.005596925239135508   -0.0008401632746970484
0.00018776869714854185   -0.010621674731461774   -0.0011720975595029084
-0.0024428765404272772   -0.010713757060646192   -0.001142991637847482
-0.0024559850372419343   -0.010704090666897384   -0.001181559246492547
-0.0016944807343513535   -0.005596925239135508   -0.0008401632746970484
0.00018776869714854185   -0.010621674731461774   -0.0011720975595029084
-0.0024559850372419343   -0.010704090666897384   -0.001181559246492547
0.00022859720625734482   -0.005536961027863764   -0.0008907801080646747
0.0001965453551772398   -0.00551014674413614   -0.0008925236544944247
0.00016183305538790827   -0.010616862568488927   -0.0011897638843360934
0.0022536736330745467   -0.005599707464488181   -0.0008421697179669809
0.00021560438063454454   -0.005538798378007441   -0.0008884751401534267
0.00016183305538790827   -0.010616862568488927   -0.0011897638843360934
0.0029072548763136447   -0.010676825104643722   -0.0011546020478530828
0.0022536736330745467   -0.005599707464488181   -0.0008421697179669809
0.002917924055709805   -0.010673267402531552   -0.001182255470889625
0.00021560438063454454   -0.005538798378007441   -0.0008884751401534267
0.002264770052558651   -0.005599258867708761   -0.0008955284868666366
0.002917924055709805   -0.010673267402531552   -0.001182255470889625
0.0022536736330745467   -0.005599707464488181   -0.0008421697179669809
0.00021560438063454454   -0.005538798378007441   -0.0008884751401534267
0.002917924055709805   -0.010673267402531552   -0.001182255470889625
0.0001738799020945371   -0.010640138874289547   -0.0011776825261547747
0.00016183305538790827   -0.010616862568488927   -0.0011897638843360934
0.00021560438063454454   -0.005538798378007441   -0.0008884751401534267
0.002917924055709805   -0.010673267402531552   -0.001182255470889625
0.00016183305538790827   -0.010616862568488927   -0.0011897638843360934
0.0022536736330745467   -0.005599707464488181   -0.0008421697179669809
0.00021560438063454454   -0.005538798378007441   -0.0008884751401534267
0.0001738799020945371   -0.010640138874289547   -0.0011776825261547747
0.002264770052558651   -0.005599258867708761   -0.0008955284868666366
0.00022859720625734482   -0.005536961027863764   -0.0008907801080646747
0.0001738799020945371   -0.010640138874289547   -0.0011776825261547747
0.002917924055709805   -0.010673267402531552   -0.001182255470889625
0.002264770052558651   -0.005599258867708761   -0.0008955284868666366
0.00291127564347603   -0.010648629291350421   -0.0012155332900483022
0.00022859720625734482   -0.005536961027863764   -0.0008907801080646747
0.0022549205424386366   -0.0055689301375579925   -0.0009560750681138122
0.00291127564347603   -0.010648629291350421   -0.0012155332900483022
0.002264770052558651   -0.005599258867708761   -0.0008955284868666366
0.00022859720625734482   -0.005536961027863764   -0.0008907801080646747
0.00291127564347603   -0.010648629291350421   -0.0012155332900483022
0.00018183181432841525   -0.010641849807103488   -0.001171671607188
0.0001738799020945371   -0.010640138874289547   -0.0011776825261547747
0.00022859720625734482   -0.005536961027863764   -0.0008907801080646747
0.00291127564347603   -0.010648629291350421   -0.0012155332900483022
0.0001738799020945371   -0.010640138874289547   -0.0011776825261547747
0.002264770052558651   -0.005599258867708761   -0.0008955284868666366
0.00022859720625734482   -0.005536961027863764   -0.0008907801080646747
0.00018183181432841525   -0.010641849807103488   -0.001171671607188
0.0022549205424386366   -0.0055689301375579925   -0.0009560750681138122
0.00024249693399772124   -0.005503706908539453   -0.0008995383503694502
0.00018183181432841525   -0.010641849807103488   -0.001171671607188
0.00291127564347603   -0.010648629291350421   -0.0012155332900483022
0.0022549205424386366   -0.0055689301375579925   -0.0009560750681138122
0.002900900658870684   -0.010597665915973355   -0.0012551038655391692
0.00024249693399772124   -0.005503706908539453   -0.0008995383503694502
0.0022494995788477335   -0.0055004528376368465   -0.0010215672295285684
0.002900900658870684   -0.010597665915973355   -0.0012551038655391692
0.0022549205424386366   -0.0055689301375579925   -0.0009560750681138122
0.00024249693399772124   -0.005503706908539453   -0.0008995383503694502
0.002900900658870684   -0.010597665915973355   -0.0012551038655391692
0.00018776869714854185   -0.010621674731461774   -0.0011720975595029084
0.00018183181432841525   -0.010641849807103488   -0.001171671607188
0.00024249693399772124   -0.005503706908539453   -0.0008995383503694502
0.002900900658870684   -0.010597665915973355   -0.0012551038655391692
0.00018183181432841525   -0.010641849807103488   -0.001171671607188
0.0022549205424386366   -0.0055689301375579925   -0.0009560750681138122
0.0022536736330745467   -0.005599707464488181   -0.0008421697179669809
0.0029072548763136447   -0.010676825104643722   -0.0011546020478530828
0.004736840485961775   -0.005766069544417916   -0.0008290487772048896
0.002264770052558651   -0.005599258867708761   -0.0008955284868666366
0.0029072548763136447   -0.010676825104643722   -0.0011546020478530828
0.006034264230131646   -0.010785436405809866   -0.0011558567922763956
0.004736840485961775   -0.005766069544417916   -0.0008290487772048896
0.00598287250108857   -0.010766380568941662   -0.00122828582956863
0.002264770052558651   -0.005599258867708761   -0.0008955284868666366
0.004641389609858973   -0.005750082109110403   -0.0009491759015588377
0.00598287250108857   -0.010766380568941662   -0.00122828582956863
0.004736840485961775   -0.005766069544417916   -0.0008290487772048896
0.002264770052558651   -0.005599258867708761   -0.0008955284868666366
0.00598287250108857   -0.010766380568941662   -0.00122828582956863
0.002917924055709805   -0.010673267402531552   -0.001182255470889625
0.0029072548763136447   -0.010676825104643722   -0.0011546020478530828
0.002264770052558651   -0.005599258867708761   -0.0008955284868666366
0.00598287250108857   -0.010766380568941662   -0.00122828582956863
0.0029072548763136447   -0.010676825104643722   -0.0011546020478530828
0.004736840485961775   -0.005766069544417916   -0.0008290487772048896
0.002264770052558651   -0.005599258867708761   -0.0008955284868666366
0.002917924055709805   -0.010673267402531552   -0.001182255470889625
0.004641389609858973   -0.005750082109110403   -0.0009491759015588377
0.0022549205424386366   -0.0055689301375579925   -0.0009560750681138122
0.002917924055709805   -0.010673267402531552   -0.001182255470889625
0.00598287250108857   -0.010766380568941662   -0.00122828582956863
0.004641389609858973   -0.005750082109110403   -0.0009491759015588377
0.00593141789144366   -0.010728490801827379   -0.0013108576406737809
0.0022549205424386366   -0.0055689301375579925   -0.0009560750681138122
0.004556008453716953   -0.0057033600657151   -0.001084419274697167
0.00593141789144366   -0.010728490801827379   -0.0013108576406737809
0.004641389609858973   -0.005750082109110403   -0.0009491759015588377
0.0022549205424386366   -0.0055689301375579925   -0.0009560750681138122
0.00593141789144366   -0.010728490801827379   -0.0013108576406737809
0.00291127564347603   -0.010648629291350421   -0.0012155332900483022
0.002917924055709805   -0.010673267402531552   -0.001182255470889625
0.0022549205424386366   -0.0055689301375579925   -0.0009560750681138122
0.00593141789144366   -0.010728490801827379   -0.0013108576406737809
0.002917924055709805   -0.010673267402531552   -0.001182255470889625
0.004641389609858973   -0.005750082109110403   -0.0009491759015588377
0.0022549205424386366   -0.0055689301375579925   -0.0009560750681138122
0.00291127564347603   -0.010648629291350421   -0.0012155332900483022
0.004556008453716953   -0.0057033600657151   -0.001084419274697167
0.0022494995788477335   -0.0055004528376368465   -0.0010215672295285684
0.00291127564347603   -0.010648629291350421   -0.0012155332900483022
0.00593141789144366   -0.010728490801827379   -0.0013108576406737809
0.004556008453716953   -0.0057033600657151   -0.001084419274697167
0.005839292837629217   -0.010649252423590834   -0.001403583283059727
0.0022494995788477335   -0.0055004528376368465   -0.0010215672295285684
0.004427677113697429   -0.005599614103304912   -0.0012252652765136597
0.005839292837629217   -0.010649252423590834   -0.001403583283059727
0.004556008453716953   -0.0057033600657151   -0.001084419274697167
0.0022494995788477335   -0.0055004528376368465   -0.0010215672295285684
0.005839292837629217   -0.010649252423590834   -0.001403583283059727
0.002900900658870684   -0.010597665915973355   -0.0012551038655391692
0.00291127564347603   -0.010648629291350421   -0.0012155332900483022
0.0022494995788477335   -0.0055004528376368465   -0.0010215672295285684
0.005839292837629217   -0.010649252423590834   -0.001403583283059727
0.00291127564347603   -0.010648629291350421   -0.0012155332900483022
0.004556008453716953   -0.0057033600657151   -0.001084419274697167
-0.008062040762471563   -0.010835925596964226   -0.0016225562648347768
-0.009622501107475588   -0.016821603286436032   -0.0017311739096417722
-0.005183848005277889   -0.010692337344314398   -0.0014188501511593937
-0.008204510748118727   -0.010948340093736878   -0.0014819675210003807
-0.009622501107475588   -0.016821603286436032   -0.0017311739096417722
-0.006247266532959827   -0.016730393979361827   -0.001565345501511607
-0.005183848005277889   -0.010692337344314398   -0.0014188501511593937
-0.0062540961192151506   -0.016801023172454466   -0.0015008937230653442
-0.008204510748118727   -0.010948340093736878   -0.0014819675210003807
-0.005194566321483914   -0.010774564544356267   -0.001328700170639317
-0.0062540961192151506   -0.016801023172454466   -0.0015008937230653442
-0.005183848005277889   -0.010692337344314398   -0.0014188501511593937
-0.008204510748118727   -0.010948340093736878   -0.0014819675210003807
-0.0062540961192151506   -0.016801023172454466   -0.0015008937230653442
-0.009718081823411901   -0.016917189488477653   -0.0016380006514464596
-0.009622501107475588   -0.016821603286436032   -0.0017311739096417722
-0.008204510748118727   -0.010948340093736878   -0.0014819675210003807
-0.0062540961192151506   -0.016801023172454466   -0.0015008937230653442
-0.009622501107475588   -0.016821603286436032   -0.0017311739096417722
-0.005183848005277889   -0.010692337344314398   -0.0014188501511593937
-0.008204510748118727   -0.010948340093736878   -0.0014819675210003807
-0.009718081823411901   -0.016917189488477653   -0.0016380006514464596
-0.005194566321483914   -0.010774564544356267   -0.001328700170639317
-0.00829402842095752   -0.011018895123080543   -0.001350974690962453
-0.009718081823411901   -0.016917189488477653   -0.0016380006514464596
-0.0062540961192151506   -0.016801023172454466   -0.0015008937230653442
-0.005194566321483914   -0.010774564544356267   -0.001328700170639317
-0.006258749492667758   -0.016857077415052737   -0.001442876669075418
-0.00829402842095752   -0.011018895123080543   -0.001350974690962453
-0.005207266967079688   -0.010831843414943627   -0.0012450980396378657
-0.006258749492667758   -0.016857077415052737   -0.001442876669075418
-0.005194566321483914   -0.010774564544356267   -0.001328700170639317
-0.00829402842095752   -0.011018895123080543   -0.001350974690962453
-0.006258749492667758   -0.016857077415052737   -0.001442876669075418
-0.00977258686009917   -0.01698489106390405   -0.0015537974463377922
-0.009718081823411901   -0.016917189488477653   -0.0016380006514464596
-0.00829402842095752   -0.011018895123080543   -0.001350974690962453
-0.006258749492667758   -0.016857077415052737   -0.001442876669075418
-0.009718081823411901   -0.016917189488477653   -0.0016380006514464596
-0.005194566321483914   -0.010774564544356267   -0.001328700170639317
-0.00829402842095752   -0.011018895123080543   -0.001350974690962453
-0.00977258686009917   -0.01698489106390405   -0.0015537974463377922
-0.005207266967079688   -0.010831843414943627   -0.0012450980396378657
-0.008395880873269845   -0.011069776070187892   -0.0012304757480011027
-0.00977258686009917   -0.01698489106390405   -0.0015537974463377922
-0.006258749492667758   -0.016857077415052737   -0.001442876669075418
-0.005207266967079688   -0.010831843414943627   -0.0012450980396378657
-0.006245106865782291   -0.01690321183568707   -0.001390434619731484
-0.008395880873269845   -0.011069776070187892   -0.0012304757480011027
-0.005196820642001782   -0.010869613420295774   -0.0011666471590687322
-0.006245106865782291   -0.01690321183568707   -0.001390434619731484
-0.005207266967079688   -0.010831843414943627   -0.0012450980396378657
-0.008395880873269845   -0.011069776070187892   -0.0012304757480011027
-0.006245106865782291   -0.01690321183568707   -0.001390434619731484
-0.009828672766230307   -0.017045701340257773   -0.0014796345245468457
-0.00977258686009917   -0.01698489106390405   -0.0015537974463377922
-0.008395880873269845   -0.011069776070187892   -0.0012304757480011027
-0.006245106865782291   -0.01690321183568707   -0.001390434619731484
-0.00977258686009917   -0.01698489106390405   -0.0015537974463377922
-0.005207266967079688   -0.010831843414943627   -0.0012450980396378657
-0.005183848005277889   -0.010692337344314398   -0.0014188501511593937
-0.006247266532959827   -0.016730393979361827   -0.001565345501511607
-0.0024710333837095915   -0.010620687481325133   -0.001277354110577571
-0.005194566321483914   -0.010774564544356267   -0.001328700170639317
-0.006247266532959827   -0.016730393979361827   -0.001565345501511607
-0.003083647542249952   -0.016683148854227642   -0.0014505408763857673
-0.0024710333837095915   -0.010620687481325133   -0.001277354110577571
-0.00307712375915525   -0.016727417026671645   -0.0014079085060488858
-0.005194566321483914   -0.010774564544356267   -0.001328700170639317
-0.002464203269714826   -0.010673214561656612   -0.0012263411827951336
-0.00307712375915525   -0.016727417026671645   -0.0014079085060488858
-0.0024710333837095915   -0.010620687481325133   -0.001277354110577571
-0.005194566321483914   -0.010774564544356267   -0.001328700170639317
-0.00307712375915525   -0.016727417026671645   -0.0014079085060488858
-0.0062540961192151506   -0.016801023172454466   -0.0015008937230653442
-0.006247266532959827   -0.016730393979361827   -0.001565345501511607
-0.005194566321483914   -0.010774564544356267   -0.001328700170639317
-0.00307712375915525   -0.016727417026671645   -0.0014079085060488858
-0.006247266532959827   -0.016730393979361827   -0.001565345501511607
-0.0024710333837095915   -0.010620687481325133   -0.001277354110577571
-0.005194566321483914   -0.010774564544356267   -0.001328700170639317
-0.0062540961192151506   -0.016801023172454466   -0.0015008937230653442
-0.002464203269714826   -0.010673214561656612   -0.0012263411827951336
-0.005207266967079688   -0.010831843414943627   -0.0012450980396378657
-0.0062540961192151506   -0.016801023172454466   -0.0015008937230653442
-0.00307712375915525   -0.016727417026671645   -0.0014079085060488858
-0.002464203269714826   -0.010673214561656612   -0.0012263411827951336
-0.0030684647093030476   -0.016759465303506426   -0.0013716106539564377
-0.005207266967079688   -0.010831843414943627   -0.0012450980396378657
-0.0024559850372419343   -0.010704090666897384   -0.001181559246492547
-0.0030684647093030476   -0.016759465303506426   -0.0013716106539564377
-0.002464203269714826   -0.010673214561656612   -0.0012263411827951336
-0.005207266967079688   -0.010831843414943627   -0.0012450980396378657
-0.0030684647093030476   -0.016759465303506426   -0.0013716106539564377
-0.006258749492667758   -0.016857077415052737   -0.001442876669075418
-0.0062540961192151506   -0.016801023172454466   -0.0015008937230653442
-0.005207266967079688   -0.010831843414943627   -0.0012450980396378657
-0.0030684647093030476   -0.016759465303506426   -0.0013716106539564377
-0.0062540961192151506   -0.016801023172454466   -0.0015008937230653442
-0.002464203269714826   -0.010673214561656612   -0.0012263411827951336
-0.005207266967079688   -0.010831843414943627   -0.0012450980396378657
-0.006258749492667758   -0.016857077415052737   -0.001442876669075418
-0.0024559850372419343   -0.010704090666897384   -0.001181559246492547
-0.005196820642001782   -0.010869613420295774   -0.0011666471590687322
-0.006258749492667758   -0.016857077415052737   -0.001442876669075418
-0.0030684647093030476   -0.016759465303506426   -0.0013716106539564377
-0.0024559850372419343   -0.010704090666897384   -0.001181559246492547
-0.0030558644977530212   -0.016779504495843874   -0.0013417548213932578
-0.005196820642001782   -0.010869613420295774   -0.0011666471590687322
-0.0024428765404272772   -0.010713757060646192   -0.001142991637847482
-0.0030558644977530212   -0.016779504495843874   -0.0013417548213932578
-0.0024559850372419343   -0.010704090666897384   -0.001181559246492547
-0.005196820642001782   -0.010869613420295774   -0.0011666471590687322
-0.0030558644977530212   -0.016779504495843874   -0.0013417548213932578
-0.006245106865782291   -0.01690321183568707   -0.001390434619731484
-0.006258749492667758   -0.016857077415052737   -0.001442876669075418
-0.005196820642001782   -0.010869613420295774   -0.0011666471590687322
-0.0030558644977530212   -0.016779504495843874   -0.0013417548213932578
-0.006258749492667758   -0.016857077415052737   -0.001442876669075418
-0.0024559850372419343   -0.010704090666897384   -0.001181559246492547
-0.0024710333837095915   -0.010620687481325133   -0.001277354110577571
-0.003083647542249952   -0.016683148854227642   -0.0014505408763857673
0.00016183305538790827   -0.010616862568488927   -0.0011897638843360934
-0.002464203269714826   -0.010673214561656612   -0.0012263411827951336
-0.003083647542249952   -0.016683148854227642   -0.0014505408763857673
-6.1032562442201555e-06   -0.0166749590453011   -0.0013838267232749045
0.00016183305538790827   -0.010616862568488927   -0.0011897638843360934
5.609990540483707e-06   -0.0166927030811316   -0.0013631915944206298
-0.002464203269714826   -0.010673214561656612   -0.0012263411827951336
0.0001738799020945371   -0.010640138874289547   -0.0011776825261547747
5.609990540483707e-06   -0.0166927030811316   -0.0013631915944206298
0.00016183305538790827   -0.010616862568488927   -0.0011897638843360934
-0.002464203269714826   -0.010673214561656612   -0.0012263411827951336
5.609990540483707e-06   -0.0166927030811316   -0.0013631915944206298
-0.00307712375915525   -0.016727417026671645   -0.0014079085060488858
-0.003083647542249952   -0.016683148854227642   -0.0014505408763857673
-0.002464203269714826   -0.010673214561656612   -0.0012263411827951336
5.609990540483707e-06   -0.0166927030811316   -0.0013631915944206298
-0.003083647542249952   -0.016683148854227642   -0.0014505408763857673
0.00016183305538790827   -0.010616862568488927   -0.0011897638843360934
-0.002464203269714826   -0.010673214561656612   -0.0012263411827951336
-0.00307712375915525   -0.016727417026671645   -0.0014079085060488858
0.0001738799020945371   -0.010640138874289547   -0.0011776825261547747
-0.0024559850372419343   -0.010704090666897384   -0.001181559246492547
-0.00307712375915525   -0.016727417026671645   -0.0014079085060488858
5.609990540483707e-06   -0.0166927030811316   -0.0013631915944206298
0.0001738799020945371   -0.010640138874289547   -0.0011776825261547747
1.4138309429987346e-05   -0.016698142111222204   -0.0013488131240540406
-0.0024559850372419343   -0.010704090666897384   -0.001181559246492547
0.00018183181432841525   -0.010641849807103488   -0.001171671607188
1.4138309429987346e-05   -0.016698142111222204   -0.0013488131240540406
0.0001738799020945371   -0.010640138874289547   -0.0011776825261547747
-0.0024559850372419343   -0.010704090666897384   -0.001181559246492547
1.4138309429987346e-05   -0.016698142111222204   -0.0013488131240540406
-0.0030684647093030476   -0.016759465303506426   -0.0013716106539564377
-0.00307712375915525   -0.016727417026671645   -0.0014079085060488858
-0.0024559850372419343   -0.010704090666897384   -0.001181559246492547
1.4138309429987346e-05   -0.016698142111222204   -0.0013488131240540406
-0.00307712375915525   -0.016727417026671645   -0.0014079085060488858
0.0001738799020945371   -0.010640138874289547   -0.0011776825261547747
-0.0024559850372419343   -0.010704090666897384   -0.001181559246492547
-0.0030684647093030476   -0.016759465303506426   -0.0013716106539564377
0.00018183181432841525   -0.010641849807103488   -0.001171671607188
-0.0024428765404272772   -0.010713757060646192   -0.001142991637847482
-0.0030684647093030476   -0.016759465303506426   -0.0013716106539564377
1.4138309429987346e-05   -0.016698142111222204   -0.0013488131240540406
0.00018183181432841525   -0.010641849807103488   -0.001171671607188
1.980705182516311e-05   -0.016691106832016196   -0.0013409661348542416
-0.0024428765404272772   -0.010713757060646192   -0.001142991637847482
0.00018776869714854185   -0.010621674731461774   -0.0011720975595029084
1.980705182516311e-05   -0.016691106832016196   -0.0013409661348542416
0.00018183181432841525   -0.010641849807103488   -0.001171671607188
-0.0024428765404272772   -0.010713757060646192   -0.001142991637847482
1.980705182516311e-05   -0.016691106832016196   -0.0013409661348542416
-0.0030558644977530212   -0.016779504495843874   -0.0013417548213932578
-0.0030684647093030476   -0.016759465303506426   -0.0013716106539564377
-0.0024428765404272772   -0.010713757060646192   -0.001142991637847482
1.980705182516311e-05   -0.016691106832016196   -0.0013409661348542416
-0.0030684647093030476   -0.016759465303506426   -0.0013716106539564377
0.00018183181432841525   -0.010641849807103488   -0.001171671607188
0.00016183305538790827   -0.010616862568488927   -0.0011897638843360934
-6.1032562442201555e-06   -0.0166749590453011   -0.0013838267232749045
0.0029072548763136447   -0.010676825104643722   -0.0011546020478530828
0.0001738799020945371   -0.010640138874289547   -0.0011776825261547747
-6.1032562442201555e-06   -0.0166749590453011   -0.0013838267232749045
0.0031773108031336716   -0.01670247140758594   -0.0013649591648400789
0.0029072548763136447   -0.010676825104643722   -0.0011546020478530828
0.0031915484764265265   -0.016695212100694818   -0.0013667795596687413
0.0001738799020945371   -0.010640138874289547   -0.0011776825261547747
0.002917924055709805   -0.010673267402531552   -0.001182255470889625
0.0031915484764265265   -0.016695212100694818   -0.0013667795596687413
0.0029072548763136447   -0.010676825104643722   -0.0011546020478530828
0.0001738799020945371   -0.010640138874289547   -0.0011776825261547747
0.0031915484764265265   -0.016695212100694818   -0.0013667795596687413
5.609990540483707e-06   -0.0166927030811316   -0.0013631915944206298
-6.1032562442201555e-06   -0.0166749590453011   -0.0013838267232749045
0.0001738799020945371   -0.010640138874289547   -0.0011776825261547747
0.0031915484764265265   -0.016695212100694818   -0.0013667795596687413
-6.1032562442201555e-06   -0.0166749590453011   -0.0013838267232749045
0.0029072548763136447   -0.010676825104643722   -0.0011546020478530828
0.0001738799020945371   -0.010640138874289547   -0.0011776825261547747
5.609990540483707e-06   -0.0166927030811316   -0.0013631915944206298
0.002917924055709805   -0.010673267402531552   -0.001182255470889625
0.00018183181432841525   -0.010641849807103488   -0.001171671607188
5.609990540483707e-06   -0.0166927030811316   -0.0013631915944206298
0.0031915484764265265   -0.016695212100694818   -0.0013667795596687413
0.002917924055709805   -0.010673267402531552   -0.001182255470889625
0.0031933645223111394   -0.01667661578016998   -0.0013745179909628578
0.00018183181432841525   -0.010641849807103488   -0.001171671607188
0.00291127564347603   -0.010648629291350421   -0.0012155332900483022
0.0031933645223111394   -0.01667661578016998   -0.0013745179909628578
0.002917924055709805   -0.010673267402531552   -0.001182255470889625
0.00018183181432841525   -0.010641849807103488   -0.001171671607188
0.0031933645223111394   -0.01667661578016998   -0.0013745179909628578
1.4138309429987346e-05   -0.016698142111222204   -0.0013488131240540406
5.609990540483707e-06   -0.0166927030811316   -0.0013631915944206298
0.00018183181432841525   -0.010641849807103488   -0.001171671607188
0.0031933645223111394   -0.01667661578016998   -0.0013745179909628578
5.609990540483707e-06   -0.0166927030811316   -0.0013631915944206298
0.002917924055709805   -0.010673267402531552   -0.001182255470889625
0.00018183181432841525   -0.010641849807103488   -0.001171671607188
1.4138309429987346e-05   -0.016698142111222204   -0.0013488131240540406
0.00291127564347603   -0.010648629291350421   -0.0012155332900483022
0.00018776869714854185   -0.010621674731461774   -0.0011720975595029084
1.4138309429987346e-05   -0.016698142111222204   -0.0013488131240540406
0.0031933645223111394   -0.01667661578016998   -0.0013745179909628578
0.00291127564347603   -0.010648629291350421   -0.0012155332900483022
0.0031871459595451033   -0.016642053594377464   -0.0013884022313275309
0.00018776869714854185   -0.010621674731461774   -0.0011720975595029084
0.002900900658870684   -0.010597665915973355   -0.0012551038655391692
0.0031871459595451033   -0.016642053594377464   -0.0013884022313275309
0.00291127564347603   -0.010648629291350421   -0.0012155332900483022
0.00018776869714854185   -0.010621674731461774   -0.0011720975595029084
0.0031871459595451033   -0.016642053594377464   -0.0013884022313275309
1.980705182516311e-05   -0.016691106832016196   -0.0013409661348542416
1.4138309429987346e-05   -0.016698142111222204   -0.0013488131240540406
0.00018776869714854185   -0.010621674731461774   -0.0011720975595029084
0.0031871459595451033   -0.016642053594377464   -0.0013884022313275309
1.4138309429987346e-05   -0.016698142111222204   -0.0013488131240540406
0.00291127564347603   -0.010648629291350421   -0.0012155332900483022
0.0029072548763136447   -0.010676825104643722   -0.0011546020478530828
0.0031773108031336716   -0.01670247140758594   -0.0013649591648400789
0.006034264230131646   -0.010785436405809866   -0.0011558567922763956
0.002917924055709805   -0.010673267402531552   -0.001182255470889625
0.0031773108031336716   -0.01670247140758594   -0.0013649591648400789
0.006692512307537829   -0.016752911342182434   -0.0013836128857683998
0.006034264230131646   -0.010785436405809866   -0.0011558567922763956
0.006687515947573331   -0.016728690542562173   -0.0014095837910085237
0.002917924055709805   -0.010673267402531552   -0.001182255470889625
0.00598287250108857   -0.010766380568941662   -0.00122828582956863
0.006687515947573331   -0.016728690542562173   -0.0014095837910085237
0.006034264230131646   -0.010785436405809866   -0.0011558567922763956
0.002917924055709805   -0.010673267402531552   -0.001182255470889625
0.006687515947573331   -0.016728690542562173   -0.0014095837910085237
0.0031915484764265265   -0.016695212100694818   -0.0013667795596687413
0.0031773108031336716   -0.01670247140758594   -0.0013649591648400789
0.002917924055709805   -0.010673267402531552   -0.001182255470889625
0.006687515947573331   -0.016728690542562173   -0.0014095837910085237
0.0031773108031336716   -0.01670247140758594   -0.0013649591648400789
0.006034264230131646   -0.010785436405809866   -0.0011558567922763956
0.002917924055709805   -0.010673267402531552   -0.001182255470889625
0.0031915484764265265   -0.016695212100694818   -0.0013667795596687413
0.00598287250108857   -0.010766380568941662   -0.00122828582956863
0.00291127564347603   -0.010648629291350421   -0.0012155332900483022
0.0031915484764265265   -0.016695212100694818   -0.0013667795596687413
0.006687515947573331   -0.016728690542562173   -0.0014095837910085237
0.00598287250108857   -0.010766380568941662   -0.00122828582956863
0.006671808248751282   -0.016698407886923956   -0.0014451612150036756
0.00291127564347603   -0.010648629291350421   -0.0012155332900483022
0.00593141789144366   -0.010728490801827379   -0.0013108576406737809
0.006671808248751282   -0.016698407886923956   -0.0014451612150036756
0.00598287250108857   -0.010766380568941662   -0.00122828582956863
0.00291127564347603   -0.010648629291350421   -0.0012155332900483022
0.006671808248751282   -0.016698407886923956   -0.0014451612150036756
0.0031933645223111394   -0.01667661578016998   -0.0013745179909628578
0.0031915484764265265   -0.016695212100694818   -0.0013667795596687413
0.00291127564347603   -0.010648629291350421   -0.0012155332900483022
0.006671808248751282   -0.016698407886923956   -0.0014451612150036756
0.0031915484764265265   -0.016695212100694818   -0.0013667795596687413
0.00598287250108857   -0.010766380568941662   -0.00122828582956863
0.00291127564347603   -0.010648629291350421   -0.0012155332900483022
0.0031933645223111394   -0.01667661578016998   -0.0013745179909628578
0.00593141789144366   -0.010728490801827379   -0.0013108576406737809
0.002900900658870684   -0.010597665915973355   -0.0012551038655391692
0.0031933645223111394   -0.01667661578016998   -0.0013745179909628578
0.006671808248751282   -0.016698407886923956   -0.0014451612150036756
0.00593141789144366   -0.010728490801827379   -0.0013108576406737809
0.006627239447022034   -0.01664091633407407   -0.001490275395365621
0.002900900658870684   -0.010597665915973355   -0.0012551038655391692
0.005839292837629217   -0.010649252423590834   -0.001403583283059727
0.006627239447022034   -0.01664091633407407   -0.001490275395365621
0.00593141789144366   -0.010728490801827379   -0.0013108576406737809
0.002900900658870684   -0.010597665915973355   -0.0012551038655391692
0.006627239447022034   -0.01664091633407407   -0.001490275395365621
0.0031871459595451033   -0.016642053594377464   -0.0013884022313275309
0.0031933645223111394   -0.01667661578016998   -0.0013745179909628578
0.002900900658870684   -0.010597665915973355   -0.0012551038655391692
0.006627239447022034   -0.01664091633407407   -0.001490275395365621
0.0031933645223111394   -0.01667661578016998   -0.0013745179909628578
0.00593141789144366   -0.010728490801827379   -0.0013108576406737809
-0.009622501107475588   -0.016821603286436032   -0.0017311739096417722
-0.010565002543394082   -0.023331669410340834   -0.0017637131661246215
-0.006247266532959827   -0.016730393979361827   -0.001565345501511607
-0.009718081823411901   -0.016917189488477653   -0.0016380006514464596
-0.010565002543394082   -0.023331669410340834   -0.0017637131661246215
-0.006944457590400775   -0.023294634819935975   -0.0016318544390899275
-0.006247266532959827   -0.016730393979361827   -0.001565345501511607
-0.0069411032797474514   -0.023354784253340984   -0.0015923758141425579
-0.009718081823411901   -0.016917189488477653   -0.0016380006514464596
-0.0062540961192151506   -0.016801023172454466   -0.0015008937230653442
-0.0069411032797474514   -0.023354784253340984   -0.0015923758141425579
-0.006247266532959827   -0.016730393979361827   -0.001565345501511607
-0.009718081823411901   -0.016917189488477653   -0.0016380006514464596
-0.0069411032797474514   -0.023354784253340984   -0.0015923758141425579
-0.010609214039841457   -0.023412558444656232   -0.0017158317320282593
-0.010565002543394082   -0.023331669410340834   -0.0017637131661246215
-0.009718081823411901   -0.016917189488477653   -0.0016380006514464596
-0.0069411032797474514   -0.023354784253340984   -0.0015923758141425579
-0.010565002543394082   -0.023331669410340834   -0.0017637131661246215
-0.006247266532959827   -0.016730393979361827   -0.001565345501511607
-0.009718081823411901   -0.016917189488477653   -0.0016380006514464596
-0.010609214039841457   -0.023412558444656232   -0.0017158317320282593
-0.0062540961192151506   -0.016801023172454466   -0.0015008937230653442
-0.00977258686009917   -0.01698489106390405   -0.0015537974463377922
-0.010609214039841457   -0.023412558444656232   -0.0017158317320282593
-0.0069411032797474514   -0.023354784253340984   -0.0015923758141425579
-0.0062540961192151506   -0.016801023172454466   -0.0015008937230653442
-0.006931200222729198   -0.023410344288748376   -0.0015594547235133363
-0.00977258686009917   -0.01698489106390405   -0.0015537974463377922
-0.006258749492667758   -0.016857077415052737   -0.001442876669075418
-0.006931200222729198   -0.023410344288748376   -0.0015594547235133363
-0.0062540961192151506   -0.016801023172454466   -0.0015008937230653442
-0.00977258686009917   -0.01698489106390405   -0.0015537974463377922
-0.006931200222729198   -0.023410344288748376   -0.0015594547235133363
-0.010622806842326584   -0.023478621112767   -0.0016773865626891313
-0.010609214039841457   -0.023412558444656232   -0.0017158317320282593
-0.00977258686009917   -0.01698489106390405   -0.0015537974463377922
-0.006931200222729198   -0.023410344288748376   -0.0015594547235133363
-0.010609214039841457   -0.023412558444656232   -0.0017158317320282593
-0.0062540961192151506   -0.016801023172454466   -0.0015008937230653442
-0.00977258686009917   -0.01698489106390405   -0.0015537974463377922
-0.010622806842326584   -0.023478621112767   -0.0016773865626891313
-0.006258749492667758   -0.016857077415052737   -0.001442876669075418
-0.009828672766230307   -0.017045701340257773   -0.0014796345245468457
-0.010622806842326584   -0.023478621112767   -0.0016773865626891313
-0.006931200222729198   -0.023410344288748376   -0.0015594547235133363
-0.006258749492667758   -0.016857077415052737   -0.001442876669075418
-0.0069076972394104185   -0.023465556826520025   -0.0015326254994408811
-0.009828672766230307   -0.017045701340257773   -0.0014796345245468457
-0.006245106865782291   -0.01690321183568707   -0.001390434619731484
-0.0069076972394104185   -0.023465556826520025   -0.0015326254994408811
-0.006258749492667758   -0.016857077415052737   -0.001442876669075418
-0.009828672766230307   -0.017045701340257773   -0.0014796345245468457
-0.0069076972394104185   -0.023465556826520025   -0.0015326254994408811
-0.010626812300858712   -0.023550482074436177   -0.0016491950608496452
-0.010622806842326584   -0.023478621112767   -0.0016773865626891313
-0.009828672766230307   -0.017045701340257773   -0.0014796345245468457
-0.0069076972394104185   -0.023465556826520025   -0.0015326254994408811
-0.010622806842326584   -0.023478621112767   -0.0016773865626891313
-0.006258749492667758   -0.016857077415052737   -0.001442876669075418
-0.006247266532959827   -0.016730393979361827   -0.001565345501511607
-0.006944457590400775   -0.023294634819935975   -0.0016318544390899275
-0.003083647542249952   -0.016683148854227642   -0.0014505408763857673
-0.0062540961192151506   -0.016801023172454466   -0.0015008937230653442
-0.006944457590400775   -0.023294634819935975   -0.0016318544390899275
-0.0035813644578376875   -0.02327324344153136   -0.0015421069729189415
-0.003083647542249952   -0.016683148854227642   -0.0014505408763857673
-0.0035682212504273008   -0.02330959861489276   -0.0015075895899512883
-0.0062540961192151506   -0.016801023172454466   -0.0015008937230653442
-0.00307712375915525   -0.016727417026671645   -0.0014079085060488858
-0.0035682212504273008   -0.02330959861489276   -0.0015075895899512883
-0.003083647542249952   -0.016683148854227642   -0.0014505408763857673
-0.0062540961192151506   -0.016801023172454466   -0.0015008937230653442
-0.0035682212504273008   -0.02330959861489276   -0.0015075895899512883
-0.0069411032797474514   -0.023354784253340984   -0.0015923758141425579
-0.006944457590400775   -0.023294634819935975   -0.0016318544390899275
-0.0062540961192151506   -0.016801023172454466   -0.0015008937230653442
-0.0035682212504273008   -0.02330959861489276   -0.0015075895899512883
-0.006944457590400775   -0.023294634819935975   -0.0016318544390899275
-0.003083647542249952   -0.016683148854227642   -0.0014505408763857673
-0.0062540961192151506   -0.016801023172454466   -0.0015008937230653442
-0.0069411032797474514   -0.023354784253340984   -0.0015923758141425579
-0.00307712375915525   -0.016727417026671645   -0.0014079085060488858
-0.006258749492667758   -0.016857077415052737   -0.001442876669075418
-0.0069411032797474514   -0.023354784253340984   -0.0015923758141425579
-0.0035682212504273008   -0.02330959861489276   -0.0015075895899512883
-0.00307712375915525   -0.016727417026671645   -0.0014079085060488858
-0.00355224500357132   -0.023343013618366108   -0.0014796318845605803
-0.006258749492667758   -0.016857077415052737   -0.001442876669075418
-0.0030684647093030476   -0.016759465303506426   -0.0013716106539564377
-0.00355224500357132   -0.023343013618366108   -0.0014796318845605803
-0.00307712375915525   -0.016727417026671645   -0.0014079085060488858
-0.006258749492667758   -0.016857077415052737   -0.001442876669075418
-0.00355224500357132   -0.023343013618366108   -0.0014796318845605803
-0.006931200222729198   -0.023410344288748376   -0.0015594547235133363
-0.0069411032797474514   -0.023354784253340984   -0.0015923758141425579
-0.006258749492667758   -0.016857077415052737   -0.001442876669075418
-0.00355224500357132   -0.023343013618366108   -0.0014796318845605803
-0.0069411032797474514   -0.023354784253340984   -0.0015923758141425579
-0.00307712375915525   -0.016727417026671645   -0.0014079085060488858
-0.006258749492667758   -0.016857077415052737   -0.001442876669075418
-0.006931200222729198   -0.023410344288748376   -0.0015594547235133363
-0.0030684647093030476   -0.016759465303506426   -0.0013716106539564377
-0.006245106865782291   -0.01690321183568707   -0.001390434619731484
-0.006931200222729198   -0.023410344288748376   -0.0015594547235133363
-0.00355224500357132   -0.023343013618366108   -0.0014796318845605803
-0.0030684647093030476   -0.016759465303506426   -0.0013716106539564377
-0.003533156428218164   -0.02337359953709563   -0.0014583946656166733
-0.006245106865782291   -0.01690321183568707   -0.001390434619731484
-0.0030558644977530212   -0.016779504495843874   -0.0013417548213932578
-0.003533156428218164   -0.02337359953709563   -0.0014583946656166733
-0.0030684647093030476   -0.016759465303506426   -0.0013716106539564377
-0.006245106865782291   -0.01690321183568707   -0.001390434619731484
-0.003533156428218164   -0.02337359953709563   -0.0014583946656166733
-0.0069076972394104185   -0.023465556826520025   -0.0015326254994408811
-0.006931200222729198   -0.023410344288748376   -0.0015594547235133363
-0.006245106865782291   -0.01690321183568707   -0.001390434619731484
-0.003533156428218164   -0.02337359953709563   -0.0014583946656166733
-0.006931200222729198   -0.023410344288748376   -0.0015594547235133363
-0.0030684647093030476   -0.016759465303506426   -0.0013716106539564377
-0.003083647542249952   -0.016683148854227642   -0.0014505408763857673
-0.0035813644578376875   -0.02327324344153136   -0.0015421069729189415
-6.1032562442201555e-06   -0.0166749590453011   -0.0013838267232749045
-0.00307712375915525   -0.016727417026671645   -0.0014079085060488858
-0.0035813644578376875   -0.02327324344153136   -0.0015421069729189415
-0.0003093091349882413   -0.02326089794439211   -0.001495849364943611
-6.1032562442201555e-06   -0.0166749590453011   -0.0013838267232749045
-0.00029115643141419537   -0.02327299566034846   -0.001466645486040743
-0.00307712375915525   -0.016727417026671645   -0.0014079085060488858
5.609990540483707e-06   -0.0166927030811316   -0.0013631915944206298
-0.00029115643141419537   -0.02327299566034846   -0.001466645486040743
-6.1032562442201555e-06   -0.0166749590453011   -0.0013838267232749045
-0.00307712375915525   -0.016727417026671645   -0.0014079085060488858
-0.00029115643141419537   -0.02327299566034846   -0.001466645486040743
-0.0035682212504273008   -0.02330959861489276   -0.0015075895899512883
-0.0035813644578376875   -0.02327324344153136   -0.0015421069729189415
-0.00307712375915525   -0.016727417026671645   -0.0014079085060488858
-0.00029115643141419537   -0.02327299566034846   -0.001466645486040743
-0.0035813644578376875   -0.02327324344153136   -0.0015421069729189415
-6.1032562442201555e-06   -0.0166749590453011   -0.0013838267232749045
-0.00307712375915525   -0.016727417026671645   -0.0014079085060488858
-0.0035682212504273008   -0.02330959861489276   -0.0015075895899512883
5.609990540483707e-06   -0.0166927030811316   -0.0013631915944206298
-0.0030684647093030476   -0.016759465303506426   -0.0013716106539564377
-0.0035682212504273008   -0.02330959861489276   -0.0015075895899512883
-0.00029115643141419537   -0.02327299566034846   -0.001466645486040743
5.609990540483707e-06   -0.0166927030811316   -0.0013631915944206298
-0.00027536191707224427   -0.023281941732795734   -0.0014439473700423092
-0.0030684647093030476   -0.016759465303506426   -0.0013716106539564377
1.4138309429987346e-05   -0.016698142111222204   -0.0013488131240540406
-0.00027536191707224427   -0.023281941732795734   -0.0014439473700423092
5.609990540483707e-06   -0.0166927030811316   -0.0013631915944206298
-0.0030684647093030476   -0.016759465303506426   -0.0013716106539564377
-0.00027536191707224427   -0.023281941732795734   -0.0014439473700423092
-0.00355224500357132   -0.023343013618366108   -0.0014796318845605803
-0.0035682212504273008   -0.02330959861489276   -0.0015075895899512883
-0.0030684647093030476   -0.016759465303506426   -0.0013716106539564377
-0.00027536191707224427   -0.023281941732795734   -0.0014439473700423092
-0.0035682212504273008   -0.02330959861489276   -0.0015075895899512883
5.609990540483707e-06   -0.0166927030811316   -0.0013631915944206298
-0.0030684647093030476   -0.016759465303506426   -0.0013716106539564377
-0.00355224500357132   -0.023343013618366108   -0.0014796318845605803
1.4138309429987346e-05   -0.016698142111222204   -0.0013488131240540406
-0.0030558644977530212   -0.016779504495843874   -0.0013417548213932578
-0.00355224500357132   -0.023343013618366108   -0.0014796318845605803
-0.00027536191707224427   -0.023281941732795734   -0.0014439473700423092
1.4138309429987346e-05   -0.016698142111222204   -0.0013488131240540406
-0.0002631711982194418   -0.023287688247368314   -0.0014279905128539666
-0.0030558644977530212   -0.016779504495843874   -0.0013417548213932578
1.980705182516311e-05   -0.016691106832016196   -0.0013409661348542416
-0.0002631711982194418   -0.023287688247368314   -0.0014279905128539666
1.4138309429987346e-05   -0.016698142111222204   -0.0013488131240540406
-0.0030558644977530212   -0.016779504495843874   -0.0013417548213932578
-0.0002631711982194418   -0.023287688247368314   -0.0014279905128539666
-0.003533156428218164   -0.02337359953709563   -0.0014583946656166733
-0.00355224500357132   -0.023343013618366108   -0.0014796318845605803
-0.0030558644977530212   -0.016779504495843874   -0.0013417548213932578
-0.0002631711982194418   -0.023287688247368314   -0.0014279905128539666
-0.00355224500357132   -0.023343013618366108   -0.0014796318845605803
1.4138309429987346e-05   -0.016698142111222204   -0.0013488131240540406
-6.1032562442201555e-06   -0.0166749590453011   -0.0013838267232749045
-0.0003093091349882413   -0.02326089794439211   -0.001495849364943611
0.0031773108031336716   -0.01670247140758594   -0.0013649591648400789
5.609990540483707e-06   -0.0166927030811316   -0.0013631915944206298
-0.0003093091349882413   -0.02326089794439211   -0.001495849364943611
0.003062482042387581   -0.023255466774295585   -0.0014935147019969276
0.0031773108031336716   -0.01670247140758594   -0.0013649591648400789
0.003086392340318161   -0.023244049727611057   -0.0014698877204891655
5.609990540483707e-06   -0.0166927030811316   -0.0013631915944206298
0.0031915484764265265   -0.016695212100694818   -0.0013667795596687413
0.003086392340318161   -0.023244049727611057   -0.0014698877204891655
0.0031773108031336716   -0.01670247140758594   -0.0013649591648400789
5.609990540483707e-06   -0.0166927030811316   -0.0013631915944206298
0.003086392340318161   -0.023244049727611057   -0.0014698877204891655
-0.00029115643141419537   -0.02327299566034846   -0.001466645486040743
-0.0003093091349882413   -0.02326089794439211   -0.001495849364943611
5.609990540483707e-06   -0.0166927030811316   -0.0013631915944206298
0.003086392340318161   -0.023244049727611057   -0.0014698877204891655
-0.0003093091349882413   -0.02326089794439211   -0.001495849364943611
0.0031773108031336716   -0.01670247140758594   -0.0013649591648400789
5.609990540483707e-06   -0.0166927030811316   -0.0013631915944206298
-0.00029115643141419537   -0.02327299566034846   -0.001466645486040743
0.0031915484764265265   -0.016695212100694818   -0.0013667795596687413
1.4138309429987346e-05   -0.016698142111222204   -0.0013488131240540406
-0.00029115643141419537   -0.02327299566034846   -0.001466645486040743
0.003086392340318161   -0.023244049727611057   -0.0014698877204891655
0.0031915484764265265   -0.016695212100694818   -0.0013667795596687413
0.003102652606511059   -0.02323085392863421   -0.0014525779466775112
1.4138309429987346e-05   -0.016698142111222204   -0.0013488131240540406
0.0031933645223111394   -0.01667661578016998   -0.0013745179909628578
0.003102652606511059   -0.02323085392863421   -0.0014525779466775112
0.0031915484764265265   -0.016695212100694818   -0.0013667795596687413
1.4138309429987346e-05   -0.016698142111222204   -0.0013488131240540406
0.003102652606511059   -0.02323085392863421   -0.0014525779466775112
-0.00027536191707224427   -0.023281941732795734   -0.0014439473700423092
-0.00029115643141419537   -0.02327299566034846   -0.001466645486040743
1.4138309429987346e-05   -0.016698142111222204   -0.0013488131240540406
0.003102652606511059   -0.02323085392863421   -0.0014525779466775112
-0.00029115643141419537   -0.02327299566034846   -0.001466645486040743
0.0031915484764265265   -0.016695212100694818   -0.0013667795596687413
1.4138309429987346e-05   -0.016698142111222204   -0.0013488131240540406
-0.00027536191707224427   -0.023281941732795734   -0.0014439473700423092
0.0031933645223111394   -0.01667661578016998   -0.0013745179909628578
1.980705182516311e-05   -0.016691106832016196   -0.0013409661348542416
-0.00027536191707224427   -0.023281941732795734   -0.0014439473700423092
0.003102652606511059   -0.02323085392863421   -0.0014525779466775112
0.0031933645223111394   -0.01667661578016998   -0.0013745179909628578
0.0031065048653044214   -0.02321158586816952   -0.0014414573836838134
1.980705182516311e-05   -0.016691106832016196   -0.0013409661348542416
0.0031871459595451033   -0.016642053594377464   -0.0013884022313275309
0.0031065048653044214   -0.02321158586816952   -0.0014414573836838134
0.0031933645223111394   -0.01667661578016998   -0.0013745179909628578
1.980705182516311e-05   -0.016691106832016196   -0.0013409661348542416
0.0031065048653044214   -0.02321158586816952   -0.0014414573836838134
-0.0002631711982194418   -0.023287688247368314   -0.0014279905128539666
-0.00027536191707224427   -0.023281941732795734   -0.0014439473700423092
1.980705182516311e-05   -0.016691106832016196   -0.0013409661348542416
0.0031065048653044214   -0.02321158586816952   -0.0014414573836838134
-0.00027536191707224427   -0.023281941732795734   -0.0014439473700423092
0.0031933645223111394   -0.01667661578016998   -0.0013745179909628578
0.0031773108031336716   -0.01670247140758594   -0.0013649591648400789
0.003062482042387581   -0.023255466774295585   -0.0014935147019969276
0.006692512307537829   -0.016752911342182434   -0.0013836128857683998
0.0031915484764265265   -0.016695212100694818   -0.0013667795596687413
0.003062482042387581   -0.023255466774295585   -0.0014935147019969276
0.006715956749501842   -0.023247763203271137   -0.0015308034556698075
0.006692512307537829   -0.016752911342182434   -0.0013836128857683998
0.006762537213041961   -0.023217738654606558   -0.0015112030756920158
0.0031915484764265265   -0.016695212100694818   -0.0013667795596687413
0.006687515947573331   -0.016728690542562173   -0.0014095837910085237
0.006762537213041961   -0.023217738654606558   -0.0015112030756920158
0.006692512307537829   -0.016752911342182434   -0.0013836128857683998
0.0031915484764265265   -0.016695212100694818   -0.0013667795596687413
0.006762537213041961   -0.023217738654606558   -0.0015112030756920158
0.003086392340318161   -0.023244049727611057   -0.0014698877204891655
0.003062482042387581   -0.023255466774295585   -0.0014935147019969276
0.0031915484764265265   -0.016695212100694818   -0.0013667795596687413
0.006762537213041961   -0.023217738654606558   -0.0015112030756920158
0.003062482042387581   -0.023255466774295585   -0.0014935147019969276
0.006692512307537829   -0.016752911342182434   -0.0013836128857683998
0.0031915484764265265   -0.016695212100694818   -0.0013667795596687413
0.003086392340318161   -0.023244049727611057   -0.0014698877204891655
0.006687515947573331   -0.016728690542562173   -0.0014095837910085237
0.0031933645223111394   -0.01667661578016998   -0.0013745179909628578
0.003086392340318161   -0.023244049727611057   -0.0014698877204891655
0.006762537213041961   -0.023217738654606558   -0.0015112030756920158
0.006687515947573331   -0.016728690542562173   -0.0014095837910085237
0.006787566873248836   -0.023194089167685585   -0.0015012086057551428
0.0031933645223111394   -0.01667661578016998   -0.0013745179909628578
0.006671808248751282   -0.016698407886923956   -0.0014451612150036756
0.006787566873248836   -0.023194089167685585   -0.0015012086057551428
0.006687515947573331   -0.016728690542562173   -0.0014095837910085237
0.0031933645223111394   -0.01667661578016998   -0.0013745179909628578
0.006787566873248836   -0.023194089167685585   -0.0015012086057551428
0.003102652606511059   -0.02323085392863421   -0.0014525779466775112
0.003086392340318161   -0.023244049727611057   -0.0014698877204891655
0.0031933645223111394   -0.01667661578016998   -0.0013745179909628578
0.006787566873248836   -0.023194089167685585   -0.0015012086057551428
0.003086392340318161   -0.023244049727611057   -0.0014698877204891655
0.006687515947573331   -0.016728690542562173   -0.0014095837910085237
0.0031933645223111394   -0.01667661578016998   -0.0013745179909628578
0.003102652606511059   -0.02323085392863421   -0.0014525779466775112
0.006671808248751282   -0.016698407886923956   -0.0014451612150036756
0.0031871459595451033   -0.016642053594377464   -0.0013884022313275309
0.003102652606511059   -0.02323085392863421   -0.0014525779466775112
0.006787566873248836   -0.023194089167685585   -0.0015012086057551428
0.006671808248751282   -0.016698407886923956   -0.0014451612150036756
0.006794476471989279   -0.023156334799984028   -0.0015009840494928056
0.0031871459595451033   -0.016642053594377464   -0.0013884022313275309
0.006627239447022034   -0.01664091633407407   -0.001490275395365621
0.006794476471989279   -0.023156334799984028   -0.0015009840494928056
0.006671808248751282   -0.016698407886923956   -0.0014451612150036756
0.0031871459595451033   -0.016642053594377464   -0.0013884022313275309
0.006794476471989279   -0.023156334799984028   -0.0015009840494928056
0.0031065048653044214   -0.02321158586816952   -0.0014414573836838134
0.003102652606511059   -0.02323085392863421   -0.0014525779466775112
0.0031871459595451033   -0.016642053594377464   -0.0013884022313275309
0.006794476471989279   -0.023156334799984028   -0.0015009840494928056
0.003102652606511059   -0.02323085392863421   -0.0014525779466775112
0.006671808248751282   -0.016698407886923956   -0.0014451612150036756
-0.010565002543394082   -0.023331669410340834   -0.0017637131661246215
-0.01089107482358156   -0.02995385474009172   -0.0017347234582369758
-0.006944457590400775   -0.023294634819935975   -0.0016318544390899275
-0.010609214039841457   -0.023412558444656232   -0.0017158317320282593
-0.01089107482358156   -0.02995385474009172   -0.0017347234582369758
-0.007277105521579122   -0.029971279529205173   -0.0016374231242272394
-0.006944457590400775   -0.023294634819935975   -0.0016318544390899275
-0.007257217069844238   -0.030020772060543634   -0.0016224856779894184
-0.010609214039841457   -0.023412558444656232   -0.0017158317320282593
-0.0069411032797474514   -0.023354784253340984   -0.0015923758141425579
-0.007257217069844238   -0.030020772060543634   -0.0016224856779894184
-0.006944457590400775   -0.023294634819935975   -0.0016318544390899275
-0.010609214039841457   -0.023412558444656232   -0.0017158317320282593
-0.007257217069844238   -0.030020772060543634   -0.0016224856779894184
-0.010877936591189236   -0.03002009892632364   -0.0017318431440067983
-0.01089107482358156   -0.02995385474009172   -0.0017347234582369758
-0.010609214039841457   -0.023412558444656232   -0.0017158317320282593
-0.007257217069844238   -0.030020772060543634   -0.0016224856779894184
-0.01089107482358156   -0.02995385474009172   -0.0017347234582369758
-0.006944457590400775   -0.023294634819935975   -0.0016318544390899275
-0.010609214039841457   -0.023412558444656232   -0.0017158317320282593
-0.010877936591189236   -0.03002009892632364   -0.0017318431440067983
-0.0069411032797474514   -0.023354784253340984   -0.0015923758141425579
-0.010622806842326584   -0.023478621112767   -0.0016773865626891313
-0.010877936591189236   -0.03002009892632364   -0.0017318431440067983
-0.007257217069844238   -0.030020772060543634   -0.0016224856779894184
-0.0069411032797474514   -0.023354784253340984   -0.0015923758141425579
-0.007226430647202905   -0.030075698006967713   -0.001614288764837181
-0.010622806842326584   -0.023478621112767   -0.0016773865626891313
-0.006931200222729198   -0.023410344288748376   -0.0015594547235133363
-0.007226430647202905   -0.030075698006967713   -0.001614288764837181
-0.0069411032797474514   -0.023354784253340984   -0.0015923758141425579
-0.010622806842326584   -0.023478621112767   -0.0016773865626891313
-0.007226430647202905   -0.030075698006967713   -0.001614288764837181
-0.010844178418682805   -0.03008452865638929   -0.0017390335886195152
-0.010877936591189236   -0.03002009892632364   -0.0017318431440067983
-0.010622806842326584   -0.023478621112767   -0.0016773865626891313
-0.007226430647202905   -0.030075698006967713   -0.001614288764837181
-0.010877936591189236   -0.03002009892632364   -0.0017318431440067983
-0.0069411032797474514   -0.023354784253340984   -0.0015923758141425579
-0.010622806842326584   -0.023478621112767   -0.0016773865626891313
-0.010844178418682805   -0.03008452865638929   -0.0017390335886195152
-0.006931200222729198   -0.023410344288748376   -0.0015594547235133363
-0.010626812300858712   -0.023550482074436177   -0.0016491950608496452
-0.010844178418682805   -0.03008452865638929   -0.0017390335886195152
-0.007226430647202905   -0.030075698006967713   -0.001614288764837181
-0.006931200222729198   -0.023410344288748376   -0.0015594547235133363
-0.007186700934561536   -0.030139845662409705   -0.0016127165247254733
-0.010626812300858712   -0.023550482074436177   -0.0016491950608496452
-0.0069076972394104185   -0.023465556826520025   -0.0015326254994408811
-0.007186700934561536   -0.030139845662409705   -0.0016127165247254733
-0.006931200222729198   -0.023410344288748376   -0.0015594547235133363
-0.010626812300858712   -0.023550482074436177   -0.0016491950608496452
-0.007186700934561536   -0.030139845662409705   -0.0016127165247254733
-0.010789720530982379   -0.030167621414681486   -0.0017568122077056163
-0.010844178418682805   -0.03008452865638929   -0.0017390335886195152
-0.010626812300858712   -0.023550482074436177   -0.0016491950608496452
-0.007186700934561536   -0.030139845662409705   -0.0016127165247254733
-0.010844178418682805   -0.03008452865638929   -0.0017390335886195152
-0.006931200222729198   -0.023410344288748376   -0.0015594547235133363
-0.006944457590400775   -0.023294634819935975   -0.0016318544390899275
-0.007277105521579122   -0.029971279529205173   -0.0016374231242272394
-0.0035813644578376875   -0.02327324344153136   -0.0015421069729189415
-0.0069411032797474514   -0.023354784253340984   -0.0015923758141425579
-0.007277105521579122   -0.029971279529205173   -0.0016374231242272394
-0.003966341104075797   -0.02997496405657358   -0.0015727756526435852
-0.0035813644578376875   -0.02327324344153136   -0.0015421069729189415
-0.003939887946046858   -0.030003302285187154   -0.0015461214560894432
-0.0069411032797474514   -0.023354784253340984   -0.0015923758141425579
-0.0035682212504273008   -0.02330959861489276   -0.0015075895899512883
-0.003939887946046858   -0.030003302285187154   -0.0015461214560894432
-0.0035813644578376875   -0.02327324344153136   -0.0015421069729189415
-0.0069411032797474514   -0.023354784253340984   -0.0015923758141425579
-0.003939887946046858   -0.030003302285187154   -0.0015461214560894432
-0.007257217069844238   -0.030020772060543634   -0.0016224856779894184
-0.007277105521579122   -0.029971279529205173   -0.0016374231242272394
-0.0069411032797474514   -0.023354784253340984   -0.0015923758141425579
-0.003939887946046858   -0.030003302285187154   -0.0015461214560894432
-0.007277105521579122   -0.029971279529205173   -0.0016374231242272394
-0.0035813644578376875   -0.02327324344153136   -0.0015421069729189415
-0.0069411032797474514   -0.023354784253340984   -0.0015923758141425579
-0.007257217069844238   -0.030020772060543634   -0.0016224856779894184
-0.0035682212504273008   -0.02330959861489276   -0.0015075895899512883
-0.006931200222729198   -0.023410344288748376   -0.0015594547235133363
-0.007257217069844238   -0.030020772060543634   -0.0016224856779894184
-0.003939887946046858   -0.030003302285187154   -0.0015461214560894432
-0.0035682212504273008   -0.02330959861489276   -0.0015075895899512883
-0.003910064397497974   -0.030037843163189477   -0.0015262307866652602
-0.006931200222729198   -0.023410344288748376   -0.0015594547235133363
-0.00355224500357132   -0.023343013618366108   -0.0014796318845605803
-0.003910064397497974   -0.030037843163189477   -0.0015262307866652602
-0.0035682212504273008   -0.02330959861489276   -0.0015075895899512883
-0.006931200222729198   -0.023410344288748376   -0.0015594547235133363
-0.003910064397497974   -0.030037843163189477   -0.0015262307866652602
-0.007226430647202905   -0.030075698006967713   -0.001614288764837181
-0.007257217069844238   -0.030020772060543634   -0.0016224856779894184
-0.006931200222729198   -0.023410344288748376   -0.0015594547235133363
-0.003910064397497974   -0.030037843163189477   -0.0015262307866652602
-0.007257217069844238   -0.030020772060543634   -0.0016224856779894184
-0.0035682212504273008   -0.02330959861489276   -0.0015075895899512883
-0.006931200222729198   -0.023410344288748376   -0.0015594547235133363
-0.007226430647202905   -0.030075698006967713   -0.001614288764837181
-0.00355224500357132   -0.023343013618366108   -0.0014796318845605803
-0.0069076972394104185   -0.023465556826520025   -0.0015326254994408811
-0.007226430647202905   -0.030075698006967713   -0.001614288764837181
-0.003910064397497974   -0.030037843163189477   -0.0015262307866652602
-0.00355224500357132   -0.023343013618366108   -0.0014796318845605803
-0.0038779513974118284   -0.030078694567678685   -0.001513326438519997
-0.0069076972394104185   -0.023465556826520025   -0.0015326254994408811
-0.003533156428218164   -0.02337359953709563   -0.0014583946656166733
-0.0038779513974118284   -0.030078694567678685   -0.001513326438519997
-0.00355224500357132   -0.023343013618366108   -0.0014796318845605803
-0.0069076972394104185   -0.023465556826520025   -0.0015326254994408811
-0.0038779513974118284   -0.030078694567678685   -0.001513326438519997
-0.007186700934561536   -0.030139845662409705   -0.0016127165247254733
-0.007226430647202905   -0.030075698006967713   -0.001614288764837181
-0.0069076972394104185   -0.023465556826520025   -0.0015326254994408811
-0.0038779513974118284   -0.030078694567678685   -0.001513326438519997
-0.007226430647202905   -0.030075698006967713   -0.001614288764837181
-0.00355224500357132   -0.023343013618366108   -0.0014796318845605803
-0.0035813644578376875   -0.02327324344153136   -0.0015421069729189415
-0.003966341104075797   -0.02997496405657358   -0.0015727756526435852
-0.0003093091349882413   -0.02326089794439211   -0.001495849364943611
-0.0035682212504273008   -0.02330959861489276   -0.0015075895899512883
-0.003966341104075797   -0.02997496405657358   -0.0015727756526435852
-0.0007491567206435313   -0.02995729600053929   -0.0015465391581230812
-0.0003093091349882413   -0.02326089794439211   -0.001495849364943611
-0.0007179351653253909   -0.02996374602671513   -0.001508752601850728
-0.0035682212504273008   -0.02330959861489276   -0.0015075895899512883
-0.00029115643141419537   -0.02327299566034846   -0.001466645486040743
-0.0007179351653253909   -0.02996374602671513   -0.001508752601850728
-0.0003093091349882413   -0.02326089794439211   -0.001495849364943611
-0.0035682212504273008   -0.02330959861489276   -0.0015075895899512883
-0.0007179351653253909   -0.02996374602671513   -0.001508752601850728
-0.003939887946046858   -0.030003302285187154   -0.0015461214560894432
-0.003966341104075797   -0.02997496405657358   -0.0015727756526435852
-0.0035682212504273008   -0.02330959861489276   -0.0015075895899512883
-0.0007179351653253909   -0.02996374602671513   -0.001508752601850728
-0.003966341104075797   -0.02997496405657358   -0.0015727756526435852
-0.0003093091349882413   -0.02326089794439211   -0.001495849364943611
-0.0035682212504273008   -0.02330959861489276   -0.0015075895899512883
-0.003939887946046858   -0.030003302285187154   -0.0015461214560894432
-0.00029115643141419537   -0.02327299566034846   -0.001466645486040743
-0.00355224500357132   -0.023343013618366108   -0.0014796318845605803
-0.003939887946046858   -0.030003302285187154   -0.0015461214560894432
-0.0007179351653253909   -0.02996374602671513   -0.001508752601850728
-0.00029115643141419537   -0.02327299566034846   -0.001466645486040743
-0.0006883775127706078   -0.02997592125342367   -0.0014776846130820922
-0.00355224500357132   -0.023343013618366108   -0.0014796318845605803
-0.00027536191707224427   -0.023281941732795734   -0.0014439473700423092
-0.0006883775127706078   -0.02997592125342367   -0.0014776846130820922
-0.00029115643141419537   -0.02327299566034846   -0.001466645486040743
-0.00355224500357132   -0.023343013618366108   -0.0014796318845605803
-0.0006883775127706078   -0.02997592125342367   -0.0014776846130820922
-0.003910064397497974   -0.030037843163189477   -0.0015262307866652602
-0.003939887946046858   -0.030003302285187154   -0.0015461214560894432
-0.00355224500357132   -0.023343013618366108   -0.0014796318845605803
-0.0006883775127706078   -0.02997592125342367   -0.0014776846130820922
-0.003939887946046858   -0.030003302285187154   -0.0015461214560894432
-0.00029115643141419537   -0.02327299566034846   -0.001466645486040743
-0.00355224500357132   -0.023343013618366108   -0.0014796318845605803
-0.003910064397497974   -0.030037843163189477   -0.0015262307866652602
-0.00027536191707224427   -0.023281941732795734   -0.0014439473700423092
-0.003533156428218164   -0.02337359953709563   -0.0014583946656166733
-0.003910064397497974   -0.030037843163189477   -0.0015262307866652602
-0.0006883775127706078   -0.02997592125342367   -0.0014776846130820922
-0.00027536191707224427   -0.023281941732795734   -0.0014439473700423092
-0.0006632108964801185   -0.029994095670754423   -0.001453568278921855
-0.003533156428218164   -0.02337359953709563   -0.0014583946656166733
-0.0002631711982194418   -0.023287688247368314   -0.0014279905128539666
-0.0006632108964801185   -0.029994095670754423   -0.001453568278921855
-0.00027536191707224427   -0.023281941732795734   -0.0014439473700423092
-0.003533156428218164   -0.02337359953709563   -0.0014583946656166733
-0.0006632108964801185   -0.029994095670754423   -0.001453568278921855
-0.0038779513974118284   -0.030078694567678685   -0.001513326438519997
-0.003910064397497974   -0.030037843163189477   -0.0015262307866652602
-0.003533156428218164   -0.02337359953709563   -0.0014583946656166733
-0.0006632108964801185   -0.029994095670754423   -0.001453568278921855
-0.003910064397497974   -0.030037843163189477   -0.0015262307866652602
-0.00027536191707224427   -0.023281941732795734   -0.0014439473700423092
-0.0003093091349882413   -0.02326089794439211   -0.001495849364943611
-0.0007491567206435313   -0.02995729600053929   -0.0015465391581230812
0.003062482042387581   -0.023255466774295585   -0.0014935147019969276
-0.00029115643141419537   -0.02327299566034846   -0.001466645486040743
-0.0007491567206435313   -0.02995729600053929   -0.0015465391581230812
0.002564530063831359   -0.029918076786466064   -0.001559996769320169
0.003062482042387581   -0.023255466774295585   -0.0014935147019969276
0.0026042880431872526   -0.02990255229850545   -0.0015112638122610099
-0.00029115643141419537   -0.02327299566034846   -0.001466645486040743
0.003086392340318161   -0.023244049727611057   -0.0014698877204891655
0.0026042880431872526   -0.02990255229850545   -0.0015112638122610099
0.003062482042387581   -0.023255466774295585   -0.0014935147019969276
-0.00029115643141419537   -0.02327299566034846   -0.001466645486040743
0.0026042880431872526   -0.02990255229850545   -0.0015112638122610099
-0.0007179351653253909   -0.02996374602671513   -0.001508752601850728
-0.0007491567206435313   -0.02995729600053929   -0.0015465391581230812
-0.00029115643141419537   -0.02327299566034846   -0.001466645486040743
0.0026042880431872526   -0.02990255229850545   -0.0015112638122610099
-0.0007491567206435313   -0.02995729600053929   -0.0015465391581230812
0.003062482042387581   -0.023255466774295585   -0.0014935147019969276
-0.00029115643141419537   -0.02327299566034846   -0.001466645486040743
-0.0007179351653253909   -0.02996374602671513   -0.001508752601850728
0.003086392340318161   -0.023244049727611057   -0.0014698877204891655
-0.00027536191707224427   -0.023281941732795734   -0.0014439473700423092
-0.0007179351653253909   -0.02996374602671513   -0.001508752601850728
0.0026042880431872526   -0.02990255229850545   -0.0015112638122610099
0.003086392340318161   -0.023244049727611057   -0.0014698877204891655
0.002641108024823316   -0.029894470711191067   -0.00146922748021422
-0.00027536191707224427   -0.023281941732795734   -0.0014439473700423092
0.003102652606511059   -0.02323085392863421   -0.0014525779466775112
0.002641108024823316   -0.029894470711191067   -0.00146922748021422
0.003086392340318161   -0.023244049727611057   -0.0014698877204891655
-0.00027536191707224427   -0.023281941732795734   -0.0014439473700423092
0.002641108024823316   -0.029894470711191067   -0.00146922748021422
-0.0006883775127706078   -0.02997592125342367   -0.0014776846130820922
-0.0007179351653253909   -0.02996374602671513   -0.001508752601850728
-0.00027536191707224427   -0.023281941732795734   -0.0014439473700423092
0.002641108024823316   -0.029894470711191067   -0.00146922748021422
-0.0007179351653253909   -0.02996374602671513   -0.001508752601850728
0.003086392340318161   -0.023244049727611057   -0.0014698877204891655
-0.00027536191707224427   -0.023281941732795734   -0.0014439473700423092
-0.0006883775127706078   -0.02997592125342367   -0.0014776846130820922
0.003102652606511059   -0.02323085392863421   -0.0014525779466775112
-0.0002631711982194418   -0.023287688247368314   -0.0014279905128539666
-0.0006883775127706078   -0.02997592125342367   -0.0014776846130820922
0.002641108024823316   -0.029894470711191067   -0.00146922748021422
0.003102652606511059   -0.02323085392863421   -0.0014525779466775112
0.0026610916724652566   -0.029889967079651143   -0.0014334505477046323
-0.0002631711982194418   -0.023287688247368314   -0.0014279905128539666
0.0031065048653044214   -0.02321158586816952   -0.0014414573836838134
0.0026610916724652566   -0.029889967079651143   -0.0014334505477046323
0.003102652606511059   -0.02323085392863421   -0.0014525779466775112
-0.0002631711982194418   -0.023287688247368314   -0.0014279905128539666
0.0026610916724652566   -0.029889967079651143   -0.0014334505477046323
-0.0006632108964801185   -0.029994095670754423   -0.001453568278921855
-0.0006883775127706078   -0.02997592125342367   -0.0014776846130820922
-0.0002631711982194418   -0.023287688247368314   -0.0014279905128539666
0.0026610916724652566   -0.029889967079651143   -0.0014334505477046323
-0.0006883775127706078   -0.02997592125342367   -0.0014776846130820922
0.003102652606511059   -0.02323085392863421   -0.0014525779466775112
0.003062482042387581   -0.023255466774295585   -0.0014935147019969276
0.002564530063831359   -0.029918076786466064   -0.001559996769320169
0.006715956749501842   -0.023247763203271137   -0.0015308034556698075
0.003086392340318161   -0.023244049727611057   -0.0014698877204891655
0.002564530063831359   -0.029918076786466064   -0.001559996769320169
0.0061113995710544   -0.02985207889752238   -0.0016153011021856503
0.006715956749501842   -0.023247763203271137   -0.0015308034556698075
0.006214778715699133   -0.02981661162988106   -0.0015512230992979167
0.003086392340318161   -0.023244049727611057   -0.0014698877204891655
0.006762537213041961   -0.023217738654606558   -0.0015112030756920158
0.006214778715699133   -0.02981661162988106   -0.0015512230992979167
0.006715956749501842   -0.023247763203271137   -0.0015308034556698075
0.003086392340318161   -0.023244049727611057   -0.0014698877204891655
0.006214778715699133   -0.02981661162988106   -0.0015512230992979167
0.0026042880431872526   -0.02990255229850545   -0.0015112638122610099
0.002564530063831359   -0.029918076786466064   -0.001559996769320169
0.003086392340318161   -0.023244049727611057   -0.0014698877204891655
0.006214778715699133   -0.02981661162988106   -0.0015512230992979167
0.002564530063831359   -0.029918076786466064   -0.001559996769320169
0.006715956749501842   -0.023247763203271137   -0.0015308034556698075
0.003086392340318161   -0.023244049727611057   -0.0014698877204891655
0.0026042880431872526   -0.02990255229850545   -0.0015112638122610099
0.006762537213041961   -0.023217738654606558   -0.0015112030756920158
0.003102652606511059   -0.02323085392863421   -0.0014525779466775112
0.0026042880431872526   -0.02990255229850545   -0.0015112638122610099
0.006214778715699133   -0.02981661162988106   -0.0015512230992979167
0.006762537213041961   -0.023217738654606558   -0.0015112030756920158
0.006286006101176726   -0.029799400718112472   -0.0014966899807860863
0.003102652606511059   -0.02323085392863421   -0.0014525779466775112
0.006787566873248836   -0.023194089167685585   -0.0015012086057551428
0.006286006101176726   -0.029799400718112472   -0.0014966899807860863
0.006762537213041961   -0.023217738654606558   -0.0015112030756920158
0.003102652606511059   -0.02323085392863421   -0.0014525779466775112
0.006286006101176726   -0.029799400718112472   -0.0014966899807860863
0.002641108024823316   -0.029894470711191067   -0.00146922748021422
0.0026042880431872526   -0.02990255229850545   -0.0015112638122610099
0.003102652606511059   -0.02323085392863421   -0.0014525779466775112
0.006286006101176726   -0.029799400718112472   -0.0014966899807860863
0.0026042880431872526   -0.02990255229850545   -0.0015112638122610099
0.006762537213041961   -0.023217738654606558   -0.0015112030756920158
0.003102652606511059   -0.02323085392863421   -0.0014525779466775112
0.002641108024823316   -0.029894470711191067   -0.00146922748021422
0.006787566873248836   -0.023194089167685585   -0.0015012086057551428
0.0031065048653044214   -0.02321158586816952   -0.0014414573836838134
0.002641108024823316   -0.029894470711191067   -0.00146922748021422
0.006286006101176726   -0.029799400718112472   -0.0014966899807860863
0.006787566873248836   -0.023194089167685585   -0.0015012086057551428
0.0063495044363347   -0.029780808708336725   -0.0014520999646847528
0.0031065048653044214   -0.02321158586816952   -0.0014414573836838134
0.006794476471989279   -0.023156334799984028   -0.0015009840494928056
0.0063495044363347   -0.029780808708336725   -0.0014520999646847528
0.006787566873248836   -0.023194089167685585   -0.0015012086057551428
0.0031065048653044214   -0.02321158586816952   -0.0014414573836838134
0.0063495044363347   -0.029780808708336725   -0.0014520999646847528
0.0026610916724652566   -0.029889967079651143   -0.0014334505477046323
0.002641108024823316   -0.029894470711191067   -0.00146922748021422
0.0031065048653044214   -0.02321158586816952   -0.0014414573836838134
0.0063495044363347   -0.029780808708336725   -0.0014520999646847528
0.002641108024823316   -0.029894470711191067   -0.00146922748021422
0.006787566873248836   -0.023194089167685585   -0.0015012086057551428
-0.01089107482358156   -0.02995385474009172   -0.0017347234582369758
-0.01059705318357508   -0.03627278400513531   -0.0016592277992362172
-0.007277105521579122   -0.029971279529205173   -0.0016374231242272394
-0.010877936591189236   -0.03002009892632364   -0.0017318431440067983
-0.01059705318357508   -0.03627278400513531   -0.0016592277992362172
-0.007246533416419297   -0.03634551724747654   -0.0016007734843218357
-0.007277105521579122   -0.029971279529205173   -0.0016374231242272394
-0.007204007515351524   -0.03638241321130275   -0.001609679623027845
-0.010877936591189236   -0.03002009892632364   -0.0017318431440067983
-0.007257217069844238   -0.030020772060543634   -0.0016224856779894184
-0.007204007515351524   -0.03638241321130275   -0.001609679623027845
-0.007277105521579122   -0.029971279529205173   -0.0016374231242272394
-0.010877936591189236   -0.03002009892632364   -0.0017318431440067983
-0.007204007515351524   -0.03638241321130275   -0.001609679623027845
-0.010520257554163855   -0.036322609716175465   -0.0017013437870087703
-0.01059705318357508   -0.03627278400513531   -0.0016592277992362172
-0.010877936591189236   -0.03002009892632364   -0.0017318431440067983
-0.007204007515351524   -0.03638241321130275   -0.001609679623027845
-0.01059705318357508   -0.03627278400513531   -0.0016592277992362172
-0.007277105521579122   -0.029971279529205173   -0.0016374231242272394
-0.010877936591189236   -0.03002009892632364   -0.0017318431440067983
-0.010520257554163855   -0.036322609716175465   -0.0017013437870087703
-0.007257217069844238   -0.030020772060543634   -0.0016224856779894184
-0.010844178418682805   -0.03008452865638929   -0.0017390335886195152
-0.010520257554163855   -0.036322609716175465   -0.0017013437870087703
-0.007204007515351524   -0.03638241321130275   -0.001609679623027845
-0.007257217069844238   -0.030020772060543634   -0.0016224856779894184
-0.007146511752919045   -0.036435053121970755   -0.0016254801260800918
-0.010844178418682805   -0.03008452865638929   -0.0017390335886195152
-0.007226430647202905   -0.030075698006967713   -0.001614288764837181
-0.007146511752919045   -0.036435053121970755   -0.0016254801260800918
-0.007257217069844238   -0.030020772060543634   -0.0016224856779894184
-0.010844178418682805   -0.03008452865638929   -0.0017390335886195152
-0.007146511752919045   -0.036435053121970755   -0.0016254801260800918
-0.010432770914527451   -0.036383901548691706   -0.0017542997439622548
-0.010520257554163855   -0.036322609716175465   -0.0017013437870087703
-0.010844178418682805   -0.03008452865638929   -0.0017390335886195152
-0.007146511752919045   -0.036435053121970755   -0.0016254801260800918
-0.010520257554163855   -0.036322609716175465   -0.0017013437870087703
-0.007257217069844238   -0.030020772060543634   -0.0016224856779894184
-0.010844178418682805   -0.03008452865638929   -0.0017390335886195152
-0.010432770914527451   -0.036383901548691706   -0.0017542997439622548
-0.007226430647202905   -0.030075698006967713   -0.001614288764837181
-0.010789720530982379   -0.030167621414681486   -0.0017568122077056163
-0.010432770914527451   -0.036383901548691706   -0.0017542997439622548
-0.007146511752919045   -0.036435053121970755   -0.0016254801260800918
-0.007226430647202905   -0.030075698006967713   -0.001614288764837181
-0.007084855616585828   -0.03650665350539196   -0.0016483726986986642
-0.010789720530982379   -0.030167621414681486   -0.0017568122077056163
-0.007186700934561536   -0.030139845662409705   -0.0016127165247254733
-0.007084855616585828   -0.03650665350539196   -0.0016483726986986642
-0.007226430647202905   -0.030075698006967713   -0.001614288764837181
-0.010789720530982379   -0.030167621414681486   -0.0017568122077056163
-0.007084855616585828   -0.03650665350539196   -0.0016483726986986642
-0.010313764839436359   -0.03647727149021207   -0.0018183043859845518
-0.010432770914527451   -0.036383901548691706   -0.0017542997439622548
-0.010789720530982379   -0.030167621414681486   -0.0017568122077056163
-0.007084855616585828   -0.03650665350539196   -0.0016483726986986642
-0.010432770914527451   -0.036383901548691706   -0.0017542997439622548
-0.007226430647202905   -0.030075698006967713   -0.001614288764837181
-0.007277105521579122   -0.029971279529205173   -0.0016374231242272394
-0.007246533416419297   -0.03634551724747654   -0.0016007734843218357
-0.003966341104075797   -0.02997496405657358   -0.0015727756526435852
-0.007257217069844238   -0.030020772060543634   -0.0016224856779894184
-0.007246533416419297   -0.03634551724747654   -0.0016007734843218357
-0.0042422305244753   -0.03637415573741375   -0.0015633949616933847
-0.003966341104075797   -0.02997496405657358   -0.0015727756526435852
-0.0041959660288080946   -0.0363932899034933   -0.0015439803715146274
-0.007257217069844238   -0.030020772060543634   -0.0016224856779894184
-0.003939887946046858   -0.030003302285187154   -0.0015461214560894432
-0.0041959660288080946   -0.0363932899034933   -0.0015439803715146274
-0.003966341104075797   -0.02997496405657358   -0.0015727756526435852
-0.007257217069844238   -0.030020772060543634   -0.0016224856779894184
-0.0041959660288080946   -0.0363932899034933   -0.0015439803715146274
-0.007204007515351524   -0.03638241321130275   -0.001609679623027845
-0.007246533416419297   -0.03634551724747654   -0.0016007734843218357
-0.007257217069844238   -0.030020772060543634   -0.0016224856779894184
-0.0041959660288080946   -0.0363932899034933   -0.0015439803715146274
-0.007246533416419297   -0.03634551724747654   -0.0016007734843218357
-0.003966341104075797   -0.02997496405657358   -0.0015727756526435852
-0.007257217069844238   -0.030020772060543634   -0.0016224856779894184
-0.007204007515351524   -0.03638241321130275   -0.001609679623027845
-0.003939887946046858   -0.030003302285187154   -0.0015461214560894432
-0.007226430647202905   -0.030075698006967713   -0.001614288764837181
-0.007204007515351524   -0.03638241321130275   -0.001609679623027845
-0.0041959660288080946   -0.0363932899034933   -0.0015439803715146274
-0.003939887946046858   -0.030003302285187154   -0.0015461214560894432
-0.0041462162288353754   -0.0364275525149631   -0.0015313750838303415
-0.007226430647202905   -0.030075698006967713   -0.001614288764837181
-0.003910064397497974   -0.030037843163189477   -0.0015262307866652602
-0.0041462162288353754   -0.0364275525149631   -0.0015313750838303415
-0.003939887946046858   -0.030003302285187154   -0.0015461214560894432
-0.007226430647202905   -0.030075698006967713   -0.001614288764837181
-0.0041462162288353754   -0.0364275525149631   -0.0015313750838303415
-0.007146511752919045   -0.036435053121970755   -0.0016254801260800918
-0.007204007515351524   -0.03638241321130275   -0.001609679623027845
-0.007226430647202905   -0.030075698006967713   -0.001614288764837181
-0.0041462162288353754   -0.0364275525149631   -0.0015313750838303415
-0.007204007515351524   -0.03638241321130275   -0.001609679623027845
-0.003939887946046858   -0.030003302285187154   -0.0015461214560894432
-0.007226430647202905   -0.030075698006967713   -0.001614288764837181
-0.007146511752919045   -0.036435053121970755   -0.0016254801260800918
-0.003910064397497974   -0.030037843163189477   -0.0015262307866652602
-0.007186700934561536   -0.030139845662409705   -0.0016127165247254733
-0.007146511752919045   -0.036435053121970755   -0.0016254801260800918
-0.0041462162288353754   -0.0364275525149631   -0.0015313750838303415
-0.003910064397497974   -0.030037843163189477   -0.0015262307866652602
-0.00409508025891342   -0.03647737227435223   -0.0015259157174594838
-0.007186700934561536   -0.030139845662409705   -0.0016127165247254733
-0.0038779513974118284   -0.030078694567678685   -0.001513326438519997
-0.00409508025891342   -0.03647737227435223   -0.0015259157174594838
-0.003910064397497974   -0.030037843163189477   -0.0015262307866652602
-0.007186700934561536   -0.030139845662409705   -0.0016127165247254733
-0.00409508025891342   -0.03647737227435223   -0.0015259157174594838
-0.007084855616585828   -0.03650665350539196   -0.0016483726986986642
-0.007146511752919045   -0.036435053121970755   -0.0016254801260800918
-0.007186700934561536   -0.030139845662409705   -0.0016127165247254733
-0.00409508025891342   -0.03647737227435223   -0.0015259157174594838
-0.007146511752919045   -0.036435053121970755   -0.0016254801260800918
-0.003910064397497974   -0.030037843163189477   -0.0015262307866652602
-0.003966341104075797   -0.02997496405657358   -0.0015727756526435852
-0.0042422305244753   -0.03637415573741375   -0.0015633949616933847
-0.0007491567206435313   -0.02995729600053929   -0.0015465391581230812
-0.003939887946046858   -0.030003302285187154   -0.0015461214560894432
-0.0042422305244753   -0.03637415573741375   -0.0015633949616933847
-0.0013287623276900373   -0.03635189187174984   -0.001557452179187471
-0.0007491567206435313   -0.02995729600053929   -0.0015465391581230812
-0.0012775989598130884   -0.036352211265298286   -0.0015106882735590372
-0.003939887946046858   -0.030003302285187154   -0.0015461214560894432
-0.0007179351653253909   -0.02996374602671513   -0.001508752601850728
-0.0012775989598130884   -0.036352211265298286   -0.0015106882735590372
-0.0007491567206435313   -0.02995729600053929   -0.0015465391581230812
-0.003939887946046858   -0.030003302285187154   -0.0015461214560894432
-0.0012775989598130884   -0.036352211265298286   -0.0015106882735590372
-0.0041959660288080946   -0.0363932899034933   -0.0015439803715146274
-0.0042422305244753   -0.03637415573741375   -0.0015633949616933847
-0.003939887946046858   -0.030003302285187154   -0.0015461214560894432
-0.0012775989598130884   -0.036352211265298286   -0.0015106882735590372
-0.0042422305244753   -0.03637415573741375   -0.0015633949616933847
-0.0007491567206435313   -0.02995729600053929   -0.0015465391581230812
-0.003939887946046858   -0.030003302285187154   -0.0015461214560894432
-0.0041959660288080946   -0.0363932899034933   -0.0015439803715146274
-0.0007179351653253909   -0.02996374602671513   -0.001508752601850728
-0.003910064397497974   -0.030037843163189477   -0.0015262307866652602
-0.0041959660288080946   -0.0363932899034933   -0.0015439803715146274
-0.0012775989598130884   -0.036352211265298286   -0.0015106882735590372
-0.0007179351653253909   -0.02996374602671513   -0.001508752601850728
-0.0012277644279578503   -0.036366564442530495   -0.0014707529521229726
-0.003910064397497974   -0.030037843163189477   -0.0015262307866652602
-0.0006883775127706078   -0.02997592125342367   -0.0014776846130820922
-0.0012277644279578503   -0.036366564442530495   -0.0014707529521229726
-0.0007179351653253909   -0.02996374602671513   -0.001508752601850728
-0.003910064397497974   -0.030037843163189477   -0.0015262307866652602
-0.0012277644279578503   -0.036366564442530495   -0.0014707529521229726
-0.0041462162288353754   -0.0364275525149631   -0.0015313750838303415
-0.0041959660288080946   -0.0363932899034933   -0.0015439803715146274
-0.003910064397497974   -0.030037843163189477   -0.0015262307866652602
-0.0012277644279578503   -0.036366564442530495   -0.0014707529521229726
-0.0041959660288080946   -0.0363932899034933   -0.0015439803715146274
-0.0007179351653253909   -0.02996374602671513   -0.001508752601850728
-0.003910064397497974   -0.030037843163189477   -0.0015262307866652602
-0.0041462162288353754   -0.0364275525149631   -0.0015313750838303415
-0.0006883775127706078   -0.02997592125342367   -0.0014776846130820922
-0.0038779513974118284   -0.030078694567678685   -0.001513326438519997
-0.0041462162288353754   -0.0364275525149631   -0.0015313750838303415
-0.0012277644279578503   -0.036366564442530495   -0.0014707529521229726
-0.0006883775127706078   -0.02997592125342367   -0.0014776846130820922
-0.0011832653926032053   -0.03639612949613251   -0.00143788250106449
-0.0038779513974118284   -0.030078694567678685   -0.001513326438519997
-0.0006632108964801185   -0.029994095670754423   -0.001453568278921855
-0.0011832653926032053   -0.03639612949613251   -0.00143788250106449
-0.0006883775127706078   -0.02997592125342367   -0.0014776846130820922
-0.0038779513974118284   -0.030078694567678685   -0.001513326438519997
-0.0011832653926032053   -0.03639612949613251   -0.00143788250106449
-0.00409508025891342   -0.03647737227435223   -0.0015259157174594838
-0.0041462162288353754   -0.0364275525149631   -0.0015313750838303415
-0.0038779513974118284   -0.030078694567678685   -0.001513326438519997
-0.0011832653926032053   -0.03639612949613251   -0.00143788250106449
-0.0041462162288353754   -0.0364275525149631   -0.0015313750838303415
-0.0006883775127706078   -0.02997592125342367   -0.0014776846130820922
-0.0007491567206435313   -0.02995729600053929   -0.0015465391581230812
-0.0013287623276900373   -0.03635189187174984   -0.001557452179187471
0.002564530063831359   -0.029918076786466064   -0.001559996769320169
-0.0007179351653253909   -0.02996374602671513   -0.001508752601850728
-0.0013287623276900373   -0.03635189187174984   -0.001557452179187471
0.0016844952799878043   -0.03628016575677706   -0.00158540821377729
0.002564530063831359   -0.029918076786466064   -0.001559996769320169
0.0017470645510971672   -0.03626040041651978   -0.0015115401847091445
-0.0007179351653253909   -0.02996374602671513   -0.001508752601850728
0.0026042880431872526   -0.02990255229850545   -0.0015112638122610099
0.0017470645510971672   -0.03626040041651978   -0.0015115401847091445
0.002564530063831359   -0.029918076786466064   -0.001559996769320169
-0.0007179351653253909   -0.02996374602671513   -0.001508752601850728
0.0017470645510971672   -0.03626040041651978   -0.0015115401847091445
-0.0012775989598130884   -0.036352211265298286   -0.0015106882735590372
-0.0013287623276900373   -0.03635189187174984   -0.001557452179187471
-0.0007179351653253909   -0.02996374602671513   -0.001508752601850728
0.0017470645510971672   -0.03626040041651978   -0.0015115401847091445
-0.0013287623276900373   -0.03635189187174984   -0.001557452179187471
0.002564530063831359   -0.029918076786466064   -0.001559996769320169
-0.0007179351653253909   -0.02996374602671513   -0.001508752601850728
-0.0012775989598130884   -0.036352211265298286   -0.0015106882735590372
0.0026042880431872526   -0.02990255229850545   -0.0015112638122610099
-0.0006883775127706078   -0.02997592125342367   -0.0014776846130820922
-0.0012775989598130884   -0.036352211265298286   -0.0015106882735590372
0.0017470645510971672   -0.03626040041651978   -0.0015115401847091445
0.0026042880431872526   -0.02990255229850545   -0.0015112638122610099
0.0018112689205850726   -0.03625667423162074   -0.0014449348096078282
-0.0006883775127706078   -0.02997592125342367   -0.0014776846130820922
0.002641108024823316   -0.029894470711191067   -0.00146922748021422
0.0018112689205850726   -0.03625667423162074   -0.0014449348096078282
0.0026042880431872526   -0.02990255229850545   -0.0015112638122610099
-0.0006883775127706078   -0.02997592125342367   -0.0014776846130820922
0.0018112689205850726   -0.03625667423162074   -0.0014449348096078282
-0.0012277644279578503   -0.036366564442530495   -0.0014707529521229726
-0.0012775989598130884   -0.036352211265298286   -0.0015106882735590372
-0.0006883775127706078   -0.02997592125342367   -0.0014776846130820922
0.0018112689205850726   -0.03625667423162074   -0.0014449348096078282
-0.0012775989598130884   -0.036352211265298286   -0.0015106882735590372
0.0026042880431872526   -0.02990255229850545   -0.0015112638122610099
-0.0006883775127706078   -0.02997592125342367   -0.0014776846130820922
-0.0012277644279578503   -0.036366564442530495   -0.0014707529521229726
0.002641108024823316   -0.029894470711191067   -0.00146922748021422
-0.0006632108964801185   -0.029994095670754423   -0.001453568278921855
-0.0012277644279578503   -0.036366564442530495   -0.0014707529521229726
0.0018112689205850726   -0.03625667423162074   -0.0014449348096078282
0.002641108024823316   -0.029894470711191067   -0.00146922748021422
0.0018540486266433289   -0.03626603756870305   -0.001384633319532973
-0.0006632108964801185   -0.029994095670754423   -0.001453568278921855
0.0026610916724652566   -0.029889967079651143   -0.0014334505477046323
0.0018540486266433289   -0.03626603756870305   -0.001384633319532973
0.002641108024823316   -0.029894470711191067   -0.00146922748021422
-0.0006632108964801185   -0.029994095670754423   -0.001453568278921855
0.0018540486266433289   -0.03626603756870305   -0.001384633319532973
-0.0011832653926032053   -0.03639612949613251   -0.00143788250106449
-0.0012277644279578503   -0.036366564442530495   -0.0014707529521229726
-0.0006632108964801185   -0.029994095670754423   -0.001453568278921855
0.0018540486266433289   -0.03626603756870305   -0.001384633319532973
-0.0012277644279578503   -0.036366564442530495   -0.0014707529521229726
0.002641108024823316   -0.029894470711191067   -0.00146922748021422
0.002564530063831359   -0.029918076786466064   -0.001559996769320169
0.0016844952799878043   -0.03628016575677706   -0.00158540821377729
0.0061113995710544   -0.02985207889752238   -0.0016153011021856503
0.0026042880431872526   -0.02990255229850545   -0.0015112638122610099
0.0016844952799878043   -0.03628016575677706   -0.00158540821377729
0.004888609148168232   -0.03615681353654134   -0.0016571298746276503
0.0061113995710544   -0.02985207889752238   -0.0016153011021856503
0.005055128591701517   -0.036116174493825655   -0.0015495748957672388
0.0026042880431872526   -0.02990255229850545   -0.0015112638122610099
0.006214778715699133   -0.02981661162988106   -0.0015512230992979167
0.005055128591701517   -0.036116174493825655   -0.0015495748957672388
0.0061113995710544   -0.02985207889752238   -0.0016153011021856503
0.0026042880431872526   -0.02990255229850545   -0.0015112638122610099
0.005055128591701517   -0.036116174493825655   -0.0015495748957672388
0.0017470645510971672   -0.03626040041651978   -0.0015115401847091445
0.0016844952799878043   -0.03628016575677706   -0.00158540821377729
0.0026042880431872526   -0.02990255229850545   -0.0015112638122610099
0.005055128591701517   -0.036116174493825655   -0.0015495748957672388
0.0016844952799878043   -0.03628016575677706   -0.00158540821377729
0.0061113995710544   -0.02985207889752238   -0.0016153011021856503
0.0026042880431872526   -0.02990255229850545   -0.0015112638122610099
0.0017470645510971672   -0.03626040041651978   -0.0015115401847091445
0.006214778715699133   -0.02981661162988106   -0.0015512230992979167
0.002641108024823316   -0.029894470711191067   -0.00146922748021422
0.0017470645510971672   -0.03626040041651978   -0.0015115401847091445
0.005055128591701517   -0.036116174493825655   -0.0015495748957672388
0.006214778715699133   -0.02981661162988106   -0.0015512230992979167
0.0051785389910218495   -0.036104961962211614   -0.0014516853040749808
0.002641108024823316   -0.029894470711191067   -0.00146922748021422
0.006286006101176726   -0.029799400718112472   -0.0014966899807860863
0.0051785389910218495   -0.036104961962211614   -0.0014516853040749808
0.006214778715699133   -0.02981661162988106   -0.0015512230992979167
0.002641108024823316   -0.029894470711191067   -0.00146922748021422
0.0051785389910218495   -0.036104961962211614   -0.0014516853040749808
0.0018112689205850726   -0.03625667423162074   -0.0014449348096078282
0.0017470645510971672   -0.03626040041651978   -0.0015115401847091445
0.002641108024823316   -0.029894470711191067   -0.00146922748021422
0.0051785389910218495   -0.036104961962211614   -0.0014516853040749808
0.0017470645510971672   -0.03626040041651978   -0.0015115401847091445
0.006214778715699133   -0.02981661162988106   -0.0015512230992979167
0.002641108024823316   -0.029894470711191067   -0.00146922748021422
0.0018112689205850726   -0.03625667423162074   -0.0014449348096078282
0.006286006101176726   -0.029799400718112472   -0.0014966899807860863
0.0026610916724652566   -0.029889967079651143   -0.0014334505477046323
0.0018112689205850726   -0.03625667423162074   -0.0014449348096078282
0.0051785389910218495   -0.036104961962211614   -0.0014516853040749808
0.006286006101176726   -0.029799400718112472   -0.0014966899807860863
0.005303842767179916   -0.036104893590674314   -0.0013639066957704632
0.0026610916724652566   -0.029889967079651143   -0.0014334505477046323
0.0063495044363347   -0.029780808708336725   -0.0014520999646847528
0.005303842767179916   -0.036104893590674314   -0.0013639066957704632
0.006286006101176726   -0.029799400718112472   -0.0014966899807860863
0.0026610916724652566   -0.029889967079651143   -0.0014334505477046323
0.005303842767179916   -0.036104893590674314   -0.0013639066957704632
0.0018540486266433289   -0.03626603756870305   -0.001384633319532973
0.0018112689205850726   -0.03625667423162074   -0.0014449348096078282
0.0026610916724652566   -0.029889967079651143   -0.0014334505477046323
0.005303842767179916   -0.036104893590674314   -0.0013639066957704632
0.0018112689205850726   -0.03625667423162074   -0.0014449348096078282
0.006286006101176726   -0.029799400718112472   -0.0014966899807860863
-0.01059705318357508   -0.03627278400513531   -0.0016592277992362172
-0.009671828192827532   -0.04186050291218495   -0.0015477962763778108
-0.007246533416419297   -0.03634551724747654   -0.0016007734843218357
-0.010520257554163855   -0.036322609716175465   -0.0017013437870087703
-0.009671828192827532   -0.04186050291218495   -0.0015477962763778108
-0.006852823150705342   -0.04199142821440156   -0.0015384760427271198
-0.007246533416419297   -0.03634551724747654   -0.0016007734843218357
-0.006782708906772395   -0.04201034592464647   -0.0015694767058724197
-0.010520257554163855   -0.036322609716175465   -0.0017013437870087703
-0.007204007515351524   -0.03638241321130275   -0.001609679623027845
-0.006782708906772395   -0.04201034592464647   -0.0015694767058724197
-0.007246533416419297   -0.03634551724747654   -0.0016007734843218357
-0.010520257554163855   -0.036322609716175465   -0.0017013437870087703
-0.006782708906772395   -0.04201034592464647   -0.0015694767058724197
-0.00952557491649546   -0.04188855315156841   -0.0016346828919044372
-0.009671828192827532   -0.04186050291218495   -0.0015477962763778108
-0.010520257554163855   -0.036322609716175465   -0.0017013437870087703
-0.006782708906772395   -0.04201034592464647   -0.0015694767058724197
-0.009671828192827532   -0.04186050291218495   -0.0015477962763778108
-0.007246533416419297   -0.03634551724747654   -0.0016007734843218357
-0.010520257554163855   -0.036322609716175465   -0.0017013437870087703
-0.00952557491649546   -0.04188855315156841   -0.0016346828919044372
-0.007204007515351524   -0.03638241321130275   -0.001609679623027845
-0.010432770914527451   -0.036383901548691706   -0.0017542997439622548
-0.00952557491649546   -0.04188855315156841   -0.0016346828919044372
-0.006782708906772395   -0.04201034592464647   -0.0015694767058724197
-0.007204007515351524   -0.03638241321130275   -0.001609679623027845
-0.006694634524404684   -0.04205576501731789   -0.0016074581483635519
-0.010432770914527451   -0.036383901548691706   -0.0017542997439622548
-0.007146511752919045   -0.036435053121970755   -0.0016254801260800918
-0.006694634524404684   -0.04205576501731789   -0.0016074581483635519
-0.007204007515351524   -0.03638241321130275   -0.001609679623027845
-0.010432770914527451   -0.036383901548691706   -0.0017542997439622548
-0.006694634524404684   -0.04205576501731789   -0.0016074581483635519
-0.009379807295145374   -0.04194185987587658   -0.0017329348575368408
-0.00952557491649546   -0.04188855315156841   -0.0016346828919044372
-0.010432770914527451   -0.036383901548691706   -0.0017542997439622548
-0.006694634524404684   -0.04205576501731789   -0.0016074581483635519
-0.00952557491649546   -0.04188855315156841   -0.0016346828919044372
-0.007204007515351524   -0.03638241321130275   -0.001609679623027845
-0.010432770914527451   -0.036383901548691706   -0.0017542997439622548
-0.009379807295145374   -0.04194185987587658   -0.0017329348575368408
-0.007146511752919045   -0.036435053121970755   -0.0016254801260800918
-0.010313764839436359   -0.03647727149021207   -0.0018183043859845518
-0.009379807295145374   -0.04194185987587658   -0.0017329348575368408
-0.006694634524404684   -0.04205576501731789   -0.0016074581483635519
-0.007146511752919045   -0.036435053121970755   -0.0016254801260800918
-0.006607754909076219   -0.04213026720372429   -0.0016523544838814932
-0.010313764839436359   -0.03647727149021207   -0.0018183043859845518
-0.007084855616585828   -0.03650665350539196   -0.0016483726986986642
-0.006607754909076219   -0.04213026720372429   -0.0016523544838814932
-0.007146511752919045   -0.036435053121970755   -0.0016254801260800918
-0.010313764839436359   -0.03647727149021207   -0.0018183043859845518
-0.006607754909076219   -0.04213026720372429   -0.0016523544838814932
-0.009193120909612178   -0.042041262117153186   -0.0018423517553416997
-0.009379807295145374   -0.04194185987587658   -0.0017329348575368408
-0.010313764839436359   -0.03647727149021207   -0.0018183043859845518
-0.006607754909076219   -0.04213026720372429   -0.0016523544838814932
-0.009379807295145374   -0.04194185987587658   -0.0017329348575368408
-0.007146511752919045   -0.036435053121970755   -0.0016254801260800918
-0.007246533416419297   -0.03634551724747654   -0.0016007734843218357
-0.006852823150705342   -0.04199142821440156   -0.0015384760427271198
-0.0042422305244753   -0.03637415573741375   -0.0015633949616933847
-0.007204007515351524   -0.03638241321130275   -0.001609679623027845
-0.006852823150705342   -0.04199142821440156   -0.0015384760427271198
-0.004410509882162278   -0.04205253869171973   -0.0015348442395301267
-0.0042422305244753   -0.03637415573741375   -0.0015633949616933847
-0.004338614352180083   -0.042058708682593995   -0.0015209182324817168
-0.007204007515351524   -0.03638241321130275   -0.001609679623027845
-0.0041959660288080946   -0.0363932899034933   -0.0015439803715146274
-0.004338614352180083   -0.042058708682593995   -0.0015209182324817168
-0.0042422305244753   -0.03637415573741375   -0.0015633949616933847
-0.007204007515351524   -0.03638241321130275   -0.001609679623027845
-0.004338614352180083   -0.042058708682593995   -0.0015209182324817168
-0.006782708906772395   -0.04201034592464647   -0.0015694767058724197
-0.006852823150705342   -0.04199142821440156   -0.0015384760427271198
-0.007204007515351524   -0.03638241321130275   -0.001609679623027845
-0.004338614352180083   -0.042058708682593995   -0.0015209182324817168
-0.006852823150705342   -0.04199142821440156   -0.0015384760427271198
-0.0042422305244753   -0.03637415573741375   -0.0015633949616933847
-0.007204007515351524   -0.03638241321130275   -0.001609679623027845
-0.006782708906772395   -0.04201034592464647   -0.0015694767058724197
-0.0041959660288080946   -0.0363932899034933   -0.0015439803715146274
-0.007146511752919045   -0.036435053121970755   -0.0016254801260800918
-0.006782708906772395   -0.04201034592464647   -0.0015694767058724197
-0.004338614352180083   -0.042058708682593995   -0.0015209182324817168
-0.0041959660288080946   -0.0363932899034933   -0.0015439803715146274
-0.004264393573689727   -0.04208855130985954   -0.001513766094989206
-0.007146511752919045   -0.036435053121970755   -0.0016254801260800918
-0.0041462162288353754   -0.0364275525149631   -0.0015313750838303415
-0.004264393573689727   -0.04208855130985954   -0.001513766094989206
-0.0041959660288080946   -0.0363932899034933   -0.0015439803715146274
-0.007146511752919045   -0.036435053121970755   -0.0016254801260800918
-0.004264393573689727   -0.04208855130985954   -0.001513766094989206
-0.006694634524404684   -0.04205576501731789   -0.0016074581483635519
-0.006782708906772395   -0.04201034592464647   -0.0015694767058724197
-0.007146511752919045   -0.036435053121970755   -0.0016254801260800918
-0.004264393573689727   -0.04208855130985954   -0.001513766094989206
-0.006782708906772395   -0.04201034592464647   -0.0015694767058724197
-0.0041959660288080946   -0.0363932899034933   -0.0015439803715146274
-0.007146511752919045   -0.036435053121970755   -0.0016254801260800918
-0.006694634524404684   -0.04205576501731789   -0.0016074581483635519
-0.0041462162288353754   -0.0364275525149631   -0.0015313750838303415
-0.007084855616585828   -0.03650665350539196   -0.0016483726986986642
-0.006694634524404684   -0.04205576501731789   -0.0016074581483635519
-0.004264393573689727   -0.04208855130985954   -0.001513766094989206
-0.0041462162288353754   -0.0364275525149631   -0.0015313750838303415
-0.004190285650610634   -0.04214344118020623   -0.0015133075410288875
-0.007084855616585828   -0.03650665350539196   -0.0016483726986986642
-0.00409508025891342   -0.03647737227435223   -0.0015259157174594838
-0.004190285650610634   -0.04214344118020623   -0.0015133075410288875
-0.0041462162288353754   -0.0364275525149631   -0.0015313750838303415
-0.007084855616585828   -0.03650665350539196   -0.0016483726986986642
-0.004190285650610634   -0.04214344118020623   -0.0015133075410288875
-0.006607754909076219   -0.04213026720372429   -0.0016523544838814932
-0.006694634524404684   -0.04205576501731789   -0.0016074581483635519
-0.007084855616585828   -0.03650665350539196   -0.0016483726986986642
-0.004190285650610634   -0.04214344118020623   -0.0015133075410288875
-0.006694634524404684   -0.04205576501731789   -0.0016074581483635519
-0.0041462162288353754   -0.0364275525149631   -0.0015313750838303415
-0.0042422305244753   -0.03637415573741375   -0.0015633949616933847
-0.004410509882162278   -0.04205253869171973   -0.0015348442395301267
-0.0013287623276900373   -0.03635189187174984   -0.001557452179187471
-0.0041959660288080946   -0.0363932899034933   -0.0015439803715146274
-0.004410509882162278   -0.04205253869171973   -0.0015348442395301267
-0.002049129929861984   -0.04204101517343079   -0.001552535935128457
-0.0013287623276900373   -0.03635189187174984   -0.001557452179187471
-0.0019703835346220086   -0.04203285204359914   -0.001495255167906573
-0.0041959660288080946   -0.0363932899034933   -0.0015439803715146274
-0.0012775989598130884   -0.036352211265298286   -0.0015106882735590372
-0.0019703835346220086   -0.04203285204359914   -0.001495255167906573
-0.0013287623276900373   -0.03635189187174984   -0.001557452179187471
-0.0041959660288080946   -0.0363932899034933   -0.0015439803715146274
-0.0019703835346220086   -0.04203285204359914   -0.001495255167906573
-0.004338614352180083   -0.042058708682593995   -0.0015209182324817168
-0.004410509882162278   -0.04205253869171973   -0.0015348442395301267
-0.0041959660288080946   -0.0363932899034933   -0.0015439803715146274
-0.0019703835346220086   -0.04203285204359914   -0.001495255167906573
-0.004410509882162278   -0.04205253869171973   -0.0015348442395301267
-0.0013287623276900373   -0.03635189187174984   -0.001557452179187471
-0.0041959660288080946   -0.0363932899034933   -0.0015439803715146274
-0.004338614352180083   -0.042058708682593995   -0.0015209182324817168
-0.0012775989598130884   -0.036352211265298286   -0.0015106882735590372
-0.0041462162288353754   -0.0364275525149631   -0.0015313750838303415
-0.004338614352180083   -0.042058708682593995   -0.0015209182324817168
-0.0019703835346220086   -0.04203285204359914   -0.001495255167906573
-0.0012775989598130884   -0.036352211265298286   -0.0015106882735590372
-0.0018939357537326948   -0.04204611928555639   -0.0014451959636731244
-0.0041462162288353754   -0.0364275525149631   -0.0015313750838303415
-0.0012277644279578503   -0.036366564442530495   -0.0014707529521229726
-0.0018939357537326948   -0.04204611928555639   -0.0014451959636731244
-0.0012775989598130884   -0.036352211265298286   -0.0015106882735590372
-0.0041462162288353754   -0.0364275525149631   -0.0015313750838303415
-0.0018939357537326948   -0.04204611928555639   -0.0014451959636731244
-0.004264393573689727   -0.04208855130985954   -0.001513766094989206
-0.004338614352180083   -0.042058708682593995   -0.0015209182324817168
-0.0041462162288353754   -0.0364275525149631   -0.0015313750838303415
-0.0018939357537326948   -0.04204611928555639   -0.0014451959636731244
-0.004338614352180083   -0.042058708682593995   -0.0015209182324817168
-0.0012775989598130884   -0.036352211265298286   -0.0015106882735590372
-0.0041462162288353754   -0.0364275525149631   -0.0015313750838303415
-0.004264393573689727   -0.04208855130985954   -0.001513766094989206
-0.0012277644279578503   -0.036366564442530495   -0.0014707529521229726
-0.00409508025891342   -0.03647737227435223   -0.0015259157174594838
-0.004264393573689727   -0.04208855130985954   -0.001513766094989206
-0.0018939357537326948   -0.04204611928555639   -0.0014451959636731244
-0.0012277644279578503   -0.036366564442530495   -0.0014707529521229726
-0.0018248461733946593   -0.04208388333453454   -0.0014017363942203476
-0.00409508025891342   -0.03647737227435223   -0.0015259157174594838
-0.0011832653926032053   -0.03639612949613251   -0.00143788250106449
-0.0018248461733946593   -0.04208388333453454   -0.0014017363942203476
-0.0012277644279578503   -0.036366564442530495   -0.0014707529521229726
-0.00409508025891342   -0.03647737227435223   -0.0015259157174594838
-0.0018248461733946593   -0.04208388333453454   -0.0014017363942203476
-0.004190285650610634   -0.04214344118020623   -0.0015133075410288875
-0.004264393573689727   -0.04208855130985954   -0.001513766094989206
-0.00409508025891342   -0.03647737227435223   -0.0015259157174594838
-0.0018248461733946593   -0.04208388333453454   -0.0014017363942203476
-0.004264393573689727   -0.04208855130985954   -0.001513766094989206
-0.0012277644279578503   -0.036366564442530495   -0.0014707529521229726
-0.0013287623276900373   -0.03635189187174984   -0.001557452179187471
-0.002049129929861984   -0.04204101517343079   -0.001552535935128457
0.0016844952799878043   -0.03628016575677706   -0.00158540821377729
-0.0012775989598130884   -0.036352211265298286   -0.0015106882735590372
-0.002049129929861984   -0.04204101517343079   -0.001552535935128457
0.0004218792668252092   -0.04195425066986102   -0.001595368079210956
0.0016844952799878043   -0.03628016575677706   -0.00158540821377729
0.0005177192006826754   -0.041927914458481826   -0.0014948686416558924
-0.0012775989598130884   -0.036352211265298286   -0.0015106882735590372
0.0017470645510971672   -0.03626040041651978   -0.0015115401847091445
0.0005177192006826754   -0.041927914458481826   -0.0014948686416558924
0.0016844952799878043   -0.03628016575677706   -0.00158540821377729
-0.0012775989598130884   -0.036352211265298286   -0.0015106882735590372
0.0005177192006826754   -0.041927914458481826   -0.0014948686416558924
-0.0019703835346220086   -0.04203285204359914   -0.001495255167906573
-0.002049129929861984   -0.04204101517343079   -0.001552535935128457
-0.0012775989598130884   -0.036352211265298286   -0.0015106882735590372
0.0005177192006826754   -0.041927914458481826   -0.0014948686416558924
-0.002049129929861984   -0.04204101517343079   -0.001552535935128457
0.0016844952799878043   -0.03628016575677706   -0.00158540821377729
-0.0012775989598130884   -0.036352211265298286   -0.0015106882735590372
-0.0019703835346220086   -0.04203285204359914   -0.001495255167906573
0.0017470645510971672   -0.03626040041651978   -0.0015115401847091445
-0.0012277644279578503   -0.036366564442530495   -0.0014707529521229726
-0.0019703835346220086   -0.04203285204359914   -0.001495255167906573
0.0005177192006826754   -0.041927914458481826   -0.0014948686416558924
0.0017470645510971672   -0.03626040041651978   -0.0015115401847091445
0.0006187931206802752   -0.04192553537102801   -0.0014035174002612202
-0.0012277644279578503   -0.036366564442530495   -0.0014707529521229726
0.0018112689205850726   -0.03625667423162074   -0.0014449348096078282
0.0006187931206802752   -0.04192553537102801   -0.0014035174002612202
0.0017470645510971672   -0.03626040041651978   -0.0015115401847091445
-0.0012277644279578503   -0.036366564442530495   -0.0014707529521229726
0.0006187931206802752   -0.04192553537102801   -0.0014035174002612202
-0.0018939357537326948   -0.04204611928555639   -0.0014451959636731244
-0.0019703835346220086   -0.04203285204359914   -0.001495255167906573
-0.0012277644279578503   -0.036366564442530495   -0.0014707529521229726
0.0006187931206802752   -0.04192553537102801   -0.0014035174002612202
-0.0019703835346220086   -0.04203285204359914   -0.001495255167906573
0.0017470645510971672   -0.03626040041651978   -0.0015115401847091445
-0.0012277644279578503   -0.036366564442530495   -0.0014707529521229726
-0.0018939357537326948   -0.04204611928555639   -0.0014451959636731244
0.0018112689205850726   -0.03625667423162074   -0.0014449348096078282
-0.0011832653926032053   -0.03639612949613251   -0.00143788250106449
-0.0018939357537326948   -0.04204611928555639   -0.0014451959636731244
0.0006187931206802752   -0.04192553537102801   -0.0014035174002612202
0.0018112689205850726   -0.03625667423162074   -0.0014449348096078282
0.0006927133311658333   -0.04194601262462703   -0.0013184623546958574
-0.0011832653926032053   -0.03639612949613251   -0.00143788250106449
0.0018540486266433289   -0.03626603756870305   -0.001384633319532973
0.0006927133311658333   -0.04194601262462703   -0.0013184623546958574
0.0018112689205850726   -0.03625667423162074   -0.0014449348096078282
-0.0011832653926032053   -0.03639612949613251   -0.00143788250106449
0.0006927133311658333   -0.04194601262462703   -0.0013184623546958574
-0.0018248461733946593   -0.04208388333453454   -0.0014017363942203476
-0.0018939357537326948   -0.04204611928555639   -0.0014451959636731244
-0.0011832653926032053   -0.03639612949613251   -0.00143788250106449
0.0006927133311658333   -0.04194601262462703   -0.0013184623546958574
-0.0018939357537326948   -0.04204611928555639   -0.0014451959636731244
0.0018112689205850726   -0.03625667423162074   -0.0014449348096078282
0.0016844952799878043   -0.03628016575677706   -0.00158540821377729
0.0004218792668252092   -0.04195425066986102   -0.001595368079210956
0.004888609148168232   -0.03615681353654134   -0.0016571298746276503
0.0017470645510971672   -0.03626040041651978   -0.0015115401847091445
0.0004218792668252092   -0.04195425066986102   -0.001595368079210956
0.0030543035432566393   -0.04178404955272635   -0.0016865931196855886
0.004888609148168232   -0.03615681353654134   -0.0016571298746276503
0.0032976194445771567   -0.0417335629323367   -0.0015327486633742587
0.0017470645510971672   -0.03626040041651978   -0.0015115401847091445
0.005055128591701517   -0.036116174493825655   -0.0015495748957672388
0.0032976194445771567   -0.0417335629323367   -0.0015327486633742587
0.004888609148168232   -0.03615681353654134   -0.0016571298746276503
0.0017470645510971672   -0.03626040041651978   -0.0015115401847091445
0.0032976194445771567   -0.0417335629323367   -0.0015327486633742587
0.0005177192006826754   -0.041927914458481826   -0.0014948686416558924
0.0004218792668252092   -0.04195425066986102   -0.001595368079210956
0.0017470645510971672   -0.03626040041651978   -0.0015115401847091445
0.0032976194445771567   -0.0417335629323367   -0.0015327486633742587
0.0004218792668252092   -0.04195425066986102   -0.001595368079210956
0.004888609148168232   -0.03615681353654134   -0.0016571298746276503
0.0017470645510971672   -0.03626040041651978   -0.0015115401847091445
0.0005177192006826754   -0.041927914458481826   -0.0014948686416558924
0.005055128591701517   -0.036116174493825655   -0.0015495748957672388
0.0018112689205850726   -0.03625667423162074   -0.0014449348096078282
0.0005177192006826754   -0.041927914458481826   -0.0014948686416558924
0.0032976194445771567   -0.0417335629323367   -0.0015327486633742587
0.005055128591701517   -0.036116174493825655   -0.0015495748957672388
0.0034842173936800104   -0.041724818610213994   -0.0013902512071134584
0.0018112689205850726   -0.03625667423162074   -0.0014449348096078282
0.0051785389910218495   -0.036104961962211614   -0.0014516853040749808
0.0034842173936800104   -0.041724818610213994   -0.0013902512071134584
0.005055128591701517   -0.036116174493825655   -0.0015495748957672388
0.0018112689205850726   -0.03625667423162074   -0.0014449348096078282
0.0034842173936800104   -0.041724818610213994   -0.0013902512071134584
0.0006187931206802752   -0.04192553537102801   -0.0014035174002612202
0.0005177192006826754   -0.041927914458481826   -0.0014948686416558924
0.0018112689205850726   -0.03625667423162074   -0.0014449348096078282
0.0034842173936800104   -0.041724818610213994   -0.0013902512071134584
0.0005177192006826754   -0.041927914458481826   -0.0014948686416558924
0.005055128591701517   -0.036116174493825655   -0.0015495748957672388
0.0018112689205850726   -0.03625667423162074   -0.0014449348096078282
0.0006187931206802752   -0.04192553537102801   -0.0014035174002612202
0.0051785389910218495   -0.036104961962211614   -0.0014516853040749808
0.0018540486266433289   -0.03626603756870305   -0.001384633319532973
0.0006187931206802752   -0.04192553537102801   -0.0014035174002612202
0.0034842173936800104   -0.041724818610213994   -0.0013902512071134584
0.0051785389910218495   -0.036104961962211614   -0.0014516853040749808
0.003677785746664609   -0.04173988204096604   -0.001260260586479458
0.0018540486266433289   -0.03626603756870305   -0.001384633319532973
0.005303842767179916   -0.036104893590674314   -0.0013639066957704632
0.003677785746664609   -0.04173988204096604   -0.001260260586479458
0.0051785389910218495   -0.036104961962211614   -0.0014516853040749808
0.0018540486266433289   -0.03626603756870305   -0.001384633319532973
0.003677785746664609   -0.04173988204096604   -0.001260260586479458
0.0006927133311658333   -0.04194601262462703   -0.0013184623546958574
0.0006187931206802752   -0.04192553537102801   -0.0014035174002612202
0.0018540486266433289   -0.03626603756870305   -0.001384633319532973
0.003677785746664609   -0.04173988204096604   -0.001260260586479458
0.0006187931206802752   -0.04192553537102801   -0.0014035174002612202
0.0051785389910218495   -0.036104961962211614   -0.0014516853040749808
-0.009671828192827532   -0.04186050291218495   -0.0015477962763778108
-0.008105538612340856   -0.04624493275988918   -0.0014047135389762427
-0.006852823150705342   -0.04199142821440156   -0.0015384760427271198
-0.00952557491649546   -0.04188855315156841   -0.0016346828919044372
-0.008105538612340856   -0.04624493275988918   -0.0014047135389762427
-0.006098762359764268   -0.046438487705013964   -0.0014627019546214648
-0.006852823150705342   -0.04199142821440156   -0.0015384760427271198
-0.005998094125469312   -0.04642862647746642   -0.0015103936611154344
-0.00952557491649546   -0.04188855315156841   -0.0016346828919044372
-0.006782708906772395   -0.04201034592464647   -0.0015694767058724197
-0.005998094125469312   -0.04642862647746642   -0.0015103936611154344
-0.006852823150705342   -0.04199142821440156   -0.0015384760427271198
-0.00952557491649546   -0.04188855315156841   -0.0016346828919044372
-0.005998094125469312   -0.04642862647746642   -0.0015103936611154344
-0.007888052973138212   -0.0462395555665486   -0.0015332814583229712
-0.008105538612340856   -0.04624493275988918   -0.0014047135389762427
-0.00952557491649546   -0.04188855315156841   -0.0016346828919044372
-0.005998094125469312   -0.04642862647746642   -0.0015103936611154344
-0.008105538612340856   -0.04624493275988918   -0.0014047135389762427
-0.006852823150705342   -0.04199142821440156   -0.0015384760427271198
-0.00952557491649546   -0.04188855315156841   -0.0016346828919044372
-0.007888052973138212   -0.0462395555665486   -0.0015332814583229712
-0.006782708906772395   -0.04201034592464647   -0.0015694767058724197
-0.009379807295145374   -0.04194185987587658   -0.0017329348575368408
-0.007888052973138212   -0.0462395555665486   -0.0015332814583229712
-0.005998094125469312   -0.04642862647746642   -0.0015103936611154344
-0.006782708906772395   -0.04201034592464647   -0.0015694767058724197
-0.005879617008203925   -0.046456676135134246   -0.0015652033554135326
-0.009379807295145374   -0.04194185987587658   -0.0017329348575368408
-0.006694634524404684   -0.04205576501731789   -0.0016074581483635519
-0.005879617008203925   -0.046456676135134246   -0.0015652033554135326
-0.006782708906772395   -0.04201034592464647   -0.0015694767058724197
-0.009379807295145374   -0.04194185987587658   -0.0017329348575368408
-0.005879617008203925   -0.046456676135134246   -0.0015652033554135326
-0.007687654879281815   -0.04627418140388959   -0.0016718796406031558
-0.007888052973138212   -0.0462395555665486   -0.0015332814583229712
-0.009379807295145374   -0.04194185987587658   -0.0017329348575368408
-0.005879617008203925   -0.046456676135134246   -0.0015652033554135326
-0.007888052973138212   -0.0462395555665486   -0.0015332814583229712
-0.006782708906772395   -0.04201034592464647   -0.0015694767058724197
-0.009379807295145374   -0.04194185987587658   -0.0017329348575368408
-0.007687654879281815   -0.04627418140388959   -0.0016718796406031558
-0.006694634524404684   -0.04205576501731789   -0.0016074581483635519
-0.009193120909612178   -0.042041262117153186   -0.0018423517553416997
-0.007687654879281815   -0.04627418140388959   -0.0016718796406031558
-0.005879617008203925   -0.046456676135134246   -0.0015652033554135326
-0.006694634524404684   -0.04205576501731789   -0.0016074581483635519
-0.005772139189867231   -0.04652328723030292   -0.0016266773392937767
-0.009193120909612178   -0.042041262117153186   -0.0018423517553416997
-0.006607754909076219   -0.04213026720372429   -0.0016523544838814932
-0.005772139189867231   -0.04652328723030292   -0.0016266773392937767
-0.006694634524404684   -0.04205576501731789   -0.0016074581483635519
-0.009193120909612178   -0.042041262117153186   -0.0018423517553416997
-0.005772139189867231   -0.04652328723030292   -0.0016266773392937767
-0.00744318339958489   -0.046366398528187074   -0.001819925873966732
-0.007687654879281815   -0.04627418140388959   -0.0016718796406031558
-0.009193120909612178   -0.042041262117153186   -0.0018423517553416997
-0.005772139189867231   -0.04652328723030292   -0.0016266773392937767
-0.007687654879281815   -0.04627418140388959   -0.0016718796406031558
-0.006694634524404684   -0.04205576501731789   -0.0016074581483635519
-0.006852823150705342   -0.04199142821440156   -0.0015384760427271198
-0.006098762359764268   -0.046438487705013964   -0.0014627019546214648
-0.004410509882162278   -0.04205253869171973   -0.0015348442395301267
-0.006782708906772395   -0.04201034592464647   -0.0015694767058724197
-0.006098762359764268   -0.046438487705013964   -0.0014627019546214648
-0.004457493198850381   -0.046563437043139526   -0.0015081010050973784
-0.004410509882162278   -0.04205253869171973   -0.0015348442395301267
-0.0043542635192067355   -0.046547526838895015   -0.0014935250562664924
-0.006782708906772395   -0.04201034592464647   -0.0015694767058724197
-0.004338614352180083   -0.042058708682593995   -0.0015209182324817168
-0.0043542635192067355   -0.046547526838895015   -0.0014935250562664924
-0.004410509882162278   -0.04205253869171973   -0.0015348442395301267
-0.006782708906772395   -0.04201034592464647   -0.0015694767058724197
-0.0043542635192067355   -0.046547526838895015   -0.0014935250562664924
-0.005998094125469312   -0.04642862647746642   -0.0015103936611154344
-0.006098762359764268   -0.046438487705013964   -0.0014627019546214648
-0.006782708906772395   -0.04201034592464647   -0.0015694767058724197
-0.0043542635192067355   -0.046547526838895015   -0.0014935250562664924
-0.006098762359764268   -0.046438487705013964   -0.0014627019546214648
-0.004410509882162278   -0.04205253869171973   -0.0015348442395301267
-0.006782708906772395   -0.04201034592464647   -0.0015694767058724197
-0.005998094125469312   -0.04642862647746642   -0.0015103936611154344
-0.004338614352180083   -0.042058708682593995   -0.0015209182324817168
-0.006694634524404684   -0.04205576501731789   -0.0016074581483635519
-0.005998094125469312   -0.04642862647746642   -0.0015103936611154344
-0.0043542635192067355   -0.046547526838895015   -0.0014935250562664924
-0.004338614352180083   -0.042058708682593995   -0.0015209182324817168
-0.00425244253566855   -0.04656436389731645   -0.0014858677561591037
-0.006694634524404684   -0.04205576501731789   -0.0016074581483635519
-0.004264393573689727   -0.04208855130985954   -0.001513766094989206
-0.00425244253566855   -0.04656436389731645   -0.0014858677561591037
-0.004338614352180083   -0.042058708682593995   -0.0015209182324817168
-0.006694634524404684   -0.04205576501731789   -0.0016074581483635519
-0.00425244253566855   -0.04656436389731645   -0.0014858677561591037
-0.005879617008203925   -0.046456676135134246   -0.0015652033554135326
-0.005998094125469312   -0.04642862647746642   -0.0015103936611154344
-0.006694634524404684   -0.04205576501731789   -0.0016074581483635519
-0.00425244253566855   -0.04656436389731645   -0.0014858677561591037
-0.005998094125469312   -0.04642862647746642   -0.0015103936611154344
-0.004338614352180083   -0.042058708682593995   -0.0015209182324817168
-0.006694634524404684   -0.04205576501731789   -0.0016074581483635519
-0.005879617008203925   -0.046456676135134246   -0.0015652033554135326
-0.004264393573689727   -0.04208855130985954   -0.001513766094989206
-0.006607754909076219   -0.04213026720372429   -0.0016523544838814932
-0.005879617008203925   -0.046456676135134246   -0.0015652033554135326
-0.00425244253566855   -0.04656436389731645   -0.0014858677561591037
-0.004264393573689727   -0.04208855130985954   -0.001513766094989206
-0.004158708815245896   -0.0466150181727533   -0.0014865708193732747
-0.006607754909076219   -0.04213026720372429   -0.0016523544838814932
-0.004190285650610634   -0.04214344118020623   -0.0015133075410288875
-0.004158708815245896   -0.0466150181727533   -0.0014865708193732747
-0.004264393573689727   -0.04208855130985954   -0.001513766094989206
-0.006607754909076219   -0.04213026720372429   -0.0016523544838814932
-0.004158708815245896   -0.0466150181727533   -0.0014865708193732747
-0.005772139189867231   -0.04652328723030292   -0.0016266773392937767
-0.005879617008203925   -0.046456676135134246   -0.0015652033554135326
-0.006607754909076219   -0.04213026720372429   -0.0016523544838814932
-0.004158708815245896   -0.0466150181727533   -0.0014865708193732747
-0.005879617008203925   -0.046456676135134246   -0.0015652033554135326
-0.004264393573689727   -0.04208855130985954   -0.001513766094989206
-0.004410509882162278   -0.04205253869171973   -0.0015348442395301267
-0.004457493198850381   -0.046563437043139526   -0.0015081010050973784
-0.002049129929861984   -0.04204101517343079   -0.001552535935128457
-0.004338614352180083   -0.042058708682593995   -0.0015209182324817168
-0.004457493198850381   -0.046563437043139526   -0.0015081010050973784
-0.002885327983747234   -0.046628300854005225   -0.0015619207371685127
-0.002049129929861984   -0.04204101517343079   -0.001552535935128457
-0.002768975622770168   -0.04660524242298292   -0.0014885920181101572
-0.004338614352180083   -0.042058708682593995   -0.0015209182324817168
-0.0019703835346220086   -0.04203285204359914   -0.001495255167906573
-0.002768975622770168   -0.04660524242298292   -0.0014885920181101572
-0.002049129929861984   -0.04204101517343079   -0.001552535935128457
-0.004338614352180083   -0.042058708682593995   -0.0015209182324817168
-0.002768975622770168   -0.04660524242298292   -0.0014885920181101572
-0.0043542635192067355   -0.046547526838895015   -0.0014935250562664924
-0.004457493198850381   -0.046563437043139526   -0.0015081010050973784
-0.004338614352180083   -0.042058708682593995   -0.0015209182324817168
-0.002768975622770168   -0.04660524242298292   -0.0014885920181101572
-0.004457493198850381   -0.046563437043139526   -0.0015081010050973784
-0.002049129929861984   -0.04204101517343079   -0.001552535935128457
-0.004338614352180083   -0.042058708682593995   -0.0015209182324817168
-0.0043542635192067355   -0.046547526838895015   -0.0014935250562664924
-0.0019703835346220086   -0.04203285204359914   -0.001495255167906573
-0.004264393573689727   -0.04208855130985954   -0.001513766094989206
-0.0043542635192067355   -0.046547526838895015   -0.0014935250562664924
-0.002768975622770168   -0.04660524242298292   -0.0014885920181101572
-0.0019703835346220086   -0.04203285204359914   -0.001495255167906573
-0.0026580276071629266   -0.046611022319408064   -0.0014213972684441701
-0.004264393573689727   -0.04208855130985954   -0.001513766094989206
-0.0018939357537326948   -0.04204611928555639   -0.0014451959636731244
-0.0026580276071629266   -0.046611022319408064   -0.0014213972684441701
-0.0019703835346220086   -0.04203285204359914   -0.001495255167906573
-0.004264393573689727   -0.04208855130985954   -0.001513766094989206
-0.0026580276071629266   -0.046611022319408064   -0.0014213972684441701
-0.00425244253566855   -0.04656436389731645   -0.0014858677561591037
-0.0043542635192067355   -0.046547526838895015   -0.0014935250562664924
-0.004264393573689727   -0.04208855130985954   -0.001513766094989206
-0.0026580276071629266   -0.046611022319408064   -0.0014213972684441701
-0.0043542635192067355   -0.046547526838895015   -0.0014935250562664924
-0.0019703835346220086   -0.04203285204359914   -0.001495255167906573
-0.004264393573689727   -0.04208855130985954   -0.001513766094989206
-0.00425244253566855   -0.04656436389731645   -0.0014858677561591037
-0.0018939357537326948   -0.04204611928555639   -0.0014451959636731244
-0.004190285650610634   -0.04214344118020623   -0.0015133075410288875
-0.00425244253566855   -0.04656436389731645   -0.0014858677561591037
-0.0026580276071629266   -0.046611022319408064   -0.0014213972684441701
-0.0018939357537326948   -0.04204611928555639   -0.0014451959636731244
-0.0025656860838037276   -0.04665118117422053   -0.001364126907323206
-0.004190285650610634   -0.04214344118020623   -0.0015133075410288875
-0.0018248461733946593   -0.04208388333453454   -0.0014017363942203476
-0.0025656860838037276   -0.04665118117422053   -0.001364126907323206
-0.0018939357537326948   -0.04204611928555639   -0.0014451959636731244
-0.004190285650610634   -0.04214344118020623   -0.0015133075410288875
-0.0025656860838037276   -0.04665118117422053   -0.001364126907323206
-0.004158708815245896   -0.0466150181727533   -0.0014865708193732747
-0.00425244253566855   -0.04656436389731645   -0.0014858677561591037
-0.004190285650610634   -0.04214344118020623   -0.0015133075410288875
-0.0025656860838037276   -0.04665118117422053   -0.001364126907323206
-0.00425244253566855   -0.04656436389731645   -0.0014858677561591037
-0.0018939357537326948   -0.04204611928555639   -0.0014451959636731244
-0.002049129929861984   -0.04204101517343079   -0.001552535935128457
-0.002885327983747234   -0.046628300854005225   -0.0015619207371685127
0.0004218792668252092   -0.04195425066986102   -0.001595368079210956
-0.0019703835346220086   -0.04203285204359914   -0.001495255167906573
-0.002885327983747234   -0.046628300854005225   -0.0015619207371685127
-0.001214702255173691   -0.04661023557017298   -0.0016254630424161023
0.0004218792668252092   -0.04195425066986102   -0.001595368079210956
-0.0010653127709703409   -0.04657405844328362   -0.0014958843333511076
-0.0019703835346220086   -0.04203285204359914   -0.001495255167906573
0.0005177192006826754   -0.041927914458481826   -0.0014948686416558924
-0.0010653127709703409   -0.04657405844328362   -0.0014958843333511076
0.0004218792668252092   -0.04195425066986102   -0.001595368079210956
-0.0019703835346220086   -0.04203285204359914   -0.001495255167906573
-0.0010653127709703409   -0.04657405844328362   -0.0014958843333511076
-0.002768975622770168   -0.04660524242298292   -0.0014885920181101572
-0.002885327983747234   -0.046628300854005225   -0.0015619207371685127
-0.0019703835346220086   -0.04203285204359914   -0.001495255167906573
-0.0010653127709703409   -0.04657405844328362   -0.0014958843333511076
-0.002885327983747234   -0.046628300854005225   -0.0015619207371685127
0.0004218792668252092   -0.04195425066986102   -0.001595368079210956
-0.0019703835346220086   -0.04203285204359914   -0.001495255167906573
-0.002768975622770168   -0.04660524242298292   -0.0014885920181101572
0.0005177192006826754   -0.041927914458481826   -0.0014948686416558924
-0.0018939357537326948   -0.04204611928555639   -0.0014451959636731244
-0.002768975622770168   -0.04660524242298292   -0.0014885920181101572
-0.0010653127709703409   -0.04657405844328362   -0.0014958843333511076
0.0005177192006826754   -0.041927914458481826   -0.0014948686416558924
-0.0009124170983598509   -0.046567772081327334   -0.0013728566319870146
-0.0018939357537326948   -0.04204611928555639   -0.0014451959636731244
0.0006187931206802752   -0.04192553537102801   -0.0014035174002612202
-0.0009124170983598509   -0.046567772081327334   -0.0013728566319870146
0.0005177192006826754   -0.041927914458481826   -0.0014948686416558924
-0.0018939357537326948   -0.04204611928555639   -0.0014451959636731244
-0.0009124170983598509   -0.046567772081327334   -0.0013728566319870146
-0.0026580276071629266   -0.046611022319408064   -0.0014213972684441701
-0.002768975622770168   -0.04660524242298292   -0.0014885920181101572
-0.0018939357537326948   -0.04204611928555639   -0.0014451959636731244
-0.0009124170983598509   -0.046567772081327334   -0.0013728566319870146
-0.002768975622770168   -0.04660524242298292   -0.0014885920181101572
0.0005177192006826754   -0.041927914458481826   -0.0014948686416558924
-0.0018939357537326948   -0.04204611928555639   -0.0014451959636731244
-0.0026580276071629266   -0.046611022319408064   -0.0014213972684441701
0.0006187931206802752   -0.04192553537102801   -0.0014035174002612202
-0.0018248461733946593   -0.04208388333453454   -0.0014017363942203476
-0.0026580276071629266   -0.046611022319408064   -0.0014213972684441701
-0.0009124170983598509   -0.046567772081327334   -0.0013728566319870146
0.0006187931206802752   -0.04192553537102801   -0.0014035174002612202
-0.0007992674554714556   -0.046597746284595835   -0.0012610384737478438
-0.0018248461733946593   -0.04208388333453454   -0.0014017363942203476
0.0006927133311658333   -0.04194601262462703   -0.0013184623546958574
-0.0007992674554714556   -0.046597746284595835   -0.0012610384737478438
0.0006187931206802752   -0.04192553537102801   -0.0014035174002612202
-0.0018248461733946593   -0.04208388333453454   -0.0014017363942203476
-0.0007992674554714556   -0.046597746284595835   -0.0012610384737478438
-0.0025656860838037276   -0.04665118117422053   -0.001364126907323206
-0.0026580276071629266   -0.046611022319408064   -0.0014213972684441701
-0.0018248461733946593   -0.04208388333453454   -0.0014017363942203476
-0.0007992674554714556   -0.046597746284595835   -0.0012610384737478438
-0.0026580276071629266   -0.046611022319408064   -0.0014213972684441701
0.0006187931206802752   -0.04192553537102801   -0.0014035174002612202
0.0004218792668252092   -0.04195425066986102   -0.001595368079210956
-0.001214702255173691   -0.04661023557017298   -0.0016254630424161023
0.0030543035432566393   -0.04178404955272635   -0.0016865931196855886
0.0005177192006826754   -0.041927914458481826   -0.0014948686416558924
-0.001214702255173691   -0.04661023557017298   -0.0016254630424161023
0.0005810109809210429   -0.04644924138696   -0.0017551750883334578
0.0030543035432566393   -0.04178404955272635   -0.0016865931196855886
0.0009304123842338096   -0.04637067809971622   -0.001543297338851348
0.0005177192006826754   -0.041927914458481826   -0.0014948686416558924
0.0032976194445771567   -0.0417335629323367   -0.0015327486633742587
0.0009304123842338096   -0.04637067809971622   -0.001543297338851348
0.0030543035432566393   -0.04178404955272635   -0.0016865931196855886
0.0005177192006826754   -0.041927914458481826   -0.0014948686416558924
0.0009304123842338096   -0.04637067809971622   -0.001543297338851348
-0.0010653127709703409   -0.04657405844328362   -0.0014958843333511076
-0.001214702255173691   -0.04661023557017298   -0.0016254630424161023
0.0005177192006826754   -0.041927914458481826   -0.0014948686416558924
0.0009304123842338096   -0.04637067809971622   -0.001543297338851348
-0.001214702255173691   -0.04661023557017298   -0.0016254630424161023
0.0030543035432566393   -0.04178404955272635   -0.0016865931196855886
0.0005177192006826754   -0.041927914458481826   -0.0014948686416558924
-0.0010653127709703409   -0.04657405844328362   -0.0014958843333511076
0.0032976194445771567   -0.0417335629323367   -0.0015327486633742587
0.0006187931206802752   -0.04192553537102801   -0.0014035174002612202
-0.0010653127709703409   -0.04657405844328362   -0.0014958843333511076
0.0009304123842338096   -0.04637067809971622   -0.001543297338851348
0.0032976194445771567   -0.0417335629323367   -0.0015327486633742587
0.0012049295891413488   -0.046354846536943696   -0.001344254171880778
0.0006187931206802752   -0.04192553537102801   -0.0014035174002612202
0.0034842173936800104   -0.041724818610213994   -0.0013902512071134584
0.0012049295891413488   -0.046354846536943696   -0.001344254171880778
0.0032976194445771567   -0.0417335629323367   -0.0015327486633742587
0.0006187931206802752   -0.04192553537102801   -0.0014035174002612202
0.0012049295891413488   -0.046354846536943696   -0.001344254171880778
-0.0009124170983598509   -0.046567772081327334   -0.0013728566319870146
-0.0010653127709703409   -0.04657405844328362   -0.0014958843333511076
0.0006187931206802752   -0.04192553537102801   -0.0014035174002612202
0.0012049295891413488   -0.046354846536943696   -0.001344254171880778
-0.0010653127709703409   -0.04657405844328362   -0.0014958843333511076
0.0032976194445771567   -0.0417335629323367   -0.0015327486633742587
0.0006187931206802752   -0.04192553537102801   -0.0014035174002612202
-0.0009124170983598509   -0.046567772081327334   -0.0013728566319870146
0.0034842173936800104   -0.041724818610213994   -0.0013902512071134584
0.0006927133311658333   -0.04194601262462703   -0.0013184623546958574
-0.0009124170983598509   -0.046567772081327334   -0.0013728566319870146
0.0012049295891413488   -0.046354846536943696   -0.001344254171880778
0.0034842173936800104   -0.041724818610213994   -0.0013902512071134584
0.0014905203849602765   -0.04636855535950925   -0.001162348334542481
0.0006927133311658333   -0.04194601262462703   -0.0013184623546958574
0.003677785746664609   -0.04173988204096604   -0.001260260586479458
0.0014905203849602765   -0.04636855535950925   -0.001162348334542481
0.0034842173936800104   -0.041724818610213994   -0.0013902512071134584
0.0006927133311658333   -0.04194601262462703   -0.0013184623546958574
0.0014905203849602765   -0.04636855535950925   -0.001162348334542481
-0.0007992674554714556   -0.046597746284595835   -0.0012610384737478438
-0.0009124170983598509   -0.046567772081327334   -0.0013728566319870146
0.0006927133311658333   -0.04194601262462703   -0.0013184623546958574
0.0014905203849602765   -0.04636855535950925   -0.001162348334542481
-0.0009124170983598509   -0.046567772081327334   -0.0013728566319870146
0.0034842173936800104   -0.041724818610213994   -0.0013902512071134584
-0.008105538612340856   -0.04624493275988918   -0.0014047135389762427
-0.005955261651296236   -0.048853322986786095   -0.0012365184202148569
-0.006098762359764268   -0.046438487705013964   -0.0014627019546214648
-0.007888052973138212   -0.0462395555665486   -0.0015332814583229712
-0.005955261651296236   -0.048853322986786095   -0.0012365184202148569
-0.005018712423565733   -0.04909786488439512   -0.0013831220947216048
-0.006098762359764268   -0.046438487705013964   -0.0014627019546214648
-0.004891923924714108   -0.04904979744637706   -0.0014339572262536489
-0.007888052973138212   -0.0462395555665486   -0.0015332814583229712
-0.005998094125469312   -0.04642862647746642   -0.0015103936611154344
-0.004891923924714108   -0.04904979744637706   -0.0014339572262536489
-0.006098762359764268   -0.046438487705013964   -0.0014627019546214648
-0.007888052973138212   -0.0462395555665486   -0.0015332814583229712
-0.004891923924714108   -0.04904979744637706   -0.0014339572262536489
-0.005684541863589351   -0.048799136423485434   -0.0013907027209720127
-0.005955261651296236   -0.048853322986786095   -0.0012365184202148569
-0.007888052973138212   -0.0462395555665486   -0.0015332814583229712
-0.004891923924714108   -0.04904979744637706   -0.0014339572262536489
-0.005955261651296236   -0.048853322986786095   -0.0012365184202148569
-0.006098762359764268   -0.046438487705013964   -0.0014627019546214648
-0.007888052973138212   -0.0462395555665486   -0.0015332814583229712
-0.005684541863589351   -0.048799136423485434   -0.0013907027209720127
-0.005998094125469312   -0.04642862647746642   -0.0015103936611154344
-0.007687654879281815   -0.04627418140388959   -0.0016718796406031558
-0.005684541863589351   -0.048799136423485434   -0.0013907027209720127
-0.004891923924714108   -0.04904979744637706   -0.0014339572262536489
-0.005998094125469312   -0.04642862647746642   -0.0015103936611154344
-0.004751375046646913   -0.049052509871007066   -0.0014853134199667205
-0.007687654879281815   -0.04627418140388959   -0.0016718796406031558
-0.005879617008203925   -0.046456676135134246   -0.0015652033554135326
-0.004751375046646913   -0.049052509871007066   -0.0014853134199667205
-0.005998094125469312   -0.04642862647746642   -0.0015103936611154344
-0.007687654879281815   -0.04627418140388959   -0.0016718796406031558
-0.004751375046646913   -0.049052509871007066   -0.0014853134199667205
-0.005450995046522693   -0.048804151132489204   -0.0015443229168663204
-0.005684541863589351   -0.048799136423485434   -0.0013907027209720127
-0.007687654879281815   -0.04627418140388959   -0.0016718796406031558
-0.004751375046646913   -0.049052509871007066   -0.0014853134199667205
-0.005684541863589351   -0.048799136423485434   -0.0013907027209720127
-0.005998094125469312   -0.04642862647746642   -0.0015103936611154344
-0.007687654879281815   -0.04627418140388959   -0.0016718796406031558
-0.005450995046522693   -0.048804151132489204   -0.0015443229168663204
-0.005879617008203925   -0.046456676135134246   -0.0015652033554135326
-0.00744318339958489   -0.046366398528187074   -0.001819925873966732
-0.005450995046522693   -0.048804151132489204   -0.0015443229168663204
-0.004751375046646913   -0.049052509871007066   -0.0014853134199667205
-0.005879617008203925   -0.046456676135134246   -0.0015652033554135326
-0.004620876789516179   -0.049106253754822575   -0.0015374049096395963
-0.00744318339958489   -0.046366398528187074   -0.001819925873966732
-0.005772139189867231   -0.04652328723030292   -0.0016266773392937767
-0.004620876789516179   -0.049106253754822575   -0.0015374049096395963
-0.005879617008203925   -0.046456676135134246   -0.0015652033554135326
-0.00744318339958489   -0.046366398528187074   -0.001819925873966732
-0.004620876789516179   -0.049106253754822575   -0.0015374049096395963
-0.005173880263819821   -0.04887180280757059   -0.0017012425952821252
-0.005450995046522693   -0.048804151132489204   -0.0015443229168663204
-0.00744318339958489   -0.046366398528187074   -0.001819925873966732
-0.004620876789516179   -0.049106253754822575   -0.0015374049096395963
-0.005450995046522693   -0.048804151132489204   -0.0015443229168663204
-0.005879617008203925   -0.046456676135134246   -0.0015652033554135326
-0.006098762359764268   -0.046438487705013964   -0.0014627019546214648
-0.005018712423565733   -0.04909786488439512   -0.0013831220947216048
-0.004457493198850381   -0.046563437043139526   -0.0015081010050973784
-0.005998094125469312   -0.04642862647746642   -0.0015103936611154344
-0.005018712423565733   -0.04909786488439512   -0.0013831220947216048
-0.004331501808997459   -0.049342049289790316   -0.0015126042294882555
-0.004457493198850381   -0.046563437043139526   -0.0015081010050973784
-0.004197854649530611   -0.049292664567155926   -0.0014773461429977654
-0.005998094125469312   -0.04642862647746642   -0.0015103936611154344
-0.0043542635192067355   -0.046547526838895015   -0.0014935250562664924
-0.004197854649530611   -0.049292664567155926   -0.0014773461429977654
-0.004457493198850381   -0.046563437043139526   -0.0015081010050973784
-0.005998094125469312   -0.04642862647746642   -0.0015103936611154344
-0.004197854649530611   -0.049292664567155926   -0.0014773461429977654
-0.004891923924714108   -0.04904979744637706   -0.0014339572262536489
-0.005018712423565733   -0.04909786488439512   -0.0013831220947216048
-0.005998094125469312   -0.04642862647746642   -0.0015103936611154344
-0.004197854649530611   -0.049292664567155926   -0.0014773461429977654
-0.005018712423565733   -0.04909786488439512   -0.0013831220947216048
-0.004457493198850381   -0.046563437043139526   -0.0015081010050973784
-0.005998094125469312   -0.04642862647746642   -0.0015103936611154344
-0.004891923924714108   -0.04904979744637706   -0.0014339572262536489
-0.0043542635192067355   -0.046547526838895015   -0.0014935250562664924
-0.005879617008203925   -0.046456676135134246   -0.0015652033554135326
-0.004891923924714108   -0.04904979744637706   -0.0014339572262536489
-0.004197854649530611   -0.049292664567155926   -0.0014773461429977654
-0.0043542635192067355   -0.046547526838895015   -0.0014935250562664924
-0.004068580093133453   -0.04929202990438856   -0.001441658319690027
-0.005879617008203925   -0.046456676135134246   -0.0015652033554135326
-0.00425244253566855   -0.04656436389731645   -0.0014858677561591037
-0.004068580093133453   -0.04929202990438856   -0.001441658319690027
-0.0043542635192067355   -0.046547526838895015   -0.0014935250562664924
-0.005879617008203925   -0.046456676135134246   -0.0015652033554135326
-0.004068580093133453   -0.04929202990438856   -0.001441658319690027
-0.004751375046646913   -0.049052509871007066   -0.0014853134199667205
-0.004891923924714108   -0.04904979744637706   -0.0014339572262536489
-0.005879617008203925   -0.046456676135134246   -0.0015652033554135326
-0.004068580093133453   -0.04929202990438856   -0.001441658319690027
-0.004891923924714108   -0.04904979744637706   -0.0014339572262536489
-0.0043542635192067355   -0.046547526838895015   -0.0014935250562664924
-0.005879617008203925   -0.046456676135134246   -0.0015652033554135326
-0.004751375046646913   -0.049052509871007066   -0.0014853134199667205
-0.00425244253566855   -0.04656436389731645   -0.0014858677561591037
-0.005772139189867231   -0.04652328723030292   -0.0016266773392937767
-0.004751375046646913   -0.049052509871007066   -0.0014853134199667205
-0.004068580093133453   -0.04929202990438856   -0.001441658319690027
-0.00425244253566855   -0.04656436389731645   -0.0014858677561591037
-0.00393385099619921   -0.04933914326163109   -0.0014074012393319164
-0.005772139189867231   -0.04652328723030292   -0.0016266773392937767
-0.004158708815245896   -0.0466150181727533   -0.0014865708193732747
-0.00393385099619921   -0.04933914326163109   -0.0014074012393319164
-0.00425244253566855   -0.04656436389731645   -0.0014858677561591037
-0.005772139189867231   -0.04652328723030292   -0.0016266773392937767
-0.00393385099619921   -0.04933914326163109   -0.0014074012393319164
-0.004620876789516179   -0.049106253754822575   -0.0015374049096395963
-0.004751375046646913   -0.049052509871007066   -0.0014853134199667205
-0.005772139189867231   -0.04652328723030292   -0.0016266773392937767
-0.00393385099619921   -0.04933914326163109   -0.0014074012393319164
-0.004751375046646913   -0.049052509871007066   -0.0014853134199667205
-0.00425244253566855   -0.04656436389731645   -0.0014858677561591037
-0.004457493198850381   -0.046563437043139526   -0.0015081010050973784
-0.004331501808997459   -0.049342049289790316   -0.0015126042294882555
-0.002885327983747234   -0.046628300854005225   -0.0015619207371685127
-0.0043542635192067355   -0.046547526838895015   -0.0014935250562664924
-0.004331501808997459   -0.049342049289790316   -0.0015126042294882555
-0.003703440360115628   -0.049635408849601874   -0.001655371411106474
-0.002885327983747234   -0.046628300854005225   -0.0015619207371685127
-0.0035396834553739266   -0.049592414146798575   -0.0015292174154286535
-0.0043542635192067355   -0.046547526838895015   -0.0014935250562664924
-0.002768975622770168   -0.04660524242298292   -0.0014885920181101572
-0.0035396834553739266   -0.049592414146798575   -0.0015292174154286535
-0.002885327983747234   -0.046628300854005225   -0.0015619207371685127
-0.0043542635192067355   -0.046547526838895015   -0.0014935250562664924
-0.0035396834553739266   -0.049592414146798575   -0.0015292174154286535
-0.004197854649530611   -0.049292664567155926   -0.0014773461429977654
-0.004331501808997459   -0.049342049289790316   -0.0015126042294882555
-0.0043542635192067355   -0.046547526838895015   -0.0014935250562664924
-0.0035396834553739266   -0.049592414146798575   -0.0015292174154286535
-0.004331501808997459   -0.049342049289790316   -0.0015126042294882555
-0.002885327983747234   -0.046628300854005225   -0.0015619207371685127
-0.0043542635192067355   -0.046547526838895015   -0.0014935250562664924
-0.004197854649530611   -0.049292664567155926   -0.0014773461429977654
-0.002768975622770168   -0.04660524242298292   -0.0014885920181101572
-0.00425244253566855   -0.04656436389731645   -0.0014858677561591037
-0.004197854649530611   -0.049292664567155926   -0.0014773461429977654
-0.0035396834553739266   -0.049592414146798575   -0.0015292174154286535
-0.002768975622770168   -0.04660524242298292   -0.0014885920181101572
-0.0033878589272335817   -0.04959025931458758   -0.0014034363925760913
-0.00425244253566855   -0.04656436389731645   -0.0014858677561591037
-0.0026580276071629266   -0.046611022319408064   -0.0014213972684441701
-0.0033878589272335817   -0.04959025931458758   -0.0014034363925760913
-0.002768975622770168   -0.04660524242298292   -0.0014885920181101572
-0.00425244253566855   -0.04656436389731645   -0.0014858677561591037
-0.0033878589272335817   -0.04959025931458758   -0.0014034363925760913
-0.004068580093133453   -0.04929202990438856   -0.001441658319690027
-0.004197854649530611   -0.049292664567155926   -0.0014773461429977654
-0.00425244253566855   -0.04656436389731645   -0.0014858677561591037
-0.0033878589272335817   -0.04959025931458758   -0.0014034363925760913
-0.004197854649530611   -0.049292664567155926   -0.0014773461429977654
-0.002768975622770168   -0.04660524242298292   -0.0014885920181101572
-0.00425244253566855   -0.04656436389731645   -0.0014858677561591037
-0.004068580093133453   -0.04929202990438856   -0.001441658319690027
-0.0026580276071629266   -0.046611022319408064   -0.0014213972684441701
-0.004158708815245896   -0.0466150181727533   -0.0014865708193732747
-0.004068580093133453   -0.04929202990438856   -0.001441658319690027
-0.0033878589272335817   -0.04959025931458758   -0.0014034363925760913
-0.0026580276071629266   -0.046611022319408064   -0.0014213972684441701
-0.0032249735404885323   -0.04962677709003991   -0.0012774656658753397
-0.004158708815245896   -0.0466150181727533   -0.0014865708193732747
-0.0025656860838037276   -0.04665118117422053   -0.001364126907323206
-0.0032249735404885323   -0.04962677709003991   -0.0012774656658753397
-0.0026580276071629266   -0.046611022319408064   -0.0014213972684441701
-0.004158708815245896   -0.0466150181727533   -0.0014865708193732747
-0.0032249735404885323   -0.04962677709003991   -0.0012774656658753397
-0.00393385099619921   -0.04933914326163109   -0.0014074012393319164
-0.004068580093133453   -0.04929202990438856   -0.001441658319690027
-0.004158708815245896   -0.0466150181727533   -0.0014865708193732747
-0.0032249735404885323   -0.04962677709003991   -0.0012774656658753397
-0.004068580093133453   -0.04929202990438856   -0.001441658319690027
-0.0026580276071629266   -0.046611022319408064   -0.0014213972684441701
-0.002885327983747234   -0.046628300854005225   -0.0015619207371685127
-0.003703440360115628   -0.049635408849601874   -0.001655371411106474
-0.001214702255173691   -0.04661023557017298   -0.0016254630424161023
-0.002768975622770168   -0.04660524242298292   -0.0014885920181101572
-0.003703440360115628   -0.049635408849601874   -0.001655371411106474
-0.0030853144170616183   -0.05   -0.0017657391237675534
-0.001214702255173691   -0.04661023557017298   -0.0016254630424161023
-0.002879155745702522   -0.05   -0.001573590878093003
-0.002768975622770168   -0.04660524242298292   -0.0014885920181101572
-0.0010653127709703409   -0.04657405844328362   -0.0014958843333511076
-0.002879155745702522   -0.05   -0.001573590878093003
-0.001214702255173691   -0.04661023557017298   -0.0016254630424161023
-0.002768975622770168   -0.04660524242298292   -0.0014885920181101572
-0.002879155745702522   -0.05   -0.001573590878093003
-0.0035396834553739266   -0.049592414146798575   -0.0015292174154286535
-0.003703440360115628   -0.049635408849601874   -0.001655371411106474
-0.002768975622770168   -0.04660524242298292   -0.0014885920181101572
-0.002879155745702522   -0.05   -0.001573590878093003
-0.003703440360115628   -0.049635408849601874   -0.001655371411106474
-0.001214702255173691   -0.04661023557017298   -0.0016254630424161023
-0.002768975622770168   -0.04660524242298292   -0.0014885920181101572
-0.0035396834553739266   -0.049592414146798575   -0.0015292174154286535
-0.0010653127709703409   -0.04657405844328362   -0.0014958843333511076
-0.0026580276071629266   -0.046611022319408064   -0.0014213972684441701
-0.0035396834553739266   -0.049592414146798575   -0.0015292174154286535
-0.002879155745702522   -0.05   -0.001573590878093003
-0.0010653127709703409   -0.04657405844328362   -0.0014958843333511076
-0.0026718590343374924   -0.05   -0.0013791692860902086
-0.0026580276071629266   -0.046611022319408064   -0.0014213972684441701
-0.0009124170983598509   -0.046567772081327334   -0.0013728566319870146
-0.0026718590343374924   -0.05   -0.0013791692860902086
-0.0010653127709703409   -0.04657405844328362   -0.0014958843333511076
-0.0026580276071629266   -0.046611022319408064   -0.0014213972684441701
-0.0026718590343374924   -0.05   -0.0013791692860902086
-0.0033878589272335817   -0.04959025931458758   -0.0014034363925760913
-0.0035396834553739266   -0.049592414146798575   -0.0015292174154286535
-0.0026580276071629266   -0.046611022319408064   -0.0014213972684441701
-0.0026718590343374924   -0.05   -0.0013791692860902086
-0.0035396834553739266   -0.049592414146798575   -0.0015292174154286535
-0.0010653127709703409   -0.04657405844328362   -0.0014958843333511076
-0.0026580276071629266   -0.046611022319408064   -0.0014213972684441701
-0.0033878589272335817   -0.04959025931458758   -0.0014034363925760913
-0.0009124170983598509   -0.046567772081327334   -0.0013728566319870146
-0.0025656860838037276   -0.04665118117422053   -0.001364126907323206
-0.0033878589272335817   -0.04959025931458758   -0.0014034363925760913
-0.0026718590343374924   -0.05   -0.0013791692860902086
-0.0009124170983598509   -0.046567772081327334   -0.0013728566319870146
-0.0024694199449323273   -0.05   -0.0011873316343711923
-0.0025656860838037276   -0.04665118117422053   -0.001364126907323206
-0.0007992674554714556   -0.046597746284595835   -0.0012610384737478438
-0.0024694199449323273   -0.05   -0.0011873316343711923
-0.0009124170983598509   -0.046567772081327334   -0.0013728566319870146
-0.0025656860838037276   -0.04665118117422053   -0.001364126907323206
-0.0024694199449323273   -0.05   -0.0011873316343711923
-0.0032249735404885323   -0.04962677709003991   -0.0012774656658753397
-0.0033878589272335817   -0.04959025931458758   -0.0014034363925760913
-0.0025656860838037276   -0.04665118117422053   -0.001364126907323206
-0.0024694199449323273   -0.05   -0.0011873316343711923
-0.0033878589272335817   -0.04959025931458758   -0.0014034363925760913
-0.0009124170983598509   -0.046567772081327334   -0.0013728566319870146
-0.001214702255173691   -0.04661023557017298   -0.0016254630424161023
-0.0030853144170616183   -0.05   -0.0017657391237675534
0.0005810109809210429   -0.04644924138696   -0.0017551750883334578
-0.0010653127709703409   -0.04657405844328362   -0.0014958843333511076
-0.0030853144170616183   -0.05   -0.0017657391237675534
-0.0026352087360772135   -0.05   -0.001899400387152312
0.0005810109809210429   -0.04644924138696   -0.0017551750883334578
-0.0022028888814792265   -0.05   -0.001621134902991858
-0.0010653127709703409   -0.04657405844328362   -0.0014958843333511076
0.0009304123842338096   -0.04637067809971622   -0.001543297338851348
-0.0022028888814792265   -0.05   -0.001621134902991858
0.0005810109809210429   -0.04644924138696   -0.0017551750883334578
-0.0010653127709703409   -0.04657405844328362   -0.0014958843333511076
-0.0022028888814792265   -0.05   -0.001621134902991858
-0.002879155745702522   -0.05   -0.001573590878093003
-0.0030853144170616183   -0.05   -0.0017657391237675534
-0.0010653127709703409   -0.04657405844328362   -0.0014958843333511076
-0.0022028888814792265   -0.05   -0.001621134902991858
-0.0030853144170616183   -0.05   -0.0017657391237675534
0.0005810109809210429   -0.04644924138696   -0.0017551750883334578
-0.0010653127709703409   -0.04657405844328362   -0.0014958843333511076
-0.002879155745702522   -0.05   -0.001573590878093003
0.0009304123842338096   -0.04637067809971622   -0.001543297338851348
-0.0009124170983598509   -0.046567772081327334   -0.0013728566319870146
-0.002879155745702522   -0.05   -0.001573590878093003
-0.0022028888814792265   -0.05   -0.001621134902991858
0.0009304123842338096   -0.04637067809971622   -0.001543297338851348
-0.0018581330570247435   -0.05   -0.0013549553074819654
-0.0009124170983598509   -0.046567772081327334   -0.0013728566319870146
0.0012049295891413488   -0.046354846536943696   -0.001344254171880778
-0.0018581330570247435   -0.05   -0.0013549553074819654
0.0009304123842338096   -0.04637067809971622   -0.001543297338851348
-0.0009124170983598509   -0.046567772081327334   -0.0013728566319870146
-0.0018581330570247435   -0.05   -0.0013549553074819654
-0.0026718590343374924   -0.05   -0.0013791692860902086
-0.002879155745702522   -0.05   -0.001573590878093003
-0.0009124170983598509   -0.046567772081327334   -0.0013728566319870146
-0.0018581330570247435   -0.05   -0.0013549553074819654
-0.002879155745702522   -0.05   -0.001573590878093003
0.0009304123842338096   -0.04637067809971622   -0.001543297338851348
-0.0009124170983598509   -0.046567772081327334   -0.0013728566319870146
-0.0026718590343374924   -0.05   -0.0013791692860902086
0.0012049295891413488   -0.046354846536943696   -0.001344254171880778
-0.0007992674554714556   -0.046597746284595835   -0.0012610384737478438
-0.0026718590343374924   -0.05   -0.0013791692860902086
-0.0018581330570247435   -0.05   -0.0013549553074819654
0.0012049295891413488   -0.046354846536943696   -0.001344254171880778
-0.0014323062221938973   -0.05   -0.001078617041666758
-0.0007992674554714556   -0.046597746284595835   -0.0012610384737478438
0.0014905203849602765   -0.04636855535950925   -0.001162348334542481
-0.0014323062221938973   -0.05   -0.001078617041666758
0.0012049295891413488   -0.046354846536943696   -0.001344254171880778
-0.0007992674554714556   -0.046597746284595835   -0.0012610384737478438
-0.0014323062221938973   -0.05   -0.001078617041666758
-0.0024694199449323273   -0.05   -0.0011873316343711923
-0.0026718590343374924   -0.05   -0.0013791692860902086
-0.0007992674554714556   -0.046597746284595835   -0.0012610384737478438
-0.0014323062221938973   -0.05   -0.001078617041666758
-0.0026718590343374924   -0.05   -0.0013791692860902086
0.0012049295891413488   -0.046354846536943696   -0.001344254171880778
-0.005955261651296236   -0.048853322986786095   -0.0012365184202148569
-0.0035763942395568562   -0.048995921635788586   -0.0010585903116684446
-0.005018712423565733   -0.04909786488439512   -0.0013831220947216048
-0.005684541863589351   -0.048799136423485434   -0.0013907027209720127
-0.0035763942395568562   -0.048995921635788586   -0.0010585903116684446
-0.003785549229339372   -0.04918485960666848   -0.001247388745197886
-0.005018712423565733   -0.04909786488439512   -0.0013831220947216048
-0.0036895649256841953   -0.04911916099546966   -0.0013165780318447383
-0.005684541863589351   -0.048799136423485434   -0.0013907027209720127
-0.004891923924714108   -0.04904979744637706   -0.0014339572262536489
-0.0036895649256841953   -0.04911916099546966   -0.0013165780318447383
-0.005018712423565733   -0.04909786488439512   -0.0013831220947216048
-0.005684541863589351   -0.048799136423485434   -0.0013907027209720127
-0.0036895649256841953   -0.04911916099546966   -0.0013165780318447383
-0.00333081352433179   -0.04891152396058776   -0.0012206226113810152
-0.0035763942395568562   -0.048995921635788586   -0.0010585903116684446
-0.005684541863589351   -0.048799136423485434   -0.0013907027209720127
-0.0036895649256841953   -0.04911916099546966   -0.0013165780318447383
-0.0035763942395568562   -0.048995921635788586   -0.0010585903116684446
-0.005018712423565733   -0.04909786488439512   -0.0013831220947216048
-0.005684541863589351   -0.048799136423485434   -0.0013907027209720127
-0.00333081352433179   -0.04891152396058776   -0.0012206226113810152
-0.004891923924714108   -0.04904979744637706   -0.0014339572262536489
-0.005450995046522693   -0.048804151132489204   -0.0015443229168663204
-0.00333081352433179   -0.04891152396058776   -0.0012206226113810152
-0.0036895649256841953   -0.04911916099546966   -0.0013165780318447383
-0.004891923924714108   -0.04904979744637706   -0.0014339572262536489
-0.0035769028672851576   -0.049095248613036824   -0.0013804658833155758
-0.005450995046522693   -0.048804151132489204   -0.0015443229168663204
-0.004751375046646913   -0.049052509871007066   -0.0014853134199667205
-0.0035769028672851576   -0.049095248613036824   -0.0013804658833155758
-0.004891923924714108   -0.04904979744637706   -0.0014339572262536489
-0.005450995046522693   -0.048804151132489204   -0.0015443229168663204
-0.0035769028672851576   -0.049095248613036824   -0.0013804658833155758
-0.0031264199512131227   -0.04888592911005731   -0.0013760791768571332
-0.00333081352433179   -0.04891152396058776   -0.0012206226113810152
-0.005450995046522693   -0.048804151132489204   -0.0015443229168663204
-0.0035769028672851576   -0.049095248613036824   -0.0013804658833155758
-0.00333081352433179   -0.04891152396058776   -0.0012206226113810152
-0.004891923924714108   -0.04904979744637706   -0.0014339572262536489
-0.005450995046522693   -0.048804151132489204   -0.0015443229168663204
-0.0031264199512131227   -0.04888592911005731   -0.0013760791768571332
-0.004751375046646913   -0.049052509871007066   -0.0014853134199667205
-0.005173880263819821   -0.04887180280757059   -0.0017012425952821252
-0.0031264199512131227   -0.04888592911005731   -0.0013760791768571332
-0.0035769028672851576   -0.049095248613036824   -0.0013804658833155758
-0.004751375046646913   -0.049052509871007066   -0.0014853134199667205
-0.0034804384089486924   -0.0491134835675274   -0.0014387237804825105
-0.005173880263819821   -0.04887180280757059   -0.0017012425952821252
-0.004620876789516179   -0.049106253754822575   -0.0015374049096395963
-0.0034804384089486924   -0.0491134835675274   -0.0014387237804825105
-0.004751375046646913   -0.049052509871007066   -0.0014853134199667205
-0.005173880263819821   -0.04887180280757059   -0.0017012425952821252
-0.0034804384089486924   -0.0491134835675274   -0.0014387237804825105
-0.002894990428739365   -0.04890866146728993   -0.0015242808622765206
-0.0031264199512131227   -0.04888592911005731   -0.0013760791768571332
-0.005173880263819821   -0.04887180280757059   -0.0017012425952821252
-0.0034804384089486924   -0.0491134835675274   -0.0014387237804825105
-0.0031264199512131227   -0.04888592911005731   -0.0013760791768571332
-0.004751375046646913   -0.049052509871007066   -0.0014853134199667205
-0.005018712423565733   -0.04909786488439512   -0.0013831220947216048
-0.003785549229339372   -0.04918485960666848   -0.001247388745197886
-0.004331501808997459   -0.049342049289790316   -0.0015126042294882555
-0.004891923924714108   -0.04904979744637706   -0.0014339572262536489
-0.003785549229339372   -0.04918485960666848   -0.001247388745197886
-0.004071873632121822   -0.0493011116250805   -0.001398258780614086
-0.004331501808997459   -0.049342049289790316   -0.0015126042294882555
-0.003986973412909719   -0.04924242263075701   -0.0013999919475188205
-0.004891923924714108   -0.04904979744637706   -0.0014339572262536489
-0.004197854649530611   -0.049292664567155926   -0.0014773461429977654
-0.003986973412909719   -0.04924242263075701   -0.0013999919475188205
-0.004331501808997459   -0.049342049289790316   -0.0015126042294882555
-0.004891923924714108   -0.04904979744637706   -0.0014339572262536489
-0.003986973412909719   -0.04924242263075701   -0.0013999919475188205
-0.0036895649256841953   -0.04911916099546966   -0.0013165780318447383
-0.003785549229339372   -0.04918485960666848   -0.001247388745197886
-0.004891923924714108   -0.04904979744637706   -0.0014339572262536489
-0.003986973412909719   -0.04924242263075701   -0.0013999919475188205
-0.003785549229339372   -0.04918485960666848   -0.001247388745197886
-0.004331501808997459   -0.049342049289790316   -0.0015126042294882555
-0.004891923924714108   -0.04904979744637706   -0.0014339572262536489
-0.0036895649256841953   -0.04911916099546966   -0.0013165780318447383
-0.004197854649530611   -0.049292664567155926   -0.0014773461429977654
-0.004751375046646913   -0.049052509871007066   -0.0014853134199667205
-0.0036895649256841953   -0.04911916099546966   -0.0013165780318447383
-0.003986973412909719   -0.04924242263075701   -0.0013999919475188205
-0.004197854649530611   -0.049292664567155926   -0.0014773461429977654
-0.0038924944083835143   -0.04922157599438081   -0.0013948526575364125
-0.004751375046646913   -0.049052509871007066   -0.0014853134199667205
-0.004068580093133453   -0.04929202990438856   -0.001441658319690027
-0.0038924944083835143   -0.04922157599438081   -0.0013948526575364125
-0.004197854649530611   -0.049292664567155926   -0.0014773461429977654
-0.004751375046646913   -0.049052509871007066   -0.0014853134199667205
-0.0038924944083835143   -0.04922157599438081   -0.0013948526575364125
-0.0035769028672851576   -0.049095248613036824   -0.0013804658833155758
-0.0036895649256841953   -0.04911916099546966   -0.0013165780318447383
-0.004751375046646913   -0.049052509871007066   -0.0014853134199667205
-0.0038924944083835143   -0.04922157599438081   -0.0013948526575364125
-0.0036895649256841953   -0.04911916099546966   -0.0013165780318447383
-0.004197854649530611   -0.049292664567155926   -0.0014773461429977654
-0.004751375046646913   -0.049052509871007066   -0.0014853134199667205
-0.0035769028672851576   -0.049095248613036824   -0.0013804658833155758
-0.004068580093133453   -0.04929202990438856   -0.001441658319690027
-0.004620876789516179   -0.049106253754822575   -0.0015374049096395963
-0.0035769028672851576   -0.049095248613036824   -0.0013804658833155758
-0.0038924944083835143   -0.04922157599438081   -0.0013948526575364125
-0.004068580093133453   -0.04929202990438856   -0.001441658319690027
-0.003796458176193772   -0.04923687129196278   -0.0013843193500651036
-0.004620876789516179   -0.049106253754822575   -0.0015374049096395963
-0.00393385099619921   -0.04933914326163109   -0.0014074012393319164
-0.003796458176193772   -0.04923687129196278   -0.0013843193500651036
-0.004068580093133453   -0.04929202990438856   -0.001441658319690027
-0.004620876789516179   -0.049106253754822575   -0.0015374049096395963
-0.003796458176193772   -0.04923687129196278   -0.0013843193500651036
-0.0034804384089486924   -0.0491134835675274   -0.0014387237804825105
-0.0035769028672851576   -0.049095248613036824   -0.0013804658833155758
-0.004620876789516179   -0.049106253754822575   -0.0015374049096395963
-0.003796458176193772   -0.04923687129196278   -0.0013843193500651036
-0.0035769028672851576   -0.049095248613036824   -0.0013804658833155758
-0.004068580093133453   -0.04929202990438856   -0.001441658319690027
-0.004331501808997459   -0.049342049289790316   -0.0015126042294882555
-0.004071873632121822   -0.0493011116250805   -0.001398258780614086
-0.003703440360115628   -0.049635408849601874   -0.001655371411106474
-0.004197854649530611   -0.049292664567155926   -0.0014773461429977654
-0.004071873632121822   -0.0493011116250805   -0.001398258780614086
-0.004379233227917145   -0.049349111951439054   -0.0015468392308803773
-0.003703440360115628   -0.049635408849601874   -0.001655371411106474
-0.004291282654611234   -0.049293080273641265   -0.0014837014610687982
-0.004197854649530611   -0.049292664567155926   -0.0014773461429977654
-0.0035396834553739266   -0.049592414146798575   -0.0015292174154286535
-0.004291282654611234   -0.049293080273641265   -0.0014837014610687982
-0.003703440360115628   -0.049635408849601874   -0.001655371411106474
-0.004197854649530611   -0.049292664567155926   -0.0014773461429977654
-0.004291282654611234   -0.049293080273641265   -0.0014837014610687982
-0.003986973412909719   -0.04924242263075701   -0.0013999919475188205
-0.004071873632121822   -0.0493011116250805   -0.001398258780614086
-0.004197854649530611   -0.049292664567155926   -0.0014773461429977654
-0.004291282654611234   -0.049293080273641265   -0.0014837014610687982
-0.004071873632121822   -0.0493011116250805   -0.001398258780614086
-0.003703440360115628   -0.049635408849601874   -0.001655371411106474
-0.004197854649530611   -0.049292664567155926   -0.0014773461429977654
-0.003986973412909719   -0.04924242263075701   -0.0013999919475188205
-0.0035396834553739266   -0.049592414146798575   -0.0015292174154286535
-0.004068580093133453   -0.04929202990438856   -0.001441658319690027
-0.003986973412909719   -0.04924242263075701   -0.0013999919475188205
-0.004291282654611234   -0.049293080273641265   -0.0014837014610687982
-0.0035396834553739266   -0.049592414146798575   -0.0015292174154286535
-0.004185847278677927   -0.04927550217749957   -0.001412191714717535
-0.004068580093133453   -0.04929202990438856   -0.001441658319690027
-0.0033878589272335817   -0.04959025931458758   -0.0014034363925760913
-0.004185847278677927   -0.04927550217749957   -0.001412191714717535
-0.0035396834553739266   -0.049592414146798575   -0.0015292174154286535
-0.004068580093133453   -0.04929202990438856   -0.001441658319690027
-0.004185847278677927   -0.04927550217749957   -0.001412191714717535
-0.0038924944083835143   -0.04922157599438081   -0.0013948526575364125
-0.003986973412909719   -0.04924242263075701   -0.0013999919475188205
-0.004068580093133453   -0.04929202990438856   -0.001441658319690027
-0.004185847278677927   -0.04927550217749957   -0.001412191714717535
-0.003986973412909719   -0.04924242263075701   -0.0013999919475188205
-0.0035396834553739266   -0.049592414146798575   -0.0015292174154286535
-0.004068580093133453   -0.04929202990438856   -0.001441658319690027
-0.0038924944083835143   -0.04922157599438081   -0.0013948526575364125
-0.0033878589272335817   -0.04959025931458758   -0.0014034363925760913
-0.00393385099619921   -0.04933914326163109   -0.0014074012393319164
-0.0038924944083835143   -0.04922157599438081   -0.0013948526575364125
-0.004185847278677927   -0.04927550217749957   -0.001412191714717535
-0.0033878589272335817   -0.04959025931458758   -0.0014034363925760913
-0.004077455651842975   -0.0492904060947874   -0.0013360604446080468
-0.00393385099619921   -0.04933914326163109   -0.0014074012393319164
-0.0032249735404885323   -0.04962677709003991   -0.0012774656658753397
-0.004077455651842975   -0.0492904060947874   -0.0013360604446080468
-0.0033878589272335817   -0.04959025931458758   -0.0014034363925760913
-0.00393385099619921   -0.04933914326163109   -0.0014074012393319164
-0.004077455651842975   -0.0492904060947874   -0.0013360604446080468
-0.003796458176193772   -0.04923687129196278   -0.0013843193500651036
-0.0038924944083835143   -0.04922157599438081   -0.0013948526575364125
-0.00393385099619921   -0.04933914326163109   -0.0014074012393319164
-0.004077455651842975   -0.0492904060947874   -0.0013360604446080468
-0.0038924944083835143   -0.04922157599438081   -0.0013948526575364125
-0.0033878589272335817   -0.04959025931458758   -0.0014034363925760913
-0.003703440360115628   -0.049635408849601874   -0.001655371411106474
-0.004379233227917145   -0.049349111951439054   -0.0015468392308803773
-0.0030853144170616183   -0.05   -0.0017657391237675534
-0.0035396834553739266   -0.049592414146798575   -0.0015292174154286535
-0.004379233227917145   -0.049349111951439054   -0.0015468392308803773
-0.004824645498713575   -0.04929496793779378   -0.0016882387006669623
-0.0030853144170616183   -0.05   -0.0017657391237675534
-0.00470979042931421   -0.0492419394688035   -0.0015632847336473567
-0.0035396834553739266   -0.049592414146798575   -0.0015292174154286535
-0.002879155745702522   -0.05   -0.001573590878093003
-0.00470979042931421   -0.0492419394688035   -0.0015632847336473567
-0.0030853144170616183   -0.05   -0.0017657391237675534
-0.0035396834553739266   -0.049592414146798575   -0.0015292174154286535
-0.00470979042931421   -0.0492419394688035   -0.0015632847336473567
-0.004291282654611234   -0.049293080273641265   -0.0014837014610687982
-0.004379233227917145   -0.049349111951439054   -0.0015468392308803773
-0.0035396834553739266   -0.049592414146798575   -0.0015292174154286535
-0.00470979042931421   -0.0492419394688035   -0.0015632847336473567
-0.004379233227917145   -0.049349111951439054   -0.0015468392308803773
-0.0030853144170616183   -0.05   -0.0017657391237675534
-0.0035396834553739266   -0.049592414146798575   -0.0015292174154286535
-0.004291282654611234   -0.049293080273641265   -0.0014837014610687982
-0.002879155745702522   -0.05   -0.001573590878093003
-0.0033878589272335817   -0.04959025931458758   -0.0014034363925760913
-0.004291282654611234   -0.049293080273641265   -0.0014837014610687982
-0.00470979042931421   -0.0492419394688035   -0.0015632847336473567
-0.002879155745702522   -0.05   -0.001573590878093003
-0.004558102813717925   -0.049230056550413855   -0.0014289865297711162
-0.0033878589272335817   -0.04959025931458758   -0.0014034363925760913
-0.0026718590343374924   -0.05   -0.0013791692860902086
-0.004558102813717925   -0.049230056550413855   -0.0014289865297711162
-0.002879155745702522   -0.05   -0.001573590878093003
-0.0033878589272335817   -0.04959025931458758   -0.0014034363925760913
-0.004558102813717925   -0.049230056550413855   -0.0014289865297711162
-0.004185847278677927   -0.04927550217749957   -0.001412191714717535
-0.004291282654611234   -0.049293080273641265   -0.0014837014610687982
-0.0033878589272335817   -0.04959025931458758   -0.0014034363925760913
-0.004558102813717925   -0.049230056550413855   -0.0014289865297711162
-0.004291282654611234   -0.049293080273641265   -0.0014837014610687982
-0.002879155745702522   -0.05   -0.001573590878093003
-0.0033878589272335817   -0.04959025931458758   -0.0014034363925760913
-0.004185847278677927   -0.04927550217749957   -0.001412191714717535
-0.0026718590343374924   -0.05   -0.0013791692860902086
-0.0032249735404885323   -0.04962677709003991   -0.0012774656658753397
-0.004185847278677927   -0.04927550217749957   -0.001412191714717535
-0.004558102813717925   -0.049230056550413855   -0.0014289865297711162
-0.0026718590343374924   -0.05   -0.0013791692860902086
-0.00441562785219269   -0.04925142934880224   -0.0012895506791765043
-0.0032249735404885323   -0.04962677709003991   -0.0012774656658753397
-0.0024694199449323273   -0.05   -0.0011873316343711923
-0.00441562785219269   -0.04925142934880224   -0.0012895506791765043
-0.0026718590343374924   -0.05   -0.0013791692860902086
-0.0032249735404885323   -0.04962677709003991   -0.0012774656658753397
-0.00441562785219269   -0.04925142934880224   -0.0012895506791765043
-0.004077455651842975   -0.0492904060947874   -0.0013360604446080468
-0.004185847278677927   -0.04927550217749957   -0.001412191714717535
-0.0032249735404885323   -0.04962677709003991   -0.0012774656658753397
-0.00441562785219269   -0.04925142934880224   -0.0012895506791765043
-0.004185847278677927   -0.04927550217749957   -0.001412191714717535
-0.0026718590343374924   -0.05   -0.0013791692860902086
-0.0030853144170616183   -0.05   -0.0017657391237675534
-0.004824645498713575   -0.04929496793779378   -0.0016882387006669623
-0.0026352087360772135   -0.05   -0.001899400387152312
-0.002879155745702522   -0.05   -0.001573590878093003
-0.004824645498713575   -0.04929496793779378   -0.0016882387006669623
-0.00569362488811141   -0.04905401644374014   -0.0018386158187981617
-0.0026352087360772135   -0.05   -0.001899400387152312
-0.005386829520586976   -0.04900910033884681   -0.0016336425111114089
-0.002879155745702522   -0.05   -0.001573590878093003
-0.0022028888814792265   -0.05   -0.001621134902991858
-0.005386829520586976   -0.04900910033884681   -0.0016336425111114089
-0.0026352087360772135   -0.05   -0.001899400387152312
-0.002879155745702522   -0.05   -0.001573590878093003
-0.005386829520586976   -0.04900910033884681   -0.0016336425111114089
-0.00470979042931421   -0.0492419394688035   -0.0015632847336473567
-0.004824645498713575   -0.04929496793779378   -0.0016882387006669623
-0.002879155745702522   -0.05   -0.001573590878093003
-0.005386829520586976   -0.04900910033884681   -0.0016336425111114089
-0.004824645498713575   -0.04929496793779378   -0.0016882387006669623
-0.0026352087360772135   -0.05   -0.001899400387152312
-0.002879155745702522   -0.05   -0.001573590878093003
-0.00470979042931421   -0.0492419394688035   -0.0015632847336473567
-0.0022028888814792265   -0.05   -0.001621134902991858
-0.0026718590343374924   -0.05   -0.0013791692860902086
-0.00470979042931421   -0.0492419394688035   -0.0015632847336473567
-0.005386829520586976   -0.04900910033884681   -0.0016336425111114089
-0.0022028888814792265   -0.05   -0.001621134902991858
-0.0051052435677909885   -0.049003083697651544   -0.0014149931032316392
-0.0026718590343374924   -0.05   -0.0013791692860902086
-0.0018581330570247435   -0.05   -0.0013549553074819654
-0.0051052435677909885   -0.049003083697651544   -0.0014149931032316392
-0.0022028888814792265   -0.05   -0.001621134902991858
-0.0026718590343374924   -0.05   -0.0013791692860902086
-0.0051052435677909885   -0.049003083697651544   -0.0014149931032316392
-0.004558102813717925   -0.049230056550413855   -0.0014289865297711162
-0.00470979042931421   -0.0492419394688035   -0.0015632847336473567
-0.0026718590343374924   -0.05   -0.0013791692860902086
-0.0051052435677909885   -0.049003083697651544   -0.0014149931032316392
-0.00470979042931421   -0.0492419394688035   -0.0015632847336473567
-0.0022028888814792265   -0.05   -0.001621134902991858
-0.0026718590343374924   -0.05   -0.0013791692860902086
-0.004558102813717925   -0.049230056550413855   -0.0014289865297711162
-0.0018581330570247435   -0.05   -0.0013549553074819654
-0.0024694199449323273   -0.05   -0.0011873316343711923
-0.004558102813717925   -0.049230056550413855   -0.0014289865297711162
-0.0051052435677909885   -0.049003083697651544   -0.0014149931032316392
-0.0018581330570247435   -0.05   -0.0013549553074819654
-0.004749575433682781   -0.049061971369664344   -0.0011864362739145943
-0.0024694199449323273   -0.05   -0.0011873316343711923
-0.0014323062221938973   -0.05   -0.001078617041666758
-0.004749575433682781   -0.049061971369664344   -0.0011864362739145943
-0.0018581330570247435   -0.05   -0.0013549553074819654
-0.0024694199449323273   -0.05   -0.0011873316343711923
-0.004749575433682781   -0.049061971369664344   -0.0011864362739145943
-0.00441562785219269   -0.04925142934880224   -0.0012895506791765043
-0.004558102813717925   -0.049230056550413855   -0.0014289865297711162
-0.0024694199449323273   -0.05   -0.0011873316343711923
-0.004749575433682781   -0.049061971369664344   -0.0011864362739145943
-0.004558102813717925   -0.049230056550413855   -0.0014289865297711162
-0.0018581330570247435   -0.05   -0.0013549553074819654
-0.0035763942395568562   -0.048995921635788586   -0.0010585903116684446
-0.0014804269021650507   -0.04716246216455263   -0.0009140728521870418
-0.003785549229339372   -0.04918485960666848   -0.001247388745197886
-0.00333081352433179   -0.04891152396058776   -0.0012206226113810152
-0.0014804269021650507   -0.04716246216455263   -0.0009140728521870418
-0.00272625127189141   -0.04730536947124839   -0.0011147092440769596
-0.003785549229339372   -0.04918485960666848   -0.001247388745197886
-0.002658009992097498   -0.04722584613604047   -0.0011764863680721327
-0.00333081352433179   -0.04891152396058776   -0.0012206226113810152
-0.0036895649256841953   -0.04911916099546966   -0.0013165780318447383
-0.002658009992097498   -0.04722584613604047   -0.0011764863680721327
-0.003785549229339372   -0.04918485960666848   -0.001247388745197886
-0.00333081352433179   -0.04891152396058776   -0.0012206226113810152
-0.002658009992097498   -0.04722584613604047   -0.0011764863680721327
-0.0012842848364114359   -0.04706398690798976   -0.0010543566880749393
-0.0014804269021650507   -0.04716246216455263   -0.0009140728521870418
-0.00333081352433179   -0.04891152396058776   -0.0012206226113810152
-0.002658009992097498   -0.04722584613604047   -0.0011764863680721327
-0.0014804269021650507   -0.04716246216455263   -0.0009140728521870418
-0.003785549229339372   -0.04918485960666848   -0.001247388745197886
-0.00333081352433179   -0.04891152396058776   -0.0012206226113810152
-0.0012842848364114359   -0.04706398690798976   -0.0010543566880749393
-0.0036895649256841953   -0.04911916099546966   -0.0013165780318447383
-0.0031264199512131227   -0.04888592911005731   -0.0013760791768571332
-0.0012842848364114359   -0.04706398690798976   -0.0010543566880749393
-0.002658009992097498   -0.04722584613604047   -0.0011764863680721327
-0.0036895649256841953   -0.04911916099546966   -0.0013165780318447383
-0.002581092372178808   -0.04718212644081417   -0.0012327431079477125
-0.0031264199512131227   -0.04888592911005731   -0.0013760791768571332
-0.0035769028672851576   -0.049095248613036824   -0.0013804658833155758
-0.002581092372178808   -0.04718212644081417   -0.0012327431079477125
-0.0036895649256841953   -0.04911916099546966   -0.0013165780318447383
-0.0031264199512131227   -0.04888592911005731   -0.0013760791768571332
-0.002581092372178808   -0.04718212644081417   -0.0012327431079477125
-0.0011299351991669263   -0.04701747645711759   -0.0011864607978008738
-0.0012842848364114359   -0.04706398690798976   -0.0010543566880749393
-0.0031264199512131227   -0.04888592911005731   -0.0013760791768571332
-0.002581092372178808   -0.04718212644081417   -0.0012327431079477125
-0.0012842848364114359   -0.04706398690798976   -0.0010543566880749393
-0.0036895649256841953   -0.04911916099546966   -0.0013165780318447383
-0.0031264199512131227   -0.04888592911005731   -0.0013760791768571332
-0.0011299351991669263   -0.04701747645711759   -0.0011864607978008738
-0.0035769028672851576   -0.049095248613036824   -0.0013804658833155758
-0.002894990428739365   -0.04890866146728993   -0.0015242808622765206
-0.0011299351991669263   -0.04701747645711759   -0.0011864607978008738
-0.002581092372178808   -0.04718212644081417   -0.0012327431079477125
-0.0035769028672851576   -0.049095248613036824   -0.0013804658833155758
-0.0025221462105897863   -0.047172984695210404   -0.0012836589097400286
-0.002894990428739365   -0.04890866146728993   -0.0015242808622765206
-0.0034804384089486924   -0.0491134835675274   -0.0014387237804825105
-0.0025221462105897863   -0.047172984695210404   -0.0012836589097400286
-0.0035769028672851576   -0.049095248613036824   -0.0013804658833155758
-0.002894990428739365   -0.04890866146728993   -0.0015242808622765206
-0.0025221462105897863   -0.047172984695210404   -0.0012836589097400286
-0.0009611632999936272   -0.04700949284139143   -0.0013100433135179912
-0.0011299351991669263   -0.04701747645711759   -0.0011864607978008738
-0.002894990428739365   -0.04890866146728993   -0.0015242808622765206
-0.0025221462105897863   -0.047172984695210404   -0.0012836589097400286
-0.0011299351991669263   -0.04701747645711759   -0.0011864607978008738
-0.0035769028672851576   -0.049095248613036824   -0.0013804658833155758
-0.003785549229339372   -0.04918485960666848   -0.001247388745197886
-0.00272625127189141   -0.04730536947124839   -0.0011147092440769596
-0.004071873632121822   -0.0493011116250805   -0.001398258780614086
-0.0036895649256841953   -0.04911916099546966   -0.0013165780318447383
-0.00272625127189141   -0.04730536947124839   -0.0011147092440769596
-0.003957567456810086   -0.047355650274417044   -0.0012782135292941676
-0.004071873632121822   -0.0493011116250805   -0.001398258780614086
-0.0039002482449394405   -0.047286285384903995   -0.0012815333866468684
-0.0036895649256841953   -0.04911916099546966   -0.0013165780318447383
-0.003986973412909719   -0.04924242263075701   -0.0013999919475188205
-0.0039002482449394405   -0.047286285384903995   -0.0012815333866468684
-0.004071873632121822   -0.0493011116250805   -0.001398258780614086
-0.0036895649256841953   -0.04911916099546966   -0.0013165780318447383
-0.0039002482449394405   -0.047286285384903995   -0.0012815333866468684
-0.002658009992097498   -0.04722584613604047   -0.0011764863680721327
-0.00272625127189141   -0.04730536947124839   -0.0011147092440769596
-0.0036895649256841953   -0.04911916099546966   -0.0013165780318447383
-0.0039002482449394405   -0.047286285384903995   -0.0012815333866468684
-0.00272625127189141   -0.04730536947124839   -0.0011147092440769596
-0.004071873632121822   -0.0493011116250805   -0.001398258780614086
-0.0036895649256841953   -0.04911916099546966   -0.0013165780318447383
-0.002658009992097498   -0.04722584613604047   -0.0011764863680721327
-0.003986973412909719   -0.04924242263075701   -0.0013999919475188205
-0.0035769028672851576   -0.049095248613036824   -0.0013804658833155758
-0.002658009992097498   -0.04722584613604047   -0.0011764863680721327
-0.0039002482449394405   -0.047286285384903995   -0.0012815333866468684
-0.003986973412909719   -0.04924242263075701   -0.0013999919475188205
-0.0038409541396060994   -0.04724919144859599   -0.0012797393938497042
-0.0035769028672851576   -0.049095248613036824   -0.0013804658833155758
-0.0038924944083835143   -0.04922157599438081   -0.0013948526575364125
-0.0038409541396060994   -0.04724919144859599   -0.0012797393938497042
-0.003986973412909719   -0.04924242263075701   -0.0013999919475188205
-0.0035769028672851576   -0.049095248613036824   -0.0013804658833155758
-0.0038409541396060994   -0.04724919144859599   -0.0012797393938497042
-0.002581092372178808   -0.04718212644081417   -0.0012327431079477125
-0.002658009992097498   -0.04722584613604047   -0.0011764863680721327
-0.0035769028672851576   -0.049095248613036824   -0.0013804658833155758
-0.0038409541396060994   -0.04724919144859599   -0.0012797393938497042
-0.002658009992097498   -0.04722584613604047   -0.0011764863680721327
-0.003986973412909719   -0.04924242263075701   -0.0013999919475188205
-0.0035769028672851576   -0.049095248613036824   -0.0013804658833155758
-0.002581092372178808   -0.04718212644081417   -0.0012327431079477125
-0.0038924944083835143   -0.04922157599438081   -0.0013948526575364125
-0.0034804384089486924   -0.0491134835675274   -0.0014387237804825105
-0.002581092372178808   -0.04718212644081417   -0.0012327431079477125
-0.0038409541396060994   -0.04724919144859599   -0.0012797393938497042
-0.0038924944083835143   -0.04922157599438081   -0.0013948526575364125
-0.0037837835778480908   -0.04724283646716058   -0.001272789698758718
-0.0034804384089486924   -0.0491134835675274   -0.0014387237804825105
-0.003796458176193772   -0.04923687129196278   -0.0013843193500651036
-0.0037837835778480908   -0.04724283646716058   -0.001272789698758718
-0.0038924944083835143   -0.04922157599438081   -0.0013948526575364125
-0.0034804384089486924   -0.0491134835675274   -0.0014387237804825105
-0.0037837835778480908   -0.04724283646716058   -0.001272789698758718
-0.0025221462105897863   -0.047172984695210404   -0.0012836589097400286
-0.002581092372178808   -0.04718212644081417   -0.0012327431079477125
-0.0034804384089486924   -0.0491134835675274   -0.0014387237804825105
-0.0037837835778480908   -0.04724283646716058   -0.001272789698758718
-0.002581092372178808   -0.04718212644081417   -0.0012327431079477125
-0.0038924944083835143   -0.04922157599438081   -0.0013948526575364125
-0.004071873632121822   -0.0493011116250805   -0.001398258780614086
-0.003957567456810086   -0.047355650274417044   -0.0012782135292941676
-0.004379233227917145   -0.049349111951439054   -0.0015468392308803773
-0.003986973412909719   -0.04924242263075701   -0.0013999919475188205
-0.003957567456810086   -0.047355650274417044   -0.0012782135292941676
-0.005180594149884094   -0.04731065211528715   -0.0014312743153421924
-0.004379233227917145   -0.049349111951439054   -0.0015468392308803773
-0.005123728359388871   -0.047249014528868157   -0.0013785282852483603
-0.003986973412909719   -0.04924242263075701   -0.0013999919475188205
-0.004291282654611234   -0.049293080273641265   -0.0014837014610687982
-0.005123728359388871   -0.047249014528868157   -0.0013785282852483603
-0.004379233227917145   -0.049349111951439054   -0.0015468392308803773
-0.003986973412909719   -0.04924242263075701   -0.0013999919475188205
-0.005123728359388871   -0.047249014528868157   -0.0013785282852483603
-0.0039002482449394405   -0.047286285384903995   -0.0012815333866468684
-0.003957567456810086   -0.047355650274417044   -0.0012782135292941676
-0.003986973412909719   -0.04924242263075701   -0.0013999919475188205
-0.005123728359388871   -0.047249014528868157   -0.0013785282852483603
-0.003957567456810086   -0.047355650274417044   -0.0012782135292941676
-0.004379233227917145   -0.049349111951439054   -0.0015468392308803773
-0.003986973412909719   -0.04924242263075701   -0.0013999919475188205
-0.0039002482449394405   -0.047286285384903995   -0.0012815333866468684
-0.004291282654611234   -0.049293080273641265   -0.0014837014610687982
-0.0038924944083835143   -0.04922157599438081   -0.0013948526575364125
-0.0039002482449394405   -0.047286285384903995   -0.0012815333866468684
-0.005123728359388871   -0.047249014528868157   -0.0013785282852483603
-0.004291282654611234   -0.049293080273641265   -0.0014837014610687982
-0.005059914141701955   -0.04721911343773196   -0.0013207468926163164
-0.0038924944083835143   -0.04922157599438081   -0.0013948526575364125
-0.004185847278677927   -0.04927550217749957   -0.001412191714717535
-0.005059914141701955   -0.04721911343773196   -0.0013207468926163164
-0.004291282654611234   -0.049293080273641265   -0.0014837014610687982
-0.0038924944083835143   -0.04922157599438081   -0.0013948526575364125
-0.005059914141701955   -0.04721911343773196   -0.0013207468926163164
-0.0038409541396060994   -0.04724919144859599   -0.0012797393938497042
-0.0039002482449394405   -0.047286285384903995   -0.0012815333866468684
-0.0038924944083835143   -0.04922157599438081   -0.0013948526575364125
-0.005059914141701955   -0.04721911343773196   -0.0013207468926163164
-0.0039002482449394405   -0.047286285384903995   -0.0012815333866468684
-0.004291282654611234   -0.049293080273641265   -0.0014837014610687982
-0.0038924944083835143   -0.04922157599438081   -0.0013948526575364125
-0.0038409541396060994   -0.04724919144859599   -0.0012797393938497042
-0.004185847278677927   -0.04927550217749957   -0.001412191714717535
-0.003796458176193772   -0.04923687129196278   -0.0013843193500651036
-0.0038409541396060994   -0.04724919144859599   -0.0012797393938497042
-0.005059914141701955   -0.04721911343773196   -0.0013207468926163164
-0.004185847278677927   -0.04927550217749957   -0.001412191714717535
-0.004995865520740081   -0.04721792754792677   -0.0012573171530724575
-0.003796458176193772   -0.04923687129196278   -0.0013843193500651036
-0.004077455651842975   -0.0492904060947874   -0.0013360604446080468
-0.004995865520740081   -0.04721792754792677   -0.0012573171530724575
-0.004185847278677927   -0.04927550217749957   -0.001412191714717535
-0.003796458176193772   -0.04923687129196278   -0.0013843193500651036
-0.004995865520740081   -0.04721792754792677   -0.0012573171530724575
-0.0037837835778480908   -0.04724283646716058   -0.001272789698758718
-0.0038409541396060994   -0.04724919144859599   -0.0012797393938497042
-0.003796458176193772   -0.04923687129196278   -0.0013843193500651036
-0.004995865520740081   -0.04721792754792677   -0.0012573171530724575
-0.0038409541396060994   -0.04724919144859599   -0.0012797393938497042
-0.004185847278677927   -0.04927550217749957   -0.001412191714717535
-0.004379233227917145   -0.049349111951439054   -0.0015468392308803773
-0.005180594149884094   -0.04731065211528715   -0.0014312743153421924
-0.004824645498713575   -0.04929496793779378   -0.0016882387006669623
-0.004291282654611234   -0.049293080273641265   -0.0014837014610687982
-0.005180594149884094   -0.04731065211528715   -0.0014312743153421924
-0.006523667855548273   -0.04716446902275028   -0.0015719826985539555
-0.004824645498713575   -0.04929496793779378   -0.0016882387006669623
-0.006453973292880109   -0.04711055159174968   -0.001464387779147386
-0.004291282654611234   -0.049293080273641265   -0.0014837014610687982
-0.00470979042931421   -0.0492419394688035   -0.0015632847336473567
-0.006453973292880109   -0.04711055159174968   -0.001464387779147386
-0.004824645498713575   -0.04929496793779378   -0.0016882387006669623
-0.004291282654611234   -0.049293080273641265   -0.0014837014610687982
-0.006453973292880109   -0.04711055159174968   -0.001464387779147386
-0.005123728359388871   -0.047249014528868157   -0.0013785282852483603
-0.005180594149884094   -0.04731065211528715   -0.0014312743153421924
-0.004291282654611234   -0.049293080273641265   -0.0014837014610687982
-0.006453973292880109   -0.04711055159174968   -0.001464387779147386
-0.005180594149884094   -0.04731065211528715   -0.0014312743153421924
-0.004824645498713575   -0.04929496793779378   -0.0016882387006669623
-0.004291282654611234   -0.049293080273641265   -0.0014837014610687982
-0.005123728359388871   -0.047249014528868157   -0.0013785282852483603
-0.00470979042931421   -0.0492419394688035   -0.0015632847336473567
-0.004185847278677927   -0.04927550217749957   -0.001412191714717535
-0.005123728359388871   -0.047249014528868157   -0.0013785282852483603
-0.006453973292880109   -0.04711055159174968   -0.001464387779147386
-0.00470979042931421   -0.0492419394688035   -0.0015632847336473567
-0.006357668674318232   -0.04708781489147442   -0.001352135465560666
-0.004185847278677927   -0.04927550217749957   -0.001412191714717535
-0.004558102813717925   -0.049230056550413855   -0.0014289865297711162
-0.006357668674318232   -0.04708781489147442   -0.001352135465560666
-0.00470979042931421   -0.0492419394688035   -0.0015632847336473567
-0.004185847278677927   -0.04927550217749957   -0.001412191714717535
-0.006357668674318232   -0.04708781489147442   -0.001352135465560666
-0.005059914141701955   -0.04721911343773196   -0.0013207468926163164
-0.005123728359388871   -0.047249014528868157   -0.0013785282852483603
-0.004185847278677927   -0.04927550217749957   -0.001412191714717535
-0.006357668674318232   -0.04708781489147442   -0.001352135465560666
-0.005123728359388871   -0.047249014528868157   -0.0013785282852483603
-0.00470979042931421   -0.0492419394688035   -0.0015632847336473567
-0.004185847278677927   -0.04927550217749957   -0.001412191714717535
-0.005059914141701955   -0.04721911343773196   -0.0013207468926163164
-0.004558102813717925   -0.049230056550413855   -0.0014289865297711162
-0.004077455651842975   -0.0492904060947874   -0.0013360604446080468
-0.005059914141701955   -0.04721911343773196   -0.0013207468926163164
-0.006357668674318232   -0.04708781489147442   -0.001352135465560666
-0.004558102813717925   -0.049230056550413855   -0.0014289865297711162
-0.006273750159246069   -0.04709628801067198   -0.0012321201832438673
-0.004077455651842975   -0.0492904060947874   -0.0013360604446080468
-0.00441562785219269   -0.04925142934880224   -0.0012895506791765043
-0.006273750159246069   -0.04709628801067198   -0.0012321201832438673
-0.004558102813717925   -0.049230056550413855   -0.0014289865297711162
-0.004077455651842975   -0.0492904060947874   -0.0013360604446080468
-0.006273750159246069   -0.04709628801067198   -0.0012321201832438673
-0.004995865520740081   -0.04721792754792677   -0.0012573171530724575
-0.005059914141701955   -0.04721911343773196   -0.0013207468926163164
-0.004077455651842975   -0.0492904060947874   -0.0013360604446080468
-0.006273750159246069   -0.04709628801067198   -0.0012321201832438673
-0.005059914141701955   -0.04721911343773196   -0.0013207468926163164
-0.004558102813717925   -0.049230056550413855   -0.0014289865297711162
-0.004824645498713575   -0.04929496793779378   -0.0016882387006669623
-0.006523667855548273   -0.04716446902275028   -0.0015719826985539555
-0.00569362488811141   -0.04905401644374014   -0.0018386158187981617
-0.00470979042931421   -0.0492419394688035   -0.0015632847336473567
-0.006523667855548273   -0.04716446902275028   -0.0015719826985539555
-0.008253097548016498   -0.04692672678363901   -0.00170738326561907
-0.00569362488811141   -0.04905401644374014   -0.0018386158187981617
-0.00802743503238769   -0.04686812532282285   -0.0015374722231334054
-0.00470979042931421   -0.0492419394688035   -0.0015632847336473567
-0.005386829520586976   -0.04900910033884681   -0.0016336425111114089
-0.00802743503238769   -0.04686812532282285   -0.0015374722231334054
-0.00569362488811141   -0.04905401644374014   -0.0018386158187981617
-0.00470979042931421   -0.0492419394688035   -0.0015632847336473567
-0.00802743503238769   -0.04686812532282285   -0.0015374722231334054
-0.006453973292880109   -0.04711055159174968   -0.001464387779147386
-0.006523667855548273   -0.04716446902275028   -0.0015719826985539555
-0.00470979042931421   -0.0492419394688035   -0.0015632847336473567
-0.00802743503238769   -0.04686812532282285   -0.0015374722231334054
-0.006523667855548273   -0.04716446902275028   -0.0015719826985539555
-0.00569362488811141   -0.04905401644374014   -0.0018386158187981617
-0.00470979042931421   -0.0492419394688035   -0.0015632847336473567
-0.006453973292880109   -0.04711055159174968   -0.001464387779147386
-0.005386829520586976   -0.04900910033884681   -0.0016336425111114089
-0.004558102813717925   -0.049230056550413855   -0.0014289865297711162
-0.006453973292880109   -0.04711055159174968   -0.001464387779147386
-0.00802743503238769   -0.04686812532282285   -0.0015374722231334054
-0.005386829520586976   -0.04900910033884681   -0.0016336425111114089
-0.007825407433604896   -0.046847094636428   -0.00135777575891084
-0.004558102813717925   -0.049230056550413855   -0.0014289865297711162
-0.0051052435677909885   -0.049003083697651544   -0.0014149931032316392
-0.007825407433604896   -0.046847094636428   -0.00135777575891084
-0.005386829520586976   -0.04900910033884681   -0.0016336425111114089
-0.004558102813717925   -0.049230056550413855   -0.0014289865297711162
-0.007825407433604896   -0.046847094636428   -0.00135777575891084
-0.006357668674318232   -0.04708781489147442   -0.001352135465560666
-0.006453973292880109   -0.04711055159174968   -0.001464387779147386
-0.004558102813717925   -0.049230056550413855   -0.0014289865297711162
-0.007825407433604896   -0.046847094636428   -0.00135777575891084
-0.006453973292880109   -0.04711055159174968   -0.001464387779147386
-0.005386829520586976   -0.04900910033884681   -0.0016336425111114089
-0.004558102813717925   -0.049230056550413855   -0.0014289865297711162
-0.006357668674318232   -0.04708781489147442   -0.001352135465560666
-0.0051052435677909885   -0.049003083697651544   -0.0014149931032316392
-0.00441562785219269   -0.04925142934880224   -0.0012895506791765043
-0.006357668674318232   -0.04708781489147442   -0.001352135465560666
-0.007825407433604896   -0.046847094636428   -0.00135777575891084
-0.0051052435677909885   -0.049003083697651544   -0.0014149931032316392
-0.00756360123077605   -0.046874565354644585   -0.0011699916570032487
-0.00441562785219269   -0.04925142934880224   -0.0012895506791765043
-0.004749575433682781   -0.049061971369664344   -0.0011864362739145943
-0.00756360123077605   -0.046874565354644585   -0.0011699916570032487
-0.0051052435677909885   -0.049003083697651544   -0.0014149931032316392
-0.00441562785219269   -0.04925142934880224   -0.0012895506791765043
-0.00756360123077605   -0.046874565354644585   -0.0011699916570032487
-0.006273750159246069   -0.04709628801067198   -0.0012321201832438673
-0.006357668674318232   -0.04708781489147442   -0.001352135465560666
-0.00441562785219269   -0.04925142934880224   -0.0012895506791765043
-0.00756360123077605   -0.046874565354644585   -0.0011699916570032487
-0.006357668674318232   -0.04708781489147442   -0.001352135465560666
-0.0051052435677909885   -0.049003083697651544   -0.0014149931032316392
-0.0014804269021650507   -0.04716246216455263   -0.0009140728521870418
0.00022343407153800997   -0.04377456893057221   -0.0007555962383289127
-0.00272625127189141   -0.04730536947124839   -0.0011147092440769596
-0.0012842848364114359   -0.04706398690798976   -0.0010543566880749393
0.00022343407153800997   -0.04377456893057221   -0.0007555962383289127
-0.0018832955461533533   -0.04387966136363108   -0.0009526622375506509
-0.00272625127189141   -0.04730536947124839   -0.0011147092440769596
-0.0018470233765747748   -0.04379630028611964   -0.0010017793116187273
-0.0012842848364114359   -0.04706398690798976   -0.0010543566880749393
-0.002658009992097498   -0.04722584613604047   -0.0011764863680721327
-0.0018470233765747748   -0.04379630028611964   -0.0010017793116187273
-0.00272625127189141   -0.04730536947124839   -0.0011147092440769596
-0.0012842848364114359   -0.04706398690798976   -0.0010543566880749393
-0.0018470233765747748   -0.04379630028611964   -0.0010017793116187273
0.00036081068585995724   -0.04367446195010708   -0.0008675669534143456
0.00022343407153800997   -0.04377456893057221   -0.0007555962383289127
-0.0012842848364114359   -0.04706398690798976   -0.0010543566880749393
-0.0018470233765747748   -0.04379630028611964   -0.0010017793116187273
0.00022343407153800997   -0.04377456893057221   -0.0007555962383289127
-0.00272625127189141   -0.04730536947124839   -0.0011147092440769596
-0.0012842848364114359   -0.04706398690798976   -0.0010543566880749393
0.00036081068585995724   -0.04367446195010708   -0.0008675669534143456
-0.002658009992097498   -0.04722584613604047   -0.0011764863680721327
-0.0011299351991669263   -0.04701747645711759   -0.0011864607978008738
0.00036081068585995724   -0.04367446195010708   -0.0008675669534143456
-0.0018470233765747748   -0.04379630028611964   -0.0010017793116187273
-0.002658009992097498   -0.04722584613604047   -0.0011764863680721327
-0.00180564723831891   -0.04374220201338709   -0.0010452266525464474
-0.0011299351991669263   -0.04701747645711759   -0.0011864607978008738
-0.002581092372178808   -0.04718212644081417   -0.0012327431079477125
-0.00180564723831891   -0.04374220201338709   -0.0010452266525464474
-0.002658009992097498   -0.04722584613604047   -0.0011764863680721327
-0.0011299351991669263   -0.04701747645711759   -0.0011864607978008738
-0.00180564723831891   -0.04374220201338709   -0.0010452266525464474
0.00046190941180942026   -0.043617017189799136   -0.0009716015220058813
0.00036081068585995724   -0.04367446195010708   -0.0008675669534143456
-0.0011299351991669263   -0.04701747645711759   -0.0011864607978008738
-0.00180564723831891   -0.04374220201338709   -0.0010452266525464474
0.00036081068585995724   -0.04367446195010708   -0.0008675669534143456
-0.002658009992097498   -0.04722584613604047   -0.0011764863680721327
-0.0011299351991669263   -0.04701747645711759   -0.0011864607978008738
0.00046190941180942026   -0.043617017189799136   -0.0009716015220058813
-0.002581092372178808   -0.04718212644081417   -0.0012327431079477125
-0.0009611632999936272   -0.04700949284139143   -0.0013100433135179912
0.00046190941180942026   -0.043617017189799136   -0.0009716015220058813
-0.00180564723831891   -0.04374220201338709   -0.0010452266525464474
-0.002581092372178808   -0.04718212644081417   -0.0012327431079477125
-0.0017809014062680414   -0.043715753620582776   -0.001083564546297603
-0.0009611632999936272   -0.04700949284139143   -0.0013100433135179912
-0.0025221462105897863   -0.047172984695210404   -0.0012836589097400286
-0.0017809014062680414   -0.043715753620582776   -0.001083564546297603
-0.002581092372178808   -0.04718212644081417   -0.0012327431079477125
-0.0009611632999936272   -0.04700949284139143   -0.0013100433135179912
-0.0017809014062680414   -0.043715753620582776   -0.001083564546297603
0.000570335392727879   -0.04358930624355799   -0.0010676643775309597
0.00046190941180942026   -0.043617017189799136   -0.0009716015220058813
-0.0009611632999936272   -0.04700949284139143   -0.0013100433135179912
-0.0017809014062680414   -0.043715753620582776   -0.001083564546297603
0.00046190941180942026   -0.043617017189799136   -0.0009716015220058813
-0.002581092372178808   -0.04718212644081417   -0.0012327431079477125
-0.00272625127189141   -0.04730536947124839   -0.0011147092440769596
-0.0018832955461533533   -0.04387966136363108   -0.0009526622375506509
-0.003957567456810086   -0.047355650274417044   -0.0012782135292941676
-0.002658009992097498   -0.04722584613604047   -0.0011764863680721327
-0.0018832955461533533   -0.04387966136363108   -0.0009526622375506509
-0.003922731941945244   -0.04389979787509865   -0.001114827120852294
-0.003957567456810086   -0.047355650274417044   -0.0012782135292941676
-0.003896120845901611   -0.043828288499613816   -0.0011160303548641266
-0.002658009992097498   -0.04722584613604047   -0.0011764863680721327
-0.0039002482449394405   -0.047286285384903995   -0.0012815333866468684
-0.003896120845901611   -0.043828288499613816   -0.0011160303548641266
-0.003957567456810086   -0.047355650274417044   -0.0012782135292941676
-0.002658009992097498   -0.04722584613604047   -0.0011764863680721327
-0.003896120845901611   -0.043828288499613816   -0.0011160303548641266
-0.0018470233765747748   -0.04379630028611964   -0.0010017793116187273
-0.0018832955461533533   -0.04387966136363108   -0.0009526622375506509
-0.002658009992097498   -0.04722584613604047   -0.0011764863680721327
-0.003896120845901611   -0.043828288499613816   -0.0011160303548641266
-0.0018832955461533533   -0.04387966136363108   -0.0009526622375506509
-0.003957567456810086   -0.047355650274417044   -0.0012782135292941676
-0.002658009992097498   -0.04722584613604047   -0.0011764863680721327
-0.0018470233765747748   -0.04379630028611964   -0.0010017793116187273
-0.0039002482449394405   -0.047286285384903995   -0.0012815333866468684
-0.002581092372178808   -0.04718212644081417   -0.0012327431079477125
-0.0018470233765747748   -0.04379630028611964   -0.0010017793116187273
-0.003896120845901611   -0.043828288499613816   -0.0011160303548641266
-0.0039002482449394405   -0.047286285384903995   -0.0012815333866468684
-0.0038687472586603285   -0.0437829656202957   -0.0011117986003380733
-0.002581092372178808   -0.04718212644081417   -0.0012327431079477125
-0.0038409541396060994   -0.04724919144859599   -0.0012797393938497042
-0.0038687472586603285   -0.0437829656202957   -0.0011117986003380733
-0.0039002482449394405   -0.047286285384903995   -0.0012815333866468684
-0.002581092372178808   -0.04718212644081417   -0.0012327431079477125
-0.0038687472586603285   -0.0437829656202957   -0.0011117986003380733
-0.00180564723831891   -0.04374220201338709   -0.0010452266525464474
-0.0018470233765747748   -0.04379630028611964   -0.0010017793116187273
-0.002581092372178808   -0.04718212644081417   -0.0012327431079477125
-0.0038687472586603285   -0.0437829656202957   -0.0011117986003380733
-0.0018470233765747748   -0.04379630028611964   -0.0010017793116187273
-0.0039002482449394405   -0.047286285384903995   -0.0012815333866468684
-0.002581092372178808   -0.04718212644081417   -0.0012327431079477125
-0.00180564723831891   -0.04374220201338709   -0.0010452266525464474
-0.0038409541396060994   -0.04724919144859599   -0.0012797393938497042
-0.0025221462105897863   -0.047172984695210404   -0.0012836589097400286
-0.00180564723831891   -0.04374220201338709   -0.0010452266525464474
-0.0038687472586603285   -0.0437829656202957   -0.0011117986003380733
-0.0038409541396060994   -0.04724919144859599   -0.0012797393938497042
-0.003844808718552289   -0.04376340529666462   -0.0011024981429049465
-0.0025221462105897863   -0.047172984695210404   -0.0012836589097400286
-0.0037837835778480908   -0.04724283646716058   -0.001272789698758718
-0.003844808718552289   -0.04376340529666462   -0.0011024981429049465
-0.0038409541396060994   -0.04724919144859599   -0.0012797393938497042
-0.0025221462105897863   -0.047172984695210404   -0.0012836589097400286
-0.003844808718552289   -0.04376340529666462   -0.0011024981429049465
-0.0017809014062680414   -0.043715753620582776   -0.001083564546297603
-0.00180564723831891   -0.04374220201338709   -0.0010452266525464474
-0.0025221462105897863   -0.047172984695210404   -0.0012836589097400286
-0.003844808718552289   -0.04376340529666462   -0.0011024981429049465
-0.00180564723831891   -0.04374220201338709   -0.0010452266525464474
-0.0038409541396060994   -0.04724919144859599   -0.0012797393938497042
-0.003957567456810086   -0.047355650274417044   -0.0012782135292941676
-0.003922731941945244   -0.04389979787509865   -0.001114827120852294
-0.005180594149884094   -0.04731065211528715   -0.0014312743153421924
-0.0039002482449394405   -0.047286285384903995   -0.0012815333866468684
-0.003922731941945244   -0.04389979787509865   -0.001114827120852294
-0.005930404840350663   -0.04383471266904771   -0.001261186933058206
-0.005180594149884094   -0.04731065211528715   -0.0014312743153421924
-0.00590563524532281   -0.04377303233210151   -0.0012156280701177157
-0.0039002482449394405   -0.047286285384903995   -0.0012815333866468684
-0.005123728359388871   -0.047249014528868157   -0.0013785282852483603
-0.00590563524532281   -0.04377303233210151   -0.0012156280701177157
-0.005180594149884094   -0.04731065211528715   -0.0014312743153421924
-0.0039002482449394405   -0.047286285384903995   -0.0012815333866468684
-0.00590563524532281   -0.04377303233210151   -0.0012156280701177157
-0.003896120845901611   -0.043828288499613816   -0.0011160303548641266
-0.003922731941945244   -0.04389979787509865   -0.001114827120852294
-0.0039002482449394405   -0.047286285384903995   -0.0012815333866468684
-0.00590563524532281   -0.04377303233210151   -0.0012156280701177157
-0.003922731941945244   -0.04389979787509865   -0.001114827120852294
-0.005180594149884094   -0.04731065211528715   -0.0014312743153421924
-0.0039002482449394405   -0.047286285384903995   -0.0012815333866468684
-0.003896120845901611   -0.043828288499613816   -0.0011160303548641266
-0.005123728359388871   -0.047249014528868157   -0.0013785282852483603
-0.0038409541396060994   -0.04724919144859599   -0.0012797393938497042
-0.003896120845901611   -0.043828288499613816   -0.0011160303548641266
-0.00590563524532281   -0.04377303233210151   -0.0012156280701177157
-0.005123728359388871   -0.047249014528868157   -0.0013785282852483603
-0.005875699113002864   -0.04373725194587162   -0.001164754586619167
-0.0038409541396060994   -0.04724919144859599   -0.0012797393938497042
-0.005059914141701955   -0.04721911343773196   -0.0013207468926163164
-0.005875699113002864   -0.04373725194587162   -0.001164754586619167
-0.005123728359388871   -0.047249014528868157   -0.0013785282852483603
-0.0038409541396060994   -0.04724919144859599   -0.0012797393938497042
-0.005875699113002864   -0.04373725194587162   -0.001164754586619167
-0.0038687472586603285   -0.0437829656202957   -0.0011117986003380733
-0.003896120845901611   -0.043828288499613816   -0.0011160303548641266
-0.0038409541396060994   -0.04724919144859599   -0.0012797393938497042
-0.005875699113002864   -0.04373725194587162   -0.001164754586619167
-0.003896120845901611   -0.043828288499613816   -0.0011160303548641266
-0.005123728359388871   -0.047249014528868157   -0.0013785282852483603
-0.0038409541396060994   -0.04724919144859599   -0.0012797393938497042
-0.0038687472586603285   -0.0437829656202957   -0.0011117986003380733
-0.005059914141701955   -0.04721911343773196   -0.0013207468926163164
-0.0037837835778480908   -0.04724283646716058   -0.001272789698758718
-0.0038687472586603285   -0.0437829656202957   -0.0011117986003380733
-0.005875699113002864   -0.04373725194587162   -0.001164754586619167
-0.005059914141701955   -0.04721911343773196   -0.0013207468926163164
-0.005846601469342985   -0.04372618350265662   -0.0011087295487238048
-0.0037837835778480908   -0.04724283646716058   -0.001272789698758718
-0.004995865520740081   -0.04721792754792677   -0.0012573171530724575
-0.005846601469342985   -0.04372618350265662   -0.0011087295487238048
-0.005059914141701955   -0.04721911343773196   -0.0013207468926163164
-0.0037837835778480908   -0.04724283646716058   -0.001272789698758718
-0.005846601469342985   -0.04372618350265662   -0.0011087295487238048
-0.003844808718552289   -0.04376340529666462   -0.0011024981429049465
-0.0038687472586603285   -0.0437829656202957   -0.0011117986003380733
-0.0037837835778480908   -0.04724283646716058   -0.001272789698758718
-0.005846601469342985   -0.04372618350265662   -0.0011087295487238048
-0.0038687472586603285   -0.0437829656202957   -0.0011117986003380733
-0.005059914141701955   -0.04721911343773196   -0.0013207468926163164
-0.005180594149884094   -0.04731065211528715   -0.0014312743153421924
-0.005930404840350663   -0.04383471266904771   -0.001261186933058206
-0.006523667855548273   -0.04716446902275028   -0.0015719826985539555
-0.005123728359388871   -0.047249014528868157   -0.0013785282852483603
-0.005930404840350663   -0.04383471266904771   -0.001261186933058206
-0.008033974262257623   -0.04368667146999712   -0.0013912327616494085
-0.006523667855548273   -0.04716446902275028   -0.0015719826985539555
-0.008001534033444049   -0.043634347823841894   -0.0012988393680631392
-0.005123728359388871   -0.047249014528868157   -0.0013785282852483603
-0.006453973292880109   -0.04711055159174968   -0.001464387779147386
-0.008001534033444049   -0.043634347823841894   -0.0012988393680631392
-0.006523667855548273   -0.04716446902275028   -0.0015719826985539555
-0.005123728359388871   -0.047249014528868157   -0.0013785282852483603
-0.008001534033444049   -0.043634347823841894   -0.0012988393680631392
-0.00590563524532281   -0.04377303233210151   -0.0012156280701177157
-0.005930404840350663   -0.04383471266904771   -0.001261186933058206
-0.005123728359388871   -0.047249014528868157   -0.0013785282852483603
-0.008001534033444049   -0.043634347823841894   -0.0012988393680631392
-0.005930404840350663   -0.04383471266904771   -0.001261186933058206
-0.006523667855548273   -0.04716446902275028   -0.0015719826985539555
-0.005123728359388871   -0.047249014528868157   -0.0013785282852483603
-0.00590563524532281   -0.04377303233210151   -0.0012156280701177157
-0.006453973292880109   -0.04711055159174968   -0.001464387779147386
-0.005059914141701955   -0.04721911343773196   -0.0013207468926163164
-0.00590563524532281   -0.04377303233210151   -0.0012156280701177157
-0.008001534033444049   -0.043634347823841894   -0.0012988393680631392
-0.006453973292880109   -0.04711055159174968   -0.001464387779147386
-0.007946491742681366   -0.04360721845591469   -0.0012019519738396788
-0.005059914141701955   -0.04721911343773196   -0.0013207468926163164
-0.006357668674318232   -0.04708781489147442   -0.001352135465560666
-0.007946491742681366   -0.04360721845591469   -0.0012019519738396788
-0.006453973292880109   -0.04711055159174968   -0.001464387779147386
-0.005059914141701955   -0.04721911343773196   -0.0013207468926163164
-0.007946491742681366   -0.04360721845591469   -0.0012019519738396788
-0.005875699113002864   -0.04373725194587162   -0.001164754586619167
-0.00590563524532281   -0.04377303233210151   -0.0012156280701177157
-0.005059914141701955   -0.04721911343773196   -0.0013207468926163164
-0.007946491742681366   -0.04360721845591469   -0.0012019519738396788
-0.00590563524532281   -0.04377303233210151   -0.0012156280701177157
-0.006453973292880109   -0.04711055159174968   -0.001464387779147386
-0.005059914141701955   -0.04721911343773196   -0.0013207468926163164
-0.005875699113002864   -0.04373725194587162   -0.001164754586619167
-0.006357668674318232   -0.04708781489147442   -0.001352135465560666
-0.004995865520740081   -0.04721792754792677   -0.0012573171530724575
-0.005875699113002864   -0.04373725194587162   -0.001164754586619167
-0.007946491742681366   -0.04360721845591469   -0.0012019519738396788
-0.006357668674318232   -0.04708781489147442   -0.001352135465560666
-0.007901881743217796   -0.04360673778670479   -0.0010991610581535518
-0.004995865520740081   -0.04721792754792677   -0.0012573171530724575
-0.006273750159246069   -0.04709628801067198   -0.0012321201832438673
-0.007901881743217796   -0.04360673778670479   -0.0010991610581535518
-0.006357668674318232   -0.04708781489147442   -0.001352135465560666
-0.004995865520740081   -0.04721792754792677   -0.0012573171530724575
-0.007901881743217796   -0.04360673778670479   -0.0010991610581535518
-0.005846601469342985   -0.04372618350265662   -0.0011087295487238048
-0.005875699113002864   -0.04373725194587162   -0.001164754586619167
-0.004995865520740081   -0.04721792754792677   -0.0012573171530724575
-0.007901881743217796   -0.04360673778670479   -0.0010991610581535518
-0.005875699113002864   -0.04373725194587162   -0.001164754586619167
-0.006357668674318232   -0.04708781489147442   -0.001352135465560666
-0.006523667855548273   -0.04716446902275028   -0.0015719826985539555
-0.008033974262257623   -0.04368667146999712   -0.0013912327616494085
-0.008253097548016498   -0.04692672678363901   -0.00170738326561907
-0.006453973292880109   -0.04711055159174968   -0.001464387779147386
-0.008033974262257623   -0.04368667146999712   -0.0013912327616494085
-0.010487021554757154   -0.043473242457811645   -0.0015127250947484113
-0.008253097548016498   -0.04692672678363901   -0.00170738326561907
-0.010320037882949096   -0.043418563525517304   -0.0013680502108226807
-0.006453973292880109   -0.04711055159174968   -0.001464387779147386
-0.00802743503238769   -0.04686812532282285   -0.0015374722231334054
-0.010320037882949096   -0.043418563525517304   -0.0013680502108226807
-0.008253097548016498   -0.04692672678363901   -0.00170738326561907
-0.006453973292880109   -0.04711055159174968   -0.001464387779147386
-0.010320037882949096   -0.043418563525517304   -0.0013680502108226807
-0.008001534033444049   -0.043634347823841894   -0.0012988393680631392
-0.008033974262257623   -0.04368667146999712   -0.0013912327616494085
-0.006453973292880109   -0.04711055159174968   -0.001464387779147386
-0.010320037882949096   -0.043418563525517304   -0.0013680502108226807
-0.008033974262257623   -0.04368667146999712   -0.0013912327616494085
-0.008253097548016498   -0.04692672678363901   -0.00170738326561907
-0.006453973292880109   -0.04711055159174968   -0.001464387779147386
-0.008001534033444049   -0.043634347823841894   -0.0012988393680631392
-0.00802743503238769   -0.04686812532282285   -0.0015374722231334054
-0.006357668674318232   -0.04708781489147442   -0.001352135465560666
-0.008001534033444049   -0.043634347823841894   -0.0012988393680631392
-0.010320037882949096   -0.043418563525517304   -0.0013680502108226807
-0.00802743503238769   -0.04686812532282285   -0.0015374722231334054
-0.01017526658811713   -0.043393783464101346   -0.0012159540768927393
-0.006357668674318232   -0.04708781489147442   -0.001352135465560666
-0.007825407433604896   -0.046847094636428   -0.00135777575891084
-0.01017526658811713   -0.043393783464101346   -0.0012159540768927393
-0.00802743503238769   -0.04686812532282285   -0.0015374722231334054
-0.006357668674318232   -0.04708781489147442   -0.001352135465560666
-0.01017526658811713   -0.043393783464101346   -0.0012159540768927393
-0.007946491742681366   -0.04360721845591469   -0.0012019519738396788
-0.008001534033444049   -0.043634347823841894   -0.0012988393680631392
-0.006357668674318232   -0.04708781489147442   -0.001352135465560666
-0.01017526658811713   -0.043393783464101346   -0.0012159540768927393
-0.008001534033444049   -0.043634347823841894   -0.0012988393680631392
-0.00802743503238769   -0.04686812532282285   -0.0015374722231334054
-0.006357668674318232   -0.04708781489147442   -0.001352135465560666
-0.007946491742681366   -0.04360721845591469   -0.0012019519738396788
-0.007825407433604896   -0.046847094636428   -0.00135777575891084
-0.006273750159246069   -0.04709628801067198   -0.0012321201832438673
-0.007946491742681366   -0.04360721845591469   -0.0012019519738396788
-0.01017526658811713   -0.043393783464101346   -0.0012159540768927393
-0.007825407433604896   -0.046847094636428   -0.00135777575891084
-0.009980288029542983   -0.04340969512943298   -0.001057403696269613
-0.006273750159246069   -0.04709628801067198   -0.0012321201832438673
-0.00756360123077605   -0.046874565354644585   -0.0011699916570032487
-0.009980288029542983   -0.04340969512943298   -0.001057403696269613
-0.007825407433604896   -0.046847094636428   -0.00135777575891084
-0.006273750159246069   -0.04709628801067198   -0.0012321201832438673
-0.009980288029542983   -0.04340969512943298   -0.001057403696269613
-0.007901881743217796   -0.04360673778670479   -0.0010991610581535518
-0.007946491742681366   -0.04360721845591469   -0.0012019519738396788
-0.006273750159246069   -0.04709628801067198   -0.0012321201832438673
-0.009980288029542983   -0.04340969512943298   -0.001057403696269613
-0.007946491742681366   -0.04360721845591469   -0.0012019519738396788
-0.007825407433604896   -0.046847094636428   -0.00135777575891084
0.00022343407153800997   -0.04377456893057221   -0.0007555962383289127
0.0015206170960257676   -0.0391656710487175   -0.0005756121411397872
-0.0018832955461533533   -0.04387966136363108   -0.0009526622375506509
0.00036081068585995724   -0.04367446195010708   -0.0008675669534143456
0.0015206170960257676   -0.0391656710487175   -0.0005756121411397872
-0.001272945411383333   -0.039235398539043474   -0.0007637533308972798
-0.0018832955461533533   -0.04387966136363108   -0.0009526622375506509
-0.0012652571413537593   -0.0391524795225687   -0.0007979215685899989
0.00036081068585995724   -0.04367446195010708   -0.0008675669534143456
-0.0018470233765747748   -0.04379630028611964   -0.0010017793116187273
-0.0012652571413537593   -0.0391524795225687   -0.0007979215685899989
-0.0018832955461533533   -0.04387966136363108   -0.0009526622375506509
0.00036081068585995724   -0.04367446195010708   -0.0008675669534143456
-0.0012652571413537593   -0.0391524795225687   -0.0007979215685899989
0.001602664535997143   -0.03906794887392843   -0.0006586867588335877
0.0015206170960257676   -0.0391656710487175   -0.0005756121411397872
0.00036081068585995724   -0.04367446195010708   -0.0008675669534143456
-0.0012652571413537593   -0.0391524795225687   -0.0007979215685899989
0.0015206170960257676   -0.0391656710487175   -0.0005756121411397872
-0.0018832955461533533   -0.04387966136363108   -0.0009526622375506509
0.00036081068585995724   -0.04367446195010708   -0.0008675669534143456
0.001602664535997143   -0.03906794887392843   -0.0006586867588335877
-0.0018470233765747748   -0.04379630028611964   -0.0010017793116187273
0.00046190941180942026   -0.043617017189799136   -0.0009716015220058813
0.001602664535997143   -0.03906794887392843   -0.0006586867588335877
-0.0012652571413537593   -0.0391524795225687   -0.0007979215685899989
-0.0018470233765747748   -0.04379630028611964   -0.0010017793116187273
-0.0012554549321844891   -0.03909270221354492   -0.0008268959334663059
0.00046190941180942026   -0.043617017189799136   -0.0009716015220058813
-0.00180564723831891   -0.04374220201338709   -0.0010452266525464474
-0.0012554549321844891   -0.03909270221354492   -0.0008268959334663059
-0.0018470233765747748   -0.04379630028611964   -0.0010017793116187273
0.00046190941180942026   -0.043617017189799136   -0.0009716015220058813
-0.0012554549321844891   -0.03909270221354492   -0.0008268959334663059
0.0016552422784152964   -0.03900423173099851   -0.0007344187307196743
0.001602664535997143   -0.03906794887392843   -0.0006586867588335877
0.00046190941180942026   -0.043617017189799136   -0.0009716015220058813
-0.0012554549321844891   -0.03909270221354492   -0.0008268959334663059
0.001602664535997143   -0.03906794887392843   -0.0006586867588335877
-0.0018470233765747748   -0.04379630028611964   -0.0010017793116187273
0.00046190941180942026   -0.043617017189799136   -0.0009716015220058813
0.0016552422784152964   -0.03900423173099851   -0.0007344187307196743
-0.00180564723831891   -0.04374220201338709   -0.0010452266525464474
0.000570335392727879   -0.04358930624355799   -0.0010676643775309597
0.0016552422784152964   -0.03900423173099851   -0.0007344187307196743
-0.0012554549321844891   -0.03909270221354492   -0.0008268959334663059
-0.00180564723831891   -0.04374220201338709   -0.0010452266525464474
-0.001259877061057842   -0.03905413503311221   -0.00085105480030738
0.000570335392727879   -0.04358930624355799   -0.0010676643775309597
-0.0017809014062680414   -0.043715753620582776   -0.001083564546297603
-0.001259877061057842   -0.03905413503311221   -0.00085105480030738
-0.00180564723831891   -0.04374220201338709   -0.0010452266525464474
0.000570335392727879   -0.04358930624355799   -0.0010676643775309597
-0.001259877061057842   -0.03905413503311221   -0.00085105480030738
0.0017094109711531767   -0.03896205127506004   -0.0008029646970546387
0.0016552422784152964   -0.03900423173099851   -0.0007344187307196743
0.000570335392727879   -0.04358930624355799   -0.0010676643775309597
-0.001259877061057842   -0.03905413503311221   -0.00085105480030738
0.0016552422784152964   -0.03900423173099851   -0.0007344187307196743
-0.00180564723831891   -0.04374220201338709   -0.0010452266525464474
-0.0018832955461533533   -0.04387966136363108   -0.0009526622375506509
-0.001272945411383333   -0.039235398539043474   -0.0007637533308972798
-0.003922731941945244   -0.04389979787509865   -0.001114827120852294
-0.0018470233765747748   -0.04379630028611964   -0.0010017793116187273
-0.001272945411383333   -0.039235398539043474   -0.0007637533308972798
-0.003962293839999446   -0.03923589990453698   -0.0009186538892528463
-0.003922731941945244   -0.04389979787509865   -0.001114827120852294
-0.003962569165258026   -0.039165831165857846   -0.0009154214226073423
-0.0018470233765747748   -0.04379630028611964   -0.0010017793116187273
-0.003896120845901611   -0.043828288499613816   -0.0011160303548641266
-0.003962569165258026   -0.039165831165857846   -0.0009154214226073423
-0.003922731941945244   -0.04389979787509865   -0.001114827120852294
-0.0018470233765747748   -0.04379630028611964   -0.0010017793116187273
-0.003962569165258026   -0.039165831165857846   -0.0009154214226073423
-0.0012652571413537593   -0.0391524795225687   -0.0007979215685899989
-0.001272945411383333   -0.039235398539043474   -0.0007637533308972798
-0.0018470233765747748   -0.04379630028611964   -0.0010017793116187273
-0.003962569165258026   -0.039165831165857846   -0.0009154214226073423
-0.001272945411383333   -0.039235398539043474   -0.0007637533308972798
-0.003922731941945244   -0.04389979787509865   -0.001114827120852294
-0.0018470233765747748   -0.04379630028611964   -0.0010017793116187273
-0.0012652571413537593   -0.0391524795225687   -0.0007979215685899989
-0.003896120845901611   -0.043828288499613816   -0.0011160303548641266
-0.00180564723831891   -0.04374220201338709   -0.0010452266525464474
-0.0012652571413537593   -0.0391524795225687   -0.0007979215685899989
-0.003962569165258026   -0.039165831165857846   -0.0009154214226073423
-0.003896120845901611   -0.043828288499613816   -0.0011160303548641266
-0.003962659585024559   -0.03911615857542137   -0.0009070122225015922
-0.00180564723831891   -0.04374220201338709   -0.0010452266525464474
-0.0038687472586603285   -0.0437829656202957   -0.0011117986003380733
-0.003962659585024559   -0.03911615857542137   -0.0009070122225015922
-0.003896120845901611   -0.043828288499613816   -0.0011160303548641266
-0.00180564723831891   -0.04374220201338709   -0.0010452266525464474
-0.003962659585024559   -0.03911615857542137   -0.0009070122225015922
-0.0012554549321844891   -0.03909270221354492   -0.0008268959334663059
-0.0012652571413537593   -0.0391524795225687   -0.0007979215685899989
-0.00180564723831891   -0.04374220201338709   -0.0010452266525464474
-0.003962659585024559   -0.03911615857542137   -0.0009070122225015922
-0.0012652571413537593   -0.0391524795225687   -0.0007979215685899989
-0.003896120845901611   -0.043828288499613816   -0.0011160303548641266
-0.00180564723831891   -0.04374220201338709   -0.0010452266525464474
-0.0012554549321844891   -0.03909270221354492   -0.0008268959334663059
-0.0038687472586603285   -0.0437829656202957   -0.0011117986003380733
-0.0017809014062680414   -0.043715753620582776   -0.001083564546297603
-0.0012554549321844891   -0.03909270221354492   -0.0008268959334663059
-0.003962659585024559   -0.03911615857542137   -0.0009070122225015922
-0.0038687472586603285   -0.0437829656202957   -0.0011117986003380733
-0.003966337444488262   -0.03908691947881724   -0.0008936988667234274
-0.0017809014062680414   -0.043715753620582776   -0.001083564546297603
-0.003844808718552289   -0.04376340529666462   -0.0011024981429049465
-0.003966337444488262   -0.03908691947881724   -0.0008936988667234274
-0.0038687472586603285   -0.0437829656202957   -0.0011117986003380733
-0.0017809014062680414   -0.043715753620582776   -0.001083564546297603
-0.003966337444488262   -0.03908691947881724   -0.0008936988667234274
-0.001259877061057842   -0.03905413503311221   -0.00085105480030738
-0.0012554549321844891   -0.03909270221354492   -0.0008268959334663059
-0.0017809014062680414   -0.043715753620582776   -0.001083564546297603
-0.003966337444488262   -0.03908691947881724   -0.0008936988667234274
-0.0012554549321844891   -0.03909270221354492   -0.0008268959334663059
-0.0038687472586603285   -0.0437829656202957   -0.0011117986003380733
-0.003922731941945244   -0.04389979787509865   -0.001114827120852294
-0.003962293839999446   -0.03923589990453698   -0.0009186538892528463
-0.005930404840350663   -0.04383471266904771   -0.001261186933058206
-0.003896120845901611   -0.043828288499613816   -0.0011160303548641266
-0.003962293839999446   -0.03923589990453698   -0.0009186538892528463
-0.006606237874917766   -0.03916885279972558   -0.0010542591486398794
-0.005930404840350663   -0.04383471266904771   -0.001261186933058206
-0.00660851314710732   -0.03911004798376504   -0.0010140807624473226
-0.003896120845901611   -0.043828288499613816   -0.0011160303548641266
-0.00590563524532281   -0.04377303233210151   -0.0012156280701177157
-0.00660851314710732   -0.03911004798376504   -0.0010140807624473226
-0.005930404840350663   -0.04383471266904771   -0.001261186933058206
-0.003896120845901611   -0.043828288499613816   -0.0011160303548641266
-0.00660851314710732   -0.03911004798376504   -0.0010140807624473226
-0.003962569165258026   -0.039165831165857846   -0.0009154214226073423
-0.003962293839999446   -0.03923589990453698   -0.0009186538892528463
-0.003896120845901611   -0.043828288499613816   -0.0011160303548641266
-0.00660851314710732   -0.03911004798376504   -0.0010140807624473226
-0.003962293839999446   -0.03923589990453698   -0.0009186538892528463
-0.005930404840350663   -0.04383471266904771   -0.001261186933058206
-0.003896120845901611   -0.043828288499613816   -0.0011160303548641266
-0.003962569165258026   -0.039165831165857846   -0.0009154214226073423
-0.00590563524532281   -0.04377303233210151   -0.0012156280701177157
-0.0038687472586603285   -0.0437829656202957   -0.0011117986003380733
-0.003962569165258026   -0.039165831165857846   -0.0009154214226073423
-0.00660851314710732   -0.03911004798376504   -0.0010140807624473226
-0.00590563524532281   -0.04377303233210151   -0.0012156280701177157
-0.006606289787666328   -0.03907145926418566   -0.0009688282386699534
-0.0038687472586603285   -0.0437829656202957   -0.0011117986003380733
-0.005875699113002864   -0.04373725194587162   -0.001164754586619167
-0.006606289787666328   -0.03907145926418566   -0.0009688282386699534
-0.00590563524532281   -0.04377303233210151   -0.0012156280701177157
-0.0038687472586603285   -0.0437829656202957   -0.0011117986003380733
-0.006606289787666328   -0.03907145926418566   -0.0009688282386699534
-0.003962659585024559   -0.03911615857542137   -0.0009070122225015922
-0.003962569165258026   -0.039165831165857846   -0.0009154214226073423
-0.0038687472586603285   -0.0437829656202957   -0.0011117986003380733
-0.006606289787666328   -0.03907145926418566   -0.0009688282386699534
-0.003962569165258026   -0.039165831165857846   -0.0009154214226073423
-0.00590563524532281   -0.04377303233210151   -0.0012156280701177157
-0.0038687472586603285   -0.0437829656202957   -0.0011117986003380733
-0.003962659585024559   -0.03911615857542137   -0.0009070122225015922
-0.005875699113002864   -0.04373725194587162   -0.001164754586619167
-0.003844808718552289   -0.04376340529666462   -0.0011024981429049465
-0.003962659585024559   -0.03911615857542137   -0.0009070122225015922
-0.006606289787666328   -0.03907145926418566   -0.0009688282386699534
-0.005875699113002864   -0.04373725194587162   -0.001164754586619167
-0.006604887070670471   -0.03905273571951149   -0.0009186484978969863
-0.003844808718552289   -0.04376340529666462   -0.0011024981429049465
-0.005846601469342985   -0.04372618350265662   -0.0011087295487238048
-0.006604887070670471   -0.03905273571951149   -0.0009186484978969863
-0.005875699113002864   -0.04373725194587162   -0.001164754586619167
-0.003844808718552289   -0.04376340529666462   -0.0011024981429049465
-0.006604887070670471   -0.03905273571951149   -0.0009186484978969863
-0.003966337444488262   -0.03908691947881724   -0.0008936988667234274
-0.003962659585024559   -0.03911615857542137   -0.0009070122225015922
-0.003844808718552289   -0.04376340529666462   -0.0011024981429049465
-0.006604887070670471   -0.03905273571951149   -0.0009186484978969863
-0.003962659585024559   -0.03911615857542137   -0.0009070122225015922
-0.005875699113002864   -0.04373725194587162   -0.001164754586619167
-0.005930404840350663   -0.04383471266904771   -0.001261186933058206
-0.006606237874917766   -0.03916885279972558   -0.0010542591486398794
-0.008033974262257623   -0.04368667146999712   -0.0013912327616494085
-0.00590563524532281   -0.04377303233210151   -0.0012156280701177157
-0.006606237874917766   -0.03916885279972558   -0.0010542591486398794
-0.009332412852381773   -0.039036762760528684   -0.001170863186469475
-0.008033974262257623   -0.04368667146999712   -0.0013912327616494085
-0.009329085062996777   -0.038988721800205864   -0.0010932953477215195
-0.00590563524532281   -0.04377303233210151   -0.0012156280701177157
-0.008001534033444049   -0.043634347823841894   -0.0012988393680631392
-0.009329085062996777   -0.038988721800205864   -0.0010932953477215195
-0.008033974262257623   -0.04368667146999712   -0.0013912327616494085
-0.00590563524532281   -0.04377303233210151   -0.0012156280701177157
-0.009329085062996777   -0.038988721800205864   -0.0010932953477215195
-0.00660851314710732   -0.03911004798376504   -0.0010140807624473226
-0.006606237874917766   -0.03916885279972558   -0.0010542591486398794
-0.00590563524532281   -0.04377303233210151   -0.0012156280701177157
-0.009329085062996777   -0.038988721800205864   -0.0010932953477215195
-0.006606237874917766   -0.03916885279972558   -0.0010542591486398794
-0.008033974262257623   -0.04368667146999712   -0.0013912327616494085
-0.00590563524532281   -0.04377303233210151   -0.0012156280701177157
-0.00660851314710732   -0.03911004798376504   -0.0010140807624473226
-0.008001534033444049   -0.043634347823841894   -0.0012988393680631392
-0.005875699113002864   -0.04373725194587162   -0.001164754586619167
-0.00660851314710732   -0.03911004798376504   -0.0010140807624473226
-0.009329085062996777   -0.038988721800205864   -0.0010932953477215195
-0.008001534033444049   -0.043634347823841894   -0.0012988393680631392
-0.009306072610274687   -0.038960184279282876   -0.0010114196615309027
-0.005875699113002864   -0.04373725194587162   -0.001164754586619167
-0.007946491742681366   -0.04360721845591469   -0.0012019519738396788
-0.009306072610274687   -0.038960184279282876   -0.0010114196615309027
-0.008001534033444049   -0.043634347823841894   -0.0012988393680631392
-0.005875699113002864   -0.04373725194587162   -0.001164754586619167
-0.009306072610274687   -0.038960184279282876   -0.0010114196615309027
-0.006606289787666328   -0.03907145926418566   -0.0009688282386699534
-0.00660851314710732   -0.03911004798376504   -0.0010140807624473226
-0.005875699113002864   -0.04373725194587162   -0.001164754586619167
-0.009306072610274687   -0.038960184279282876   -0.0010114196615309027
-0.00660851314710732   -0.03911004798376504   -0.0010140807624473226
-0.008001534033444049   -0.043634347823841894   -0.0012988393680631392
-0.005875699113002864   -0.04373725194587162   -0.001164754586619167
-0.006606289787666328   -0.03907145926418566   -0.0009688282386699534
-0.007946491742681366   -0.04360721845591469   -0.0012019519738396788
-0.005846601469342985   -0.04372618350265662   -0.0011087295487238048
-0.006606289787666328   -0.03907145926418566   -0.0009688282386699534
-0.009306072610274687   -0.038960184279282876   -0.0010114196615309027
-0.007946491742681366   -0.04360721845591469   -0.0012019519738396788
-0.009290727457413397   -0.038953185602799936   -0.0009242185619766297
-0.005846601469342985   -0.04372618350265662   -0.0011087295487238048
-0.007901881743217796   -0.04360673778670479   -0.0010991610581535518
-0.009290727457413397   -0.038953185602799936   -0.0009242185619766297
-0.007946491742681366   -0.04360721845591469   -0.0012019519738396788
-0.005846601469342985   -0.04372618350265662   -0.0011087295487238048
-0.009290727457413397   -0.038953185602799936   -0.0009242185619766297
-0.006604887070670471   -0.03905273571951149   -0.0009186484978969863
-0.006606289787666328   -0.03907145926418566   -0.0009688282386699534
-0.005846601469342985   -0.04372618350265662   -0.0011087295487238048
-0.009290727457413397   -0.038953185602799936   -0.0009242185619766297
-0.006606289787666328   -0.03907145926418566   -0.0009688282386699534
-0.007946491742681366   -0.04360721845591469   -0.0012019519738396788
-0.008033974262257623   -0.04368667146999712   -0.0013912327616494085
-0.009332412852381773   -0.039036762760528684   -0.001170863186469475
-0.010487021554757154   -0.043473242457811645   -0.0015127250947484113
-0.008001534033444049   -0.043634347823841894   -0.0012988393680631392
-0.009332412852381773   -0.039036762760528684   -0.001170863186469475
-0.012377576288438321   -0.03885443467383903   -0.0012761412774008058
-0.010487021554757154   -0.043473242457811645   -0.0015127250947484113
-0.012262956357010867   -0.03880722124687527   -0.0011573992659470425
-0.008001534033444049   -0.043634347823841894   -0.0012988393680631392
-0.010320037882949096   -0.043418563525517304   -0.0013680502108226807
-0.012262956357010867   -0.03880722124687527   -0.0011573992659470425
-0.010487021554757154   -0.043473242457811645   -0.0015127250947484113
-0.008001534033444049   -0.043634347823841894   -0.0012988393680631392
-0.012262956357010867   -0.03880722124687527   -0.0011573992659470425
-0.009329085062996777   -0.038988721800205864   -0.0010932953477215195
-0.009332412852381773   -0.039036762760528684   -0.001170863186469475
-0.008001534033444049   -0.043634347823841894   -0.0012988393680631392
-0.012262956357010867   -0.03880722124687527   -0.0011573992659470425
-0.009332412852381773   -0.039036762760528684   -0.001170863186469475
-0.010487021554757154   -0.043473242457811645   -0.0015127250947484113
-0.008001534033444049   -0.043634347823841894   -0.0012988393680631392
-0.009329085062996777   -0.038988721800205864   -0.0010932953477215195
-0.010320037882949096   -0.043418563525517304   -0.0013680502108226807
-0.007946491742681366   -0.04360721845591469   -0.0012019519738396788
-0.009329085062996777   -0.038988721800205864   -0.0010932953477215195
-0.012262956357010867   -0.03880722124687527   -0.0011573992659470425
-0.010320037882949096   -0.043418563525517304   -0.0013680502108226807
-0.012165028734733813   -0.03878235439050891   -0.0010314074364735958
-0.007946491742681366   -0.04360721845591469   -0.0012019519738396788
-0.01017526658811713   -0.043393783464101346   -0.0012159540768927393
-0.012165028734733813   -0.03878235439050891   -0.0010314074364735958
-0.010320037882949096   -0.043418563525517304   -0.0013680502108226807
-0.007946491742681366   -0.04360721845591469   -0.0012019519738396788
-0.012165028734733813   -0.03878235439050891   -0.0010314074364735958
-0.009306072610274687   -0.038960184279282876   -0.0010114196615309027
-0.009329085062996777   -0.038988721800205864   -0.0010932953477215195
-0.007946491742681366   -0.04360721845591469   -0.0012019519738396788
-0.012165028734733813   -0.03878235439050891   -0.0010314074364735958
-0.009329085062996777   -0.038988721800205864   -0.0010932953477215195
-0.010320037882949096   -0.043418563525517304   -0.0013680502108226807
-0.007946491742681366   -0.04360721845591469   -0.0012019519738396788
-0.009306072610274687   -0.038960184279282876   -0.0010114196615309027
-0.01017526658811713   -0.043393783464101346   -0.0012159540768927393
-0.007901881743217796   -0.04360673778670479   -0.0010991610581535518
-0.009306072610274687   -0.038960184279282876   -0.0010114196615309027
-0.012165028734733813   -0.03878235439050891   -0.0010314074364735958
-0.01017526658811713   -0.043393783464101346   -0.0012159540768927393
-0.01202383726397183   -0.038791614866285525   -0.0008991638616377583
-0.007901881743217796   -0.04360673778670479   -0.0010991610581535518
-0.009980288029542983   -0.04340969512943298   -0.001057403696269613
-0.01202383726397183   -0.038791614866285525   -0.0008991638616377583
-0.01017526658811713   -0.043393783464101346   -0.0012159540768927393
-0.007901881743217796   -0.04360673778670479   -0.0010991610581535518
-0.01202383726397183   -0.038791614866285525   -0.0008991638616377583
-0.009290727457413397   -0.038953185602799936   -0.0009242185619766297
-0.009306072610274687   -0.038960184279282876   -0.0010114196615309027
-0.007901881743217796   -0.04360673778670479   -0.0010991610581535518
-0.01202383726397183   -0.038791614866285525   -0.0008991638616377583
-0.009306072610274687   -0.038960184279282876   -0.0010114196615309027
-0.01017526658811713   -0.043393783464101346   -0.0012159540768927393
0.0015206170960257676   -0.0391656710487175   -0.0005756121411397872
0.002417847258087495   -0.03361374328893963   -0.00038360280164578505
-0.001272945411383333   -0.039235398539043474   -0.0007637533308972798
0.001602664535997143   -0.03906794887392843   -0.0006586867588335877
0.002417847258087495   -0.03361374328893963   -0.00038360280164578505
-0.0009004293559211091   -0.03364832117636155   -0.0005605859046968473
-0.001272945411383333   -0.039235398539043474   -0.0007637533308972798
-0.0009157749078382509   -0.0335674414274493   -0.0005791336715258351
0.001602664535997143   -0.03906794887392843   -0.0006586867588335877
-0.0012652571413537593   -0.0391524795225687   -0.0007979215685899989
-0.0009157749078382509   -0.0335674414274493   -0.0005791336715258351
-0.001272945411383333   -0.039235398539043474   -0.0007637533308972798
0.001602664535997143   -0.03906794887392843   -0.0006586867588335877
-0.0009157749078382509   -0.0335674414274493   -0.0005791336715258351
0.0024508079715986997   -0.0335195903879941   -0.0004382855135987426
0.002417847258087495   -0.03361374328893963   -0.00038360280164578505
0.001602664535997143   -0.03906794887392843   -0.0006586867588335877
-0.0009157749078382509   -0.0335674414274493   -0.0005791336715258351
0.002417847258087495   -0.03361374328893963   -0.00038360280164578505
-0.001272945411383333   -0.039235398539043474   -0.0007637533308972798
0.001602664535997143   -0.03906794887392843   -0.0006586867588335877
0.0024508079715986997   -0.0335195903879941   -0.0004382855135987426
-0.0012652571413537593   -0.0391524795225687   -0.0007979215685899989
0.0016552422784152964   -0.03900423173099851   -0.0007344187307196743
0.0024508079715986997   -0.0335195903879941   -0.0004382855135987426
-0.0009157749078382509   -0.0335674414274493   -0.0005791336715258351
-0.0012652571413537593   -0.0391524795225687   -0.0007979215685899989
-0.0009318705375620758   -0.03350376251124282   -0.0005930318777327468
0.0016552422784152964   -0.03900423173099851   -0.0007344187307196743
-0.0012554549321844891   -0.03909270221354492   -0.0008268959334663059
-0.0009318705375620758   -0.03350376251124282   -0.0005930318777327468
-0.0012652571413537593   -0.0391524795225687   -0.0007979215685899989
0.0016552422784152964   -0.03900423173099851   -0.0007344187307196743
-0.0009318705375620758   -0.03350376251124282   -0.0005930318777327468
0.0024612199101764092   -0.03345135926727891   -0.00048610555941663386
0.0024508079715986997   -0.0335195903879941   -0.0004382855135987426
0.0016552422784152964   -0.03900423173099851   -0.0007344187307196743
-0.0009318705375620758   -0.03350376251124282   -0.0005930318777327468
0.0024508079715986997   -0.0335195903879941   -0.0004382855135987426
-0.0012652571413537593   -0.0391524795225687   -0.0007979215685899989
0.0016552422784152964   -0.03900423173099851   -0.0007344187307196743
0.0024612199101764092   -0.03345135926727891   -0.00048610555941663386
-0.0012554549321844891   -0.03909270221354492   -0.0008268959334663059
0.0017094109711531767   -0.03896205127506004   -0.0008029646970546387
0.0024612199101764092   -0.03345135926727891   -0.00048610555941663386
-0.0009318705375620758   -0.03350376251124282   -0.0005930318777327468
-0.0012554549321844891   -0.03909270221354492   -0.0008268959334663059
-0.0009595190287075508   -0.03345526211748623   -0.0006024370189376371
0.0017094109711531767   -0.03896205127506004   -0.0008029646970546387
-0.001259877061057842   -0.03905413503311221   -0.00085105480030738
-0.0009595190287075508   -0.03345526211748623   -0.0006024370189376371
-0.0012554549321844891   -0.03909270221354492   -0.0008268959334663059
0.0017094109711531767   -0.03896205127506004   -0.0008029646970546387
-0.0009595190287075508   -0.03345526211748623   -0.0006024370189376371
0.0024675157349275134   -0.033396896053691526   -0.0005273893293982642
0.0024612199101764092   -0.03345135926727891   -0.00048610555941663386
0.0017094109711531767   -0.03896205127506004   -0.0008029646970546387
-0.0009595190287075508   -0.03345526211748623   -0.0006024370189376371
0.0024612199101764092   -0.03345135926727891   -0.00048610555941663386
-0.0012554549321844891   -0.03909270221354492   -0.0008268959334663059
-0.001272945411383333   -0.039235398539043474   -0.0007637533308972798
-0.0009004293559211091   -0.03364832117636155   -0.0005605859046968473
-0.003962293839999446   -0.03923589990453698   -0.0009186538892528463
-0.0012652571413537593   -0.0391524795225687   -0.0007979215685899989
-0.0009004293559211091   -0.03364832117636155   -0.0005605859046968473
-0.004081907979600027   -0.03363093095967844   -0.0007060103352128991
-0.003962293839999446   -0.03923589990453698   -0.0009186538892528463
-0.004103360190515865   -0.03356345820809024   -0.0006974433855400416
-0.0012652571413537593   -0.0391524795225687   -0.0007979215685899989
-0.003962569165258026   -0.039165831165857846   -0.0009154214226073423
-0.004103360190515865   -0.03356345820809024   -0.0006974433855400416
-0.003962293839999446   -0.03923589990453698   -0.0009186538892528463
-0.0012652571413537593   -0.0391524795225687   -0.0007979215685899989
-0.004103360190515865   -0.03356345820809024   -0.0006974433855400416
-0.0009157749078382509   -0.0335674414274493   -0.0005791336715258351
-0.0009004293559211091   -0.03364832117636155   -0.0005605859046968473
-0.0012652571413537593   -0.0391524795225687   -0.0007979215685899989
-0.004103360190515865   -0.03356345820809024   -0.0006974433855400416
-0.0009004293559211091   -0.03364832117636155   -0.0005605859046968473
-0.003962293839999446   -0.03923589990453698   -0.0009186538892528463
-0.0012652571413537593   -0.0391524795225687   -0.0007979215685899989
-0.0009157749078382509   -0.0335674414274493   -0.0005791336715258351
-0.003962569165258026   -0.039165831165857846   -0.0009154214226073423
-0.0012554549321844891   -0.03909270221354492   -0.0008268959334663059
-0.0009157749078382509   -0.0335674414274493   -0.0005791336715258351
-0.004103360190515865   -0.03356345820809024   -0.0006974433855400416
-0.003962569165258026   -0.039165831165857846   -0.0009154214226073423
-0.0041251085914064045   -0.033510726957488024   -0.0006840868683892497
-0.0012554549321844891   -0.03909270221354492   -0.0008268959334663059
-0.003962659585024559   -0.03911615857542137   -0.0009070122225015922
-0.0041251085914064045   -0.033510726957488024   -0.0006840868683892497
-0.003962569165258026   -0.039165831165857846   -0.0009154214226073423
-0.0012554549321844891   -0.03909270221354492   -0.0008268959334663059
-0.0041251085914064045   -0.033510726957488024   -0.0006840868683892497
-0.0009318705375620758   -0.03350376251124282   -0.0005930318777327468
-0.0009157749078382509   -0.0335674414274493   -0.0005791336715258351
-0.0012554549321844891   -0.03909270221354492   -0.0008268959334663059
-0.0041251085914064045   -0.033510726957488024   -0.0006840868683892497
-0.0009157749078382509   -0.0335674414274493   -0.0005791336715258351
-0.003962569165258026   -0.039165831165857846   -0.0009154214226073423
-0.0012554549321844891   -0.03909270221354492   -0.0008268959334663059
-0.0009318705375620758   -0.03350376251124282   -0.0005930318777327468
-0.003962659585024559   -0.03911615857542137   -0.0009070122225015922
-0.001259877061057842   -0.03905413503311221   -0.00085105480030738
-0.0009318705375620758   -0.03350376251124282   -0.0005930318777327468
-0.0041251085914064045   -0.033510726957488024   -0.0006840868683892497
-0.003962659585024559   -0.03911615857542137   -0.0009070122225015922
-0.0041502671503998246   -0.033472986010855556   -0.0006661754316627723
-0.001259877061057842   -0.03905413503311221   -0.00085105480030738
-0.003966337444488262   -0.03908691947881724   -0.0008936988667234274
-0.0041502671503998246   -0.033472986010855556   -0.0006661754316627723
-0.003962659585024559   -0.03911615857542137   -0.0009070122225015922
-0.001259877061057842   -0.03905413503311221   -0.00085105480030738
-0.0041502671503998246   -0.033472986010855556   -0.0006661754316627723
-0.0009595190287075508   -0.03345526211748623   -0.0006024370189376371
-0.0009318705375620758   -0.03350376251124282   -0.0005930318777327468
-0.001259877061057842   -0.03905413503311221   -0.00085105480030738
-0.0041502671503998246   -0.033472986010855556   -0.0006661754316627723
-0.0009318705375620758   -0.03350376251124282   -0.0005930318777327468
-0.003962659585024559   -0.03911615857542137   -0.0009070122225015922
-0.003962293839999446   -0.03923589990453698   -0.0009186538892528463
-0.004081907979600027   -0.03363093095967844   -0.0007060103352128991
-0.006606237874917766   -0.03916885279972558   -0.0010542591486398794
-0.003962569165258026   -0.039165831165857846   -0.0009154214226073423
-0.004081907979600027   -0.03363093095967844   -0.0007060103352128991
-0.007209779215718283   -0.03356487298858164   -0.0008302973333360739
-0.006606237874917766   -0.03916885279972558   -0.0010542591486398794
-0.007232960617430561   -0.033509557671576456   -0.0007947542628677902
-0.003962569165258026   -0.039165831165857846   -0.0009154214226073423
-0.00660851314710732   -0.03911004798376504   -0.0010140807624473226
-0.007232960617430561   -0.033509557671576456   -0.0007947542628677902
-0.006606237874917766   -0.03916885279972558   -0.0010542591486398794
-0.003962569165258026   -0.039165831165857846   -0.0009154214226073423
-0.007232960617430561   -0.033509557671576456   -0.0007947542628677902
-0.004103360190515865   -0.03356345820809024   -0.0006974433855400416
-0.004081907979600027   -0.03363093095967844   -0.0007060103352128991
-0.003962569165258026   -0.039165831165857846   -0.0009154214226073423
-0.007232960617430561   -0.033509557671576456   -0.0007947542628677902
-0.004081907979600027   -0.03363093095967844   -0.0007060103352128991
-0.006606237874917766   -0.03916885279972558   -0.0010542591486398794
-0.003962569165258026   -0.039165831165857846   -0.0009154214226073423
-0.004103360190515865   -0.03356345820809024   -0.0006974433855400416
-0.00660851314710732   -0.03911004798376504   -0.0010140807624473226
-0.003962659585024559   -0.03911615857542137   -0.0009070122225015922
-0.004103360190515865   -0.03356345820809024   -0.0006974433855400416
-0.007232960617430561   -0.033509557671576456   -0.0007947542628677902
-0.00660851314710732   -0.03911004798376504   -0.0010140807624473226
-0.007252140828918643   -0.033468843593709156   -0.000754508109795494
-0.003962659585024559   -0.03911615857542137   -0.0009070122225015922
-0.006606289787666328   -0.03907145926418566   -0.0009688282386699534
-0.007252140828918643   -0.033468843593709156   -0.000754508109795494
-0.00660851314710732   -0.03911004798376504   -0.0010140807624473226
-0.003962659585024559   -0.03911615857542137   -0.0009070122225015922
-0.007252140828918643   -0.033468843593709156   -0.000754508109795494
-0.0041251085914064045   -0.033510726957488024   -0.0006840868683892497
-0.004103360190515865   -0.03356345820809024   -0.0006974433855400416
-0.003962659585024559   -0.03911615857542137   -0.0009070122225015922
-0.007252140828918643   -0.033468843593709156   -0.000754508109795494
-0.004103360190515865   -0.03356345820809024   -0.0006974433855400416
-0.00660851314710732   -0.03911004798376504   -0.0010140807624473226
-0.003962659585024559   -0.03911615857542137   -0.0009070122225015922
-0.0041251085914064045   -0.033510726957488024   -0.0006840868683892497
-0.006606289787666328   -0.03907145926418566   -0.0009688282386699534
-0.003966337444488262   -0.03908691947881724   -0.0008936988667234274
-0.0041251085914064045   -0.033510726957488024   -0.0006840868683892497
-0.007252140828918643   -0.033468843593709156   -0.000754508109795494
-0.006606289787666328   -0.03907145926418566   -0.0009688282386699534
-0.007271887157736096   -0.03344266829762094   -0.000709696157394938
-0.003966337444488262   -0.03908691947881724   -0.0008936988667234274
-0.006604887070670471   -0.03905273571951149   -0.0009186484978969863
-0.007271887157736096   -0.03344266829762094   -0.000709696157394938
-0.006606289787666328   -0.03907145926418566   -0.0009688282386699534
-0.003966337444488262   -0.03908691947881724   -0.0008936988667234274
-0.007271887157736096   -0.03344266829762094   -0.000709696157394938
-0.0041502671503998246   -0.033472986010855556   -0.0006661754316627723
-0.0041251085914064045   -0.033510726957488024   -0.0006840868683892497
-0.003966337444488262   -0.03908691947881724   -0.0008936988667234274
-0.007271887157736096   -0.03344266829762094   -0.000709696157394938
-0.0041251085914064045   -0.033510726957488024   -0.0006840868683892497
-0.006606289787666328   -0.03907145926418566   -0.0009688282386699534
-0.006606237874917766   -0.03916885279972558   -0.0010542591486398794
-0.007209779215718283   -0.03356487298858164   -0.0008302973333360739
-0.009332412852381773   -0.039036762760528684   -0.001170863186469475
-0.00660851314710732   -0.03911004798376504   -0.0010140807624473226
-0.007209779215718283   -0.03356487298858164   -0.0008302973333360739
-0.010412026595453948   -0.03345144972723981   -0.0009339519338428772
-0.009332412852381773   -0.039036762760528684   -0.001170863186469475
-0.010431140083697273   -0.03340799335025575   -0.0008710619269488047
-0.00660851314710732   -0.03911004798376504   -0.0010140807624473226
-0.009329085062996777   -0.038988721800205864   -0.0010932953477215195
-0.010431140083697273   -0.03340799335025575   -0.0008710619269488047
-0.009332412852381773   -0.039036762760528684   -0.001170863186469475
-0.00660851314710732   -0.03911004798376504   -0.0010140807624473226
-0.010431140083697273   -0.03340799335025575   -0.0008710619269488047
-0.007232960617430561   -0.033509557671576456   -0.0007947542628677902
-0.007209779215718283   -0.03356487298858164   -0.0008302973333360739
-0.00660851314710732   -0.03911004798376504   -0.0010140807624473226
-0.010431140083697273   -0.03340799335025575   -0.0008710619269488047
-0.007209779215718283   -0.03356487298858164   -0.0008302973333360739
-0.009332412852381773   -0.039036762760528684   -0.001170863186469475
-0.00660851314710732   -0.03911004798376504   -0.0010140807624473226
-0.007232960617430561   -0.033509557671576456   -0.0007947542628677902
-0.009329085062996777   -0.038988721800205864   -0.0010932953477215195
-0.006606289787666328   -0.03907145926418566   -0.0009688282386699534
-0.007232960617430561   -0.033509557671576456   -0.0007947542628677902
-0.010431140083697273   -0.03340799335025575   -0.0008710619269488047
-0.009329085062996777   -0.038988721800205864   -0.0010932953477215195
-0.010433369223554768   -0.03337827084050742   -0.0008041190189450066
-0.006606289787666328   -0.03907145926418566   -0.0009688282386699534
-0.009306072610274687   -0.038960184279282876   -0.0010114196615309027
-0.010433369223554768   -0.03337827084050742   -0.0008041190189450066
-0.009329085062996777   -0.038988721800205864   -0.0010932953477215195
-0.006606289787666328   -0.03907145926418566   -0.0009688282386699534
-0.010433369223554768   -0.03337827084050742   -0.0008041190189450066
-0.007252140828918643   -0.033468843593709156   -0.000754508109795494
-0.007232960617430561   -0.033509557671576456   -0.0007947542628677902
-0.006606289787666328   -0.03907145926418566   -0.0009688282386699534
-0.010433369223554768   -0.03337827084050742   -0.0008041190189450066
-0.007232960617430561   -0.033509557671576456   -0.0007947542628677902
-0.009329085062996777   -0.038988721800205864   -0.0010932953477215195
-0.006606289787666328   -0.03907145926418566   -0.0009688282386699534
-0.007252140828918643   -0.033468843593709156   -0.000754508109795494
-0.009306072610274687   -0.038960184279282876   -0.0010114196615309027
-0.006604887070670471   -0.03905273571951149   -0.0009186484978969863
-0.007252140828918643   -0.033468843593709156   -0.000754508109795494
-0.010433369223554768   -0.03337827084050742   -0.0008041190189450066
-0.009306072610274687   -0.038960184279282876   -0.0010114196615309027
-0.010440443101072857   -0.03336440096437256   -0.0007322629557464498
-0.006604887070670471   -0.03905273571951149   -0.0009186484978969863
-0.009290727457413397   -0.038953185602799936   -0.0009242185619766297
-0.010440443101072857   -0.03336440096437256   -0.0007322629557464498
-0.009306072610274687   -0.038960184279282876   -0.0010114196615309027
-0.006604887070670471   -0.03905273571951149   -0.0009186484978969863
-0.010440443101072857   -0.03336440096437256   -0.0007322629557464498
-0.007271887157736096   -0.03344266829762094   -0.000709696157394938
-0.007252140828918643   -0.033468843593709156   -0.000754508109795494
-0.006604887070670471   -0.03905273571951149   -0.0009186484978969863
-0.010440443101072857   -0.03336440096437256   -0.0007322629557464498
-0.007252140828918643   -0.033468843593709156   -0.000754508109795494
-0.009306072610274687   -0.038960184279282876   -0.0010114196615309027
-0.009332412852381773   -0.039036762760528684   -0.001170863186469475
-0.010412026595453948   -0.03345144972723981   -0.0009339519338428772
-0.012377576288438321   -0.03885443467383903   -0.0012761412774008058
-0.009329085062996777   -0.038988721800205864   -0.0010932953477215195
-0.010412026595453948   -0.03345144972723981   -0.0009339519338428772
-0.01390439569690858   -0.03330240254674313   -0.0010225124768560073
-0.012377576288438321   -0.03885443467383903   -0.0012761412774008058
-0.013836756129529042   -0.03326270374370159   -0.0009306230732803928
-0.009329085062996777   -0.038988721800205864   -0.0010932953477215195
-0.012262956357010867   -0.03880722124687527   -0.0011573992659470425
-0.013836756129529042   -0.03326270374370159   -0.0009306230732803928
-0.012377576288438321   -0.03885443467383903   -0.0012761412774008058
-0.009329085062996777   -0.038988721800205864   -0.0010932953477215195
-0.013836756129529042   -0.03326270374370159   -0.0009306230732803928
-0.010431140083697273   -0.03340799335025575   -0.0008710619269488047
-0.010412026595453948   -0.03345144972723981   -0.0009339519338428772
-0.009329085062996777   -0.038988721800205864   -0.0010932953477215195
-0.013836756129529042   -0.03326270374370159   -0.0009306230732803928
-0.010412026595453948   -0.03345144972723981   -0.0009339519338428772
-0.012377576288438321   -0.03885443467383903   -0.0012761412774008058
-0.009329085062996777   -0.038988721800205864   -0.0010932953477215195
-0.010431140083697273   -0.03340799335025575   -0.0008710619269488047
-0.012262956357010867   -0.03880722124687527   -0.0011573992659470425
-0.009306072610274687   -0.038960184279282876   -0.0010114196615309027
-0.010431140083697273   -0.03340799335025575   -0.0008710619269488047
-0.013836756129529042   -0.03326270374370159   -0.0009306230732803928
-0.012262956357010867   -0.03880722124687527   -0.0011573992659470425
-0.013779778952190952   -0.03323764503600654   -0.0008316521192046563
-0.009306072610274687   -0.038960184279282876   -0.0010114196615309027
-0.012165028734733813   -0.03878235439050891   -0.0010314074364735958
-0.013779778952190952   -0.03323764503600654   -0.0008316521192046563
-0.012262956357010867   -0.03880722124687527   -0.0011573992659470425
-0.009306072610274687   -0.038960184279282876   -0.0010114196615309027
-0.013779778952190952   -0.03323764503600654   -0.0008316521192046563
-0.010433369223554768   -0.03337827084050742   -0.0008041190189450066
-0.010431140083697273   -0.03340799335025575   -0.0008710619269488047
-0.009306072610274687   -0.038960184279282876   -0.0010114196615309027
-0.013779778952190952   -0.03323764503600654   -0.0008316521192046563
-0.010431140083697273   -0.03340799335025575   -0.0008710619269488047
-0.012262956357010867   -0.03880722124687527   -0.0011573992659470425
-0.009306072610274687   -0.038960184279282876   -0.0010114196615309027
-0.010433369223554768   -0.03337827084050742   -0.0008041190189450066
-0.012165028734733813   -0.03878235439050891   -0.0010314074364735958
-0.009290727457413397   -0.038953185602799936   -0.0009242185619766297
-0.010433369223554768   -0.03337827084050742   -0.0008041190189450066
-0.013779778952190952   -0.03323764503600654   -0.0008316521192046563
-0.012165028734733813   -0.03878235439050891   -0.0010314074364735958
-0.0136860558083774   -0.033239480936248206   -0.0007264840534443221
-0.009290727457413397   -0.038953185602799936   -0.0009242185619766297
-0.01202383726397183   -0.038791614866285525   -0.0008991638616377583
-0.0136860558083774   -0.033239480936248206   -0.0007264840534443221
-0.012165028734733813   -0.03878235439050891   -0.0010314074364735958
-0.009290727457413397   -0.038953185602799936   -0.0009242185619766297
-0.0136860558083774   -0.033239480936248206   -0.0007264840534443221
-0.010440443101072857   -0.03336440096437256   -0.0007322629557464498
-0.010433369223554768   -0.03337827084050742   -0.0008041190189450066
-0.009290727457413397   -0.038953185602799936   -0.0009242185619766297
-0.0136860558083774   -0.033239480936248206   -0.0007264840534443221
-0.010433369223554768   -0.03337827084050742   -0.0008041190189450066
-0.012165028734733813   -0.03878235439050891   -0.0010314074364735958
0.002417847258087495   -0.03361374328893963   -0.00038360280164578505
0.0029198199632940935   -0.027376200615267725   -0.00019587362365473845
-0.0009004293559211091   -0.03364832117636155   -0.0005605859046968473
0.0024508079715986997   -0.0335195903879941   -0.0004382855135987426
0.0029198199632940935   -0.027376200615267725   -0.00019587362365473845
-0.0007677362730047784   -0.027375893632095746   -0.00035988669222663616
-0.0009004293559211091   -0.03364832117636155   -0.0005605859046968473
-0.0008003698772638359   -0.02729770712002891   -0.00036256895575160553
0.0024508079715986997   -0.0335195903879941   -0.0004382855135987426
-0.0009157749078382509   -0.0335674414274493   -0.0005791336715258351
-0.0008003698772638359   -0.02729770712002891   -0.00036256895575160553
-0.0009004293559211091   -0.03364832117636155   -0.0005605859046968473
0.0024508079715986997   -0.0335195903879941   -0.0004382855135987426
-0.0008003698772638359   -0.02729770712002891   -0.00036256895575160553
0.002910005628979442   -0.02728609900566401   -0.00022240046782850075
0.0029198199632940935   -0.027376200615267725   -0.00019587362365473845
0.0024508079715986997   -0.0335195903879941   -0.0004382855135987426
-0.0008003698772638359   -0.02729770712002891   -0.00036256895575160553
0.0029198199632940935   -0.027376200615267725   -0.00019587362365473845
-0.0009004293559211091   -0.03364832117636155   -0.0005605859046968473
0.0024508079715986997   -0.0335195903879941   -0.0004382855135987426
0.002910005628979442   -0.02728609900566401   -0.00022240046782850075
-0.0009157749078382509   -0.0335674414274493   -0.0005791336715258351
0.0024612199101764092   -0.03345135926727891   -0.00048610555941663386
0.002910005628979442   -0.02728609900566401   -0.00022240046782850075
-0.0008003698772638359   -0.02729770712002891   -0.00036256895575160553
-0.0009157749078382509   -0.0335674414274493   -0.0005791336715258351
-0.0008366381931578635   -0.027230660848498994   -0.000361115658724802
0.0024612199101764092   -0.03345135926727891   -0.00048610555941663386
-0.0009318705375620758   -0.03350376251124282   -0.0005930318777327468
-0.0008366381931578635   -0.027230660848498994   -0.000361115658724802
-0.0009157749078382509   -0.0335674414274493   -0.0005791336715258351
0.0024612199101764092   -0.03345135926727891   -0.00048610555941663386
-0.0008366381931578635   -0.027230660848498994   -0.000361115658724802
0.002884171846147791   -0.02721393947162359   -0.00024229864791521882
0.002910005628979442   -0.02728609900566401   -0.00022240046782850075
0.0024612199101764092   -0.03345135926727891   -0.00048610555941663386
-0.0008366381931578635   -0.027230660848498994   -0.000361115658724802
0.002910005628979442   -0.02728609900566401   -0.00022240046782850075
-0.0009157749078382509   -0.0335674414274493   -0.0005791336715258351
0.0024612199101764092   -0.03345135926727891   -0.00048610555941663386
0.002884171846147791   -0.02721393947162359   -0.00024229864791521882
-0.0009318705375620758   -0.03350376251124282   -0.0005930318777327468
0.0024675157349275134   -0.033396896053691526   -0.0005273893293982642
0.002884171846147791   -0.02721393947162359   -0.00024229864791521882
-0.0008366381931578635   -0.027230660848498994   -0.000361115658724802
-0.0009318705375620758   -0.03350376251124282   -0.0005930318777327468
-0.0008817775368593274   -0.027172997747327156   -0.0003553637621379497
0.0024675157349275134   -0.033396896053691526   -0.0005273893293982642
-0.0009595190287075508   -0.03345526211748623   -0.0006024370189376371
-0.0008817775368593274   -0.027172997747327156   -0.0003553637621379497
-0.0009318705375620758   -0.03350376251124282   -0.0005930318777327468
0.0024675157349275134   -0.033396896053691526   -0.0005273893293982642
-0.0008817775368593274   -0.027172997747327156   -0.0003553637621379497
0.0028479829700858114   -0.027147804599246563   -0.0002560312076170423
0.002884171846147791   -0.02721393947162359   -0.00024229864791521882
0.0024675157349275134   -0.033396896053691526   -0.0005273893293982642
-0.0008817775368593274   -0.027172997747327156   -0.0003553637621379497
0.002884171846147791   -0.02721393947162359   -0.00024229864791521882
-0.0009318705375620758   -0.03350376251124282   -0.0005930318777327468
-0.0009004293559211091   -0.03364832117636155   -0.0005605859046968473
-0.0007677362730047784   -0.027375893632095746   -0.00035988669222663616
-0.004081907979600027   -0.03363093095967844   -0.0007060103352128991
-0.0009157749078382509   -0.0335674414274493   -0.0005791336715258351
-0.0007677362730047784   -0.027375893632095746   -0.00035988669222663616
-0.00428540290060881   -0.02734265829505249   -0.0004948908886298872
-0.004081907979600027   -0.03363093095967844   -0.0007060103352128991
-0.004322055724304331   -0.027277903906389008   -0.0004805265119907464
-0.0009157749078382509   -0.0335674414274493   -0.0005791336715258351
-0.004103360190515865   -0.03356345820809024   -0.0006974433855400416
-0.004322055724304331   -0.027277903906389008   -0.0004805265119907464
-0.004081907979600027   -0.03363093095967844   -0.0007060103352128991
-0.0009157749078382509   -0.0335674414274493   -0.0005791336715258351
-0.004322055724304331   -0.027277903906389008   -0.0004805265119907464
-0.0008003698772638359   -0.02729770712002891   -0.00036256895575160553
-0.0007677362730047784   -0.027375893632095746   -0.00035988669222663616
-0.0009157749078382509   -0.0335674414274493   -0.0005791336715258351
-0.004322055724304331   -0.027277903906389008   -0.0004805265119907464
-0.0007677362730047784   -0.027375893632095746   -0.00035988669222663616
-0.004081907979600027   -0.03363093095967844   -0.0007060103352128991
-0.0009157749078382509   -0.0335674414274493   -0.0005791336715258351
-0.0008003698772638359   -0.02729770712002891   -0.00036256895575160553
-0.004103360190515865   -0.03356345820809024   -0.0006974433855400416
-0.0009318705375620758   -0.03350376251124282   -0.0005930318777327468
-0.0008003698772638359   -0.02729770712002891   -0.00036256895575160553
-0.004322055724304331   -0.027277903906389008   -0.0004805265119907464
-0.004103360190515865   -0.03356345820809024   -0.0006974433855400416
-0.004359454273571272   -0.027222217562735445   -0.00046185114375830083
-0.0009318705375620758   -0.03350376251124282   -0.0005930318777327468
-0.0041251085914064045   -0.033510726957488024   -0.0006840868683892497
-0.004359454273571272   -0.027222217562735445   -0.00046185114375830083
-0.004103360190515865   -0.03356345820809024   -0.0006974433855400416
-0.0009318705375620758   -0.03350376251124282   -0.0005930318777327468
-0.004359454273571272   -0.027222217562735445   -0.00046185114375830083
-0.0008366381931578635   -0.027230660848498994   -0.000361115658724802
-0.0008003698772638359   -0.02729770712002891   -0.00036256895575160553
-0.0009318705375620758   -0.03350376251124282   -0.0005930318777327468
-0.004359454273571272   -0.027222217562735445   -0.00046185114375830083
-0.0008003698772638359   -0.02729770712002891   -0.00036256895575160553
-0.004103360190515865   -0.03356345820809024   -0.0006974433855400416
-0.0009318705375620758   -0.03350376251124282   -0.0005930318777327468
-0.0008366381931578635   -0.027230660848498994   -0.000361115658724802
-0.0041251085914064045   -0.033510726957488024   -0.0006840868683892497
-0.0009595190287075508   -0.03345526211748623   -0.0006024370189376371
-0.0008366381931578635   -0.027230660848498994   -0.000361115658724802
-0.004359454273571272   -0.027222217562735445   -0.00046185114375830083
-0.0041251085914064045   -0.033510726957488024   -0.0006840868683892497
-0.0044000359571504   -0.027176134336633455   -0.00043907053597875835
-0.0009595190287075508   -0.03345526211748623   -0.0006024370189376371
-0.0041502671503998246   -0.033472986010855556   -0.0006661754316627723
-0.0044000359571504   -0.027176134336633455   -0.00043907053597875835
-0.0041251085914064045   -0.033510726957488024   -0.0006840868683892497
-0.0009595190287075508   -0.03345526211748623   -0.0006024370189376371
-0.0044000359571504   -0.027176134336633455   -0.00043907053597875835
-0.0008817775368593274   -0.027172997747327156   -0.0003553637621379497
-0.0008366381931578635   -0.027230660848498994   -0.000361115658724802
-0.0009595190287075508   -0.03345526211748623   -0.0006024370189376371
-0.0044000359571504   -0.027176134336633455   -0.00043907053597875835
-0.0008366381931578635   -0.027230660848498994   -0.000361115658724802
-0.0041251085914064045   -0.033510726957488024   -0.0006840868683892497
-0.004081907979600027   -0.03363093095967844   -0.0007060103352128991
-0.00428540290060881   -0.02734265829505249   -0.0004948908886298872
-0.007209779215718283   -0.03356487298858164   -0.0008302973333360739
-0.004103360190515865   -0.03356345820809024   -0.0006974433855400416
-0.00428540290060881   -0.02734265829505249   -0.0004948908886298872
-0.007743610591618457   -0.027280311600729374   -0.000608586134360825
-0.007209779215718283   -0.03356487298858164   -0.0008302973333360739
-0.007781388808398736   -0.027227916405640533   -0.0005772167007053717
-0.004103360190515865   -0.03356345820809024   -0.0006974433855400416
-0.007232960617430561   -0.033509557671576456   -0.0007947542628677902
-0.007781388808398736   -0.027227916405640533   -0.0005772167007053717
-0.007209779215718283   -0.03356487298858164   -0.0008302973333360739
-0.004103360190515865   -0.03356345820809024   -0.0006974433855400416
-0.007781388808398736   -0.027227916405640533   -0.0005772167007053717
-0.004322055724304331   -0.027277903906389008   -0.0004805265119907464
-0.00428540290060881   -0.02734265829505249   -0.0004948908886298872
-0.004103360190515865   -0.03356345820809024   -0.0006974433855400416
-0.007781388808398736   -0.027227916405640533   -0.0005772167007053717
-0.00428540290060881   -0.02734265829505249   -0.0004948908886298872
-0.007209779215718283   -0.03356487298858164   -0.0008302973333360739
-0.004103360190515865   -0.03356345820809024   -0.0006974433855400416
-0.004322055724304331   -0.027277903906389008   -0.0004805265119907464
-0.007232960617430561   -0.033509557671576456   -0.0007947542628677902
-0.0041251085914064045   -0.033510726957488024   -0.0006840868683892497
-0.004322055724304331   -0.027277903906389008   -0.0004805265119907464
-0.007781388808398736   -0.027227916405640533   -0.0005772167007053717
-0.007232960617430561   -0.033509557671576456   -0.0007947542628677902
-0.007815639796050705   -0.02718452525727875   -0.0005416379030303178
-0.0041251085914064045   -0.033510726957488024   -0.0006840868683892497
-0.007252140828918643   -0.033468843593709156   -0.000754508109795494
-0.007815639796050705   -0.02718452525727875   -0.0005416379030303178
-0.007232960617430561   -0.033509557671576456   -0.0007947542628677902
-0.0041251085914064045   -0.033510726957488024   -0.0006840868683892497
-0.007815639796050705   -0.02718452525727875   -0.0005416379030303178
-0.004359454273571272   -0.027222217562735445   -0.00046185114375830083
-0.004322055724304331   -0.027277903906389008   -0.0004805265119907464
-0.0041251085914064045   -0.033510726957488024   -0.0006840868683892497
-0.007815639796050705   -0.02718452525727875   -0.0005416379030303178
-0.004322055724304331   -0.027277903906389008   -0.0004805265119907464
-0.007232960617430561   -0.033509557671576456   -0.0007947542628677902
-0.0041251085914064045   -0.033510726957488024   -0.0006840868683892497
-0.004359454273571272   -0.027222217562735445   -0.00046185114375830083
-0.007252140828918643   -0.033468843593709156   -0.000754508109795494
-0.0041502671503998246   -0.033472986010855556   -0.0006661754316627723
-0.004359454273571272   -0.027222217562735445   -0.00046185114375830083
-0.007815639796050705   -0.02718452525727875   -0.0005416379030303178
-0.007252140828918643   -0.033468843593709156   -0.000754508109795494
-0.007850218366995062   -0.027150208724298235   -0.0005020088684909457
-0.0041502671503998246   -0.033472986010855556   -0.0006661754316627723
-0.007271887157736096   -0.03344266829762094   -0.000709696157394938
-0.007850218366995062   -0.027150208724298235   -0.0005020088684909457
-0.007252140828918643   -0.033468843593709156   -0.000754508109795494
-0.0041502671503998246   -0.033472986010855556   -0.0006661754316627723
-0.007850218366995062   -0.027150208724298235   -0.0005020088684909457
-0.0044000359571504   -0.027176134336633455   -0.00043907053597875835
-0.004359454273571272   -0.027222217562735445   -0.00046185114375830083
-0.0041502671503998246   -0.033472986010855556   -0.0006661754316627723
-0.007850218366995062   -0.027150208724298235   -0.0005020088684909457
-0.004359454273571272   -0.027222217562735445   -0.00046185114375830083
-0.007252140828918643   -0.033468843593709156   -0.000754508109795494
-0.007209779215718283   -0.03356487298858164   -0.0008302973333360739
-0.007743610591618457   -0.027280311600729374   -0.000608586134360825
-0.010412026595453948   -0.03345144972723981   -0.0009339519338428772
-0.007232960617430561   -0.033509557671576456   -0.0007947542628677902
-0.007743610591618457   -0.027280311600729374   -0.000608586134360825
-0.011270402109196574   -0.02718753405901178   -0.0007012511098347382
-0.010412026595453948   -0.03345144972723981   -0.0009339519338428772
-0.011305438916104311   -0.027147591983156697   -0.0006527446535584561
-0.007232960617430561   -0.033509557671576456   -0.0007947542628677902
-0.010431140083697273   -0.03340799335025575   -0.0008710619269488047
-0.011305438916104311   -0.027147591983156697   -0.0006527446535584561
-0.010412026595453948   -0.03345144972723981   -0.0009339519338428772
-0.007232960617430561   -0.033509557671576456   -0.0007947542628677902
-0.011305438916104311   -0.027147591983156697   -0.0006527446535584561
-0.007781388808398736   -0.027227916405640533   -0.0005772167007053717
-0.007743610591618457   -0.027280311600729374   -0.000608586134360825
-0.007232960617430561   -0.033509557671576456   -0.0007947542628677902
-0.011305438916104311   -0.027147591983156697   -0.0006527446535584561
-0.007743610591618457   -0.027280311600729374   -0.000608586134360825
-0.010412026595453948   -0.03345144972723981   -0.0009339519338428772
-0.007232960617430561   -0.033509557671576456   -0.0007947542628677902
-0.007781388808398736   -0.027227916405640533   -0.0005772167007053717
-0.010431140083697273   -0.03340799335025575   -0.0008710619269488047
-0.007252140828918643   -0.033468843593709156   -0.000754508109795494
-0.007781388808398736   -0.027227916405640533   -0.0005772167007053717
-0.011305438916104311   -0.027147591983156697   -0.0006527446535584561
-0.010431140083697273   -0.03340799335025575   -0.0008710619269488047
-0.011326510088588036   -0.02711553806507518   -0.0006005937669246773
-0.007252140828918643   -0.033468843593709156   -0.000754508109795494
-0.010433369223554768   -0.03337827084050742   -0.0008041190189450066
-0.011326510088588036   -0.02711553806507518   -0.0006005937669246773
-0.010431140083697273   -0.03340799335025575   -0.0008710619269488047
-0.007252140828918643   -0.033468843593709156   -0.000754508109795494
-0.011326510088588036   -0.02711553806507518   -0.0006005937669246773
-0.007815639796050705   -0.02718452525727875   -0.0005416379030303178
-0.007781388808398736   -0.027227916405640533   -0.0005772167007053717
-0.007252140828918643   -0.033468843593709156   -0.000754508109795494
-0.011326510088588036   -0.02711553806507518   -0.0006005937669246773
-0.007781388808398736   -0.027227916405640533   -0.0005772167007053717
-0.010431140083697273   -0.03340799335025575   -0.0008710619269488047
-0.007252140828918643   -0.033468843593709156   -0.000754508109795494
-0.007815639796050705   -0.02718452525727875   -0.0005416379030303178
-0.010433369223554768   -0.03337827084050742   -0.0008041190189450066
-0.007271887157736096   -0.03344266829762094   -0.000709696157394938
-0.007815639796050705   -0.02718452525727875   -0.0005416379030303178
-0.011326510088588036   -0.02711553806507518   -0.0006005937669246773
-0.010433369223554768   -0.03337827084050742   -0.0008041190189450066
-0.011349733004297726   -0.027093353318509913   -0.0005440463945282261
-0.007271887157736096   -0.03344266829762094   -0.000709696157394938
-0.010440443101072857   -0.03336440096437256   -0.0007322629557464498
-0.011349733004297726   -0.027093353318509913   -0.0005440463945282261
-0.010433369223554768   -0.03337827084050742   -0.0008041190189450066
-0.007271887157736096   -0.03344266829762094   -0.000709696157394938
-0.011349733004297726   -0.027093353318509913   -0.0005440463945282261
-0.007850218366995062   -0.027150208724298235   -0.0005020088684909457
-0.007815639796050705   -0.02718452525727875   -0.0005416379030303178
-0.007271887157736096   -0.03344266829762094   -0.000709696157394938
-0.011349733004297726   -0.027093353318509913   -0.0005440463945282261
-0.007815639796050705   -0.02718452525727875   -0.0005416379030303178
-0.010433369223554768   -0.03337827084050742   -0.0008041190189450066
-0.010412026595453948   -0.03345144972723981   -0.0009339519338428772
-0.011270402109196574   -0.02718753405901178   -0.0007012511098347382
-0.01390439569690858   -0.03330240254674313   -0.0010225124768560073
-0.010431140083697273   -0.03340799335025575   -0.0008710619269488047
-0.011270402109196574   -0.02718753405901178   -0.0007012511098347382
-0.015056271473255604   -0.02707313912807718   -0.0007747880215149006
-0.01390439569690858   -0.03330240254674313   -0.0010225124768560073
-0.015029487846052418   -0.027039555814366525   -0.0007100085139601135
-0.010431140083697273   -0.03340799335025575   -0.0008710619269488047
-0.013836756129529042   -0.03326270374370159   -0.0009306230732803928
-0.015029487846052418   -0.027039555814366525   -0.0007100085139601135
-0.01390439569690858   -0.03330240254674313   -0.0010225124768560073
-0.010431140083697273   -0.03340799335025575   -0.0008710619269488047
-0.015029487846052418   -0.027039555814366525   -0.0007100085139601135
-0.011305438916104311   -0.027147591983156697   -0.0006527446535584561
-0.011270402109196574   -0.02718753405901178   -0.0007012511098347382
-0.010431140083697273   -0.03340799335025575   -0.0008710619269488047
-0.015029487846052418   -0.027039555814366525   -0.0007100085139601135
-0.011270402109196574   -0.02718753405901178   -0.0007012511098347382
-0.01390439569690858   -0.03330240254674313   -0.0010225124768560073
-0.010431140083697273   -0.03340799335025575   -0.0008710619269488047
-0.011305438916104311   -0.027147591983156697   -0.0006527446535584561
-0.013836756129529042   -0.03326270374370159   -0.0009306230732803928
-0.010433369223554768   -0.03337827084050742   -0.0008041190189450066
-0.011305438916104311   -0.027147591983156697   -0.0006527446535584561
-0.015029487846052418   -0.027039555814366525   -0.0007100085139601135
-0.013836756129529042   -0.03326270374370159   -0.0009306230732803928
-0.015007650962787708   -0.027012845789841873   -0.0006385411458270184
-0.010433369223554768   -0.03337827084050742   -0.0008041190189450066
-0.013779778952190952   -0.03323764503600654   -0.0008316521192046563
-0.015007650962787708   -0.027012845789841873   -0.0006385411458270184
-0.013836756129529042   -0.03326270374370159   -0.0009306230732803928
-0.010433369223554768   -0.03337827084050742   -0.0008041190189450066
-0.015007650962787708   -0.027012845789841873   -0.0006385411458270184
-0.011326510088588036   -0.02711553806507518   -0.0006005937669246773
-0.011305438916104311   -0.027147591983156697   -0.0006527446535584561
-0.010433369223554768   -0.03337827084050742   -0.0008041190189450066
-0.015007650962787708   -0.027012845789841873   -0.0006385411458270184
-0.011305438916104311   -0.027147591983156697   -0.0006527446535584561
-0.013836756129529042   -0.03326270374370159   -0.0009306230732803928
-0.010433369223554768   -0.03337827084050742   -0.0008041190189450066
-0.011326510088588036   -0.02711553806507518   -0.0006005937669246773
-0.013779778952190952   -0.03323764503600654   -0.0008316521192046563
-0.010440443101072857   -0.03336440096437256   -0.0007322629557464498
-0.011326510088588036   -0.02711553806507518   -0.0006005937669246773
-0.015007650962787708   -0.027012845789841873   -0.0006385411458270184
-0.013779778952190952   -0.03323764503600654   -0.0008316521192046563
-0.014955945039407227   -0.027005246369497256   -0.0005611477669035976
-0.010440443101072857   -0.03336440096437256   -0.0007322629557464498
-0.0136860558083774   -0.033239480936248206   -0.0007264840534443221
-0.014955945039407227   -0.027005246369497256   -0.0005611477669035976
-0.013779778952190952   -0.03323764503600654   -0.0008316521192046563
-0.010440443101072857   -0.03336440096437256   -0.0007322629557464498
-0.014955945039407227   -0.027005246369497256   -0.0005611477669035976
-0.011349733004297726   -0.027093353318509913   -0.0005440463945282261
-0.011326510088588036   -0.02711553806507518   -0.0006005937669246773
-0.010440443101072857   -0.03336440096437256   -0.0007322629557464498
-0.014955945039407227   -0.027005246369497256   -0.0005611477669035976
-0.011326510088588036   -0.02711553806507518   -0.0006005937669246773
-0.013779778952190952   -0.03323764503600654   -0.0008316521192046563
0.0029198199632940935   -0.027376200615267725   -0.00019587362365473845
0.0030255956535528406   -0.020700751973239312   -3.155940061179261e-05
-0.0007677362730047784   -0.027375893632095746   -0.00035988669222663616
0.002910005628979442   -0.02728609900566401   -0.00022240046782850075
0.0030255956535528406   -0.020700751973239312   -3.155940061179261e-05
-0.0008748219188512303   -0.020666874551252164   -0.00017880332304400314
-0.0007677362730047784   -0.027375893632095746   -0.00035988669222663616
-0.0009197786378319129   -0.020592119728606518   -0.00016557539503341776
0.002910005628979442   -0.02728609900566401   -0.00022240046782850075
-0.0008003698772638359   -0.02729770712002891   -0.00036256895575160553
-0.0009197786378319129   -0.020592119728606518   -0.00016557539503341776
-0.0007677362730047784   -0.027375893632095746   -0.00035988669222663616
0.002910005628979442   -0.02728609900566401   -0.00022240046782850075
-0.0009197786378319129   -0.020592119728606518   -0.00016557539503341776
0.00297834219949956   -0.02061487863220739   -2.9368208177327282e-05
0.0030255956535528406   -0.020700751973239312   -3.155940061179261e-05
0.002910005628979442   -0.02728609900566401   -0.00022240046782850075
-0.0009197786378319129   -0.020592119728606518   -0.00016557539503341776
0.0030255956535528406   -0.020700751973239312   -3.155940061179261e-05
-0.0007677362730047784   -0.027375893632095746   -0.00035988669222663616
0.002910005628979442   -0.02728609900566401   -0.00022240046782850075
0.00297834219949956   -0.02061487863220739   -2.9368208177327282e-05
-0.0008003698772638359   -0.02729770712002891   -0.00036256895575160553
0.002884171846147791   -0.02721393947162359   -0.00024229864791521882
0.00297834219949956   -0.02061487863220739   -2.9368208177327282e-05
-0.0009197786378319129   -0.020592119728606518   -0.00016557539503341776
-0.0008003698772638359   -0.02729770712002891   -0.00036256895575160553
-0.0009712832232966035   -0.020521743463605958   -0.00014858642289019262
0.002884171846147791   -0.02721393947162359   -0.00024229864791521882
-0.0008366381931578635   -0.027230660848498994   -0.000361115658724802
-0.0009712832232966035   -0.020521743463605958   -0.00014858642289019262
-0.0008003698772638359   -0.02729770712002891   -0.00036256895575160553
0.002884171846147791   -0.02721393947162359   -0.00024229864791521882
-0.0009712832232966035   -0.020521743463605958   -0.00014858642289019262
0.0029199860984662367   -0.02053841599505941   -1.9499685607173347e-05
0.00297834219949956   -0.02061487863220739   -2.9368208177327282e-05
0.002884171846147791   -0.02721393947162359   -0.00024229864791521882
-0.0009712832232966035   -0.020521743463605958   -0.00014858642289019262
0.00297834219949956   -0.02061487863220739   -2.9368208177327282e-05
-0.0008003698772638359   -0.02729770712002891   -0.00036256895575160553
0.002884171846147791   -0.02721393947162359   -0.00024229864791521882
0.0029199860984662367   -0.02053841599505941   -1.9499685607173347e-05
-0.0008366381931578635   -0.027230660848498994   -0.000361115658724802
0.0028479829700858114   -0.027147804599246563   -0.0002560312076170423
0.0029199860984662367   -0.02053841599505941   -1.9499685607173347e-05
-0.0009712832232966035   -0.020521743463605958   -0.00014858642289019262
-0.0008366381931578635   -0.027230660848498994   -0.000361115658724802
-0.0010291789060999728   -0.0204547734130986   -0.000126895078544873
0.0028479829700858114   -0.027147804599246563   -0.0002560312076170423
-0.0008817775368593274   -0.027172997747327156   -0.0003553637621379497
-0.0010291789060999728   -0.0204547734130986   -0.000126895078544873
-0.0008366381931578635   -0.027230660848498994   -0.000361115658724802
0.0028479829700858114   -0.027147804599246563   -0.0002560312076170423
-0.0010291789060999728   -0.0204547734130986   -0.000126895078544873
0.0028429684567825913   -0.020458569888054338   -2.2989101634033053e-06
0.0029199860984662367   -0.02053841599505941   -1.9499685607173347e-05
0.0028479829700858114   -0.027147804599246563   -0.0002560312076170423
-0.0010291789060999728   -0.0204547734130986   -0.000126895078544873
0.0029199860984662367   -0.02053841599505941   -1.9499685607173347e-05
-0.0008366381931578635   -0.027230660848498994   -0.000361115658724802
-0.0007677362730047784   -0.027375893632095746   -0.00035988669222663616
-0.0008748219188512303   -0.020666874551252164   -0.00017880332304400314
-0.00428540290060881   -0.02734265829505249   -0.0004948908886298872
-0.0008003698772638359   -0.02729770712002891   -0.00036256895575160553
-0.0008748219188512303   -0.020666874551252164   -0.00017880332304400314
-0.004570544157782424   -0.020626951069253094   -0.00030304118611308766
-0.00428540290060881   -0.02734265829505249   -0.0004948908886298872
-0.004616518386091921   -0.020564594453178604   -0.0002824888051448088
-0.0008003698772638359   -0.02729770712002891   -0.00036256895575160553
-0.004322055724304331   -0.027277903906389008   -0.0004805265119907464
-0.004616518386091921   -0.020564594453178604   -0.0002824888051448088
-0.00428540290060881   -0.02734265829505249   -0.0004948908886298872
-0.0008003698772638359   -0.02729770712002891   -0.00036256895575160553
-0.004616518386091921   -0.020564594453178604   -0.0002824888051448088
-0.0009197786378319129   -0.020592119728606518   -0.00016557539503341776
-0.0008748219188512303   -0.020666874551252164   -0.00017880332304400314
-0.0008003698772638359   -0.02729770712002891   -0.00036256895575160553
-0.004616518386091921   -0.020564594453178604   -0.0002824888051448088
-0.0008748219188512303   -0.020666874551252164   -0.00017880332304400314
-0.00428540290060881   -0.02734265829505249   -0.0004948908886298872
-0.0008003698772638359   -0.02729770712002891   -0.00036256895575160553
-0.0009197786378319129   -0.020592119728606518   -0.00016557539503341776
-0.004322055724304331   -0.027277903906389008   -0.0004805265119907464
-0.0008366381931578635   -0.027230660848498994   -0.000361115658724802
-0.0009197786378319129   -0.020592119728606518   -0.00016557539503341776
-0.004616518386091921   -0.020564594453178604   -0.0002824888051448088
-0.004322055724304331   -0.027277903906389008   -0.0004805265119907464
-0.004663535432949087   -0.02050563255843665   -0.00025834636136052804
-0.0008366381931578635   -0.027230660848498994   -0.000361115658724802
-0.004359454273571272   -0.027222217562735445   -0.00046185114375830083
-0.004663535432949087   -0.02050563255843665   -0.00025834636136052804
-0.004322055724304331   -0.027277903906389008   -0.0004805265119907464
-0.0008366381931578635   -0.027230660848498994   -0.000361115658724802
-0.004663535432949087   -0.02050563255843665   -0.00025834636136052804
-0.0009712832232966035   -0.020521743463605958   -0.00014858642289019262
-0.0009197786378319129   -0.020592119728606518   -0.00016557539503341776
-0.0008366381931578635   -0.027230660848498994   -0.000361115658724802
-0.004663535432949087   -0.02050563255843665   -0.00025834636136052804
-0.0009197786378319129   -0.020592119728606518   -0.00016557539503341776
-0.004322055724304331   -0.027277903906389008   -0.0004805265119907464
-0.0008366381931578635   -0.027230660848498994   -0.000361115658724802
-0.0009712832232966035   -0.020521743463605958   -0.00014858642289019262
-0.004359454273571272   -0.027222217562735445   -0.00046185114375830083
-0.0008817775368593274   -0.027172997747327156   -0.0003553637621379497
-0.0009712832232966035   -0.020521743463605958   -0.00014858642289019262
-0.004663535432949087   -0.02050563255843665   -0.00025834636136052804
-0.004359454273571272   -0.027222217562735445   -0.00046185114375830083
-0.004713562878230753   -0.020450996438010422   -0.00023057960111825718
-0.0008817775368593274   -0.027172997747327156   -0.0003553637621379497
-0.0044000359571504   -0.027176134336633455   -0.00043907053597875835
-0.004713562878230753   -0.020450996438010422   -0.00023057960111825718
-0.004359454273571272   -0.027222217562735445   -0.00046185114375830083
-0.0008817775368593274   -0.027172997747327156   -0.0003553637621379497
-0.004713562878230753   -0.020450996438010422   -0.00023057960111825718
-0.0010291789060999728   -0.0204547734130986   -0.000126895078544873
-0.0009712832232966035   -0.020521743463605958   -0.00014858642289019262
-0.0008817775368593274   -0.027172997747327156   -0.0003553637621379497
-0.004713562878230753   -0.020450996438010422   -0.00023057960111825718
-0.0009712832232966035   -0.020521743463605958   -0.00014858642289019262
-0.004359454273571272   -0.027222217562735445   -0.00046185114375830083
-0.00428540290060881   -0.02734265829505249   -0.0004948908886298872
-0.004570544157782424   -0.020626951069253094   -0.00030304118611308766
-0.007743610591618457   -0.027280311600729374   -0.000608586134360825
-0.004322055724304331   -0.027277903906389008   -0.0004805265119907464
-0.004570544157782424   -0.020626951069253094   -0.00030304118611308766
-0.008205914921816276   -0.020578874446530733   -0.0004083274279377155
-0.007743610591618457   -0.027280311600729374   -0.000608586134360825
-0.008251600674308676   -0.020527983181864475   -0.0003804731533521001
-0.004322055724304331   -0.027277903906389008   -0.0004805265119907464
-0.007781388808398736   -0.027227916405640533   -0.0005772167007053717
-0.008251600674308676   -0.020527983181864475   -0.0003804731533521001
-0.007743610591618457   -0.027280311600729374   -0.000608586134360825
-0.004322055724304331   -0.027277903906389008   -0.0004805265119907464
-0.008251600674308676   -0.020527983181864475   -0.0003804731533521001
-0.004616518386091921   -0.020564594453178604   -0.0002824888051448088
-0.004570544157782424   -0.020626951069253094   -0.00030304118611308766
-0.004322055724304331   -0.027277903906389008   -0.0004805265119907464
-0.008251600674308676   -0.020527983181864475   -0.0003804731533521001
-0.004570544157782424   -0.020626951069253094   -0.00030304118611308766
-0.007743610591618457   -0.027280311600729374   -0.000608586134360825
-0.004322055724304331   -0.027277903906389008   -0.0004805265119907464
-0.004616518386091921   -0.020564594453178604   -0.0002824888051448088
-0.007781388808398736   -0.027227916405640533   -0.0005772167007053717
-0.004359454273571272   -0.027222217562735445   -0.00046185114375830083
-0.004616518386091921   -0.020564594453178604   -0.0002824888051448088
-0.008251600674308676   -0.020527983181864475   -0.0003804731533521001
-0.007781388808398736   -0.027227916405640533   -0.0005772167007053717
-0.008294317986527766   -0.020480671560131846   -0.0003491512875935864
-0.004359454273571272   -0.027222217562735445   -0.00046185114375830083
-0.007815639796050705   -0.02718452525727875   -0.0005416379030303178
-0.008294317986527766   -0.020480671560131846   -0.0003491512875935864
-0.007781388808398736   -0.027227916405640533   -0.0005772167007053717
-0.004359454273571272   -0.027222217562735445   -0.00046185114375830083
-0.008294317986527766   -0.020480671560131846   -0.0003491512875935864
-0.004663535432949087   -0.02050563255843665   -0.00025834636136052804
-0.004616518386091921   -0.020564594453178604   -0.0002824888051448088
-0.004359454273571272   -0.027222217562735445   -0.00046185114375830083
-0.008294317986527766   -0.020480671560131846   -0.0003491512875935864
-0.004616518386091921   -0.020564594453178604   -0.0002824888051448088
-0.007781388808398736   -0.027227916405640533   -0.0005772167007053717
-0.004359454273571272   -0.027222217562735445   -0.00046185114375830083
-0.004663535432949087   -0.02050563255843665   -0.00025834636136052804
-0.007815639796050705   -0.02718452525727875   -0.0005416379030303178
-0.0044000359571504   -0.027176134336633455   -0.00043907053597875835
-0.004663535432949087   -0.02050563255843665   -0.00025834636136052804
-0.008294317986527766   -0.020480671560131846   -0.0003491512875935864
-0.007815639796050705   -0.02718452525727875   -0.0005416379030303178
-0.008337188511708078   -0.020437067903467   -0.00031453223111967696
-0.0044000359571504   -0.027176134336633455   -0.00043907053597875835
-0.007850218366995062   -0.027150208724298235   -0.0005020088684909457
-0.008337188511708078   -0.020437067903467   -0.00031453223111967696
-0.007815639796050705   -0.02718452525727875   -0.0005416379030303178
-0.0044000359571504   -0.027176134336633455   -0.00043907053597875835
-0.008337188511708078   -0.020437067903467   -0.00031453223111967696
-0.004713562878230753   -0.020450996438010422   -0.00023057960111825718
-0.004663535432949087   -0.02050563255843665   -0.00025834636136052804
-0.0044000359571504   -0.027176134336633455   -0.00043907053597875835
-0.008337188511708078   -0.020437067903467   -0.00031453223111967696
-0.004663535432949087   -0.02050563255843665   -0.00025834636136052804
-0.007815639796050705   -0.02718452525727875   -0.0005416379030303178
-0.007743610591618457   -0.027280311600729374   -0.000608586134360825
-0.008205914921816276   -0.020578874446530733   -0.0004083274279377155
-0.011270402109196574   -0.02718753405901178   -0.0007012511098347382
-0.007781388808398736   -0.027227916405640533   -0.0005772167007053717
-0.008205914921816276   -0.020578874446530733   -0.0004083274279377155
-0.011907086444521929   -0.020513749533245675   -0.0004937588386011165
-0.011270402109196574   -0.02718753405901178   -0.0007012511098347382
-0.011950818157170435   -0.02047491786053605   -0.00045869043532229664
-0.007781388808398736   -0.027227916405640533   -0.0005772167007053717
-0.011305438916104311   -0.027147591983156697   -0.0006527446535584561
-0.011950818157170435   -0.02047491786053605   -0.00045869043532229664
-0.011270402109196574   -0.02718753405901178   -0.0007012511098347382
-0.007781388808398736   -0.027227916405640533   -0.0005772167007053717
-0.011950818157170435   -0.02047491786053605   -0.00045869043532229664
-0.008251600674308676   -0.020527983181864475   -0.0003804731533521001
-0.008205914921816276   -0.020578874446530733   -0.0004083274279377155
-0.007781388808398736   -0.027227916405640533   -0.0005772167007053717
-0.011950818157170435   -0.02047491786053605   -0.00045869043532229664
-0.008205914921816276   -0.020578874446530733   -0.0004083274279377155
-0.011270402109196574   -0.02718753405901178   -0.0007012511098347382
-0.007781388808398736   -0.027227916405640533   -0.0005772167007053717
-0.008251600674308676   -0.020527983181864475   -0.0003804731533521001
-0.011305438916104311   -0.027147591983156697   -0.0006527446535584561
-0.007815639796050705   -0.02718452525727875   -0.0005416379030303178
-0.008251600674308676   -0.020527983181864475   -0.0003804731533521001
-0.011950818157170435   -0.02047491786053605   -0.00045869043532229664
-0.011305438916104311   -0.027147591983156697   -0.0006527446535584561
-0.011983867291224484   -0.020438346673075054   -0.00042072033471929554
-0.007815639796050705   -0.02718452525727875   -0.0005416379030303178
-0.011326510088588036   -0.02711553806507518   -0.0006005937669246773
-0.011983867291224484   -0.020438346673075054   -0.00042072033471929554
-0.011305438916104311   -0.027147591983156697   -0.0006527446535584561
-0.007815639796050705   -0.02718452525727875   -0.0005416379030303178
-0.011983867291224484   -0.020438346673075054   -0.00042072033471929554
-0.008294317986527766   -0.020480671560131846   -0.0003491512875935864
-0.008251600674308676   -0.020527983181864475   -0.0003804731533521001
-0.007815639796050705   -0.02718452525727875   -0.0005416379030303178
-0.011983867291224484   -0.020438346673075054   -0.00042072033471929554
-0.008251600674308676   -0.020527983181864475   -0.0003804731533521001
-0.011305438916104311   -0.027147591983156697   -0.0006527446535584561
-0.007815639796050705   -0.02718452525727875   -0.0005416379030303178
-0.008294317986527766   -0.020480671560131846   -0.0003491512875935864
-0.011326510088588036   -0.02711553806507518   -0.0006005937669246773
-0.007850218366995062   -0.027150208724298235   -0.0005020088684909457
-0.008294317986527766   -0.020480671560131846   -0.0003491512875935864
-0.011983867291224484   -0.020438346673075054   -0.00042072033471929554
-0.011326510088588036   -0.02711553806507518   -0.0006005937669246773
-0.012016683766820097   -0.02040569697194442   -0.0003790970719595592
-0.007850218366995062   -0.027150208724298235   -0.0005020088684909457
-0.011349733004297726   -0.027093353318509913   -0.0005440463945282261
-0.012016683766820097   -0.02040569697194442   -0.0003790970719595592
-0.011326510088588036   -0.02711553806507518   -0.0006005937669246773
-0.007850218366995062   -0.027150208724298235   -0.0005020088684909457
-0.012016683766820097   -0.02040569697194442   -0.0003790970719595592
-0.008337188511708078   -0.020437067903467   -0.00031453223111967696
-0.008294317986527766   -0.020480671560131846   -0.0003491512875935864
-0.007850218366995062   -0.027150208724298235   -0.0005020088684909457
-0.012016683766820097   -0.02040569697194442   -0.0003790970719595592
-0.008294317986527766   -0.020480671560131846   -0.0003491512875935864
-0.011326510088588036   -0.02711553806507518   -0.0006005937669246773
-0.011270402109196574   -0.02718753405901178   -0.0007012511098347382
-0.011907086444521929   -0.020513749533245675   -0.0004937588386011165
-0.015056271473255604   -0.02707313912807718   -0.0007747880215149006
-0.011305438916104311   -0.027147591983156697   -0.0006527446535584561
-0.011907086444521929   -0.020513749533245675   -0.0004937588386011165
-0.015830832475189273   -0.020436580740634265   -0.0005568360473380194
-0.015056271473255604   -0.02707313912807718   -0.0007747880215149006
-0.015836916346183987   -0.020405770464882737   -0.0005179025202955736
-0.011305438916104311   -0.027147591983156697   -0.0006527446535584561
-0.015029487846052418   -0.027039555814366525   -0.0007100085139601135
-0.015836916346183987   -0.020405770464882737   -0.0005179025202955736
-0.015056271473255604   -0.02707313912807718   -0.0007747880215149006
-0.011305438916104311   -0.027147591983156697   -0.0006527446535584561
-0.015836916346183987   -0.020405770464882737   -0.0005179025202955736
-0.011950818157170435   -0.02047491786053605   -0.00045869043532229664
-0.011907086444521929   -0.020513749533245675   -0.0004937588386011165
-0.011305438916104311   -0.027147591983156697   -0.0006527446535584561
-0.015836916346183987   -0.020405770464882737   -0.0005179025202955736
-0.011907086444521929   -0.020513749533245675   -0.0004937588386011165
-0.015056271473255604   -0.02707313912807718   -0.0007747880215149006
-0.011305438916104311   -0.027147591983156697   -0.0006527446535584561
-0.011950818157170435   -0.02047491786053605   -0.00045869043532229664
-0.015029487846052418   -0.027039555814366525   -0.0007100085139601135
-0.011326510088588036   -0.02711553806507518   -0.0006005937669246773
-0.011950818157170435   -0.02047491786053605   -0.00045869043532229664
-0.015836916346183987   -0.020405770464882737   -0.0005179025202955736
-0.015029487846052418   -0.027039555814366525   -0.0007100085139601135
-0.0158432689162944   -0.020374718439207618   -0.00047313377429528656
-0.011326510088588036   -0.02711553806507518   -0.0006005937669246773
-0.015007650962787708   -0.027012845789841873   -0.0006385411458270184
-0.0158432689162944   -0.020374718439207618   -0.00047313377429528656
-0.015029487846052418   -0.027039555814366525   -0.0007100085139601135
-0.011326510088588036   -0.02711553806507518   -0.0006005937669246773
-0.0158432689162944   -0.020374718439207618   -0.00047313377429528656
-0.011983867291224484   -0.020438346673075054   -0.00042072033471929554
-0.011950818157170435   -0.02047491786053605   -0.00045869043532229664
-0.011326510088588036   -0.02711553806507518   -0.0006005937669246773
-0.0158432689162944   -0.020374718439207618   -0.00047313377429528656
-0.011950818157170435   -0.02047491786053605   -0.00045869043532229664
-0.015029487846052418   -0.027039555814366525   -0.0007100085139601135
-0.011326510088588036   -0.02711553806507518   -0.0006005937669246773
-0.011983867291224484   -0.020438346673075054   -0.00042072033471929554
-0.015007650962787708   -0.027012845789841873   -0.0006385411458270184
-0.011349733004297726   -0.027093353318509913   -0.0005440463945282261
-0.011983867291224484   -0.020438346673075054   -0.00042072033471929554
-0.0158432689162944   -0.020374718439207618   -0.00047313377429528656
-0.015007650962787708   -0.027012845789841873   -0.0006385411458270184
-0.015827394229293065   -0.02035479305683777   -0.00042321800167283933
-0.011349733004297726   -0.027093353318509913   -0.0005440463945282261
-0.014955945039407227   -0.027005246369497256   -0.0005611477669035976
-0.015827394229293065   -0.02035479305683777   -0.00042321800167283933
-0.015007650962787708   -0.027012845789841873   -0.0006385411458270184
-0.011349733004297726   -0.027093353318509913   -0.0005440463945282261
-0.015827394229293065   -0.02035479305683777   -0.00042321800167283933
-0.012016683766820097   -0.02040569697194442   -0.0003790970719595592
-0.011983867291224484   -0.020438346673075054   -0.00042072033471929554
-0.011349733004297726   -0.027093353318509913   -0.0005440463945282261
-0.015827394229293065   -0.02035479305683777   -0.00042321800167283933
-0.011983867291224484   -0.020438346673075054   -0.00042072033471929554
-0.015007650962787708   -0.027012845789841873   -0.0006385411458270184
0.0030255956535528406   -0.020700751973239312   -3.155940061179261e-05
0.002717073795522903   -0.013820520962431231   8.191912642529895e-05
-0.0008748219188512303   -0.020666874551252164   -0.00017880332304400314
0.00297834219949956   -0.02061487863220739   -2.9368208177327282e-05
0.002717073795522903   -0.013820520962431231   8.191912642529895e-05
-0.0012159572630993922   -0.013756125661144123   -3.46232090433514e-05
-0.0008748219188512303   -0.020666874551252164   -0.00017880332304400314
-0.001269875392692637   -0.013688571087748723   -6.694866325957821e-06
0.00297834219949956   -0.02061487863220739   -2.9368208177327282e-05
-0.0009197786378319129   -0.020592119728606518   -0.00016557539503341776
-0.001269875392692637   -0.013688571087748723   -6.694866325957821e-06
-0.0008748219188512303   -0.020666874551252164   -0.00017880332304400314
0.00297834219949956   -0.02061487863220739   -2.9368208177327282e-05
-0.001269875392692637   -0.013688571087748723   -6.694866325957821e-06
0.002632476997904171   -0.013738799603632237   0.00011640070423357068
0.002717073795522903   -0.013820520962431231   8.191912642529895e-05
0.00297834219949956   -0.02061487863220739   -2.9368208177327282e-05
-0.001269875392692637   -0.013688571087748723   -6.694866325957821e-06
0.002717073795522903   -0.013820520962431231   8.191912642529895e-05
-0.0008748219188512303   -0.020666874551252164   -0.00017880332304400314
0.00297834219949956   -0.02061487863220739   -2.9368208177327282e-05
0.002632476997904171   -0.013738799603632237   0.00011640070423357068
-0.0009197786378319129   -0.020592119728606518   -0.00016557539503341776
0.0029199860984662367   -0.02053841599505941   -1.9499685607173347e-05
0.002632476997904171   -0.013738799603632237   0.00011640070423357068
-0.001269875392692637   -0.013688571087748723   -6.694866325957821e-06
-0.0009197786378319129   -0.020592119728606518   -0.00016557539503341776
-0.001333003773158856   -0.013617343605523411   2.624485903330838e-05
0.0029199860984662367   -0.02053841599505941   -1.9499685607173347e-05
-0.0009712832232966035   -0.020521743463605958   -0.00014858642289019262
-0.001333003773158856   -0.013617343605523411   2.624485903330838e-05
-0.0009197786378319129   -0.020592119728606518   -0.00016557539503341776
0.0029199860984662367   -0.02053841599505941   -1.9499685607173347e-05
-0.001333003773158856   -0.013617343605523411   2.624485903330838e-05
0.002537757610811651   -0.013657810837664361   0.00016618067390241227
0.002632476997904171   -0.013738799603632237   0.00011640070423357068
0.0029199860984662367   -0.02053841599505941   -1.9499685607173347e-05
-0.001333003773158856   -0.013617343605523411   2.624485903330838e-05
0.002632476997904171   -0.013738799603632237   0.00011640070423357068
-0.0009197786378319129   -0.020592119728606518   -0.00016557539503341776
0.0029199860984662367   -0.02053841599505941   -1.9499685607173347e-05
0.002537757610811651   -0.013657810837664361   0.00016618067390241227
-0.0009712832232966035   -0.020521743463605958   -0.00014858642289019262
0.0028429684567825913   -0.020458569888054338   -2.2989101634033053e-06
0.002537757610811651   -0.013657810837664361   0.00016618067390241227
-0.001333003773158856   -0.013617343605523411   2.624485903330838e-05
-0.0009712832232966035   -0.020521743463605958   -0.00014858642289019262
-0.001398365812894195   -0.013541778918194237   6.413763550337024e-05
0.0028429684567825913   -0.020458569888054338   -2.2989101634033053e-06
-0.0010291789060999728   -0.0204547734130986   -0.000126895078544873
-0.001398365812894195   -0.013541778918194237   6.413763550337024e-05
-0.0009712832232966035   -0.020521743463605958   -0.00014858642289019262
0.0028429684567825913   -0.020458569888054338   -2.2989101634033053e-06
-0.001398365812894195   -0.013541778918194237   6.413763550337024e-05
0.0024219956259730183   -0.01355825518740468   0.00022100090150976615
0.002537757610811651   -0.013657810837664361   0.00016618067390241227
0.0028429684567825913   -0.020458569888054338   -2.2989101634033053e-06
-0.001398365812894195   -0.013541778918194237   6.413763550337024e-05
0.002537757610811651   -0.013657810837664361   0.00016618067390241227
-0.0009712832232966035   -0.020521743463605958   -0.00014858642289019262
-0.0008748219188512303   -0.020666874551252164   -0.00017880332304400314
-0.0012159572630993922   -0.013756125661144123   -3.46232090433514e-05
-0.004570544157782424   -0.020626951069253094   -0.00030304118611308766
-0.0009197786378319129   -0.020592119728606518   -0.00016557539503341776
-0.0012159572630993922   -0.013756125661144123   -3.46232090433514e-05
-0.004918619262716682   -0.013739436786086395   -0.00014674815462385193
-0.004570544157782424   -0.020626951069253094   -0.00030304118611308766
-0.004967464638911286   -0.013680634760892511   -0.00012062722708712417
-0.0009197786378319129   -0.020592119728606518   -0.00016557539503341776
-0.004616518386091921   -0.020564594453178604   -0.0002824888051448088
-0.004967464638911286   -0.013680634760892511   -0.00012062722708712417
-0.004570544157782424   -0.020626951069253094   -0.00030304118611308766
-0.0009197786378319129   -0.020592119728606518   -0.00016557539503341776
-0.004967464638911286   -0.013680634760892511   -0.00012062722708712417
-0.001269875392692637   -0.013688571087748723   -6.694866325957821e-06
-0.0012159572630993922   -0.013756125661144123   -3.46232090433514e-05
-0.0009197786378319129   -0.020592119728606518   -0.00016557539503341776
-0.004967464638911286   -0.013680634760892511   -0.00012062722708712417
-0.0012159572630993922   -0.013756125661144123   -3.46232090433514e-05
-0.004570544157782424   -0.020626951069253094   -0.00030304118611308766
-0.0009197786378319129   -0.020592119728606518   -0.00016557539503341776
-0.001269875392692637   -0.013688571087748723   -6.694866325957821e-06
-0.004616518386091921   -0.020564594453178604   -0.0002824888051448088
-0.0009712832232966035   -0.020521743463605958   -0.00014858642289019262
-0.001269875392692637   -0.013688571087748723   -6.694866325957821e-06
-0.004967464638911286   -0.013680634760892511   -0.00012062722708712417
-0.004616518386091921   -0.020564594453178604   -0.0002824888051448088
-0.005018019461763658   -0.01361949700452403   -9.188898937955432e-05
-0.0009712832232966035   -0.020521743463605958   -0.00014858642289019262
-0.004663535432949087   -0.02050563255843665   -0.00025834636136052804
-0.005018019461763658   -0.01361949700452403   -9.188898937955432e-05
-0.004616518386091921   -0.020564594453178604   -0.0002824888051448088
-0.0009712832232966035   -0.020521743463605958   -0.00014858642289019262
-0.005018019461763658   -0.01361949700452403   -9.188898937955432e-05
-0.001333003773158856   -0.013617343605523411   2.624485903330838e-05
-0.001269875392692637   -0.013688571087748723   -6.694866325957821e-06
-0.0009712832232966035   -0.020521743463605958   -0.00014858642289019262
-0.005018019461763658   -0.01361949700452403   -9.188898937955432e-05
-0.001269875392692637   -0.013688571087748723   -6.694866325957821e-06
-0.004616518386091921   -0.020564594453178604   -0.0002824888051448088
-0.0009712832232966035   -0.020521743463605958   -0.00014858642289019262
-0.001333003773158856   -0.013617343605523411   2.624485903330838e-05
-0.004663535432949087   -0.02050563255843665   -0.00025834636136052804
-0.0010291789060999728   -0.0204547734130986   -0.000126895078544873
-0.001333003773158856   -0.013617343605523411   2.624485903330838e-05
-0.005018019461763658   -0.01361949700452403   -9.188898937955432e-05
-0.004663535432949087   -0.02050563255843665   -0.00025834636136052804
-0.005070677890521951   -0.013557154469847977   -6.0016281325670844e-05
-0.0010291789060999728   -0.0204547734130986   -0.000126895078544873
-0.004713562878230753   -0.020450996438010422   -0.00023057960111825718
-0.005070677890521951   -0.013557154469847977   -6.0016281325670844e-05
-0.004663535432949087   -0.02050563255843665   -0.00025834636136052804
-0.0010291789060999728   -0.0204547734130986   -0.000126895078544873
-0.005070677890521951   -0.013557154469847977   -6.0016281325670844e-05
-0.001398365812894195   -0.013541778918194237   6.413763550337024e-05
-0.001333003773158856   -0.013617343605523411   2.624485903330838e-05
-0.0010291789060999728   -0.0204547734130986   -0.000126895078544873
-0.005070677890521951   -0.013557154469847977   -6.0016281325670844e-05
-0.001333003773158856   -0.013617343605523411   2.624485903330838e-05
-0.004663535432949087   -0.02050563255843665   -0.00025834636136052804
-0.004570544157782424   -0.020626951069253094   -0.00030304118611308766
-0.004918619262716682   -0.013739436786086395   -0.00014674815462385193
-0.008205914921816276   -0.020578874446530733   -0.0004083274279377155
-0.004616518386091921   -0.020564594453178604   -0.0002824888051448088
-0.004918619262716682   -0.013739436786086395   -0.00014674815462385193
-0.00858260864632874   -0.013734763903812848   -0.0002479673962634798
-0.008205914921816276   -0.020578874446530733   -0.0004083274279377155
-0.008629357456021508   -0.013683318382027226   -0.00022293249680558345
-0.004616518386091921   -0.020564594453178604   -0.0002824888051448088
-0.008251600674308676   -0.020527983181864475   -0.0003804731533521001
-0.008629357456021508   -0.013683318382027226   -0.00022293249680558345
-0.008205914921816276   -0.020578874446530733   -0.0004083274279377155
-0.004616518386091921   -0.020564594453178604   -0.0002824888051448088
-0.008629357456021508   -0.013683318382027226   -0.00022293249680558345
-0.004967464638911286   -0.013680634760892511   -0.00012062722708712417
-0.004918619262716682   -0.013739436786086395   -0.00014674815462385193
-0.004616518386091921   -0.020564594453178604   -0.0002824888051448088
-0.008629357456021508   -0.013683318382027226   -0.00022293249680558345
-0.004918619262716682   -0.013739436786086395   -0.00014674815462385193
-0.008205914921816276   -0.020578874446530733   -0.0004083274279377155
-0.004616518386091921   -0.020564594453178604   -0.0002824888051448088
-0.004967464638911286   -0.013680634760892511   -0.00012062722708712417
-0.008251600674308676   -0.020527983181864475   -0.0003804731533521001
-0.004663535432949087   -0.02050563255843665   -0.00025834636136052804
-0.004967464638911286   -0.013680634760892511   -0.00012062722708712417
-0.008629357456021508   -0.013683318382027226   -0.00022293249680558345
-0.008251600674308676   -0.020527983181864475   -0.0003804731533521001
-0.008673893756054325   -0.013630987027540557   -0.00019560461989695605
-0.004663535432949087   -0.02050563255843665   -0.00025834636136052804
-0.008294317986527766   -0.020480671560131846   -0.0003491512875935864
-0.008673893756054325   -0.013630987027540557   -0.00019560461989695605
-0.008251600674308676   -0.020527983181864475   -0.0003804731533521001
-0.004663535432949087   -0.02050563255843665   -0.00025834636136052804
-0.008673893756054325   -0.013630987027540557   -0.00019560461989695605
-0.005018019461763658   -0.01361949700452403   -9.188898937955432e-05
-0.004967464638911286   -0.013680634760892511   -0.00012062722708712417
-0.004663535432949087   -0.02050563255843665   -0.00025834636136052804
-0.008673893756054325   -0.013630987027540557   -0.00019560461989695605
-0.004967464638911286   -0.013680634760892511   -0.00012062722708712417
-0.008251600674308676   -0.020527983181864475   -0.0003804731533521001
-0.004663535432949087   -0.02050563255843665   -0.00025834636136052804
-0.005018019461763658   -0.01361949700452403   -9.188898937955432e-05
-0.008294317986527766   -0.020480671560131846   -0.0003491512875935864
-0.004713562878230753   -0.020450996438010422   -0.00023057960111825718
-0.005018019461763658   -0.01361949700452403   -9.188898937955432e-05
-0.008673893756054325   -0.013630987027540557   -0.00019560461989695605
-0.008294317986527766   -0.020480671560131846   -0.0003491512875935864
-0.008717984944040056   -0.01357746438790605   -0.00016610970296870384
-0.004713562878230753   -0.020450996438010422   -0.00023057960111825718
-0.008337188511708078   -0.020437067903467   -0.00031453223111967696
-0.008717984944040056   -0.01357746438790605   -0.00016610970296870384
-0.008294317986527766   -0.020480671560131846   -0.0003491512875935864
-0.004713562878230753   -0.020450996438010422   -0.00023057960111825718
-0.008717984944040056   -0.01357746438790605   -0.00016610970296870384
-0.005070677890521951   -0.013557154469847977   -6.0016281325670844e-05
-0.005018019461763658   -0.01361949700452403   -9.188898937955432e-05
-0.004713562878230753   -0.020450996438010422   -0.00023057960111825718
-0.008717984944040056   -0.01357746438790605   -0.00016610970296870384
-0.005018019461763658   -0.01361949700452403   -9.188898937955432e-05
-0.008294317986527766   -0.020480671560131846   -0.0003491512875935864
-0.008205914921816276   -0.020578874446530733   -0.0004083274279377155
-0.00858260864632874   -0.013734763903812848   -0.0002479673962634798
-0.011907086444521929   -0.020513749533245675   -0.0004937588386011165
-0.008251600674308676   -0.020527983181864475   -0.0003804731533521001
-0.00858260864632874   -0.013734763903812848   -0.0002479673962634798
-0.012324320478147936   -0.013713315093732196   -0.000332729514688411
-0.011907086444521929   -0.020513749533245675   -0.0004937588386011165
-0.012368885242821336   -0.013671574157479655   -0.00030892168277419133
-0.008251600674308676   -0.020527983181864475   -0.0003804731533521001
-0.011950818157170435   -0.02047491786053605   -0.00045869043532229664
-0.012368885242821336   -0.013671574157479655   -0.00030892168277419133
-0.011907086444521929   -0.020513749533245675   -0.0004937588386011165
-0.008251600674308676   -0.020527983181864475   -0.0003804731533521001
-0.012368885242821336   -0.013671574157479655   -0.00030892168277419133
-0.008629357456021508   -0.013683318382027226   -0.00022293249680558345
-0.00858260864632874   -0.013734763903812848   -0.0002479673962634798
-0.008251600674308676   -0.020527983181864475   -0.0003804731533521001
-0.012368885242821336   -0.013671574157479655   -0.00030892168277419133
-0.00858260864632874   -0.013734763903812848   -0.0002479673962634798
-0.011907086444521929   -0.020513749533245675   -0.0004937588386011165
-0.008251600674308676   -0.020527983181864475   -0.0003804731533521001
-0.008629357456021508   -0.013683318382027226   -0.00022293249680558345
-0.011950818157170435   -0.02047491786053605   -0.00045869043532229664
-0.008294317986527766   -0.020480671560131846   -0.0003491512875935864
-0.008629357456021508   -0.013683318382027226   -0.00022293249680558345
-0.012368885242821336   -0.013671574157479655   -0.00030892168277419133
-0.011950818157170435   -0.02047491786053605   -0.00045869043532229664
-0.012406587563483245   -0.013627559584030353   -0.00028347294652620415
-0.008294317986527766   -0.020480671560131846   -0.0003491512875935864
-0.011983867291224484   -0.020438346673075054   -0.00042072033471929554
-0.012406587563483245   -0.013627559584030353   -0.00028347294652620415
-0.011950818157170435   -0.02047491786053605   -0.00045869043532229664
-0.008294317986527766   -0.020480671560131846   -0.0003491512875935864
-0.012406587563483245   -0.013627559584030353   -0.00028347294652620415
-0.008673893756054325   -0.013630987027540557   -0.00019560461989695605
-0.008629357456021508   -0.013683318382027226   -0.00022293249680558345
-0.008294317986527766   -0.020480671560131846   -0.0003491512875935864
-0.012406587563483245   -0.013627559584030353   -0.00028347294652620415
-0.008629357456021508   -0.013683318382027226   -0.00022293249680558345
-0.011950818157170435   -0.02047491786053605   -0.00045869043532229664
-0.008294317986527766   -0.020480671560131846   -0.0003491512875935864
-0.008673893756054325   -0.013630987027540557   -0.00019560461989695605
-0.011983867291224484   -0.020438346673075054   -0.00042072033471929554
-0.008337188511708078   -0.020437067903467   -0.00031453223111967696
-0.008673893756054325   -0.013630987027540557   -0.00019560461989695605
-0.012406587563483245   -0.013627559584030353   -0.00028347294652620415
-0.011983867291224484   -0.020438346673075054   -0.00042072033471929554
-0.012442218504537549   -0.013582425333210964   -0.00025568061636336285
-0.008337188511708078   -0.020437067903467   -0.00031453223111967696
-0.012016683766820097   -0.02040569697194442   -0.0003790970719595592
-0.012442218504537549   -0.013582425333210964   -0.00025568061636336285
-0.011983867291224484   -0.020438346673075054   -0.00042072033471929554
-0.008337188511708078   -0.020437067903467   -0.00031453223111967696
-0.012442218504537549   -0.013582425333210964   -0.00025568061636336285
-0.008717984944040056   -0.01357746438790605   -0.00016610970296870384
-0.008673893756054325   -0.013630987027540557   -0.00019560461989695605
-0.008337188511708078   -0.020437067903467   -0.00031453223111967696
-0.012442218504537549   -0.013582425333210964   -0.00025568061636336285
-0.008673893756054325   -0.013630987027540557   -0.00019560461989695605
-0.011983867291224484   -0.020438346673075054   -0.00042072033471929554
-0.011907086444521929   -0.020513749533245675   -0.0004937588386011165
-0.012324320478147936   -0.013713315093732196   -0.000332729514688411
-0.015830832475189273   -0.020436580740634265   -0.0005568360473380194
-0.011950818157170435   -0.02047491786053605   -0.00045869043532229664
-0.012324320478147936   -0.013713315093732196   -0.000332729514688411
-0.016245000665287765   -0.013677813927948078   -0.0003950207689496077
-0.015830832475189273   -0.020436580740634265   -0.0005568360473380194
-0.01627239231677694   -0.013642959858150134   -0.00037697979240084177
-0.011950818157170435   -0.02047491786053605   -0.00045869043532229664
-0.015836916346183987   -0.020405770464882737   -0.0005179025202955736
-0.01627239231677694   -0.013642959858150134   -0.00037697979240084177
-0.015830832475189273   -0.020436580740634265   -0.0005568360473380194
-0.011950818157170435   -0.02047491786053605   -0.00045869043532229664
-0.01627239231677694   -0.013642959858150134   -0.00037697979240084177
-0.012368885242821336   -0.013671574157479655   -0.00030892168277419133
-0.012324320478147936   -0.013713315093732196   -0.000332729514688411
-0.011950818157170435   -0.02047491786053605   -0.00045869043532229664
-0.01627239231677694   -0.013642959858150134   -0.00037697979240084177
-0.012324320478147936   -0.013713315093732196   -0.000332729514688411
-0.015830832475189273   -0.020436580740634265   -0.0005568360473380194
-0.011950818157170435   -0.02047491786053605   -0.00045869043532229664
-0.012368885242821336   -0.013671574157479655   -0.00030892168277419133
-0.015836916346183987   -0.020405770464882737   -0.0005179025202955736
-0.011983867291224484   -0.020438346673075054   -0.00042072033471929554
-0.012368885242821336   -0.013671574157479655   -0.00030892168277419133
-0.01627239231677694   -0.013642959858150134   -0.00037697979240084177
-0.015836916346183987   -0.020405770464882737   -0.0005179025202955736
-0.016297439030458362   -0.013603443671824401   -0.0003549390847627303
-0.011983867291224484   -0.020438346673075054   -0.00042072033471929554
-0.0158432689162944   -0.020374718439207618   -0.00047313377429528656
-0.016297439030458362   -0.013603443671824401   -0.0003549390847627303
-0.015836916346183987   -0.020405770464882737   -0.0005179025202955736
-0.011983867291224484   -0.020438346673075054   -0.00042072033471929554
-0.016297439030458362   -0.013603443671824401   -0.0003549390847627303
-0.012406587563483245   -0.013627559584030353   -0.00028347294652620415
-0.012368885242821336   -0.013671574157479655   -0.00030892168277419133
-0.011983867291224484   -0.020438346673075054   -0.00042072033471929554
-0.016297439030458362   -0.013603443671824401   -0.0003549390847627303
-0.012368885242821336   -0.013671574157479655   -0.00030892168277419133
-0.015836916346183987   -0.020405770464882737   -0.0005179025202955736
-0.011983867291224484   -0.020438346673075054   -0.00042072033471929554
-0.012406587563483245   -0.013627559584030353   -0.00028347294652620415
-0.0158432689162944   -0.020374718439207618   -0.00047313377429528656
-0.012016683766820097   -0.02040569697194442   -0.0003790970719595592
-0.012406587563483245   -0.013627559584030353   -0.00028347294652620415
-0.016297439030458362   -0.013603443671824401   -0.0003549390847627303
-0.0158432689162944   -0.020374718439207618   -0.00047313377429528656
-0.016309234817587673   -0.013567412228477179   -0.00032988419405913526
-0.012016683766820097   -0.02040569697194442   -0.0003790970719595592
-0.015827394229293065   -0.02035479305683777   -0.00042321800167283933
-0.016309234817587673   -0.013567412228477179   -0.00032988419405913526
-0.0158432689162944   -0.020374718439207618   -0.00047313377429528656
-0.012016683766820097   -0.02040569697194442   -0.0003790970719595592
-0.016309234817587673   -0.013567412228477179   -0.00032988419405913526
-0.012442218504537549   -0.013582425333210964   -0.00025568061636336285
-0.012406587563483245   -0.013627559584030353   -0.00028347294652620415
-0.012016683766820097   -0.02040569697194442   -0.0003790970719595592
-0.016309234817587673   -0.013567412228477179   -0.00032988419405913526
-0.012406587563483245   -0.013627559584030353   -0.00028347294652620415
-0.0158432689162944   -0.020374718439207618   -0.00047313377429528656
0.002717073795522903   -0.013820520962431231   8.191912642529895e-05
0.001906894070164247   -0.00694664930113101   8.83915578282056e-05
-0.0012159572630993922   -0.013756125661144123   -3.46232090433514e-05
0.002632476997904171   -0.013738799603632237   0.00011640070423357068
0.001906894070164247   -0.00694664930113101   8.83915578282056e-05
-0.0017645621101033276   -0.006857602912639147   4.664031643193981e-05
-0.0012159572630993922   -0.013756125661144123   -3.46232090433514e-05
-0.0018183310660928663   -0.006824010705228848   8.56507280861927e-05
0.002632476997904171   -0.013738799603632237   0.00011640070423357068
-0.001269875392692637   -0.013688571087748723   -6.694866325957821e-06
-0.0018183310660928663   -0.006824010705228848   8.56507280861927e-05
-0.0012159572630993922   -0.013756125661144123   -3.46232090433514e-05
0.002632476997904171   -0.013738799603632237   0.00011640070423357068
-0.0018183310660928663   -0.006824010705228848   8.56507280861927e-05
0.0017391509477287144   -0.0068596048852262856   0.00018475985554218405
0.001906894070164247   -0.00694664930113101   8.83915578282056e-05
0.002632476997904171   -0.013738799603632237   0.00011640070423357068
-0.0018183310660928663   -0.006824010705228848   8.56507280861927e-05
0.001906894070164247   -0.00694664930113101   8.83915578282056e-05
-0.0012159572630993922   -0.013756125661144123   -3.46232090433514e-05
0.002632476997904171   -0.013738799603632237   0.00011640070423357068
0.0017391509477287144   -0.0068596048852262856   0.00018475985554218405
-0.001269875392692637   -0.013688571087748723   -6.694866325957821e-06
0.002537757610811651   -0.013657810837664361   0.00016618067390241227
0.0017391509477287144   -0.0068596048852262856   0.00018475985554218405
-0.0018183310660928663   -0.006824010705228848   8.56507280861927e-05
-0.001269875392692637   -0.013688571087748723   -6.694866325957821e-06
-0.0018892279915441533   -0.006763403863657238   0.00013308701683935602
0.002537757610811651   -0.013657810837664361   0.00016618067390241227
-0.001333003773158856   -0.013617343605523411   2.624485903330838e-05
-0.0018892279915441533   -0.006763403863657238   0.00013308701683935602
-0.001269875392692637   -0.013688571087748723   -6.694866325957821e-06
0.002537757610811651   -0.013657810837664361   0.00016618067390241227
-0.0018892279915441533   -0.006763403863657238   0.00013308701683935602
0.001641027379953301   -0.0067887754446058135   0.0002565474085576068
0.0017391509477287144   -0.0068596048852262856   0.00018475985554218405
0.002537757610811651   -0.013657810837664361   0.00016618067390241227
-0.0018892279915441533   -0.006763403863657238   0.00013308701683935602
0.0017391509477287144   -0.0068596048852262856   0.00018475985554218405
-0.001269875392692637   -0.013688571087748723   -6.694866325957821e-06
0.002537757610811651   -0.013657810837664361   0.00016618067390241227
0.001641027379953301   -0.0067887754446058135   0.0002565474085576068
-0.001333003773158856   -0.013617343605523411   2.624485903330838e-05
0.0024219956259730183   -0.01355825518740468   0.00022100090150976615
0.001641027379953301   -0.0067887754446058135   0.0002565474085576068
-0.0018892279915441533   -0.006763403863657238   0.00013308701683935602
-0.001333003773158856   -0.013617343605523411   2.624485903330838e-05
-0.0019489351293895097   -0.0066983784659199455   0.00017483067563164872
0.0024219956259730183   -0.01355825518740468   0.00022100090150976615
-0.001398365812894195   -0.013541778918194237   6.413763550337024e-05
-0.0019489351293895097   -0.0066983784659199455   0.00017483067563164872
-0.001333003773158856   -0.013617343605523411   2.624485903330838e-05
0.0024219956259730183   -0.01355825518740468   0.00022100090150976615
-0.0019489351293895097   -0.0066983784659199455   0.00017483067563164872
0.001515111665894489   -0.0066801766665281846   0.000338807298764752
0.001641027379953301   -0.0067887754446058135   0.0002565474085576068
0.0024219956259730183   -0.01355825518740468   0.00022100090150976615
-0.0019489351293895097   -0.0066983784659199455   0.00017483067563164872
0.001641027379953301   -0.0067887754446058135   0.0002565474085576068
-0.001333003773158856   -0.013617343605523411   2.624485903330838e-05
-0.0012159572630993922   -0.013756125661144123   -3.46232090433514e-05
-0.0017645621101033276   -0.006857602912639147   4.664031643193981e-05
-0.004918619262716682   -0.013739436786086395   -0.00014674815462385193
-0.001269875392692637   -0.013688571087748723   -6.694866325957821e-06
-0.0017645621101033276   -0.006857602912639147   4.664031643193981e-05
-0.005256026226149004   -0.006959696410088829   -4.2040876939597135e-05
-0.004918619262716682   -0.013739436786086395   -0.00014674815462385193
-0.005305740593655263   -0.006907776709199651   -1.432461880625761e-05
-0.001269875392692637   -0.013688571087748723   -6.694866325957821e-06
-0.004967464638911286   -0.013680634760892511   -0.00012062722708712417
-0.005305740593655263   -0.006907776709199651   -1.432461880625761e-05
-0.004918619262716682   -0.013739436786086395   -0.00014674815462385193
-0.001269875392692637   -0.013688571087748723   -6.694866325957821e-06
-0.005305740593655263   -0.006907776709199651   -1.432461880625761e-05
-0.0018183310660928663   -0.006824010705228848   8.56507280861927e-05
-0.0017645621101033276   -0.006857602912639147   4.664031643193981e-05
-0.001269875392692637   -0.013688571087748723   -6.694866325957821e-06
-0.005305740593655263   -0.006907776709199651   -1.432461880625761e-05
-0.0017645621101033276   -0.006857602912639147   4.664031643193981e-05
-0.004918619262716682   -0.013739436786086395   -0.00014674815462385193
-0.001269875392692637   -0.013688571087748723   -6.694866325957821e-06
-0.0018183310660928663   -0.006824010705228848   8.56507280861927e-05
-0.004967464638911286   -0.013680634760892511   -0.00012062722708712417
-0.001333003773158856   -0.013617343605523411   2.624485903330838e-05
-0.0018183310660928663   -0.006824010705228848   8.56507280861927e-05
-0.005305740593655263   -0.006907776709199651   -1.432461880625761e-05
-0.004967464638911286   -0.013680634760892511   -0.00012062722708712417
-0.005357889003137143   -0.0068490127076621995   1.5063777771692418e-05
-0.001333003773158856   -0.013617343605523411   2.624485903330838e-05
-0.005018019461763658   -0.01361949700452403   -9.188898937955432e-05
-0.005357889003137143   -0.0068490127076621995   1.5063777771692418e-05
-0.004967464638911286   -0.013680634760892511   -0.00012062722708712417
-0.001333003773158856   -0.013617343605523411   2.624485903330838e-05
-0.005357889003137143   -0.0068490127076621995   1.5063777771692418e-05
-0.0018892279915441533   -0.006763403863657238   0.00013308701683935602
-0.0018183310660928663   -0.006824010705228848   8.56507280861927e-05
-0.001333003773158856   -0.013617343605523411   2.624485903330838e-05
-0.005357889003137143   -0.0068490127076621995   1.5063777771692418e-05
-0.0018183310660928663   -0.006824010705228848   8.56507280861927e-05
-0.004967464638911286   -0.013680634760892511   -0.00012062722708712417
-0.001333003773158856   -0.013617343605523411   2.624485903330838e-05
-0.0018892279915441533   -0.006763403863657238   0.00013308701683935602
-0.005018019461763658   -0.01361949700452403   -9.188898937955432e-05
-0.001398365812894195   -0.013541778918194237   6.413763550337024e-05
-0.0018892279915441533   -0.006763403863657238   0.00013308701683935602
-0.005357889003137143   -0.0068490127076621995   1.5063777771692418e-05
-0.005018019461763658   -0.01361949700452403   -9.188898937955432e-05
-0.005407547623886059   -0.006784605717300981   4.750780586320524e-05
-0.001398365812894195   -0.013541778918194237   6.413763550337024e-05
-0.005070677890521951   -0.013557154469847977   -6.0016281325670844e-05
-0.005407547623886059   -0.006784605717300981   4.750780586320524e-05
-0.005018019461763658   -0.01361949700452403   -9.188898937955432e-05
-0.001398365812894195   -0.013541778918194237   6.413763550337024e-05
-0.005407547623886059   -0.006784605717300981   4.750780586320524e-05
-0.0019489351293895097   -0.0066983784659199455   0.00017483067563164872
-0.0018892279915441533   -0.006763403863657238   0.00013308701683935602
-0.001398365812894195   -0.013541778918194237   6.413763550337024e-05
-0.005407547623886059   -0.006784605717300981   4.750780586320524e-05
-0.0018892279915441533   -0.006763403863657238   0.00013308701683935602
-0.005018019461763658   -0.01361949700452403   -9.188898937955432e-05
-0.004918619262716682   -0.013739436786086395   -0.00014674815462385193
-0.005256026226149004   -0.006959696410088829   -4.2040876939597135e-05
-0.00858260864632874   -0.013734763903812848   -0.0002479673962634798
-0.004967464638911286   -0.013680634760892511   -0.00012062722708712417
-0.005256026226149004   -0.006959696410088829   -4.2040876939597135e-05
-0.008831859487775741   -0.007039469968083177   -0.00014068413977511574
-0.00858260864632874   -0.013734763903812848   -0.0002479673962634798
-0.008876599977083592   -0.006986124439037708   -0.00011913881882318188
-0.004967464638911286   -0.013680634760892511   -0.00012062722708712417
-0.008629357456021508   -0.013683318382027226   -0.00022293249680558345
-0.008876599977083592   -0.006986124439037708   -0.00011913881882318188
-0.00858260864632874   -0.013734763903812848   -0.0002479673962634798
-0.004967464638911286   -0.013680634760892511   -0.00012062722708712417
-0.008876599977083592   -0.006986124439037708   -0.00011913881882318188
-0.005305740593655263   -0.006907776709199651   -1.432461880625761e-05
-0.005256026226149004   -0.006959696410088829   -4.2040876939597135e-05
-0.004967464638911286   -0.013680634760892511   -0.00012062722708712417
-0.008876599977083592   -0.006986124439037708   -0.00011913881882318188
-0.005256026226149004   -0.006959696410088829   -4.2040876939597135e-05
-0.00858260864632874   -0.013734763903812848   -0.0002479673962634798
-0.004967464638911286   -0.013680634760892511   -0.00012062722708712417
-0.005305740593655263   -0.006907776709199651   -1.432461880625761e-05
-0.008629357456021508   -0.013683318382027226   -0.00022293249680558345
-0.005018019461763658   -0.01361949700452403   -9.188898937955432e-05
-0.005305740593655263   -0.006907776709199651   -1.432461880625761e-05
-0.008876599977083592   -0.006986124439037708   -0.00011913881882318188
-0.008629357456021508   -0.013683318382027226   -0.00022293249680558345
-0.00891948727805605   -0.006929719889775068   -9.762387392937056e-05
-0.005018019461763658   -0.01361949700452403   -9.188898937955432e-05
-0.008673893756054325   -0.013630987027540557   -0.00019560461989695605
-0.00891948727805605   -0.006929719889775068   -9.762387392937056e-05
-0.008629357456021508   -0.013683318382027226   -0.00022293249680558345
-0.005018019461763658   -0.01361949700452403   -9.188898937955432e-05
-0.00891948727805605   -0.006929719889775068   -9.762387392937056e-05
-0.005357889003137143   -0.0068490127076621995   1.5063777771692418e-05
-0.005305740593655263   -0.006907776709199651   -1.432461880625761e-05
-0.005018019461763658   -0.01361949700452403   -9.188898937955432e-05
-0.00891948727805605   -0.006929719889775068   -9.762387392937056e-05
-0.005305740593655263   -0.006907776709199651   -1.432461880625761e-05
-0.008629357456021508   -0.013683318382027226   -0.00022293249680558345
-0.005018019461763658   -0.01361949700452403   -9.188898937955432e-05
-0.005357889003137143   -0.0068490127076621995   1.5063777771692418e-05
-0.008673893756054325   -0.013630987027540557   -0.00019560461989695605
-0.005070677890521951   -0.013557154469847977   -6.0016281325670844e-05
-0.005357889003137143   -0.0068490127076621995   1.5063777771692418e-05
-0.00891948727805605   -0.006929719889775068   -9.762387392937056e-05
-0.008673893756054325   -0.013630987027540557   -0.00019560461989695605
-0.008959069982572463   -0.006868601721143394   -7.415856297119342e-05
-0.005070677890521951   -0.013557154469847977   -6.0016281325670844e-05
-0.008717984944040056   -0.01357746438790605   -0.00016610970296870384
-0.008959069982572463   -0.006868601721143394   -7.415856297119342e-05
-0.008673893756054325   -0.013630987027540557   -0.00019560461989695605
-0.005070677890521951   -0.013557154469847977   -6.0016281325670844e-05
-0.008959069982572463   -0.006868601721143394   -7.415856297119342e-05
-0.005407547623886059   -0.006784605717300981   4.750780586320524e-05
-0.005357889003137143   -0.0068490127076621995   1.5063777771692418e-05
-0.005070677890521951   -0.013557154469847977   -6.0016281325670844e-05
-0.008959069982572463   -0.006868601721143394   -7.415856297119342e-05
-0.005357889003137143   -0.0068490127076621995   1.5063777771692418e-05
-0.008673893756054325   -0.013630987027540557   -0.00019560461989695605
-0.00858260864632874   -0.013734763903812848   -0.0002479673962634798
-0.008831859487775741   -0.007039469968083177   -0.00014068413977511574
-0.012324320478147936   -0.013713315093732196   -0.000332729514688411
-0.008629357456021508   -0.013683318382027226   -0.00022293249680558345
-0.008831859487775741   -0.007039469968083177   -0.00014068413977511574
-0.012533334005349187   -0.0070722656418306775   -0.00023166660507563375
-0.012324320478147936   -0.013713315093732196   -0.000332729514688411
-0.01257366112758698   -0.007024456974296799   -0.00021590525563803826
-0.008629357456021508   -0.013683318382027226   -0.00022293249680558345
-0.012368885242821336   -0.013671574157479655   -0.00030892168277419133
-0.01257366112758698   -0.007024456974296799   -0.00021590525563803826
-0.012324320478147936   -0.013713315093732196   -0.000332729514688411
-0.008629357456021508   -0.013683318382027226   -0.00022293249680558345
-0.01257366112758698   -0.007024456974296799   -0.00021590525563803826
-0.008876599977083592   -0.006986124439037708   -0.00011913881882318188
-0.008831859487775741   -0.007039469968083177   -0.00014068413977511574
-0.008629357456021508   -0.013683318382027226   -0.00022293249680558345
-0.01257366112758698   -0.007024456974296799   -0.00021590525563803826
-0.008831859487775741   -0.007039469968083177   -0.00014068413977511574
-0.012324320478147936   -0.013713315093732196   -0.000332729514688411
-0.008629357456021508   -0.013683318382027226   -0.00022293249680558345
-0.008876599977083592   -0.006986124439037708   -0.00011913881882318188
-0.012368885242821336   -0.013671574157479655   -0.00030892168277419133
-0.008673893756054325   -0.013630987027540557   -0.00019560461989695605
-0.008876599977083592   -0.006986124439037708   -0.00011913881882318188
-0.01257366112758698   -0.007024456974296799   -0.00021590525563803826
-0.012368885242821336   -0.013671574157479655   -0.00030892168277419133
-0.012609600895204843   -0.006972301515727137   -0.00020055705644310046
-0.008673893756054325   -0.013630987027540557   -0.00019560461989695605
-0.012406587563483245   -0.013627559584030353   -0.00028347294652620415
-0.012609600895204843   -0.006972301515727137   -0.00020055705644310046
-0.012368885242821336   -0.013671574157479655   -0.00030892168277419133
-0.008673893756054325   -0.013630987027540557   -0.00019560461989695605
-0.012609600895204843   -0.006972301515727137   -0.00020055705644310046
-0.00891948727805605   -0.006929719889775068   -9.762387392937056e-05
-0.008876599977083592   -0.006986124439037708   -0.00011913881882318188
-0.008673893756054325   -0.013630987027540557   -0.00019560461989695605
-0.012609600895204843   -0.006972301515727137   -0.00020055705644310046
-0.008876599977083592   -0.006986124439037708   -0.00011913881882318188
-0.012368885242821336   -0.013671574157479655   -0.00030892168277419133
-0.008673893756054325   -0.013630987027540557   -0.00019560461989695605
-0.00891948727805605   -0.006929719889775068   -9.762387392937056e-05
-0.012406587563483245   -0.013627559584030353   -0.00028347294652620415
-0.008717984944040056   -0.01357746438790605   -0.00016610970296870384
-0.00891948727805605   -0.006929719889775068   -9.762387392937056e-05
-0.012609600895204843   -0.006972301515727137   -0.00020055705644310046
-0.012406587563483245   -0.013627559584030353   -0.00028347294652620415
-0.012642160618970697   -0.006916741554832856   -0.0001847108480090044
-0.008717984944040056   -0.01357746438790605   -0.00016610970296870384
-0.012442218504537549   -0.013582425333210964   -0.00025568061636336285
-0.012642160618970697   -0.006916741554832856   -0.0001847108480090044
-0.012406587563483245   -0.013627559584030353   -0.00028347294652620415
-0.008717984944040056   -0.01357746438790605   -0.00016610970296870384
-0.012642160618970697   -0.006916741554832856   -0.0001847108480090044
-0.008959069982572463   -0.006868601721143394   -7.415856297119342e-05
-0.00891948727805605   -0.006929719889775068   -9.762387392937056e-05
-0.008717984944040056   -0.01357746438790605   -0.00016610970296870384
-0.012642160618970697   -0.006916741554832856   -0.0001847108480090044
-0.00891948727805605   -0.006929719889775068   -9.762387392937056e-05
-0.012406587563483245   -0.013627559584030353   -0.00028347294652620415
-0.012324320478147936   -0.013713315093732196   -0.000332729514688411
-0.012533334005349187   -0.0070722656418306775   -0.00023166660507563375
-0.016245000665287765   -0.013677813927948078   -0.0003950207689496077
-0.012368885242821336   -0.013671574157479655   -0.00030892168277419133
-0.012533334005349187   -0.0070722656418306775   -0.00023166660507563375
-0.01636774125481731   -0.007075835806067455   -0.00030692015107855035
-0.016245000665287765   -0.013677813927948078   -0.0003950207689496077
-0.01640230212560526   -0.007029476425583985   -0.0003000471645545134
-0.012368885242821336   -0.013671574157479655   -0.00030892168277419133
-0.01627239231677694   -0.013642959858150134   -0.00037697979240084177
-0.01640230212560526   -0.007029476425583985   -0.0003000471645545134
-0.016245000665287765   -0.013677813927948078   -0.0003950207689496077
-0.012368885242821336   -0.013671574157479655   -0.00030892168277419133
-0.01640230212560526   -0.007029476425583985   -0.0003000471645545134
-0.01257366112758698   -0.007024456974296799   -0.00021590525563803826
-0.012533334005349187   -0.0070722656418306775   -0.00023166660507563375
-0.012368885242821336   -0.013671574157479655   -0.00030892168277419133
-0.01640230212560526   -0.007029476425583985   -0.0003000471645545134
-0.012533334005349187   -0.0070722656418306775   -0.00023166660507563375
-0.016245000665287765   -0.013677813927948078   -0.0003950207689496077
-0.012368885242821336   -0.013671574157479655   -0.00030892168277419133
-0.01257366112758698   -0.007024456974296799   -0.00021590525563803826
-0.01627239231677694   -0.013642959858150134   -0.00037697979240084177
-0.012406587563483245   -0.013627559584030353   -0.00028347294652620415
-0.01257366112758698   -0.007024456974296799   -0.00021590525563803826
-0.01640230212560526   -0.007029476425583985   -0.0003000471645545134
-0.01627239231677694   -0.013642959858150134   -0.00037697979240084177
-0.01643326574971145   -0.006979269050412842   -0.0002919891271951603
-0.012406587563483245   -0.013627559584030353   -0.00028347294652620415
-0.016297439030458362   -0.013603443671824401   -0.0003549390847627303
-0.01643326574971145   -0.006979269050412842   -0.0002919891271951603
-0.01627239231677694   -0.013642959858150134   -0.00037697979240084177
-0.012406587563483245   -0.013627559584030353   -0.00028347294652620415
-0.01643326574971145   -0.006979269050412842   -0.0002919891271951603
-0.012609600895204843   -0.006972301515727137   -0.00020055705644310046
-0.01257366112758698   -0.007024456974296799   -0.00021590525563803826
-0.012406587563483245   -0.013627559584030353   -0.00028347294652620415
-0.01643326574971145   -0.006979269050412842   -0.0002919891271951603
-0.01257366112758698   -0.007024456974296799   -0.00021590525563803826
-0.01627239231677694   -0.013642959858150134   -0.00037697979240084177
-0.012406587563483245   -0.013627559584030353   -0.00028347294652620415
-0.012609600895204843   -0.006972301515727137   -0.00020055705644310046
-0.016297439030458362   -0.013603443671824401   -0.0003549390847627303
-0.012442218504537549   -0.013582425333210964   -0.00025568061636336285
-0.012609600895204843   -0.006972301515727137   -0.00020055705644310046
-0.01643326574971145   -0.006979269050412842   -0.0002919891271951603
-0.016297439030458362   -0.013603443671824401   -0.0003549390847627303
-0.016459190086472623   -0.006926120121152312   -0.0002844271513387054
-0.012442218504537549   -0.013582425333210964   -0.00025568061636336285
-0.016309234817587673   -0.013567412228477179   -0.00032988419405913526
-0.016459190086472623   -0.006926120121152312   -0.0002844271513387054
-0.016297439030458362   -0.013603443671824401   -0.0003549390847627303
-0.012442218504537549   -0.013582425333210964   -0.00025568061636336285
-0.016459190086472623   -0.006926120121152312   -0.0002844271513387054
-0.012642160618970697   -0.006916741554832856   -0.0001847108480090044
-0.012609600895204843   -0.006972301515727137   -0.00020055705644310046
-0.012442218504537549   -0.013582425333210964   -0.00025568061636336285
-0.016459190086472623   -0.006926120121152312   -0.0002844271513387054
-0.012609600895204843   -0.006972301515727137   -0.00020055705644310046
-0.016297439030458362   -0.013603443671824401   -0.0003549390847627303
0.001906894070164247   -0.00694664930113101   8.83915578282056e-05
0.0   0.0   0.0
-0.0017645621101033276   -0.006857602912639147   4.664031643193981e-05
0.0017391509477287144   -0.0068596048852262856   0.00018475985554218405
0.0   0.0   0.0
-0.00221165465055579   -0.0005667329328633802   -1.7220511420155985e-05
-0.0017645621101033276   -0.006857602912639147   4.664031643193981e-05
-0.0023439230817245277   -0.0004416478263860767   5.957225893575151e-05
0.0017391509477287144   -0.0068596048852262856   0.00018475985554218405
-0.0018183310660928663   -0.006824010705228848   8.56507280861927e-05
-0.0023439230817245277   -0.0004416478263860767   5.957225893575151e-05
-0.0017645621101033276   -0.006857602912639147   4.664031643193981e-05
0.0017391509477287144   -0.0068596048852262856   0.00018475985554218405
-0.0023439230817245277   -0.0004416478263860767   5.957225893575151e-05
0.0   0.0   0.0
0.0   0.0   0.0
0.0017391509477287144   -0.0068596048852262856   0.00018475985554218405
-0.0023439230817245277   -0.0004416478263860767   5.957225893575151e-05
0.0   0.0   0.0
-0.0017645621101033276   -0.006857602912639147   4.664031643193981e-05
0.0017391509477287144   -0.0068596048852262856   0.00018475985554218405
0.0   0.0   0.0
-0.0018183310660928663   -0.006824010705228848   8.56507280861927e-05
0.001641027379953301   -0.0067887754446058135   0.0002565474085576068
0.0   0.0   0.0
-0.0023439230817245277   -0.0004416478263860767   5.957225893575151e-05
-0.0018183310660928663   -0.006824010705228848   8.56507280861927e-05
-0.0024271143261512763   -0.00038152897932307956   0.00010410154135097827
0.001641027379953301   -0.0067887754446058135   0.0002565474085576068
-0.0018892279915441533   -0.006763403863657238   0.00013308701683935602
-0.0024271143261512763   -0.00038152897932307956   0.00010410154135097827
-0.0018183310660928663   -0.006824010705228848   8.56507280861927e-05
0.001641027379953301   -0.0067887754446058135   0.0002565474085576068
-0.0024271143261512763   -0.00038152897932307956   0.00010410154135097827
0.0   0.0   0.0
0.0   0.0   0.0
0.001641027379953301   -0.0067887754446058135   0.0002565474085576068
-0.0024271143261512763   -0.00038152897932307956   0.00010410154135097827
0.0   0.0   0.0
-0.0018183310660928663   -0.006824010705228848   8.56507280861927e-05
0.001641027379953301   -0.0067887754446058135   0.0002565474085576068
0.0   0.0   0.0
-0.0018892279915441533   -0.006763403863657238   0.00013308701683935602
0.001515111665894489   -0.0066801766665281846   0.000338807298764752
0.0   0.0   0.0
-0.0024271143261512763   -0.00038152897932307956   0.00010410154135097827
-0.0018892279915441533   -0.006763403863657238   0.00013308701683935602
-0.0025389656991479295   -0.0003015927323366078   0.00015525213934949528
0.001515111665894489   -0.0066801766665281846   0.000338807298764752
-0.0019489351293895097   -0.0066983784659199455   0.00017483067563164872
-0.0025389656991479295   -0.0003015927323366078   0.00015525213934949528
-0.0018892279915441533   -0.006763403863657238   0.00013308701683935602
0.001515111665894489   -0.0066801766665281846   0.000338807298764752
-0.0025389656991479295   -0.0003015927323366078   0.00015525213934949528
0.0   0.0   0.0
0.0   0.0   0.0
0.001515111665894489   -0.0066801766665281846   0.000338807298764752
-0.0025389656991479295   -0.0003015927323366078   0.00015525213934949528
0.0   0.0   0.0
-0.0018892279915441533   -0.006763403863657238   0.00013308701683935602
-0.0017645621101033276   -0.006857602912639147   4.664031643193981e-05
-0.00221165465055579   -0.0005667329328633802   -1.7220511420155985e-05
-0.005256026226149004   -0.006959696410088829   -4.2040876939597135e-05
-0.0018183310660928663   -0.006824010705228848   8.56507280861927e-05
-0.00221165465055579   -0.0005667329328633802   -1.7220511420155985e-05
-0.005411416599321613   -0.0007445315185087666   -1.4194482834190613e-05
-0.005256026226149004   -0.006959696410088829   -4.2040876939597135e-05
-0.00547980940026972   -0.0006764953784561813   5.7555530226353125e-06
-0.0018183310660928663   -0.006824010705228848   8.56507280861927e-05
-0.005305740593655263   -0.006907776709199651   -1.432461880625761e-05
-0.00547980940026972   -0.0006764953784561813   5.7555530226353125e-06
-0.005256026226149004   -0.006959696410088829   -4.2040876939597135e-05
-0.0018183310660928663   -0.006824010705228848   8.56507280861927e-05
-0.00547980940026972   -0.0006764953784561813   5.7555530226353125e-06
-0.0023439230817245277   -0.0004416478263860767   5.957225893575151e-05
-0.00221165465055579   -0.0005667329328633802   -1.7220511420155985e-05
-0.0018183310660928663   -0.006824010705228848   8.56507280861927e-05
-0.00547980940026972   -0.0006764953784561813   5.7555530226353125e-06
-0.00221165465055579   -0.0005667329328633802   -1.7220511420155985e-05
-0.005256026226149004   -0.006959696410088829   -4.2040876939597135e-05
-0.0018183310660928663   -0.006824010705228848   8.56507280861927e-05
-0.0023439230817245277   -0.0004416478263860767   5.957225893575151e-05
-0.005305740593655263   -0.006907776709199651   -1.432461880625761e-05
-0.0018892279915441533   -0.006763403863657238   0.00013308701683935602
-0.0023439230817245277   -0.0004416478263860767   5.957225893575151e-05
-0.00547980940026972   -0.0006764953784561813   5.7555530226353125e-06
-0.005305740593655263   -0.006907776709199651   -1.432461880625761e-05
-0.005547997574889018   -0.0005968034918862839   4.129050643779635e-05
-0.0018892279915441533   -0.006763403863657238   0.00013308701683935602
-0.005357889003137143   -0.0068490127076621995   1.5063777771692418e-05
-0.005547997574889018   -0.0005968034918862839   4.129050643779635e-05
-0.005305740593655263   -0.006907776709199651   -1.432461880625761e-05
-0.0018892279915441533   -0.006763403863657238   0.00013308701683935602
-0.005547997574889018   -0.0005968034918862839   4.129050643779635e-05
-0.0024271143261512763   -0.00038152897932307956   0.00010410154135097827
-0.0023439230817245277   -0.0004416478263860767   5.957225893575151e-05
-0.0018892279915441533   -0.006763403863657238   0.00013308701683935602
-0.005547997574889018   -0.0005968034918862839   4.129050643779635e-05
-0.0023439230817245277   -0.0004416478263860767   5.957225893575151e-05
-0.005305740593655263   -0.006907776709199651   -1.432461880625761e-05
-0.0018892279915441533   -0.006763403863657238   0.00013308701683935602
-0.0024271143261512763   -0.00038152897932307956   0.00010410154135097827
-0.005357889003137143   -0.0068490127076621995   1.5063777771692418e-05
-0.0019489351293895097   -0.0066983784659199455   0.00017483067563164872
-0.0024271143261512763   -0.00038152897932307956   0.00010410154135097827
-0.005547997574889018   -0.0005968034918862839   4.129050643779635e-05
-0.005357889003137143   -0.0068490127076621995   1.5063777771692418e-05
-0.005623828218514575   -0.0005044699479694907   7.544044516000972e-05
-0.0019489351293895097   -0.0066983784659199455   0.00017483067563164872
-0.005407547623886059   -0.006784605717300981   4.750780586320524e-05
-0.005623828218514575   -0.0005044699479694907   7.544044516000972e-05
-0.005357889003137143   -0.0068490127076621995   1.5063777771692418e-05
-0.0019489351293895097   -0.0066983784659199455   0.00017483067563164872
-0.005623828218514575   -0.0005044699479694907   7.544044516000972e-05
-0.0025389656991479295   -0.0003015927323366078   0.00015525213934949528
-0.0024271143261512763   -0.00038152897932307956   0.00010410154135097827
-0.0019489351293895097   -0.0066983784659199455   0.00017483067563164872
-0.005623828218514575   -0.0005044699479694907   7.544044516000972e-05
-0.0024271143261512763   -0.00038152897932307956   0.00010410154135097827
-0.005357889003137143   -0.0068490127076621995   1.5063777771692418e-05
-0.005256026226149004   -0.006959696410088829   -4.2040876939597135e-05
-0.005411416599321613   -0.0007445315185087666   -1.4194482834190613e-05
-0.008831859487775741   -0.007039469968083177   -0.00014068413977511574
-0.005305740593655263   -0.006907776709199651   -1.432461880625761e-05
-0.005411416599321613   -0.0007445315185087666   -1.4194482834190613e-05
-0.008918772489795944   -0.0007953998451474374   -7.588928990377933e-05
-0.008831859487775741   -0.007039469968083177   -0.00014068413977511574
-0.00896039214344114   -0.00074268759156508   -7.025972139115797e-05
-0.005305740593655263   -0.006907776709199651   -1.432461880625761e-05
-0.008876599977083592   -0.006986124439037708   -0.00011913881882318188
-0.00896039214344114   -0.00074268759156508   -7.025972139115797e-05
-0.008831859487775741   -0.007039469968083177   -0.00014068413977511574
-0.005305740593655263   -0.006907776709199651   -1.432461880625761e-05
-0.00896039214344114   -0.00074268759156508   -7.025972139115797e-05
-0.00547980940026972   -0.0006764953784561813   5.7555530226353125e-06
-0.005411416599321613   -0.0007445315185087666   -1.4194482834190613e-05
-0.005305740593655263   -0.006907776709199651   -1.432461880625761e-05
-0.00896039214344114   -0.00074268759156508   -7.025972139115797e-05
-0.005411416599321613   -0.0007445315185087666   -1.4194482834190613e-05
-0.008831859487775741   -0.007039469968083177   -0.00014068413977511574
-0.005305740593655263   -0.006907776709199651   -1.432461880625761e-05
-0.00547980940026972   -0.0006764953784561813   5.7555530226353125e-06
-0.008876599977083592   -0.006986124439037708   -0.00011913881882318188
-0.005357889003137143   -0.0068490127076621995   1.5063777771692418e-05
-0.00547980940026972   -0.0006764953784561813   5.7555530226353125e-06
-0.00896039214344114   -0.00074268759156508   -7.025972139115797e-05
-0.008876599977083592   -0.006986124439037708   -0.00011913881882318188
-0.009003690677299496   -0.000681337148700138   -6.0439366781228214e-05
-0.005357889003137143   -0.0068490127076621995   1.5063777771692418e-05
-0.00891948727805605   -0.006929719889775068   -9.762387392937056e-05
-0.009003690677299496   -0.000681337148700138   -6.0439366781228214e-05
-0.008876599977083592   -0.006986124439037708   -0.00011913881882318188
-0.005357889003137143   -0.0068490127076621995   1.5063777771692418e-05
-0.009003690677299496   -0.000681337148700138   -6.0439366781228214e-05
-0.005547997574889018   -0.0005968034918862839   4.129050643779635e-05
-0.00547980940026972   -0.0006764953784561813   5.7555530226353125e-06
-0.005357889003137143   -0.0068490127076621995   1.5063777771692418e-05
-0.009003690677299496   -0.000681337148700138   -6.0439366781228214e-05
-0.00547980940026972   -0.0006764953784561813   5.7555530226353125e-06
-0.008876599977083592   -0.006986124439037708   -0.00011913881882318188
-0.005357889003137143   -0.0068490127076621995   1.5063777771692418e-05
-0.005547997574889018   -0.0005968034918862839   4.129050643779635e-05
-0.00891948727805605   -0.006929719889775068   -9.762387392937056e-05
-0.005407547623886059   -0.006784605717300981   4.750780586320524e-05
-0.005547997574889018   -0.0005968034918862839   4.129050643779635e-05
-0.009003690677299496   -0.000681337148700138   -6.0439366781228214e-05
-0.00891948727805605   -0.006929719889775068   -9.762387392937056e-05
-0.00904504091031803   -0.0006064103199929431   -4.744500563837599e-05
-0.005407547623886059   -0.006784605717300981   4.750780586320524e-05
-0.008959069982572463   -0.006868601721143394   -7.415856297119342e-05
-0.00904504091031803   -0.0006064103199929431   -4.744500563837599e-05
-0.00891948727805605   -0.006929719889775068   -9.762387392937056e-05
-0.005407547623886059   -0.006784605717300981   4.750780586320524e-05
-0.00904504091031803   -0.0006064103199929431   -4.744500563837599e-05
-0.005623828218514575   -0.0005044699479694907   7.544044516000972e-05
-0.005547997574889018   -0.0005968034918862839   4.129050643779635e-05
-0.005407547623886059   -0.006784605717300981   4.750780586320524e-05
-0.00904504091031803   -0.0006064103199929431   -4.744500563837599e-05
-0.005547997574889018   -0.0005968034918862839   4.129050643779635e-05
-0.00891948727805605   -0.006929719889775068   -9.762387392937056e-05
-0.008831859487775741   -0.007039469968083177   -0.00014068413977511574
-0.008918772489795944   -0.0007953998451474374   -7.588928990377933e-05
-0.012533334005349187   -0.0070722656418306775   -0.00023166660507563375
-0.008876599977083592   -0.006986124439037708   -0.00011913881882318188
-0.008918772489795944   -0.0007953998451474374   -7.588928990377933e-05
-0.012598386157125554   -0.000788010770356217   -0.0001655012026392572
-0.012533334005349187   -0.0070722656418306775   -0.00023166660507563375
-0.012626528681122776   -0.0007408980127172045   -0.0001630753654780241
-0.008876599977083592   -0.006986124439037708   -0.00011913881882318188
-0.01257366112758698   -0.007024456974296799   -0.00021590525563803826
-0.012626528681122776   -0.0007408980127172045   -0.0001630753654780241
-0.012533334005349187   -0.0070722656418306775   -0.00023166660507563375
-0.008876599977083592   -0.006986124439037708   -0.00011913881882318188
-0.012626528681122776   -0.0007408980127172045   -0.0001630753654780241
-0.00896039214344114   -0.00074268759156508   -7.025972139115797e-05
-0.008918772489795944   -0.0007953998451474374   -7.588928990377933e-05
-0.008876599977083592   -0.006986124439037708   -0.00011913881882318188
-0.012626528681122776   -0.0007408980127172045   -0.0001630753654780241
-0.008918772489795944   -0.0007953998451474374   -7.588928990377933e-05
-0.012533334005349187   -0.0070722656418306775   -0.00023166660507563375
-0.008876599977083592   -0.006986124439037708   -0.00011913881882318188
-0.00896039214344114   -0.00074268759156508   -7.025972139115797e-05
-0.01257366112758698   -0.007024456974296799   -0.00021590525563803826
-0.00891948727805605   -0.006929719889775068   -9.762387392937056e-05
-0.00896039214344114   -0.00074268759156508   -7.025972139115797e-05
-0.012626528681122776   -0.0007408980127172045   -0.0001630753654780241
-0.01257366112758698   -0.007024456974296799   -0.00021590525563803826
-0.01265588204560014   -0.0006882951960624508   -0.00016130056547470451
-0.00891948727805605   -0.006929719889775068   -9.762387392937056e-05
-0.012609600895204843   -0.006972301515727137   -0.00020055705644310046
-0.01265588204560014   -0.0006882951960624508   -0.00016130056547470451
-0.01257366112758698   -0.007024456974296799   -0.00021590525563803826
-0.00891948727805605   -0.006929719889775068   -9.762387392937056e-05
-0.01265588204560014   -0.0006882951960624508   -0.00016130056547470451
-0.009003690677299496   -0.000681337148700138   -6.0439366781228214e-05
-0.00896039214344114   -0.00074268759156508   -7.025972139115797e-05
-0.00891948727805605   -0.006929719889775068   -9.762387392937056e-05
-0.01265588204560014   -0.0006882951960624508   -0.00016130056547470451
-0.00896039214344114   -0.00074268759156508   -7.025972139115797e-05
-0.01257366112758698   -0.007024456974296799   -0.00021590525563803826
-0.00891948727805605   -0.006929719889775068   -9.762387392937056e-05
-0.009003690677299496   -0.000681337148700138   -6.0439366781228214e-05
-0.012609600895204843   -0.006972301515727137   -0.00020055705644310046
-0.008959069982572463   -0.006868601721143394   -7.415856297119342e-05
-0.009003690677299496   -0.000681337148700138   -6.0439366781228214e-05
-0.01265588204560014   -0.0006882951960624508   -0.00016130056547470451
-0.012609600895204843   -0.006972301515727137   -0.00020055705644310046
-0.012678353382790445   -0.0006311733449007477   -0.00016029349054390621
-0.008959069982572463   -0.006868601721143394   -7.415856297119342e-05
-0.012642160618970697   -0.006916741554832856   -0.0001847108480090044
-0.012678353382790445   -0.0006311733449007477   -0.00016029349054390621
-0.012609600895204843   -0.006972301515727137   -0.00020055705644310046
-0.008959069982572463   -0.006868601721143394   -7.415856297119342e-05
-0.012678353382790445   -0.0006311733449007477   -0.00016029349054390621
-0.00904504091031803   -0.0006064103199929431   -4.744500563837599e-05
-0.009003690677299496   -0.000681337148700138   -6.0439366781228214e-05
-0.008959069982572463   -0.006868601721143394   -7.415856297119342e-05
-0.012678353382790445   -0.0006311733449007477   -0.00016029349054390621
-0.009003690677299496   -0.000681337148700138   -6.0439366781228214e-05
-0.012609600895204843   -0.006972301515727137   -0.00020055705644310046
-0.012533334005349187   -0.0070722656418306775   -0.00023166660507563375
-0.012598386157125554   -0.000788010770356217   -0.0001655012026392572
-0.01636774125481731   -0.007075835806067455   -0.00030692015107855035
-0.01257366112758698   -0.007024456974296799   -0.00021590525563803826
-0.012598386157125554   -0.000788010770356217   -0.0001655012026392572
-0.016380381405667603   -0.0007825521977999531   -0.0002538014756346352
-0.01636774125481731   -0.007075835806067455   -0.00030692015107855035
-0.0164029971760623   -0.0007315059568949932   -0.0002537052634457723
-0.01257366112758698   -0.007024456974296799   -0.00021590525563803826
-0.01640230212560526   -0.007029476425583985   -0.0003000471645545134
-0.0164029971760623   -0.0007315059568949932   -0.0002537052634457723
-0.01636774125481731   -0.007075835806067455   -0.00030692015107855035
-0.01257366112758698   -0.007024456974296799   -0.00021590525563803826
-0.0164029971760623   -0.0007315059568949932   -0.0002537052634457723
-0.012626528681122776   -0.0007408980127172045   -0.0001630753654780241
-0.012598386157125554   -0.000788010770356217   -0.0001655012026392572
-0.01257366112758698   -0.007024456974296799   -0.00021590525563803826
-0.0164029971760623   -0.0007315059568949932   -0.0002537052634457723
-0.012598386157125554   -0.000788010770356217   -0.0001655012026392572
-0.01636774125481731   -0.007075835806067455   -0.00030692015107855035
-0.01257366112758698   -0.007024456974296799   -0.00021590525563803826
-0.012626528681122776   -0.0007408980127172045   -0.0001630753654780241
-0.01640230212560526   -0.007029476425583985   -0.0003000471645545134
-0.012609600895204843   -0.006972301515727137   -0.00020055705644310046
-0.012626528681122776   -0.0007408980127172045   -0.0001630753654780241
-0.0164029971760623   -0.0007315059568949932   -0.0002537052634457723
-0.01640230212560526   -0.007029476425583985   -0.0003000471645545134
-0.016427808144595647   -0.0006803990763818675   -0.00025759802514627384
-0.012609600895204843   -0.006972301515727137   -0.00020055705644310046
-0.01643326574971145   -0.006979269050412842   -0.0002919891271951603
-0.016427808144595647   -0.0006803990763818675   -0.00025759802514627384
-0.01640230212560526   -0.007029476425583985   -0.0003000471645545134
-0.012609600895204843   -0.006972301515727137   -0.00020055705644310046
-0.016427808144595647   -0.0006803990763818675   -0.00025759802514627384
-0.01265588204560014   -0.0006882951960624508   -0.00016130056547470451
-0.012626528681122776   -0.0007408980127172045   -0.0001630753654780241
-0.012609600895204843   -0.006972301515727137   -0.00020055705644310046
-0.016427808144595647   -0.0006803990763818675   -0.00025759802514627384
-0.012626528681122776   -0.0007408980127172045   -0.0001630753654780241
-0.01640230212560526   -0.007029476425583985   -0.0003000471645545134
-0.012609600895204843   -0.006972301515727137   -0.00020055705644310046
-0.01265588204560014   -0.0006882951960624508   -0.00016130056547470451
-0.01643326574971145   -0.006979269050412842   -0.0002919891271951603
-0.012642160618970697   -0.006916741554832856   -0.0001847108480090044
-0.01265588204560014   -0.0006882951960624508   -0.00016130056547470451
-0.016427808144595647   -0.0006803990763818675   -0.00025759802514627384
-0.01643326574971145   -0.006979269050412842   -0.0002919891271951603
-0.016446145124590316   -0.0006246804644790661   -0.00026171083208404073
-0.012642160618970697   -0.006916741554832856   -0.0001847108480090044
-0.016459190086472623   -0.006926120121152312   -0.0002844271513387054
-0.016446145124590316   -0.0006246804644790661   -0.00026171083208404073
-0.01643326574971145   -0.006979269050412842   -0.0002919891271951603
-0.012642160618970697   -0.006916741554832856   -0.0001847108480090044
-0.016446145124590316   -0.0006246804644790661   -0.00026171083208404073
-0.012678353382790445   -0.0006311733449007477   -0.00016029349054390621
-0.01265588204560014   -0.0006882951960624508   -0.00016130056547470451
-0.012642160618970697   -0.006916741554832856   -0.0001847108480090044
-0.016446145124590316   -0.0006246804644790661   -0.00026171083208404073
-0.01265588204560014   -0.0006882951960624508   -0.00016130056547470451
-0.01643326574971145   -0.006979269050412842   -0.0002919891271951603
              </DataArray>   
          </PointData>  
       </Piece>  
   </UnstructuredGrid> 
</VTKFile> 
