<?xml version="1.0"?> 
<VTKFile type="UnstructuredGrid"> 
   <UnstructuredGrid> 
      <Piece NumberOfPoints="6000"  NumberOfCells="1500">  
          <Points>  
             <DataArray type="Float64" NumberOfComponents="3" format="ascii">   
-500.0   0.0   0.0
-450.0   0.0   0.0
-500.0   30.0   0.0
-500.0   0.0   16.666666666666668
-450.0   0.0   0.0
-450.0   30.0   0.0
-500.0   30.0   0.0
-450.0   30.0   16.666666666666668
-500.0   0.0   16.666666666666668
-500.0   30.0   16.666666666666668
-450.0   30.0   16.666666666666668
-500.0   30.0   0.0
-500.0   0.0   16.666666666666668
-450.0   30.0   16.666666666666668
-450.0   0.0   16.666666666666668
-450.0   0.0   0.0
-500.0   0.0   16.666666666666668
-450.0   30.0   16.666666666666668
-450.0   0.0   0.0
-500.0   30.0   0.0
-500.0   0.0   16.666666666666668
-450.0   0.0   16.666666666666668
-500.0   30.0   16.666666666666668
-500.0   0.0   33.333333333333336
-450.0   0.0   16.666666666666668
-450.0   30.0   16.666666666666668
-500.0   30.0   16.666666666666668
-450.0   30.0   33.333333333333336
-500.0   0.0   33.333333333333336
-500.0   30.0   33.333333333333336
-450.0   30.0   33.333333333333336
-500.0   30.0   16.666666666666668
-500.0   0.0   33.333333333333336
-450.0   30.0   33.333333333333336
-450.0   0.0   33.333333333333336
-450.0   0.0   16.666666666666668
-500.0   0.0   33.333333333333336
-450.0   30.0   33.333333333333336
-450.0   0.0   16.666666666666668
-500.0   30.0   16.666666666666668
-500.0   0.0   33.333333333333336
-450.0   0.0   33.333333333333336
-500.0   30.0   33.333333333333336
-500.0   0.0   50.0
-450.0   0.0   33.333333333333336
-450.0   30.0   33.333333333333336
-500.0   30.0   33.333333333333336
-450.0   30.0   50.0
-500.0   0.0   50.0
-500.0   30.0   50.0
-450.0   30.0   50.0
-500.0   30.0   33.333333333333336
-500.0   0.0   50.0
-450.0   30.0   50.0
-450.0   0.0   50.0
-450.0   0.0   33.333333333333336
-500.0   0.0   50.0
-450.0   30.0   50.0
-450.0   0.0   33.333333333333336
-500.0   30.0   33.333333333333336
-500.0   30.0   0.0
-450.0   30.0   0.0
-500.0   60.0   0.0
-500.0   30.0   16.666666666666668
-450.0   30.0   0.0
-450.0   60.0   0.0
-500.0   60.0   0.0
-450.0   60.0   16.666666666666668
-500.0   30.0   16.666666666666668
-500.0   60.0   16.666666666666668
-450.0   60.0   16.666666666666668
-500.0   60.0   0.0
-500.0   30.0   16.666666666666668
-450.0   60.0   16.666666666666668
-450.0   30.0   16.666666666666668
-450.0   30.0   0.0
-500.0   30.0   16.666666666666668
-450.0   60.0   16.666666666666668
-450.0   30.0   0.0
-500.0   60.0   0.0
-500.0   30.0   16.666666666666668
-450.0   30.0   16.666666666666668
-500.0   60.0   16.666666666666668
-500.0   30.0   33.333333333333336
-450.0   30.0   16.666666666666668
-450.0   60.0   16.666666666666668
-500.0   60.0   16.666666666666668
-450.0   60.0   33.333333333333336
-500.0   30.0   33.333333333333336
-500.0   60.0   33.333333333333336
-450.0   60.0   33.333333333333336
-500.0   60.0   16.666666666666668
-500.0   30.0   33.333333333333336
-450.0   60.0   33.333333333333336
-450.0   30.0   33.333333333333336
-450.0   30.0   16.666666666666668
-500.0   30.0   33.333333333333336
-450.0   60.0   33.333333333333336
-450.0   30.0   16.666666666666668
-500.0   60.0   16.666666666666668
-500.0   30.0   33.333333333333336
-450.0   30.0   33.333333333333336
-500.0   60.0   33.333333333333336
-500.0   30.0   50.0
-450.0   30.0   33.333333333333336
-450.0   60.0   33.333333333333336
-500.0   60.0   33.333333333333336
-450.0   60.0   50.0
-500.0   30.0   50.0
-500.0   60.0   50.0
-450.0   60.0   50.0
-500.0   60.0   33.333333333333336
-500.0   30.0   50.0
-450.0   60.0   50.0
-450.0   30.0   50.0
-450.0   30.0   33.333333333333336
-500.0   30.0   50.0
-450.0   60.0   50.0
-450.0   30.0   33.333333333333336
-500.0   60.0   33.333333333333336
-500.0   60.0   0.0
-450.0   60.0   0.0
-500.0   90.0   0.0
-500.0   60.0   16.666666666666668
-450.0   60.0   0.0
-450.0   90.0   0.0
-500.0   90.0   0.0
-450.0   90.0   16.666666666666668
-500.0   60.0   16.666666666666668
-500.0   90.0   16.666666666666668
-450.0   90.0   16.666666666666668
-500.0   90.0   0.0
-500.0   60.0   16.666666666666668
-450.0   90.0   16.666666666666668
-450.0   60.0   16.666666666666668
-450.0   60.0   0.0
-500.0   60.0   16.666666666666668
-450.0   90.0   16.666666666666668
-450.0   60.0   0.0
-500.0   90.0   0.0
-500.0   60.0   16.666666666666668
-450.0   60.0   16.666666666666668
-500.0   90.0   16.666666666666668
-500.0   60.0   33.333333333333336
-450.0   60.0   16.666666666666668
-450.0   90.0   16.666666666666668
-500.0   90.0   16.666666666666668
-450.0   90.0   33.333333333333336
-500.0   60.0   33.333333333333336
-500.0   90.0   33.333333333333336
-450.0   90.0   33.333333333333336
-500.0   90.0   16.666666666666668
-500.0   60.0   33.333333333333336
-450.0   90.0   33.333333333333336
-450.0   60.0   33.333333333333336
-450.0   60.0   16.666666666666668
-500.0   60.0   33.333333333333336
-450.0   90.0   33.333333333333336
-450.0   60.0   16.666666666666668
-500.0   90.0   16.666666666666668
-500.0   60.0   33.333333333333336
-450.0   60.0   33.333333333333336
-500.0   90.0   33.333333333333336
-500.0   60.0   50.0
-450.0   60.0   33.333333333333336
-450.0   90.0   33.333333333333336
-500.0   90.0   33.333333333333336
-450.0   90.0   50.0
-500.0   60.0   50.0
-500.0   90.0   50.0
-450.0   90.0   50.0
-500.0   90.0   33.333333333333336
-500.0   60.0   50.0
-450.0   90.0   50.0
-450.0   60.0   50.0
-450.0   60.0   33.333333333333336
-500.0   60.0   50.0
-450.0   90.0   50.0
-450.0   60.0   33.333333333333336
-500.0   90.0   33.333333333333336
-500.0   90.0   0.0
-450.0   90.0   0.0
-500.0   120.0   0.0
-500.0   90.0   16.666666666666668
-450.0   90.0   0.0
-450.0   120.0   0.0
-500.0   120.0   0.0
-450.0   120.0   16.666666666666668
-500.0   90.0   16.666666666666668
-500.0   120.0   16.666666666666668
-450.0   120.0   16.666666666666668
-500.0   120.0   0.0
-500.0   90.0   16.666666666666668
-450.0   120.0   16.666666666666668
-450.0   90.0   16.666666666666668
-450.0   90.0   0.0
-500.0   90.0   16.666666666666668
-450.0   120.0   16.666666666666668
-450.0   90.0   0.0
-500.0   120.0   0.0
-500.0   90.0   16.666666666666668
-450.0   90.0   16.666666666666668
-500.0   120.0   16.666666666666668
-500.0   90.0   33.333333333333336
-450.0   90.0   16.666666666666668
-450.0   120.0   16.666666666666668
-500.0   120.0   16.666666666666668
-450.0   120.0   33.333333333333336
-500.0   90.0   33.333333333333336
-500.0   120.0   33.333333333333336
-450.0   120.0   33.333333333333336
-500.0   120.0   16.666666666666668
-500.0   90.0   33.333333333333336
-450.0   120.0   33.333333333333336
-450.0   90.0   33.333333333333336
-450.0   90.0   16.666666666666668
-500.0   90.0   33.333333333333336
-450.0   120.0   33.333333333333336
-450.0   90.0   16.666666666666668
-500.0   120.0   16.666666666666668
-500.0   90.0   33.333333333333336
-450.0   90.0   33.333333333333336
-500.0   120.0   33.333333333333336
-500.0   90.0   50.0
-450.0   90.0   33.333333333333336
-450.0   120.0   33.333333333333336
-500.0   120.0   33.333333333333336
-450.0   120.0   50.0
-500.0   90.0   50.0
-500.0   120.0   50.0
-450.0   120.0   50.0
-500.0   120.0   33.333333333333336
-500.0   90.0   50.0
-450.0   120.0   50.0
-450.0   90.0   50.0
-450.0   90.0   33.333333333333336
-500.0   90.0   50.0
-450.0   120.0   50.0
-450.0   90.0   33.333333333333336
-500.0   120.0   33.333333333333336
-500.0   120.0   0.0
-450.0   120.0   0.0
-500.0   150.0   0.0
-500.0   120.0   16.666666666666668
-450.0   120.0   0.0
-450.0   150.0   0.0
-500.0   150.0   0.0
-450.0   150.0   16.666666666666668
-500.0   120.0   16.666666666666668
-500.0   150.0   16.666666666666668
-450.0   150.0   16.666666666666668
-500.0   150.0   0.0
-500.0   120.0   16.666666666666668
-450.0   150.0   16.666666666666668
-450.0   120.0   16.666666666666668
-450.0   120.0   0.0
-500.0   120.0   16.666666666666668
-450.0   150.0   16.666666666666668
-450.0   120.0   0.0
-500.0   150.0   0.0
-500.0   120.0   16.666666666666668
-450.0   120.0   16.666666666666668
-500.0   150.0   16.666666666666668
-500.0   120.0   33.333333333333336
-450.0   120.0   16.666666666666668
-450.0   150.0   16.666666666666668
-500.0   150.0   16.666666666666668
-450.0   150.0   33.333333333333336
-500.0   120.0   33.333333333333336
-500.0   150.0   33.333333333333336
-450.0   150.0   33.333333333333336
-500.0   150.0   16.666666666666668
-500.0   120.0   33.333333333333336
-450.0   150.0   33.333333333333336
-450.0   120.0   33.333333333333336
-450.0   120.0   16.666666666666668
-500.0   120.0   33.333333333333336
-450.0   150.0   33.333333333333336
-450.0   120.0   16.666666666666668
-500.0   150.0   16.666666666666668
-500.0   120.0   33.333333333333336
-450.0   120.0   33.333333333333336
-500.0   150.0   33.333333333333336
-500.0   120.0   50.0
-450.0   120.0   33.333333333333336
-450.0   150.0   33.333333333333336
-500.0   150.0   33.333333333333336
-450.0   150.0   50.0
-500.0   120.0   50.0
-500.0   150.0   50.0
-450.0   150.0   50.0
-500.0   150.0   33.333333333333336
-500.0   120.0   50.0
-450.0   150.0   50.0
-450.0   120.0   50.0
-450.0   120.0   33.333333333333336
-500.0   120.0   50.0
-450.0   150.0   50.0
-450.0   120.0   33.333333333333336
-500.0   150.0   33.333333333333336
-450.0   0.0   0.0
-400.0   0.0   0.0
-450.0   30.0   0.0
-450.0   0.0   16.666666666666668
-400.0   0.0   0.0
-400.0   30.0   0.0
-450.0   30.0   0.0
-400.0   30.0   16.666666666666668
-450.0   0.0   16.666666666666668
-450.0   30.0   16.666666666666668
-400.0   30.0   16.666666666666668
-450.0   30.0   0.0
-450.0   0.0   16.666666666666668
-400.0   30.0   16.666666666666668
-400.0   0.0   16.666666666666668
-400.0   0.0   0.0
-450.0   0.0   16.666666666666668
-400.0   30.0   16.666666666666668
-400.0   0.0   0.0
-450.0   30.0   0.0
-450.0   0.0   16.666666666666668
-400.0   0.0   16.666666666666668
-450.0   30.0   16.666666666666668
-450.0   0.0   33.333333333333336
-400.0   0.0   16.666666666666668
-400.0   30.0   16.666666666666668
-450.0   30.0   16.666666666666668
-400.0   30.0   33.333333333333336
-450.0   0.0   33.333333333333336
-450.0   30.0   33.333333333333336
-400.0   30.0   33.333333333333336
-450.0   30.0   16.666666666666668
-450.0   0.0   33.333333333333336
-400.0   30.0   33.333333333333336
-400.0   0.0   33.333333333333336
-400.0   0.0   16.666666666666668
-450.0   0.0   33.333333333333336
-400.0   30.0   33.333333333333336
-400.0   0.0   16.666666666666668
-450.0   30.0   16.666666666666668
-450.0   0.0   33.333333333333336
-400.0   0.0   33.333333333333336
-450.0   30.0   33.333333333333336
-450.0   0.0   50.0
-400.0   0.0   33.333333333333336
-400.0   30.0   33.333333333333336
-450.0   30.0   33.333333333333336
-400.0   30.0   50.0
-450.0   0.0   50.0
-450.0   30.0   50.0
-400.0   30.0   50.0
-450.0   30.0   33.333333333333336
-450.0   0.0   50.0
-400.0   30.0   50.0
-400.0   0.0   50.0
-400.0   0.0   33.333333333333336
-450.0   0.0   50.0
-400.0   30.0   50.0
-400.0   0.0   33.333333333333336
-450.0   30.0   33.333333333333336
-450.0   30.0   0.0
-400.0   30.0   0.0
-450.0   60.0   0.0
-450.0   30.0   16.666666666666668
-400.0   30.0   0.0
-400.0   60.0   0.0
-450.0   60.0   0.0
-400.0   60.0   16.666666666666668
-450.0   30.0   16.666666666666668
-450.0   60.0   16.666666666666668
-400.0   60.0   16.666666666666668
-450.0   60.0   0.0
-450.0   30.0   16.666666666666668
-400.0   60.0   16.666666666666668
-400.0   30.0   16.666666666666668
-400.0   30.0   0.0
-450.0   30.0   16.666666666666668
-400.0   60.0   16.666666666666668
-400.0   30.0   0.0
-450.0   60.0   0.0
-450.0   30.0   16.666666666666668
-400.0   30.0   16.666666666666668
-450.0   60.0   16.666666666666668
-450.0   30.0   33.333333333333336
-400.0   30.0   16.666666666666668
-400.0   60.0   16.666666666666668
-450.0   60.0   16.666666666666668
-400.0   60.0   33.333333333333336
-450.0   30.0   33.333333333333336
-450.0   60.0   33.333333333333336
-400.0   60.0   33.333333333333336
-450.0   60.0   16.666666666666668
-450.0   30.0   33.333333333333336
-400.0   60.0   33.333333333333336
-400.0   30.0   33.333333333333336
-400.0   30.0   16.666666666666668
-450.0   30.0   33.333333333333336
-400.0   60.0   33.333333333333336
-400.0   30.0   16.666666666666668
-450.0   60.0   16.666666666666668
-450.0   30.0   33.333333333333336
-400.0   30.0   33.333333333333336
-450.0   60.0   33.333333333333336
-450.0   30.0   50.0
-400.0   30.0   33.333333333333336
-400.0   60.0   33.333333333333336
-450.0   60.0   33.333333333333336
-400.0   60.0   50.0
-450.0   30.0   50.0
-450.0   60.0   50.0
-400.0   60.0   50.0
-450.0   60.0   33.333333333333336
-450.0   30.0   50.0
-400.0   60.0   50.0
-400.0   30.0   50.0
-400.0   30.0   33.333333333333336
-450.0   30.0   50.0
-400.0   60.0   50.0
-400.0   30.0   33.333333333333336
-450.0   60.0   33.333333333333336
-450.0   60.0   0.0
-400.0   60.0   0.0
-450.0   90.0   0.0
-450.0   60.0   16.666666666666668
-400.0   60.0   0.0
-400.0   90.0   0.0
-450.0   90.0   0.0
-400.0   90.0   16.666666666666668
-450.0   60.0   16.666666666666668
-450.0   90.0   16.666666666666668
-400.0   90.0   16.666666666666668
-450.0   90.0   0.0
-450.0   60.0   16.666666666666668
-400.0   90.0   16.666666666666668
-400.0   60.0   16.666666666666668
-400.0   60.0   0.0
-450.0   60.0   16.666666666666668
-400.0   90.0   16.666666666666668
-400.0   60.0   0.0
-450.0   90.0   0.0
-450.0   60.0   16.666666666666668
-400.0   60.0   16.666666666666668
-450.0   90.0   16.666666666666668
-450.0   60.0   33.333333333333336
-400.0   60.0   16.666666666666668
-400.0   90.0   16.666666666666668
-450.0   90.0   16.666666666666668
-400.0   90.0   33.333333333333336
-450.0   60.0   33.333333333333336
-450.0   90.0   33.333333333333336
-400.0   90.0   33.333333333333336
-450.0   90.0   16.666666666666668
-450.0   60.0   33.333333333333336
-400.0   90.0   33.333333333333336
-400.0   60.0   33.333333333333336
-400.0   60.0   16.666666666666668
-450.0   60.0   33.333333333333336
-400.0   90.0   33.333333333333336
-400.0   60.0   16.666666666666668
-450.0   90.0   16.666666666666668
-450.0   60.0   33.333333333333336
-400.0   60.0   33.333333333333336
-450.0   90.0   33.333333333333336
-450.0   60.0   50.0
-400.0   60.0   33.333333333333336
-400.0   90.0   33.333333333333336
-450.0   90.0   33.333333333333336
-400.0   90.0   50.0
-450.0   60.0   50.0
-450.0   90.0   50.0
-400.0   90.0   50.0
-450.0   90.0   33.333333333333336
-450.0   60.0   50.0
-400.0   90.0   50.0
-400.0   60.0   50.0
-400.0   60.0   33.333333333333336
-450.0   60.0   50.0
-400.0   90.0   50.0
-400.0   60.0   33.333333333333336
-450.0   90.0   33.333333333333336
-450.0   90.0   0.0
-400.0   90.0   0.0
-450.0   120.0   0.0
-450.0   90.0   16.666666666666668
-400.0   90.0   0.0
-400.0   120.0   0.0
-450.0   120.0   0.0
-400.0   120.0   16.666666666666668
-450.0   90.0   16.666666666666668
-450.0   120.0   16.666666666666668
-400.0   120.0   16.666666666666668
-450.0   120.0   0.0
-450.0   90.0   16.666666666666668
-400.0   120.0   16.666666666666668
-400.0   90.0   16.666666666666668
-400.0   90.0   0.0
-450.0   90.0   16.666666666666668
-400.0   120.0   16.666666666666668
-400.0   90.0   0.0
-450.0   120.0   0.0
-450.0   90.0   16.666666666666668
-400.0   90.0   16.666666666666668
-450.0   120.0   16.666666666666668
-450.0   90.0   33.333333333333336
-400.0   90.0   16.666666666666668
-400.0   120.0   16.666666666666668
-450.0   120.0   16.666666666666668
-400.0   120.0   33.333333333333336
-450.0   90.0   33.333333333333336
-450.0   120.0   33.333333333333336
-400.0   120.0   33.333333333333336
-450.0   120.0   16.666666666666668
-450.0   90.0   33.333333333333336
-400.0   120.0   33.333333333333336
-400.0   90.0   33.333333333333336
-400.0   90.0   16.666666666666668
-450.0   90.0   33.333333333333336
-400.0   120.0   33.333333333333336
-400.0   90.0   16.666666666666668
-450.0   120.0   16.666666666666668
-450.0   90.0   33.333333333333336
-400.0   90.0   33.333333333333336
-450.0   120.0   33.333333333333336
-450.0   90.0   50.0
-400.0   90.0   33.333333333333336
-400.0   120.0   33.333333333333336
-450.0   120.0   33.333333333333336
-400.0   120.0   50.0
-450.0   90.0   50.0
-450.0   120.0   50.0
-400.0   120.0   50.0
-450.0   120.0   33.333333333333336
-450.0   90.0   50.0
-400.0   120.0   50.0
-400.0   90.0   50.0
-400.0   90.0   33.333333333333336
-450.0   90.0   50.0
-400.0   120.0   50.0
-400.0   90.0   33.333333333333336
-450.0   120.0   33.333333333333336
-450.0   120.0   0.0
-400.0   120.0   0.0
-450.0   150.0   0.0
-450.0   120.0   16.666666666666668
-400.0   120.0   0.0
-400.0   150.0   0.0
-450.0   150.0   0.0
-400.0   150.0   16.666666666666668
-450.0   120.0   16.666666666666668
-450.0   150.0   16.666666666666668
-400.0   150.0   16.666666666666668
-450.0   150.0   0.0
-450.0   120.0   16.666666666666668
-400.0   150.0   16.666666666666668
-400.0   120.0   16.666666666666668
-400.0   120.0   0.0
-450.0   120.0   16.666666666666668
-400.0   150.0   16.666666666666668
-400.0   120.0   0.0
-450.0   150.0   0.0
-450.0   120.0   16.666666666666668
-400.0   120.0   16.666666666666668
-450.0   150.0   16.666666666666668
-450.0   120.0   33.333333333333336
-400.0   120.0   16.666666666666668
-400.0   150.0   16.666666666666668
-450.0   150.0   16.666666666666668
-400.0   150.0   33.333333333333336
-450.0   120.0   33.333333333333336
-450.0   150.0   33.333333333333336
-400.0   150.0   33.333333333333336
-450.0   150.0   16.666666666666668
-450.0   120.0   33.333333333333336
-400.0   150.0   33.333333333333336
-400.0   120.0   33.333333333333336
-400.0   120.0   16.666666666666668
-450.0   120.0   33.333333333333336
-400.0   150.0   33.333333333333336
-400.0   120.0   16.666666666666668
-450.0   150.0   16.666666666666668
-450.0   120.0   33.333333333333336
-400.0   120.0   33.333333333333336
-450.0   150.0   33.333333333333336
-450.0   120.0   50.0
-400.0   120.0   33.333333333333336
-400.0   150.0   33.333333333333336
-450.0   150.0   33.333333333333336
-400.0   150.0   50.0
-450.0   120.0   50.0
-450.0   150.0   50.0
-400.0   150.0   50.0
-450.0   150.0   33.333333333333336
-450.0   120.0   50.0
-400.0   150.0   50.0
-400.0   120.0   50.0
-400.0   120.0   33.333333333333336
-450.0   120.0   50.0
-400.0   150.0   50.0
-400.0   120.0   33.333333333333336
-450.0   150.0   33.333333333333336
-400.0   0.0   0.0
-350.0   0.0   0.0
-400.0   30.0   0.0
-400.0   0.0   16.666666666666668
-350.0   0.0   0.0
-350.0   30.0   0.0
-400.0   30.0   0.0
-350.0   30.0   16.666666666666668
-400.0   0.0   16.666666666666668
-400.0   30.0   16.666666666666668
-350.0   30.0   16.666666666666668
-400.0   30.0   0.0
-400.0   0.0   16.666666666666668
-350.0   30.0   16.666666666666668
-350.0   0.0   16.666666666666668
-350.0   0.0   0.0
-400.0   0.0   16.666666666666668
-350.0   30.0   16.666666666666668
-350.0   0.0   0.0
-400.0   30.0   0.0
-400.0   0.0   16.666666666666668
-350.0   0.0   16.666666666666668
-400.0   30.0   16.666666666666668
-400.0   0.0   33.333333333333336
-350.0   0.0   16.666666666666668
-350.0   30.0   16.666666666666668
-400.0   30.0   16.666666666666668
-350.0   30.0   33.333333333333336
-400.0   0.0   33.333333333333336
-400.0   30.0   33.333333333333336
-350.0   30.0   33.333333333333336
-400.0   30.0   16.666666666666668
-400.0   0.0   33.333333333333336
-350.0   30.0   33.333333333333336
-350.0   0.0   33.333333333333336
-350.0   0.0   16.666666666666668
-400.0   0.0   33.333333333333336
-350.0   30.0   33.333333333333336
-350.0   0.0   16.666666666666668
-400.0   30.0   16.666666666666668
-400.0   0.0   33.333333333333336
-350.0   0.0   33.333333333333336
-400.0   30.0   33.333333333333336
-400.0   0.0   50.0
-350.0   0.0   33.333333333333336
-350.0   30.0   33.333333333333336
-400.0   30.0   33.333333333333336
-350.0   30.0   50.0
-400.0   0.0   50.0
-400.0   30.0   50.0
-350.0   30.0   50.0
-400.0   30.0   33.333333333333336
-400.0   0.0   50.0
-350.0   30.0   50.0
-350.0   0.0   50.0
-350.0   0.0   33.333333333333336
-400.0   0.0   50.0
-350.0   30.0   50.0
-350.0   0.0   33.333333333333336
-400.0   30.0   33.333333333333336
-400.0   30.0   0.0
-350.0   30.0   0.0
-400.0   60.0   0.0
-400.0   30.0   16.666666666666668
-350.0   30.0   0.0
-350.0   60.0   0.0
-400.0   60.0   0.0
-350.0   60.0   16.666666666666668
-400.0   30.0   16.666666666666668
-400.0   60.0   16.666666666666668
-350.0   60.0   16.666666666666668
-400.0   60.0   0.0
-400.0   30.0   16.666666666666668
-350.0   60.0   16.666666666666668
-350.0   30.0   16.666666666666668
-350.0   30.0   0.0
-400.0   30.0   16.666666666666668
-350.0   60.0   16.666666666666668
-350.0   30.0   0.0
-400.0   60.0   0.0
-400.0   30.0   16.666666666666668
-350.0   30.0   16.666666666666668
-400.0   60.0   16.666666666666668
-400.0   30.0   33.333333333333336
-350.0   30.0   16.666666666666668
-350.0   60.0   16.666666666666668
-400.0   60.0   16.666666666666668
-350.0   60.0   33.333333333333336
-400.0   30.0   33.333333333333336
-400.0   60.0   33.333333333333336
-350.0   60.0   33.333333333333336
-400.0   60.0   16.666666666666668
-400.0   30.0   33.333333333333336
-350.0   60.0   33.333333333333336
-350.0   30.0   33.333333333333336
-350.0   30.0   16.666666666666668
-400.0   30.0   33.333333333333336
-350.0   60.0   33.333333333333336
-350.0   30.0   16.666666666666668
-400.0   60.0   16.666666666666668
-400.0   30.0   33.333333333333336
-350.0   30.0   33.333333333333336
-400.0   60.0   33.333333333333336
-400.0   30.0   50.0
-350.0   30.0   33.333333333333336
-350.0   60.0   33.333333333333336
-400.0   60.0   33.333333333333336
-350.0   60.0   50.0
-400.0   30.0   50.0
-400.0   60.0   50.0
-350.0   60.0   50.0
-400.0   60.0   33.333333333333336
-400.0   30.0   50.0
-350.0   60.0   50.0
-350.0   30.0   50.0
-350.0   30.0   33.333333333333336
-400.0   30.0   50.0
-350.0   60.0   50.0
-350.0   30.0   33.333333333333336
-400.0   60.0   33.333333333333336
-400.0   60.0   0.0
-350.0   60.0   0.0
-400.0   90.0   0.0
-400.0   60.0   16.666666666666668
-350.0   60.0   0.0
-350.0   90.0   0.0
-400.0   90.0   0.0
-350.0   90.0   16.666666666666668
-400.0   60.0   16.666666666666668
-400.0   90.0   16.666666666666668
-350.0   90.0   16.666666666666668
-400.0   90.0   0.0
-400.0   60.0   16.666666666666668
-350.0   90.0   16.666666666666668
-350.0   60.0   16.666666666666668
-350.0   60.0   0.0
-400.0   60.0   16.666666666666668
-350.0   90.0   16.666666666666668
-350.0   60.0   0.0
-400.0   90.0   0.0
-400.0   60.0   16.666666666666668
-350.0   60.0   16.666666666666668
-400.0   90.0   16.666666666666668
-400.0   60.0   33.333333333333336
-350.0   60.0   16.666666666666668
-350.0   90.0   16.666666666666668
-400.0   90.0   16.666666666666668
-350.0   90.0   33.333333333333336
-400.0   60.0   33.333333333333336
-400.0   90.0   33.333333333333336
-350.0   90.0   33.333333333333336
-400.0   90.0   16.666666666666668
-400.0   60.0   33.333333333333336
-350.0   90.0   33.333333333333336
-350.0   60.0   33.333333333333336
-350.0   60.0   16.666666666666668
-400.0   60.0   33.333333333333336
-350.0   90.0   33.333333333333336
-350.0   60.0   16.666666666666668
-400.0   90.0   16.666666666666668
-400.0   60.0   33.333333333333336
-350.0   60.0   33.333333333333336
-400.0   90.0   33.333333333333336
-400.0   60.0   50.0
-350.0   60.0   33.333333333333336
-350.0   90.0   33.333333333333336
-400.0   90.0   33.333333333333336
-350.0   90.0   50.0
-400.0   60.0   50.0
-400.0   90.0   50.0
-350.0   90.0   50.0
-400.0   90.0   33.333333333333336
-400.0   60.0   50.0
-350.0   90.0   50.0
-350.0   60.0   50.0
-350.0   60.0   33.333333333333336
-400.0   60.0   50.0
-350.0   90.0   50.0
-350.0   60.0   33.333333333333336
-400.0   90.0   33.333333333333336
-400.0   90.0   0.0
-350.0   90.0   0.0
-400.0   120.0   0.0
-400.0   90.0   16.666666666666668
-350.0   90.0   0.0
-350.0   120.0   0.0
-400.0   120.0   0.0
-350.0   120.0   16.666666666666668
-400.0   90.0   16.666666666666668
-400.0   120.0   16.666666666666668
-350.0   120.0   16.666666666666668
-400.0   120.0   0.0
-400.0   90.0   16.666666666666668
-350.0   120.0   16.666666666666668
-350.0   90.0   16.666666666666668
-350.0   90.0   0.0
-400.0   90.0   16.666666666666668
-350.0   120.0   16.666666666666668
-350.0   90.0   0.0
-400.0   120.0   0.0
-400.0   90.0   16.666666666666668
-350.0   90.0   16.666666666666668
-400.0   120.0   16.666666666666668
-400.0   90.0   33.333333333333336
-350.0   90.0   16.666666666666668
-350.0   120.0   16.666666666666668
-400.0   120.0   16.666666666666668
-350.0   120.0   33.333333333333336
-400.0   90.0   33.333333333333336
-400.0   120.0   33.333333333333336
-350.0   120.0   33.333333333333336
-400.0   120.0   16.666666666666668
-400.0   90.0   33.333333333333336
-350.0   120.0   33.333333333333336
-350.0   90.0   33.333333333333336
-350.0   90.0   16.666666666666668
-400.0   90.0   33.333333333333336
-350.0   120.0   33.333333333333336
-350.0   90.0   16.666666666666668
-400.0   120.0   16.666666666666668
-400.0   90.0   33.333333333333336
-350.0   90.0   33.333333333333336
-400.0   120.0   33.333333333333336
-400.0   90.0   50.0
-350.0   90.0   33.333333333333336
-350.0   120.0   33.333333333333336
-400.0   120.0   33.333333333333336
-350.0   120.0   50.0
-400.0   90.0   50.0
-400.0   120.0   50.0
-350.0   120.0   50.0
-400.0   120.0   33.333333333333336
-400.0   90.0   50.0
-350.0   120.0   50.0
-350.0   90.0   50.0
-350.0   90.0   33.333333333333336
-400.0   90.0   50.0
-350.0   120.0   50.0
-350.0   90.0   33.333333333333336
-400.0   120.0   33.333333333333336
-400.0   120.0   0.0
-350.0   120.0   0.0
-400.0   150.0   0.0
-400.0   120.0   16.666666666666668
-350.0   120.0   0.0
-350.0   150.0   0.0
-400.0   150.0   0.0
-350.0   150.0   16.666666666666668
-400.0   120.0   16.666666666666668
-400.0   150.0   16.666666666666668
-350.0   150.0   16.666666666666668
-400.0   150.0   0.0
-400.0   120.0   16.666666666666668
-350.0   150.0   16.666666666666668
-350.0   120.0   16.666666666666668
-350.0   120.0   0.0
-400.0   120.0   16.666666666666668
-350.0   150.0   16.666666666666668
-350.0   120.0   0.0
-400.0   150.0   0.0
-400.0   120.0   16.666666666666668
-350.0   120.0   16.666666666666668
-400.0   150.0   16.666666666666668
-400.0   120.0   33.333333333333336
-350.0   120.0   16.666666666666668
-350.0   150.0   16.666666666666668
-400.0   150.0   16.666666666666668
-350.0   150.0   33.333333333333336
-400.0   120.0   33.333333333333336
-400.0   150.0   33.333333333333336
-350.0   150.0   33.333333333333336
-400.0   150.0   16.666666666666668
-400.0   120.0   33.333333333333336
-350.0   150.0   33.333333333333336
-350.0   120.0   33.333333333333336
-350.0   120.0   16.666666666666668
-400.0   120.0   33.333333333333336
-350.0   150.0   33.333333333333336
-350.0   120.0   16.666666666666668
-400.0   150.0   16.666666666666668
-400.0   120.0   33.333333333333336
-350.0   120.0   33.333333333333336
-400.0   150.0   33.333333333333336
-400.0   120.0   50.0
-350.0   120.0   33.333333333333336
-350.0   150.0   33.333333333333336
-400.0   150.0   33.333333333333336
-350.0   150.0   50.0
-400.0   120.0   50.0
-400.0   150.0   50.0
-350.0   150.0   50.0
-400.0   150.0   33.333333333333336
-400.0   120.0   50.0
-350.0   150.0   50.0
-350.0   120.0   50.0
-350.0   120.0   33.333333333333336
-400.0   120.0   50.0
-350.0   150.0   50.0
-350.0   120.0   33.333333333333336
-400.0   150.0   33.333333333333336
-350.0   0.0   0.0
-300.0   0.0   0.0
-350.0   30.0   0.0
-350.0   0.0   16.666666666666668
-300.0   0.0   0.0
-300.0   30.0   0.0
-350.0   30.0   0.0
-300.0   30.0   16.666666666666668
-350.0   0.0   16.666666666666668
-350.0   30.0   16.666666666666668
-300.0   30.0   16.666666666666668
-350.0   30.0   0.0
-350.0   0.0   16.666666666666668
-300.0   30.0   16.666666666666668
-300.0   0.0   16.666666666666668
-300.0   0.0   0.0
-350.0   0.0   16.666666666666668
-300.0   30.0   16.666666666666668
-300.0   0.0   0.0
-350.0   30.0   0.0
-350.0   0.0   16.666666666666668
-300.0   0.0   16.666666666666668
-350.0   30.0   16.666666666666668
-350.0   0.0   33.333333333333336
-300.0   0.0   16.666666666666668
-300.0   30.0   16.666666666666668
-350.0   30.0   16.666666666666668
-300.0   30.0   33.333333333333336
-350.0   0.0   33.333333333333336
-350.0   30.0   33.333333333333336
-300.0   30.0   33.333333333333336
-350.0   30.0   16.666666666666668
-350.0   0.0   33.333333333333336
-300.0   30.0   33.333333333333336
-300.0   0.0   33.333333333333336
-300.0   0.0   16.666666666666668
-350.0   0.0   33.333333333333336
-300.0   30.0   33.333333333333336
-300.0   0.0   16.666666666666668
-350.0   30.0   16.666666666666668
-350.0   0.0   33.333333333333336
-300.0   0.0   33.333333333333336
-350.0   30.0   33.333333333333336
-350.0   0.0   50.0
-300.0   0.0   33.333333333333336
-300.0   30.0   33.333333333333336
-350.0   30.0   33.333333333333336
-300.0   30.0   50.0
-350.0   0.0   50.0
-350.0   30.0   50.0
-300.0   30.0   50.0
-350.0   30.0   33.333333333333336
-350.0   0.0   50.0
-300.0   30.0   50.0
-300.0   0.0   50.0
-300.0   0.0   33.333333333333336
-350.0   0.0   50.0
-300.0   30.0   50.0
-300.0   0.0   33.333333333333336
-350.0   30.0   33.333333333333336
-350.0   30.0   0.0
-300.0   30.0   0.0
-350.0   60.0   0.0
-350.0   30.0   16.666666666666668
-300.0   30.0   0.0
-300.0   60.0   0.0
-350.0   60.0   0.0
-300.0   60.0   16.666666666666668
-350.0   30.0   16.666666666666668
-350.0   60.0   16.666666666666668
-300.0   60.0   16.666666666666668
-350.0   60.0   0.0
-350.0   30.0   16.666666666666668
-300.0   60.0   16.666666666666668
-300.0   30.0   16.666666666666668
-300.0   30.0   0.0
-350.0   30.0   16.666666666666668
-300.0   60.0   16.666666666666668
-300.0   30.0   0.0
-350.0   60.0   0.0
-350.0   30.0   16.666666666666668
-300.0   30.0   16.666666666666668
-350.0   60.0   16.666666666666668
-350.0   30.0   33.333333333333336
-300.0   30.0   16.666666666666668
-300.0   60.0   16.666666666666668
-350.0   60.0   16.666666666666668
-300.0   60.0   33.333333333333336
-350.0   30.0   33.333333333333336
-350.0   60.0   33.333333333333336
-300.0   60.0   33.333333333333336
-350.0   60.0   16.666666666666668
-350.0   30.0   33.333333333333336
-300.0   60.0   33.333333333333336
-300.0   30.0   33.333333333333336
-300.0   30.0   16.666666666666668
-350.0   30.0   33.333333333333336
-300.0   60.0   33.333333333333336
-300.0   30.0   16.666666666666668
-350.0   60.0   16.666666666666668
-350.0   30.0   33.333333333333336
-300.0   30.0   33.333333333333336
-350.0   60.0   33.333333333333336
-350.0   30.0   50.0
-300.0   30.0   33.333333333333336
-300.0   60.0   33.333333333333336
-350.0   60.0   33.333333333333336
-300.0   60.0   50.0
-350.0   30.0   50.0
-350.0   60.0   50.0
-300.0   60.0   50.0
-350.0   60.0   33.333333333333336
-350.0   30.0   50.0
-300.0   60.0   50.0
-300.0   30.0   50.0
-300.0   30.0   33.333333333333336
-350.0   30.0   50.0
-300.0   60.0   50.0
-300.0   30.0   33.333333333333336
-350.0   60.0   33.333333333333336
-350.0   60.0   0.0
-300.0   60.0   0.0
-350.0   90.0   0.0
-350.0   60.0   16.666666666666668
-300.0   60.0   0.0
-300.0   90.0   0.0
-350.0   90.0   0.0
-300.0   90.0   16.666666666666668
-350.0   60.0   16.666666666666668
-350.0   90.0   16.666666666666668
-300.0   90.0   16.666666666666668
-350.0   90.0   0.0
-350.0   60.0   16.666666666666668
-300.0   90.0   16.666666666666668
-300.0   60.0   16.666666666666668
-300.0   60.0   0.0
-350.0   60.0   16.666666666666668
-300.0   90.0   16.666666666666668
-300.0   60.0   0.0
-350.0   90.0   0.0
-350.0   60.0   16.666666666666668
-300.0   60.0   16.666666666666668
-350.0   90.0   16.666666666666668
-350.0   60.0   33.333333333333336
-300.0   60.0   16.666666666666668
-300.0   90.0   16.666666666666668
-350.0   90.0   16.666666666666668
-300.0   90.0   33.333333333333336
-350.0   60.0   33.333333333333336
-350.0   90.0   33.333333333333336
-300.0   90.0   33.333333333333336
-350.0   90.0   16.666666666666668
-350.0   60.0   33.333333333333336
-300.0   90.0   33.333333333333336
-300.0   60.0   33.333333333333336
-300.0   60.0   16.666666666666668
-350.0   60.0   33.333333333333336
-300.0   90.0   33.333333333333336
-300.0   60.0   16.666666666666668
-350.0   90.0   16.666666666666668
-350.0   60.0   33.333333333333336
-300.0   60.0   33.333333333333336
-350.0   90.0   33.333333333333336
-350.0   60.0   50.0
-300.0   60.0   33.333333333333336
-300.0   90.0   33.333333333333336
-350.0   90.0   33.333333333333336
-300.0   90.0   50.0
-350.0   60.0   50.0
-350.0   90.0   50.0
-300.0   90.0   50.0
-350.0   90.0   33.333333333333336
-350.0   60.0   50.0
-300.0   90.0   50.0
-300.0   60.0   50.0
-300.0   60.0   33.333333333333336
-350.0   60.0   50.0
-300.0   90.0   50.0
-300.0   60.0   33.333333333333336
-350.0   90.0   33.333333333333336
-350.0   90.0   0.0
-300.0   90.0   0.0
-350.0   120.0   0.0
-350.0   90.0   16.666666666666668
-300.0   90.0   0.0
-300.0   120.0   0.0
-350.0   120.0   0.0
-300.0   120.0   16.666666666666668
-350.0   90.0   16.666666666666668
-350.0   120.0   16.666666666666668
-300.0   120.0   16.666666666666668
-350.0   120.0   0.0
-350.0   90.0   16.666666666666668
-300.0   120.0   16.666666666666668
-300.0   90.0   16.666666666666668
-300.0   90.0   0.0
-350.0   90.0   16.666666666666668
-300.0   120.0   16.666666666666668
-300.0   90.0   0.0
-350.0   120.0   0.0
-350.0   90.0   16.666666666666668
-300.0   90.0   16.666666666666668
-350.0   120.0   16.666666666666668
-350.0   90.0   33.333333333333336
-300.0   90.0   16.666666666666668
-300.0   120.0   16.666666666666668
-350.0   120.0   16.666666666666668
-300.0   120.0   33.333333333333336
-350.0   90.0   33.333333333333336
-350.0   120.0   33.333333333333336
-300.0   120.0   33.333333333333336
-350.0   120.0   16.666666666666668
-350.0   90.0   33.333333333333336
-300.0   120.0   33.333333333333336
-300.0   90.0   33.333333333333336
-300.0   90.0   16.666666666666668
-350.0   90.0   33.333333333333336
-300.0   120.0   33.333333333333336
-300.0   90.0   16.666666666666668
-350.0   120.0   16.666666666666668
-350.0   90.0   33.333333333333336
-300.0   90.0   33.333333333333336
-350.0   120.0   33.333333333333336
-350.0   90.0   50.0
-300.0   90.0   33.333333333333336
-300.0   120.0   33.333333333333336
-350.0   120.0   33.333333333333336
-300.0   120.0   50.0
-350.0   90.0   50.0
-350.0   120.0   50.0
-300.0   120.0   50.0
-350.0   120.0   33.333333333333336
-350.0   90.0   50.0
-300.0   120.0   50.0
-300.0   90.0   50.0
-300.0   90.0   33.333333333333336
-350.0   90.0   50.0
-300.0   120.0   50.0
-300.0   90.0   33.333333333333336
-350.0   120.0   33.333333333333336
-350.0   120.0   0.0
-300.0   120.0   0.0
-350.0   150.0   0.0
-350.0   120.0   16.666666666666668
-300.0   120.0   0.0
-300.0   150.0   0.0
-350.0   150.0   0.0
-300.0   150.0   16.666666666666668
-350.0   120.0   16.666666666666668
-350.0   150.0   16.666666666666668
-300.0   150.0   16.666666666666668
-350.0   150.0   0.0
-350.0   120.0   16.666666666666668
-300.0   150.0   16.666666666666668
-300.0   120.0   16.666666666666668
-300.0   120.0   0.0
-350.0   120.0   16.666666666666668
-300.0   150.0   16.666666666666668
-300.0   120.0   0.0
-350.0   150.0   0.0
-350.0   120.0   16.666666666666668
-300.0   120.0   16.666666666666668
-350.0   150.0   16.666666666666668
-350.0   120.0   33.333333333333336
-300.0   120.0   16.666666666666668
-300.0   150.0   16.666666666666668
-350.0   150.0   16.666666666666668
-300.0   150.0   33.333333333333336
-350.0   120.0   33.333333333333336
-350.0   150.0   33.333333333333336
-300.0   150.0   33.333333333333336
-350.0   150.0   16.666666666666668
-350.0   120.0   33.333333333333336
-300.0   150.0   33.333333333333336
-300.0   120.0   33.333333333333336
-300.0   120.0   16.666666666666668
-350.0   120.0   33.333333333333336
-300.0   150.0   33.333333333333336
-300.0   120.0   16.666666666666668
-350.0   150.0   16.666666666666668
-350.0   120.0   33.333333333333336
-300.0   120.0   33.333333333333336
-350.0   150.0   33.333333333333336
-350.0   120.0   50.0
-300.0   120.0   33.333333333333336
-300.0   150.0   33.333333333333336
-350.0   150.0   33.333333333333336
-300.0   150.0   50.0
-350.0   120.0   50.0
-350.0   150.0   50.0
-300.0   150.0   50.0
-350.0   150.0   33.333333333333336
-350.0   120.0   50.0
-300.0   150.0   50.0
-300.0   120.0   50.0
-300.0   120.0   33.333333333333336
-350.0   120.0   50.0
-300.0   150.0   50.0
-300.0   120.0   33.333333333333336
-350.0   150.0   33.333333333333336
-300.0   0.0   0.0
-250.0   0.0   0.0
-300.0   30.0   0.0
-300.0   0.0   16.666666666666668
-250.0   0.0   0.0
-250.0   30.0   0.0
-300.0   30.0   0.0
-250.0   30.0   16.666666666666668
-300.0   0.0   16.666666666666668
-300.0   30.0   16.666666666666668
-250.0   30.0   16.666666666666668
-300.0   30.0   0.0
-300.0   0.0   16.666666666666668
-250.0   30.0   16.666666666666668
-250.0   0.0   16.666666666666668
-250.0   0.0   0.0
-300.0   0.0   16.666666666666668
-250.0   30.0   16.666666666666668
-250.0   0.0   0.0
-300.0   30.0   0.0
-300.0   0.0   16.666666666666668
-250.0   0.0   16.666666666666668
-300.0   30.0   16.666666666666668
-300.0   0.0   33.333333333333336
-250.0   0.0   16.666666666666668
-250.0   30.0   16.666666666666668
-300.0   30.0   16.666666666666668
-250.0   30.0   33.333333333333336
-300.0   0.0   33.333333333333336
-300.0   30.0   33.333333333333336
-250.0   30.0   33.333333333333336
-300.0   30.0   16.666666666666668
-300.0   0.0   33.333333333333336
-250.0   30.0   33.333333333333336
-250.0   0.0   33.333333333333336
-250.0   0.0   16.666666666666668
-300.0   0.0   33.333333333333336
-250.0   30.0   33.333333333333336
-250.0   0.0   16.666666666666668
-300.0   30.0   16.666666666666668
-300.0   0.0   33.333333333333336
-250.0   0.0   33.333333333333336
-300.0   30.0   33.333333333333336
-300.0   0.0   50.0
-250.0   0.0   33.333333333333336
-250.0   30.0   33.333333333333336
-300.0   30.0   33.333333333333336
-250.0   30.0   50.0
-300.0   0.0   50.0
-300.0   30.0   50.0
-250.0   30.0   50.0
-300.0   30.0   33.333333333333336
-300.0   0.0   50.0
-250.0   30.0   50.0
-250.0   0.0   50.0
-250.0   0.0   33.333333333333336
-300.0   0.0   50.0
-250.0   30.0   50.0
-250.0   0.0   33.333333333333336
-300.0   30.0   33.333333333333336
-300.0   30.0   0.0
-250.0   30.0   0.0
-300.0   60.0   0.0
-300.0   30.0   16.666666666666668
-250.0   30.0   0.0
-250.0   60.0   0.0
-300.0   60.0   0.0
-250.0   60.0   16.666666666666668
-300.0   30.0   16.666666666666668
-300.0   60.0   16.666666666666668
-250.0   60.0   16.666666666666668
-300.0   60.0   0.0
-300.0   30.0   16.666666666666668
-250.0   60.0   16.666666666666668
-250.0   30.0   16.666666666666668
-250.0   30.0   0.0
-300.0   30.0   16.666666666666668
-250.0   60.0   16.666666666666668
-250.0   30.0   0.0
-300.0   60.0   0.0
-300.0   30.0   16.666666666666668
-250.0   30.0   16.666666666666668
-300.0   60.0   16.666666666666668
-300.0   30.0   33.333333333333336
-250.0   30.0   16.666666666666668
-250.0   60.0   16.666666666666668
-300.0   60.0   16.666666666666668
-250.0   60.0   33.333333333333336
-300.0   30.0   33.333333333333336
-300.0   60.0   33.333333333333336
-250.0   60.0   33.333333333333336
-300.0   60.0   16.666666666666668
-300.0   30.0   33.333333333333336
-250.0   60.0   33.333333333333336
-250.0   30.0   33.333333333333336
-250.0   30.0   16.666666666666668
-300.0   30.0   33.333333333333336
-250.0   60.0   33.333333333333336
-250.0   30.0   16.666666666666668
-300.0   60.0   16.666666666666668
-300.0   30.0   33.333333333333336
-250.0   30.0   33.333333333333336
-300.0   60.0   33.333333333333336
-300.0   30.0   50.0
-250.0   30.0   33.333333333333336
-250.0   60.0   33.333333333333336
-300.0   60.0   33.333333333333336
-250.0   60.0   50.0
-300.0   30.0   50.0
-300.0   60.0   50.0
-250.0   60.0   50.0
-300.0   60.0   33.333333333333336
-300.0   30.0   50.0
-250.0   60.0   50.0
-250.0   30.0   50.0
-250.0   30.0   33.333333333333336
-300.0   30.0   50.0
-250.0   60.0   50.0
-250.0   30.0   33.333333333333336
-300.0   60.0   33.333333333333336
-300.0   60.0   0.0
-250.0   60.0   0.0
-300.0   90.0   0.0
-300.0   60.0   16.666666666666668
-250.0   60.0   0.0
-250.0   90.0   0.0
-300.0   90.0   0.0
-250.0   90.0   16.666666666666668
-300.0   60.0   16.666666666666668
-300.0   90.0   16.666666666666668
-250.0   90.0   16.666666666666668
-300.0   90.0   0.0
-300.0   60.0   16.666666666666668
-250.0   90.0   16.666666666666668
-250.0   60.0   16.666666666666668
-250.0   60.0   0.0
-300.0   60.0   16.666666666666668
-250.0   90.0   16.666666666666668
-250.0   60.0   0.0
-300.0   90.0   0.0
-300.0   60.0   16.666666666666668
-250.0   60.0   16.666666666666668
-300.0   90.0   16.666666666666668
-300.0   60.0   33.333333333333336
-250.0   60.0   16.666666666666668
-250.0   90.0   16.666666666666668
-300.0   90.0   16.666666666666668
-250.0   90.0   33.333333333333336
-300.0   60.0   33.333333333333336
-300.0   90.0   33.333333333333336
-250.0   90.0   33.333333333333336
-300.0   90.0   16.666666666666668
-300.0   60.0   33.333333333333336
-250.0   90.0   33.333333333333336
-250.0   60.0   33.333333333333336
-250.0   60.0   16.666666666666668
-300.0   60.0   33.333333333333336
-250.0   90.0   33.333333333333336
-250.0   60.0   16.666666666666668
-300.0   90.0   16.666666666666668
-300.0   60.0   33.333333333333336
-250.0   60.0   33.333333333333336
-300.0   90.0   33.333333333333336
-300.0   60.0   50.0
-250.0   60.0   33.333333333333336
-250.0   90.0   33.333333333333336
-300.0   90.0   33.333333333333336
-250.0   90.0   50.0
-300.0   60.0   50.0
-300.0   90.0   50.0
-250.0   90.0   50.0
-300.0   90.0   33.333333333333336
-300.0   60.0   50.0
-250.0   90.0   50.0
-250.0   60.0   50.0
-250.0   60.0   33.333333333333336
-300.0   60.0   50.0
-250.0   90.0   50.0
-250.0   60.0   33.333333333333336
-300.0   90.0   33.333333333333336
-300.0   90.0   0.0
-250.0   90.0   0.0
-300.0   120.0   0.0
-300.0   90.0   16.666666666666668
-250.0   90.0   0.0
-250.0   120.0   0.0
-300.0   120.0   0.0
-250.0   120.0   16.666666666666668
-300.0   90.0   16.666666666666668
-300.0   120.0   16.666666666666668
-250.0   120.0   16.666666666666668
-300.0   120.0   0.0
-300.0   90.0   16.666666666666668
-250.0   120.0   16.666666666666668
-250.0   90.0   16.666666666666668
-250.0   90.0   0.0
-300.0   90.0   16.666666666666668
-250.0   120.0   16.666666666666668
-250.0   90.0   0.0
-300.0   120.0   0.0
-300.0   90.0   16.666666666666668
-250.0   90.0   16.666666666666668
-300.0   120.0   16.666666666666668
-300.0   90.0   33.333333333333336
-250.0   90.0   16.666666666666668
-250.0   120.0   16.666666666666668
-300.0   120.0   16.666666666666668
-250.0   120.0   33.333333333333336
-300.0   90.0   33.333333333333336
-300.0   120.0   33.333333333333336
-250.0   120.0   33.333333333333336
-300.0   120.0   16.666666666666668
-300.0   90.0   33.333333333333336
-250.0   120.0   33.333333333333336
-250.0   90.0   33.333333333333336
-250.0   90.0   16.666666666666668
-300.0   90.0   33.333333333333336
-250.0   120.0   33.333333333333336
-250.0   90.0   16.666666666666668
-300.0   120.0   16.666666666666668
-300.0   90.0   33.333333333333336
-250.0   90.0   33.333333333333336
-300.0   120.0   33.333333333333336
-300.0   90.0   50.0
-250.0   90.0   33.333333333333336
-250.0   120.0   33.333333333333336
-300.0   120.0   33.333333333333336
-250.0   120.0   50.0
-300.0   90.0   50.0
-300.0   120.0   50.0
-250.0   120.0   50.0
-300.0   120.0   33.333333333333336
-300.0   90.0   50.0
-250.0   120.0   50.0
-250.0   90.0   50.0
-250.0   90.0   33.333333333333336
-300.0   90.0   50.0
-250.0   120.0   50.0
-250.0   90.0   33.333333333333336
-300.0   120.0   33.333333333333336
-300.0   120.0   0.0
-250.0   120.0   0.0
-300.0   150.0   0.0
-300.0   120.0   16.666666666666668
-250.0   120.0   0.0
-250.0   150.0   0.0
-300.0   150.0   0.0
-250.0   150.0   16.666666666666668
-300.0   120.0   16.666666666666668
-300.0   150.0   16.666666666666668
-250.0   150.0   16.666666666666668
-300.0   150.0   0.0
-300.0   120.0   16.666666666666668
-250.0   150.0   16.666666666666668
-250.0   120.0   16.666666666666668
-250.0   120.0   0.0
-300.0   120.0   16.666666666666668
-250.0   150.0   16.666666666666668
-250.0   120.0   0.0
-300.0   150.0   0.0
-300.0   120.0   16.666666666666668
-250.0   120.0   16.666666666666668
-300.0   150.0   16.666666666666668
-300.0   120.0   33.333333333333336
-250.0   120.0   16.666666666666668
-250.0   150.0   16.666666666666668
-300.0   150.0   16.666666666666668
-250.0   150.0   33.333333333333336
-300.0   120.0   33.333333333333336
-300.0   150.0   33.333333333333336
-250.0   150.0   33.333333333333336
-300.0   150.0   16.666666666666668
-300.0   120.0   33.333333333333336
-250.0   150.0   33.333333333333336
-250.0   120.0   33.333333333333336
-250.0   120.0   16.666666666666668
-300.0   120.0   33.333333333333336
-250.0   150.0   33.333333333333336
-250.0   120.0   16.666666666666668
-300.0   150.0   16.666666666666668
-300.0   120.0   33.333333333333336
-250.0   120.0   33.333333333333336
-300.0   150.0   33.333333333333336
-300.0   120.0   50.0
-250.0   120.0   33.333333333333336
-250.0   150.0   33.333333333333336
-300.0   150.0   33.333333333333336
-250.0   150.0   50.0
-300.0   120.0   50.0
-300.0   150.0   50.0
-250.0   150.0   50.0
-300.0   150.0   33.333333333333336
-300.0   120.0   50.0
-250.0   150.0   50.0
-250.0   120.0   50.0
-250.0   120.0   33.333333333333336
-300.0   120.0   50.0
-250.0   150.0   50.0
-250.0   120.0   33.333333333333336
-300.0   150.0   33.333333333333336
-250.0   0.0   0.0
-200.0   0.0   0.0
-250.0   30.0   0.0
-250.0   0.0   16.666666666666668
-200.0   0.0   0.0
-200.0   30.0   0.0
-250.0   30.0   0.0
-200.0   30.0   16.666666666666668
-250.0   0.0   16.666666666666668
-250.0   30.0   16.666666666666668
-200.0   30.0   16.666666666666668
-250.0   30.0   0.0
-250.0   0.0   16.666666666666668
-200.0   30.0   16.666666666666668
-200.0   0.0   16.666666666666668
-200.0   0.0   0.0
-250.0   0.0   16.666666666666668
-200.0   30.0   16.666666666666668
-200.0   0.0   0.0
-250.0   30.0   0.0
-250.0   0.0   16.666666666666668
-200.0   0.0   16.666666666666668
-250.0   30.0   16.666666666666668
-250.0   0.0   33.333333333333336
-200.0   0.0   16.666666666666668
-200.0   30.0   16.666666666666668
-250.0   30.0   16.666666666666668
-200.0   30.0   33.333333333333336
-250.0   0.0   33.333333333333336
-250.0   30.0   33.333333333333336
-200.0   30.0   33.333333333333336
-250.0   30.0   16.666666666666668
-250.0   0.0   33.333333333333336
-200.0   30.0   33.333333333333336
-200.0   0.0   33.333333333333336
-200.0   0.0   16.666666666666668
-250.0   0.0   33.333333333333336
-200.0   30.0   33.333333333333336
-200.0   0.0   16.666666666666668
-250.0   30.0   16.666666666666668
-250.0   0.0   33.333333333333336
-200.0   0.0   33.333333333333336
-250.0   30.0   33.333333333333336
-250.0   0.0   50.0
-200.0   0.0   33.333333333333336
-200.0   30.0   33.333333333333336
-250.0   30.0   33.333333333333336
-200.0   30.0   50.0
-250.0   0.0   50.0
-250.0   30.0   50.0
-200.0   30.0   50.0
-250.0   30.0   33.333333333333336
-250.0   0.0   50.0
-200.0   30.0   50.0
-200.0   0.0   50.0
-200.0   0.0   33.333333333333336
-250.0   0.0   50.0
-200.0   30.0   50.0
-200.0   0.0   33.333333333333336
-250.0   30.0   33.333333333333336
-250.0   30.0   0.0
-200.0   30.0   0.0
-250.0   60.0   0.0
-250.0   30.0   16.666666666666668
-200.0   30.0   0.0
-200.0   60.0   0.0
-250.0   60.0   0.0
-200.0   60.0   16.666666666666668
-250.0   30.0   16.666666666666668
-250.0   60.0   16.666666666666668
-200.0   60.0   16.666666666666668
-250.0   60.0   0.0
-250.0   30.0   16.666666666666668
-200.0   60.0   16.666666666666668
-200.0   30.0   16.666666666666668
-200.0   30.0   0.0
-250.0   30.0   16.666666666666668
-200.0   60.0   16.666666666666668
-200.0   30.0   0.0
-250.0   60.0   0.0
-250.0   30.0   16.666666666666668
-200.0   30.0   16.666666666666668
-250.0   60.0   16.666666666666668
-250.0   30.0   33.333333333333336
-200.0   30.0   16.666666666666668
-200.0   60.0   16.666666666666668
-250.0   60.0   16.666666666666668
-200.0   60.0   33.333333333333336
-250.0   30.0   33.333333333333336
-250.0   60.0   33.333333333333336
-200.0   60.0   33.333333333333336
-250.0   60.0   16.666666666666668
-250.0   30.0   33.333333333333336
-200.0   60.0   33.333333333333336
-200.0   30.0   33.333333333333336
-200.0   30.0   16.666666666666668
-250.0   30.0   33.333333333333336
-200.0   60.0   33.333333333333336
-200.0   30.0   16.666666666666668
-250.0   60.0   16.666666666666668
-250.0   30.0   33.333333333333336
-200.0   30.0   33.333333333333336
-250.0   60.0   33.333333333333336
-250.0   30.0   50.0
-200.0   30.0   33.333333333333336
-200.0   60.0   33.333333333333336
-250.0   60.0   33.333333333333336
-200.0   60.0   50.0
-250.0   30.0   50.0
-250.0   60.0   50.0
-200.0   60.0   50.0
-250.0   60.0   33.333333333333336
-250.0   30.0   50.0
-200.0   60.0   50.0
-200.0   30.0   50.0
-200.0   30.0   33.333333333333336
-250.0   30.0   50.0
-200.0   60.0   50.0
-200.0   30.0   33.333333333333336
-250.0   60.0   33.333333333333336
-250.0   60.0   0.0
-200.0   60.0   0.0
-250.0   90.0   0.0
-250.0   60.0   16.666666666666668
-200.0   60.0   0.0
-200.0   90.0   0.0
-250.0   90.0   0.0
-200.0   90.0   16.666666666666668
-250.0   60.0   16.666666666666668
-250.0   90.0   16.666666666666668
-200.0   90.0   16.666666666666668
-250.0   90.0   0.0
-250.0   60.0   16.666666666666668
-200.0   90.0   16.666666666666668
-200.0   60.0   16.666666666666668
-200.0   60.0   0.0
-250.0   60.0   16.666666666666668
-200.0   90.0   16.666666666666668
-200.0   60.0   0.0
-250.0   90.0   0.0
-250.0   60.0   16.666666666666668
-200.0   60.0   16.666666666666668
-250.0   90.0   16.666666666666668
-250.0   60.0   33.333333333333336
-200.0   60.0   16.666666666666668
-200.0   90.0   16.666666666666668
-250.0   90.0   16.666666666666668
-200.0   90.0   33.333333333333336
-250.0   60.0   33.333333333333336
-250.0   90.0   33.333333333333336
-200.0   90.0   33.333333333333336
-250.0   90.0   16.666666666666668
-250.0   60.0   33.333333333333336
-200.0   90.0   33.333333333333336
-200.0   60.0   33.333333333333336
-200.0   60.0   16.666666666666668
-250.0   60.0   33.333333333333336
-200.0   90.0   33.333333333333336
-200.0   60.0   16.666666666666668
-250.0   90.0   16.666666666666668
-250.0   60.0   33.333333333333336
-200.0   60.0   33.333333333333336
-250.0   90.0   33.333333333333336
-250.0   60.0   50.0
-200.0   60.0   33.333333333333336
-200.0   90.0   33.333333333333336
-250.0   90.0   33.333333333333336
-200.0   90.0   50.0
-250.0   60.0   50.0
-250.0   90.0   50.0
-200.0   90.0   50.0
-250.0   90.0   33.333333333333336
-250.0   60.0   50.0
-200.0   90.0   50.0
-200.0   60.0   50.0
-200.0   60.0   33.333333333333336
-250.0   60.0   50.0
-200.0   90.0   50.0
-200.0   60.0   33.333333333333336
-250.0   90.0   33.333333333333336
-250.0   90.0   0.0
-200.0   90.0   0.0
-250.0   120.0   0.0
-250.0   90.0   16.666666666666668
-200.0   90.0   0.0
-200.0   120.0   0.0
-250.0   120.0   0.0
-200.0   120.0   16.666666666666668
-250.0   90.0   16.666666666666668
-250.0   120.0   16.666666666666668
-200.0   120.0   16.666666666666668
-250.0   120.0   0.0
-250.0   90.0   16.666666666666668
-200.0   120.0   16.666666666666668
-200.0   90.0   16.666666666666668
-200.0   90.0   0.0
-250.0   90.0   16.666666666666668
-200.0   120.0   16.666666666666668
-200.0   90.0   0.0
-250.0   120.0   0.0
-250.0   90.0   16.666666666666668
-200.0   90.0   16.666666666666668
-250.0   120.0   16.666666666666668
-250.0   90.0   33.333333333333336
-200.0   90.0   16.666666666666668
-200.0   120.0   16.666666666666668
-250.0   120.0   16.666666666666668
-200.0   120.0   33.333333333333336
-250.0   90.0   33.333333333333336
-250.0   120.0   33.333333333333336
-200.0   120.0   33.333333333333336
-250.0   120.0   16.666666666666668
-250.0   90.0   33.333333333333336
-200.0   120.0   33.333333333333336
-200.0   90.0   33.333333333333336
-200.0   90.0   16.666666666666668
-250.0   90.0   33.333333333333336
-200.0   120.0   33.333333333333336
-200.0   90.0   16.666666666666668
-250.0   120.0   16.666666666666668
-250.0   90.0   33.333333333333336
-200.0   90.0   33.333333333333336
-250.0   120.0   33.333333333333336
-250.0   90.0   50.0
-200.0   90.0   33.333333333333336
-200.0   120.0   33.333333333333336
-250.0   120.0   33.333333333333336
-200.0   120.0   50.0
-250.0   90.0   50.0
-250.0   120.0   50.0
-200.0   120.0   50.0
-250.0   120.0   33.333333333333336
-250.0   90.0   50.0
-200.0   120.0   50.0
-200.0   90.0   50.0
-200.0   90.0   33.333333333333336
-250.0   90.0   50.0
-200.0   120.0   50.0
-200.0   90.0   33.333333333333336
-250.0   120.0   33.333333333333336
-250.0   120.0   0.0
-200.0   120.0   0.0
-250.0   150.0   0.0
-250.0   120.0   16.666666666666668
-200.0   120.0   0.0
-200.0   150.0   0.0
-250.0   150.0   0.0
-200.0   150.0   16.666666666666668
-250.0   120.0   16.666666666666668
-250.0   150.0   16.666666666666668
-200.0   150.0   16.666666666666668
-250.0   150.0   0.0
-250.0   120.0   16.666666666666668
-200.0   150.0   16.666666666666668
-200.0   120.0   16.666666666666668
-200.0   120.0   0.0
-250.0   120.0   16.666666666666668
-200.0   150.0   16.666666666666668
-200.0   120.0   0.0
-250.0   150.0   0.0
-250.0   120.0   16.666666666666668
-200.0   120.0   16.666666666666668
-250.0   150.0   16.666666666666668
-250.0   120.0   33.333333333333336
-200.0   120.0   16.666666666666668
-200.0   150.0   16.666666666666668
-250.0   150.0   16.666666666666668
-200.0   150.0   33.333333333333336
-250.0   120.0   33.333333333333336
-250.0   150.0   33.333333333333336
-200.0   150.0   33.333333333333336
-250.0   150.0   16.666666666666668
-250.0   120.0   33.333333333333336
-200.0   150.0   33.333333333333336
-200.0   120.0   33.333333333333336
-200.0   120.0   16.666666666666668
-250.0   120.0   33.333333333333336
-200.0   150.0   33.333333333333336
-200.0   120.0   16.666666666666668
-250.0   150.0   16.666666666666668
-250.0   120.0   33.333333333333336
-200.0   120.0   33.333333333333336
-250.0   150.0   33.333333333333336
-250.0   120.0   50.0
-200.0   120.0   33.333333333333336
-200.0   150.0   33.333333333333336
-250.0   150.0   33.333333333333336
-200.0   150.0   50.0
-250.0   120.0   50.0
-250.0   150.0   50.0
-200.0   150.0   50.0
-250.0   150.0   33.333333333333336
-250.0   120.0   50.0
-200.0   150.0   50.0
-200.0   120.0   50.0
-200.0   120.0   33.333333333333336
-250.0   120.0   50.0
-200.0   150.0   50.0
-200.0   120.0   33.333333333333336
-250.0   150.0   33.333333333333336
-200.0   0.0   0.0
-150.0   0.0   0.0
-200.0   30.0   0.0
-200.0   0.0   16.666666666666668
-150.0   0.0   0.0
-150.0   30.0   0.0
-200.0   30.0   0.0
-150.0   30.0   16.666666666666668
-200.0   0.0   16.666666666666668
-200.0   30.0   16.666666666666668
-150.0   30.0   16.666666666666668
-200.0   30.0   0.0
-200.0   0.0   16.666666666666668
-150.0   30.0   16.666666666666668
-150.0   0.0   16.666666666666668
-150.0   0.0   0.0
-200.0   0.0   16.666666666666668
-150.0   30.0   16.666666666666668
-150.0   0.0   0.0
-200.0   30.0   0.0
-200.0   0.0   16.666666666666668
-150.0   0.0   16.666666666666668
-200.0   30.0   16.666666666666668
-200.0   0.0   33.333333333333336
-150.0   0.0   16.666666666666668
-150.0   30.0   16.666666666666668
-200.0   30.0   16.666666666666668
-150.0   30.0   33.333333333333336
-200.0   0.0   33.333333333333336
-200.0   30.0   33.333333333333336
-150.0   30.0   33.333333333333336
-200.0   30.0   16.666666666666668
-200.0   0.0   33.333333333333336
-150.0   30.0   33.333333333333336
-150.0   0.0   33.333333333333336
-150.0   0.0   16.666666666666668
-200.0   0.0   33.333333333333336
-150.0   30.0   33.333333333333336
-150.0   0.0   16.666666666666668
-200.0   30.0   16.666666666666668
-200.0   0.0   33.333333333333336
-150.0   0.0   33.333333333333336
-200.0   30.0   33.333333333333336
-200.0   0.0   50.0
-150.0   0.0   33.333333333333336
-150.0   30.0   33.333333333333336
-200.0   30.0   33.333333333333336
-150.0   30.0   50.0
-200.0   0.0   50.0
-200.0   30.0   50.0
-150.0   30.0   50.0
-200.0   30.0   33.333333333333336
-200.0   0.0   50.0
-150.0   30.0   50.0
-150.0   0.0   50.0
-150.0   0.0   33.333333333333336
-200.0   0.0   50.0
-150.0   30.0   50.0
-150.0   0.0   33.333333333333336
-200.0   30.0   33.333333333333336
-200.0   30.0   0.0
-150.0   30.0   0.0
-200.0   60.0   0.0
-200.0   30.0   16.666666666666668
-150.0   30.0   0.0
-150.0   60.0   0.0
-200.0   60.0   0.0
-150.0   60.0   16.666666666666668
-200.0   30.0   16.666666666666668
-200.0   60.0   16.666666666666668
-150.0   60.0   16.666666666666668
-200.0   60.0   0.0
-200.0   30.0   16.666666666666668
-150.0   60.0   16.666666666666668
-150.0   30.0   16.666666666666668
-150.0   30.0   0.0
-200.0   30.0   16.666666666666668
-150.0   60.0   16.666666666666668
-150.0   30.0   0.0
-200.0   60.0   0.0
-200.0   30.0   16.666666666666668
-150.0   30.0   16.666666666666668
-200.0   60.0   16.666666666666668
-200.0   30.0   33.333333333333336
-150.0   30.0   16.666666666666668
-150.0   60.0   16.666666666666668
-200.0   60.0   16.666666666666668
-150.0   60.0   33.333333333333336
-200.0   30.0   33.333333333333336
-200.0   60.0   33.333333333333336
-150.0   60.0   33.333333333333336
-200.0   60.0   16.666666666666668
-200.0   30.0   33.333333333333336
-150.0   60.0   33.333333333333336
-150.0   30.0   33.333333333333336
-150.0   30.0   16.666666666666668
-200.0   30.0   33.333333333333336
-150.0   60.0   33.333333333333336
-150.0   30.0   16.666666666666668
-200.0   60.0   16.666666666666668
-200.0   30.0   33.333333333333336
-150.0   30.0   33.333333333333336
-200.0   60.0   33.333333333333336
-200.0   30.0   50.0
-150.0   30.0   33.333333333333336
-150.0   60.0   33.333333333333336
-200.0   60.0   33.333333333333336
-150.0   60.0   50.0
-200.0   30.0   50.0
-200.0   60.0   50.0
-150.0   60.0   50.0
-200.0   60.0   33.333333333333336
-200.0   30.0   50.0
-150.0   60.0   50.0
-150.0   30.0   50.0
-150.0   30.0   33.333333333333336
-200.0   30.0   50.0
-150.0   60.0   50.0
-150.0   30.0   33.333333333333336
-200.0   60.0   33.333333333333336
-200.0   60.0   0.0
-150.0   60.0   0.0
-200.0   90.0   0.0
-200.0   60.0   16.666666666666668
-150.0   60.0   0.0
-150.0   90.0   0.0
-200.0   90.0   0.0
-150.0   90.0   16.666666666666668
-200.0   60.0   16.666666666666668
-200.0   90.0   16.666666666666668
-150.0   90.0   16.666666666666668
-200.0   90.0   0.0
-200.0   60.0   16.666666666666668
-150.0   90.0   16.666666666666668
-150.0   60.0   16.666666666666668
-150.0   60.0   0.0
-200.0   60.0   16.666666666666668
-150.0   90.0   16.666666666666668
-150.0   60.0   0.0
-200.0   90.0   0.0
-200.0   60.0   16.666666666666668
-150.0   60.0   16.666666666666668
-200.0   90.0   16.666666666666668
-200.0   60.0   33.333333333333336
-150.0   60.0   16.666666666666668
-150.0   90.0   16.666666666666668
-200.0   90.0   16.666666666666668
-150.0   90.0   33.333333333333336
-200.0   60.0   33.333333333333336
-200.0   90.0   33.333333333333336
-150.0   90.0   33.333333333333336
-200.0   90.0   16.666666666666668
-200.0   60.0   33.333333333333336
-150.0   90.0   33.333333333333336
-150.0   60.0   33.333333333333336
-150.0   60.0   16.666666666666668
-200.0   60.0   33.333333333333336
-150.0   90.0   33.333333333333336
-150.0   60.0   16.666666666666668
-200.0   90.0   16.666666666666668
-200.0   60.0   33.333333333333336
-150.0   60.0   33.333333333333336
-200.0   90.0   33.333333333333336
-200.0   60.0   50.0
-150.0   60.0   33.333333333333336
-150.0   90.0   33.333333333333336
-200.0   90.0   33.333333333333336
-150.0   90.0   50.0
-200.0   60.0   50.0
-200.0   90.0   50.0
-150.0   90.0   50.0
-200.0   90.0   33.333333333333336
-200.0   60.0   50.0
-150.0   90.0   50.0
-150.0   60.0   50.0
-150.0   60.0   33.333333333333336
-200.0   60.0   50.0
-150.0   90.0   50.0
-150.0   60.0   33.333333333333336
-200.0   90.0   33.333333333333336
-200.0   90.0   0.0
-150.0   90.0   0.0
-200.0   120.0   0.0
-200.0   90.0   16.666666666666668
-150.0   90.0   0.0
-150.0   120.0   0.0
-200.0   120.0   0.0
-150.0   120.0   16.666666666666668
-200.0   90.0   16.666666666666668
-200.0   120.0   16.666666666666668
-150.0   120.0   16.666666666666668
-200.0   120.0   0.0
-200.0   90.0   16.666666666666668
-150.0   120.0   16.666666666666668
-150.0   90.0   16.666666666666668
-150.0   90.0   0.0
-200.0   90.0   16.666666666666668
-150.0   120.0   16.666666666666668
-150.0   90.0   0.0
-200.0   120.0   0.0
-200.0   90.0   16.666666666666668
-150.0   90.0   16.666666666666668
-200.0   120.0   16.666666666666668
-200.0   90.0   33.333333333333336
-150.0   90.0   16.666666666666668
-150.0   120.0   16.666666666666668
-200.0   120.0   16.666666666666668
-150.0   120.0   33.333333333333336
-200.0   90.0   33.333333333333336
-200.0   120.0   33.333333333333336
-150.0   120.0   33.333333333333336
-200.0   120.0   16.666666666666668
-200.0   90.0   33.333333333333336
-150.0   120.0   33.333333333333336
-150.0   90.0   33.333333333333336
-150.0   90.0   16.666666666666668
-200.0   90.0   33.333333333333336
-150.0   120.0   33.333333333333336
-150.0   90.0   16.666666666666668
-200.0   120.0   16.666666666666668
-200.0   90.0   33.333333333333336
-150.0   90.0   33.333333333333336
-200.0   120.0   33.333333333333336
-200.0   90.0   50.0
-150.0   90.0   33.333333333333336
-150.0   120.0   33.333333333333336
-200.0   120.0   33.333333333333336
-150.0   120.0   50.0
-200.0   90.0   50.0
-200.0   120.0   50.0
-150.0   120.0   50.0
-200.0   120.0   33.333333333333336
-200.0   90.0   50.0
-150.0   120.0   50.0
-150.0   90.0   50.0
-150.0   90.0   33.333333333333336
-200.0   90.0   50.0
-150.0   120.0   50.0
-150.0   90.0   33.333333333333336
-200.0   120.0   33.333333333333336
-200.0   120.0   0.0
-150.0   120.0   0.0
-200.0   150.0   0.0
-200.0   120.0   16.666666666666668
-150.0   120.0   0.0
-150.0   150.0   0.0
-200.0   150.0   0.0
-150.0   150.0   16.666666666666668
-200.0   120.0   16.666666666666668
-200.0   150.0   16.666666666666668
-150.0   150.0   16.666666666666668
-200.0   150.0   0.0
-200.0   120.0   16.666666666666668
-150.0   150.0   16.666666666666668
-150.0   120.0   16.666666666666668
-150.0   120.0   0.0
-200.0   120.0   16.666666666666668
-150.0   150.0   16.666666666666668
-150.0   120.0   0.0
-200.0   150.0   0.0
-200.0   120.0   16.666666666666668
-150.0   120.0   16.666666666666668
-200.0   150.0   16.666666666666668
-200.0   120.0   33.333333333333336
-150.0   120.0   16.666666666666668
-150.0   150.0   16.666666666666668
-200.0   150.0   16.666666666666668
-150.0   150.0   33.333333333333336
-200.0   120.0   33.333333333333336
-200.0   150.0   33.333333333333336
-150.0   150.0   33.333333333333336
-200.0   150.0   16.666666666666668
-200.0   120.0   33.333333333333336
-150.0   150.0   33.333333333333336
-150.0   120.0   33.333333333333336
-150.0   120.0   16.666666666666668
-200.0   120.0   33.333333333333336
-150.0   150.0   33.333333333333336
-150.0   120.0   16.666666666666668
-200.0   150.0   16.666666666666668
-200.0   120.0   33.333333333333336
-150.0   120.0   33.333333333333336
-200.0   150.0   33.333333333333336
-200.0   120.0   50.0
-150.0   120.0   33.333333333333336
-150.0   150.0   33.333333333333336
-200.0   150.0   33.333333333333336
-150.0   150.0   50.0
-200.0   120.0   50.0
-200.0   150.0   50.0
-150.0   150.0   50.0
-200.0   150.0   33.333333333333336
-200.0   120.0   50.0
-150.0   150.0   50.0
-150.0   120.0   50.0
-150.0   120.0   33.333333333333336
-200.0   120.0   50.0
-150.0   150.0   50.0
-150.0   120.0   33.333333333333336
-200.0   150.0   33.333333333333336
-150.0   0.0   0.0
-100.0   0.0   0.0
-150.0   30.0   0.0
-150.0   0.0   16.666666666666668
-100.0   0.0   0.0
-100.0   30.0   0.0
-150.0   30.0   0.0
-100.0   30.0   16.666666666666668
-150.0   0.0   16.666666666666668
-150.0   30.0   16.666666666666668
-100.0   30.0   16.666666666666668
-150.0   30.0   0.0
-150.0   0.0   16.666666666666668
-100.0   30.0   16.666666666666668
-100.0   0.0   16.666666666666668
-100.0   0.0   0.0
-150.0   0.0   16.666666666666668
-100.0   30.0   16.666666666666668
-100.0   0.0   0.0
-150.0   30.0   0.0
-150.0   0.0   16.666666666666668
-100.0   0.0   16.666666666666668
-150.0   30.0   16.666666666666668
-150.0   0.0   33.333333333333336
-100.0   0.0   16.666666666666668
-100.0   30.0   16.666666666666668
-150.0   30.0   16.666666666666668
-100.0   30.0   33.333333333333336
-150.0   0.0   33.333333333333336
-150.0   30.0   33.333333333333336
-100.0   30.0   33.333333333333336
-150.0   30.0   16.666666666666668
-150.0   0.0   33.333333333333336
-100.0   30.0   33.333333333333336
-100.0   0.0   33.333333333333336
-100.0   0.0   16.666666666666668
-150.0   0.0   33.333333333333336
-100.0   30.0   33.333333333333336
-100.0   0.0   16.666666666666668
-150.0   30.0   16.666666666666668
-150.0   0.0   33.333333333333336
-100.0   0.0   33.333333333333336
-150.0   30.0   33.333333333333336
-150.0   0.0   50.0
-100.0   0.0   33.333333333333336
-100.0   30.0   33.333333333333336
-150.0   30.0   33.333333333333336
-100.0   30.0   50.0
-150.0   0.0   50.0
-150.0   30.0   50.0
-100.0   30.0   50.0
-150.0   30.0   33.333333333333336
-150.0   0.0   50.0
-100.0   30.0   50.0
-100.0   0.0   50.0
-100.0   0.0   33.333333333333336
-150.0   0.0   50.0
-100.0   30.0   50.0
-100.0   0.0   33.333333333333336
-150.0   30.0   33.333333333333336
-150.0   30.0   0.0
-100.0   30.0   0.0
-150.0   60.0   0.0
-150.0   30.0   16.666666666666668
-100.0   30.0   0.0
-100.0   60.0   0.0
-150.0   60.0   0.0
-100.0   60.0   16.666666666666668
-150.0   30.0   16.666666666666668
-150.0   60.0   16.666666666666668
-100.0   60.0   16.666666666666668
-150.0   60.0   0.0
-150.0   30.0   16.666666666666668
-100.0   60.0   16.666666666666668
-100.0   30.0   16.666666666666668
-100.0   30.0   0.0
-150.0   30.0   16.666666666666668
-100.0   60.0   16.666666666666668
-100.0   30.0   0.0
-150.0   60.0   0.0
-150.0   30.0   16.666666666666668
-100.0   30.0   16.666666666666668
-150.0   60.0   16.666666666666668
-150.0   30.0   33.333333333333336
-100.0   30.0   16.666666666666668
-100.0   60.0   16.666666666666668
-150.0   60.0   16.666666666666668
-100.0   60.0   33.333333333333336
-150.0   30.0   33.333333333333336
-150.0   60.0   33.333333333333336
-100.0   60.0   33.333333333333336
-150.0   60.0   16.666666666666668
-150.0   30.0   33.333333333333336
-100.0   60.0   33.333333333333336
-100.0   30.0   33.333333333333336
-100.0   30.0   16.666666666666668
-150.0   30.0   33.333333333333336
-100.0   60.0   33.333333333333336
-100.0   30.0   16.666666666666668
-150.0   60.0   16.666666666666668
-150.0   30.0   33.333333333333336
-100.0   30.0   33.333333333333336
-150.0   60.0   33.333333333333336
-150.0   30.0   50.0
-100.0   30.0   33.333333333333336
-100.0   60.0   33.333333333333336
-150.0   60.0   33.333333333333336
-100.0   60.0   50.0
-150.0   30.0   50.0
-150.0   60.0   50.0
-100.0   60.0   50.0
-150.0   60.0   33.333333333333336
-150.0   30.0   50.0
-100.0   60.0   50.0
-100.0   30.0   50.0
-100.0   30.0   33.333333333333336
-150.0   30.0   50.0
-100.0   60.0   50.0
-100.0   30.0   33.333333333333336
-150.0   60.0   33.333333333333336
-150.0   60.0   0.0
-100.0   60.0   0.0
-150.0   90.0   0.0
-150.0   60.0   16.666666666666668
-100.0   60.0   0.0
-100.0   90.0   0.0
-150.0   90.0   0.0
-100.0   90.0   16.666666666666668
-150.0   60.0   16.666666666666668
-150.0   90.0   16.666666666666668
-100.0   90.0   16.666666666666668
-150.0   90.0   0.0
-150.0   60.0   16.666666666666668
-100.0   90.0   16.666666666666668
-100.0   60.0   16.666666666666668
-100.0   60.0   0.0
-150.0   60.0   16.666666666666668
-100.0   90.0   16.666666666666668
-100.0   60.0   0.0
-150.0   90.0   0.0
-150.0   60.0   16.666666666666668
-100.0   60.0   16.666666666666668
-150.0   90.0   16.666666666666668
-150.0   60.0   33.333333333333336
-100.0   60.0   16.666666666666668
-100.0   90.0   16.666666666666668
-150.0   90.0   16.666666666666668
-100.0   90.0   33.333333333333336
-150.0   60.0   33.333333333333336
-150.0   90.0   33.333333333333336
-100.0   90.0   33.333333333333336
-150.0   90.0   16.666666666666668
-150.0   60.0   33.333333333333336
-100.0   90.0   33.333333333333336
-100.0   60.0   33.333333333333336
-100.0   60.0   16.666666666666668
-150.0   60.0   33.333333333333336
-100.0   90.0   33.333333333333336
-100.0   60.0   16.666666666666668
-150.0   90.0   16.666666666666668
-150.0   60.0   33.333333333333336
-100.0   60.0   33.333333333333336
-150.0   90.0   33.333333333333336
-150.0   60.0   50.0
-100.0   60.0   33.333333333333336
-100.0   90.0   33.333333333333336
-150.0   90.0   33.333333333333336
-100.0   90.0   50.0
-150.0   60.0   50.0
-150.0   90.0   50.0
-100.0   90.0   50.0
-150.0   90.0   33.333333333333336
-150.0   60.0   50.0
-100.0   90.0   50.0
-100.0   60.0   50.0
-100.0   60.0   33.333333333333336
-150.0   60.0   50.0
-100.0   90.0   50.0
-100.0   60.0   33.333333333333336
-150.0   90.0   33.333333333333336
-150.0   90.0   0.0
-100.0   90.0   0.0
-150.0   120.0   0.0
-150.0   90.0   16.666666666666668
-100.0   90.0   0.0
-100.0   120.0   0.0
-150.0   120.0   0.0
-100.0   120.0   16.666666666666668
-150.0   90.0   16.666666666666668
-150.0   120.0   16.666666666666668
-100.0   120.0   16.666666666666668
-150.0   120.0   0.0
-150.0   90.0   16.666666666666668
-100.0   120.0   16.666666666666668
-100.0   90.0   16.666666666666668
-100.0   90.0   0.0
-150.0   90.0   16.666666666666668
-100.0   120.0   16.666666666666668
-100.0   90.0   0.0
-150.0   120.0   0.0
-150.0   90.0   16.666666666666668
-100.0   90.0   16.666666666666668
-150.0   120.0   16.666666666666668
-150.0   90.0   33.333333333333336
-100.0   90.0   16.666666666666668
-100.0   120.0   16.666666666666668
-150.0   120.0   16.666666666666668
-100.0   120.0   33.333333333333336
-150.0   90.0   33.333333333333336
-150.0   120.0   33.333333333333336
-100.0   120.0   33.333333333333336
-150.0   120.0   16.666666666666668
-150.0   90.0   33.333333333333336
-100.0   120.0   33.333333333333336
-100.0   90.0   33.333333333333336
-100.0   90.0   16.666666666666668
-150.0   90.0   33.333333333333336
-100.0   120.0   33.333333333333336
-100.0   90.0   16.666666666666668
-150.0   120.0   16.666666666666668
-150.0   90.0   33.333333333333336
-100.0   90.0   33.333333333333336
-150.0   120.0   33.333333333333336
-150.0   90.0   50.0
-100.0   90.0   33.333333333333336
-100.0   120.0   33.333333333333336
-150.0   120.0   33.333333333333336
-100.0   120.0   50.0
-150.0   90.0   50.0
-150.0   120.0   50.0
-100.0   120.0   50.0
-150.0   120.0   33.333333333333336
-150.0   90.0   50.0
-100.0   120.0   50.0
-100.0   90.0   50.0
-100.0   90.0   33.333333333333336
-150.0   90.0   50.0
-100.0   120.0   50.0
-100.0   90.0   33.333333333333336
-150.0   120.0   33.333333333333336
-150.0   120.0   0.0
-100.0   120.0   0.0
-150.0   150.0   0.0
-150.0   120.0   16.666666666666668
-100.0   120.0   0.0
-100.0   150.0   0.0
-150.0   150.0   0.0
-100.0   150.0   16.666666666666668
-150.0   120.0   16.666666666666668
-150.0   150.0   16.666666666666668
-100.0   150.0   16.666666666666668
-150.0   150.0   0.0
-150.0   120.0   16.666666666666668
-100.0   150.0   16.666666666666668
-100.0   120.0   16.666666666666668
-100.0   120.0   0.0
-150.0   120.0   16.666666666666668
-100.0   150.0   16.666666666666668
-100.0   120.0   0.0
-150.0   150.0   0.0
-150.0   120.0   16.666666666666668
-100.0   120.0   16.666666666666668
-150.0   150.0   16.666666666666668
-150.0   120.0   33.333333333333336
-100.0   120.0   16.666666666666668
-100.0   150.0   16.666666666666668
-150.0   150.0   16.666666666666668
-100.0   150.0   33.333333333333336
-150.0   120.0   33.333333333333336
-150.0   150.0   33.333333333333336
-100.0   150.0   33.333333333333336
-150.0   150.0   16.666666666666668
-150.0   120.0   33.333333333333336
-100.0   150.0   33.333333333333336
-100.0   120.0   33.333333333333336
-100.0   120.0   16.666666666666668
-150.0   120.0   33.333333333333336
-100.0   150.0   33.333333333333336
-100.0   120.0   16.666666666666668
-150.0   150.0   16.666666666666668
-150.0   120.0   33.333333333333336
-100.0   120.0   33.333333333333336
-150.0   150.0   33.333333333333336
-150.0   120.0   50.0
-100.0   120.0   33.333333333333336
-100.0   150.0   33.333333333333336
-150.0   150.0   33.333333333333336
-100.0   150.0   50.0
-150.0   120.0   50.0
-150.0   150.0   50.0
-100.0   150.0   50.0
-150.0   150.0   33.333333333333336
-150.0   120.0   50.0
-100.0   150.0   50.0
-100.0   120.0   50.0
-100.0   120.0   33.333333333333336
-150.0   120.0   50.0
-100.0   150.0   50.0
-100.0   120.0   33.333333333333336
-150.0   150.0   33.333333333333336
-100.0   0.0   0.0
-50.0   0.0   0.0
-100.0   30.0   0.0
-100.0   0.0   16.666666666666668
-50.0   0.0   0.0
-50.0   30.0   0.0
-100.0   30.0   0.0
-50.0   30.0   16.666666666666668
-100.0   0.0   16.666666666666668
-100.0   30.0   16.666666666666668
-50.0   30.0   16.666666666666668
-100.0   30.0   0.0
-100.0   0.0   16.666666666666668
-50.0   30.0   16.666666666666668
-50.0   0.0   16.666666666666668
-50.0   0.0   0.0
-100.0   0.0   16.666666666666668
-50.0   30.0   16.666666666666668
-50.0   0.0   0.0
-100.0   30.0   0.0
-100.0   0.0   16.666666666666668
-50.0   0.0   16.666666666666668
-100.0   30.0   16.666666666666668
-100.0   0.0   33.333333333333336
-50.0   0.0   16.666666666666668
-50.0   30.0   16.666666666666668
-100.0   30.0   16.666666666666668
-50.0   30.0   33.333333333333336
-100.0   0.0   33.333333333333336
-100.0   30.0   33.333333333333336
-50.0   30.0   33.333333333333336
-100.0   30.0   16.666666666666668
-100.0   0.0   33.333333333333336
-50.0   30.0   33.333333333333336
-50.0   0.0   33.333333333333336
-50.0   0.0   16.666666666666668
-100.0   0.0   33.333333333333336
-50.0   30.0   33.333333333333336
-50.0   0.0   16.666666666666668
-100.0   30.0   16.666666666666668
-100.0   0.0   33.333333333333336
-50.0   0.0   33.333333333333336
-100.0   30.0   33.333333333333336
-100.0   0.0   50.0
-50.0   0.0   33.333333333333336
-50.0   30.0   33.333333333333336
-100.0   30.0   33.333333333333336
-50.0   30.0   50.0
-100.0   0.0   50.0
-100.0   30.0   50.0
-50.0   30.0   50.0
-100.0   30.0   33.333333333333336
-100.0   0.0   50.0
-50.0   30.0   50.0
-50.0   0.0   50.0
-50.0   0.0   33.333333333333336
-100.0   0.0   50.0
-50.0   30.0   50.0
-50.0   0.0   33.333333333333336
-100.0   30.0   33.333333333333336
-100.0   30.0   0.0
-50.0   30.0   0.0
-100.0   60.0   0.0
-100.0   30.0   16.666666666666668
-50.0   30.0   0.0
-50.0   60.0   0.0
-100.0   60.0   0.0
-50.0   60.0   16.666666666666668
-100.0   30.0   16.666666666666668
-100.0   60.0   16.666666666666668
-50.0   60.0   16.666666666666668
-100.0   60.0   0.0
-100.0   30.0   16.666666666666668
-50.0   60.0   16.666666666666668
-50.0   30.0   16.666666666666668
-50.0   30.0   0.0
-100.0   30.0   16.666666666666668
-50.0   60.0   16.666666666666668
-50.0   30.0   0.0
-100.0   60.0   0.0
-100.0   30.0   16.666666666666668
-50.0   30.0   16.666666666666668
-100.0   60.0   16.666666666666668
-100.0   30.0   33.333333333333336
-50.0   30.0   16.666666666666668
-50.0   60.0   16.666666666666668
-100.0   60.0   16.666666666666668
-50.0   60.0   33.333333333333336
-100.0   30.0   33.333333333333336
-100.0   60.0   33.333333333333336
-50.0   60.0   33.333333333333336
-100.0   60.0   16.666666666666668
-100.0   30.0   33.333333333333336
-50.0   60.0   33.333333333333336
-50.0   30.0   33.333333333333336
-50.0   30.0   16.666666666666668
-100.0   30.0   33.333333333333336
-50.0   60.0   33.333333333333336
-50.0   30.0   16.666666666666668
-100.0   60.0   16.666666666666668
-100.0   30.0   33.333333333333336
-50.0   30.0   33.333333333333336
-100.0   60.0   33.333333333333336
-100.0   30.0   50.0
-50.0   30.0   33.333333333333336
-50.0   60.0   33.333333333333336
-100.0   60.0   33.333333333333336
-50.0   60.0   50.0
-100.0   30.0   50.0
-100.0   60.0   50.0
-50.0   60.0   50.0
-100.0   60.0   33.333333333333336
-100.0   30.0   50.0
-50.0   60.0   50.0
-50.0   30.0   50.0
-50.0   30.0   33.333333333333336
-100.0   30.0   50.0
-50.0   60.0   50.0
-50.0   30.0   33.333333333333336
-100.0   60.0   33.333333333333336
-100.0   60.0   0.0
-50.0   60.0   0.0
-100.0   90.0   0.0
-100.0   60.0   16.666666666666668
-50.0   60.0   0.0
-50.0   90.0   0.0
-100.0   90.0   0.0
-50.0   90.0   16.666666666666668
-100.0   60.0   16.666666666666668
-100.0   90.0   16.666666666666668
-50.0   90.0   16.666666666666668
-100.0   90.0   0.0
-100.0   60.0   16.666666666666668
-50.0   90.0   16.666666666666668
-50.0   60.0   16.666666666666668
-50.0   60.0   0.0
-100.0   60.0   16.666666666666668
-50.0   90.0   16.666666666666668
-50.0   60.0   0.0
-100.0   90.0   0.0
-100.0   60.0   16.666666666666668
-50.0   60.0   16.666666666666668
-100.0   90.0   16.666666666666668
-100.0   60.0   33.333333333333336
-50.0   60.0   16.666666666666668
-50.0   90.0   16.666666666666668
-100.0   90.0   16.666666666666668
-50.0   90.0   33.333333333333336
-100.0   60.0   33.333333333333336
-100.0   90.0   33.333333333333336
-50.0   90.0   33.333333333333336
-100.0   90.0   16.666666666666668
-100.0   60.0   33.333333333333336
-50.0   90.0   33.333333333333336
-50.0   60.0   33.333333333333336
-50.0   60.0   16.666666666666668
-100.0   60.0   33.333333333333336
-50.0   90.0   33.333333333333336
-50.0   60.0   16.666666666666668
-100.0   90.0   16.666666666666668
-100.0   60.0   33.333333333333336
-50.0   60.0   33.333333333333336
-100.0   90.0   33.333333333333336
-100.0   60.0   50.0
-50.0   60.0   33.333333333333336
-50.0   90.0   33.333333333333336
-100.0   90.0   33.333333333333336
-50.0   90.0   50.0
-100.0   60.0   50.0
-100.0   90.0   50.0
-50.0   90.0   50.0
-100.0   90.0   33.333333333333336
-100.0   60.0   50.0
-50.0   90.0   50.0
-50.0   60.0   50.0
-50.0   60.0   33.333333333333336
-100.0   60.0   50.0
-50.0   90.0   50.0
-50.0   60.0   33.333333333333336
-100.0   90.0   33.333333333333336
-100.0   90.0   0.0
-50.0   90.0   0.0
-100.0   120.0   0.0
-100.0   90.0   16.666666666666668
-50.0   90.0   0.0
-50.0   120.0   0.0
-100.0   120.0   0.0
-50.0   120.0   16.666666666666668
-100.0   90.0   16.666666666666668
-100.0   120.0   16.666666666666668
-50.0   120.0   16.666666666666668
-100.0   120.0   0.0
-100.0   90.0   16.666666666666668
-50.0   120.0   16.666666666666668
-50.0   90.0   16.666666666666668
-50.0   90.0   0.0
-100.0   90.0   16.666666666666668
-50.0   120.0   16.666666666666668
-50.0   90.0   0.0
-100.0   120.0   0.0
-100.0   90.0   16.666666666666668
-50.0   90.0   16.666666666666668
-100.0   120.0   16.666666666666668
-100.0   90.0   33.333333333333336
-50.0   90.0   16.666666666666668
-50.0   120.0   16.666666666666668
-100.0   120.0   16.666666666666668
-50.0   120.0   33.333333333333336
-100.0   90.0   33.333333333333336
-100.0   120.0   33.333333333333336
-50.0   120.0   33.333333333333336
-100.0   120.0   16.666666666666668
-100.0   90.0   33.333333333333336
-50.0   120.0   33.333333333333336
-50.0   90.0   33.333333333333336
-50.0   90.0   16.666666666666668
-100.0   90.0   33.333333333333336
-50.0   120.0   33.333333333333336
-50.0   90.0   16.666666666666668
-100.0   120.0   16.666666666666668
-100.0   90.0   33.333333333333336
-50.0   90.0   33.333333333333336
-100.0   120.0   33.333333333333336
-100.0   90.0   50.0
-50.0   90.0   33.333333333333336
-50.0   120.0   33.333333333333336
-100.0   120.0   33.333333333333336
-50.0   120.0   50.0
-100.0   90.0   50.0
-100.0   120.0   50.0
-50.0   120.0   50.0
-100.0   120.0   33.333333333333336
-100.0   90.0   50.0
-50.0   120.0   50.0
-50.0   90.0   50.0
-50.0   90.0   33.333333333333336
-100.0   90.0   50.0
-50.0   120.0   50.0
-50.0   90.0   33.333333333333336
-100.0   120.0   33.333333333333336
-100.0   120.0   0.0
-50.0   120.0   0.0
-100.0   150.0   0.0
-100.0   120.0   16.666666666666668
-50.0   120.0   0.0
-50.0   150.0   0.0
-100.0   150.0   0.0
-50.0   150.0   16.666666666666668
-100.0   120.0   16.666666666666668
-100.0   150.0   16.666666666666668
-50.0   150.0   16.666666666666668
-100.0   150.0   0.0
-100.0   120.0   16.666666666666668
-50.0   150.0   16.666666666666668
-50.0   120.0   16.666666666666668
-50.0   120.0   0.0
-100.0   120.0   16.666666666666668
-50.0   150.0   16.666666666666668
-50.0   120.0   0.0
-100.0   150.0   0.0
-100.0   120.0   16.666666666666668
-50.0   120.0   16.666666666666668
-100.0   150.0   16.666666666666668
-100.0   120.0   33.333333333333336
-50.0   120.0   16.666666666666668
-50.0   150.0   16.666666666666668
-100.0   150.0   16.666666666666668
-50.0   150.0   33.333333333333336
-100.0   120.0   33.333333333333336
-100.0   150.0   33.333333333333336
-50.0   150.0   33.333333333333336
-100.0   150.0   16.666666666666668
-100.0   120.0   33.333333333333336
-50.0   150.0   33.333333333333336
-50.0   120.0   33.333333333333336
-50.0   120.0   16.666666666666668
-100.0   120.0   33.333333333333336
-50.0   150.0   33.333333333333336
-50.0   120.0   16.666666666666668
-100.0   150.0   16.666666666666668
-100.0   120.0   33.333333333333336
-50.0   120.0   33.333333333333336
-100.0   150.0   33.333333333333336
-100.0   120.0   50.0
-50.0   120.0   33.333333333333336
-50.0   150.0   33.333333333333336
-100.0   150.0   33.333333333333336
-50.0   150.0   50.0
-100.0   120.0   50.0
-100.0   150.0   50.0
-50.0   150.0   50.0
-100.0   150.0   33.333333333333336
-100.0   120.0   50.0
-50.0   150.0   50.0
-50.0   120.0   50.0
-50.0   120.0   33.333333333333336
-100.0   120.0   50.0
-50.0   150.0   50.0
-50.0   120.0   33.333333333333336
-100.0   150.0   33.333333333333336
-50.0   0.0   0.0
0.0   0.0   0.0
-50.0   30.0   0.0
-50.0   0.0   16.666666666666668
0.0   0.0   0.0
0.0   30.0   0.0
-50.0   30.0   0.0
0.0   30.0   16.666666666666668
-50.0   0.0   16.666666666666668
-50.0   30.0   16.666666666666668
0.0   30.0   16.666666666666668
-50.0   30.0   0.0
-50.0   0.0   16.666666666666668
0.0   30.0   16.666666666666668
0.0   0.0   16.666666666666668
0.0   0.0   0.0
-50.0   0.0   16.666666666666668
0.0   30.0   16.666666666666668
0.0   0.0   0.0
-50.0   30.0   0.0
-50.0   0.0   16.666666666666668
0.0   0.0   16.666666666666668
-50.0   30.0   16.666666666666668
-50.0   0.0   33.333333333333336
0.0   0.0   16.666666666666668
0.0   30.0   16.666666666666668
-50.0   30.0   16.666666666666668
0.0   30.0   33.333333333333336
-50.0   0.0   33.333333333333336
-50.0   30.0   33.333333333333336
0.0   30.0   33.333333333333336
-50.0   30.0   16.666666666666668
-50.0   0.0   33.333333333333336
0.0   30.0   33.333333333333336
0.0   0.0   33.333333333333336
0.0   0.0   16.666666666666668
-50.0   0.0   33.333333333333336
0.0   30.0   33.333333333333336
0.0   0.0   16.666666666666668
-50.0   30.0   16.666666666666668
-50.0   0.0   33.333333333333336
0.0   0.0   33.333333333333336
-50.0   30.0   33.333333333333336
-50.0   0.0   50.0
0.0   0.0   33.333333333333336
0.0   30.0   33.333333333333336
-50.0   30.0   33.333333333333336
0.0   30.0   50.0
-50.0   0.0   50.0
-50.0   30.0   50.0
0.0   30.0   50.0
-50.0   30.0   33.333333333333336
-50.0   0.0   50.0
0.0   30.0   50.0
0.0   0.0   50.0
0.0   0.0   33.333333333333336
-50.0   0.0   50.0
0.0   30.0   50.0
0.0   0.0   33.333333333333336
-50.0   30.0   33.333333333333336
-50.0   30.0   0.0
0.0   30.0   0.0
-50.0   60.0   0.0
-50.0   30.0   16.666666666666668
0.0   30.0   0.0
0.0   60.0   0.0
-50.0   60.0   0.0
0.0   60.0   16.666666666666668
-50.0   30.0   16.666666666666668
-50.0   60.0   16.666666666666668
0.0   60.0   16.666666666666668
-50.0   60.0   0.0
-50.0   30.0   16.666666666666668
0.0   60.0   16.666666666666668
0.0   30.0   16.666666666666668
0.0   30.0   0.0
-50.0   30.0   16.666666666666668
0.0   60.0   16.666666666666668
0.0   30.0   0.0
-50.0   60.0   0.0
-50.0   30.0   16.666666666666668
0.0   30.0   16.666666666666668
-50.0   60.0   16.666666666666668
-50.0   30.0   33.333333333333336
0.0   30.0   16.666666666666668
0.0   60.0   16.666666666666668
-50.0   60.0   16.666666666666668
0.0   60.0   33.333333333333336
-50.0   30.0   33.333333333333336
-50.0   60.0   33.333333333333336
0.0   60.0   33.333333333333336
-50.0   60.0   16.666666666666668
-50.0   30.0   33.333333333333336
0.0   60.0   33.333333333333336
0.0   30.0   33.333333333333336
0.0   30.0   16.666666666666668
-50.0   30.0   33.333333333333336
0.0   60.0   33.333333333333336
0.0   30.0   16.666666666666668
-50.0   60.0   16.666666666666668
-50.0   30.0   33.333333333333336
0.0   30.0   33.333333333333336
-50.0   60.0   33.333333333333336
-50.0   30.0   50.0
0.0   30.0   33.333333333333336
0.0   60.0   33.333333333333336
-50.0   60.0   33.333333333333336
0.0   60.0   50.0
-50.0   30.0   50.0
-50.0   60.0   50.0
0.0   60.0   50.0
-50.0   60.0   33.333333333333336
-50.0   30.0   50.0
0.0   60.0   50.0
0.0   30.0   50.0
0.0   30.0   33.333333333333336
-50.0   30.0   50.0
0.0   60.0   50.0
0.0   30.0   33.333333333333336
-50.0   60.0   33.333333333333336
-50.0   60.0   0.0
0.0   60.0   0.0
-50.0   90.0   0.0
-50.0   60.0   16.666666666666668
0.0   60.0   0.0
0.0   90.0   0.0
-50.0   90.0   0.0
0.0   90.0   16.666666666666668
-50.0   60.0   16.666666666666668
-50.0   90.0   16.666666666666668
0.0   90.0   16.666666666666668
-50.0   90.0   0.0
-50.0   60.0   16.666666666666668
0.0   90.0   16.666666666666668
0.0   60.0   16.666666666666668
0.0   60.0   0.0
-50.0   60.0   16.666666666666668
0.0   90.0   16.666666666666668
0.0   60.0   0.0
-50.0   90.0   0.0
-50.0   60.0   16.666666666666668
0.0   60.0   16.666666666666668
-50.0   90.0   16.666666666666668
-50.0   60.0   33.333333333333336
0.0   60.0   16.666666666666668
0.0   90.0   16.666666666666668
-50.0   90.0   16.666666666666668
0.0   90.0   33.333333333333336
-50.0   60.0   33.333333333333336
-50.0   90.0   33.333333333333336
0.0   90.0   33.333333333333336
-50.0   90.0   16.666666666666668
-50.0   60.0   33.333333333333336
0.0   90.0   33.333333333333336
0.0   60.0   33.333333333333336
0.0   60.0   16.666666666666668
-50.0   60.0   33.333333333333336
0.0   90.0   33.333333333333336
0.0   60.0   16.666666666666668
-50.0   90.0   16.666666666666668
-50.0   60.0   33.333333333333336
0.0   60.0   33.333333333333336
-50.0   90.0   33.333333333333336
-50.0   60.0   50.0
0.0   60.0   33.333333333333336
0.0   90.0   33.333333333333336
-50.0   90.0   33.333333333333336
0.0   90.0   50.0
-50.0   60.0   50.0
-50.0   90.0   50.0
0.0   90.0   50.0
-50.0   90.0   33.333333333333336
-50.0   60.0   50.0
0.0   90.0   50.0
0.0   60.0   50.0
0.0   60.0   33.333333333333336
-50.0   60.0   50.0
0.0   90.0   50.0
0.0   60.0   33.333333333333336
-50.0   90.0   33.333333333333336
-50.0   90.0   0.0
0.0   90.0   0.0
-50.0   120.0   0.0
-50.0   90.0   16.666666666666668
0.0   90.0   0.0
0.0   120.0   0.0
-50.0   120.0   0.0
0.0   120.0   16.666666666666668
-50.0   90.0   16.666666666666668
-50.0   120.0   16.666666666666668
0.0   120.0   16.666666666666668
-50.0   120.0   0.0
-50.0   90.0   16.666666666666668
0.0   120.0   16.666666666666668
0.0   90.0   16.666666666666668
0.0   90.0   0.0
-50.0   90.0   16.666666666666668
0.0   120.0   16.666666666666668
0.0   90.0   0.0
-50.0   120.0   0.0
-50.0   90.0   16.666666666666668
0.0   90.0   16.666666666666668
-50.0   120.0   16.666666666666668
-50.0   90.0   33.333333333333336
0.0   90.0   16.666666666666668
0.0   120.0   16.666666666666668
-50.0   120.0   16.666666666666668
0.0   120.0   33.333333333333336
-50.0   90.0   33.333333333333336
-50.0   120.0   33.333333333333336
0.0   120.0   33.333333333333336
-50.0   120.0   16.666666666666668
-50.0   90.0   33.333333333333336
0.0   120.0   33.333333333333336
0.0   90.0   33.333333333333336
0.0   90.0   16.666666666666668
-50.0   90.0   33.333333333333336
0.0   120.0   33.333333333333336
0.0   90.0   16.666666666666668
-50.0   120.0   16.666666666666668
-50.0   90.0   33.333333333333336
0.0   90.0   33.333333333333336
-50.0   120.0   33.333333333333336
-50.0   90.0   50.0
0.0   90.0   33.333333333333336
0.0   120.0   33.333333333333336
-50.0   120.0   33.333333333333336
0.0   120.0   50.0
-50.0   90.0   50.0
-50.0   120.0   50.0
0.0   120.0   50.0
-50.0   120.0   33.333333333333336
-50.0   90.0   50.0
0.0   120.0   50.0
0.0   90.0   50.0
0.0   90.0   33.333333333333336
-50.0   90.0   50.0
0.0   120.0   50.0
0.0   90.0   33.333333333333336
-50.0   120.0   33.333333333333336
-50.0   120.0   0.0
0.0   120.0   0.0
-50.0   150.0   0.0
-50.0   120.0   16.666666666666668
0.0   120.0   0.0
0.0   150.0   0.0
-50.0   150.0   0.0
0.0   150.0   16.666666666666668
-50.0   120.0   16.666666666666668
-50.0   150.0   16.666666666666668
0.0   150.0   16.666666666666668
-50.0   150.0   0.0
-50.0   120.0   16.666666666666668
0.0   150.0   16.666666666666668
0.0   120.0   16.666666666666668
0.0   120.0   0.0
-50.0   120.0   16.666666666666668
0.0   150.0   16.666666666666668
0.0   120.0   0.0
-50.0   150.0   0.0
-50.0   120.0   16.666666666666668
0.0   120.0   16.666666666666668
-50.0   150.0   16.666666666666668
-50.0   120.0   33.333333333333336
0.0   120.0   16.666666666666668
0.0   150.0   16.666666666666668
-50.0   150.0   16.666666666666668
0.0   150.0   33.333333333333336
-50.0   120.0   33.333333333333336
-50.0   150.0   33.333333333333336
0.0   150.0   33.333333333333336
-50.0   150.0   16.666666666666668
-50.0   120.0   33.333333333333336
0.0   150.0   33.333333333333336
0.0   120.0   33.333333333333336
0.0   120.0   16.666666666666668
-50.0   120.0   33.333333333333336
0.0   150.0   33.333333333333336
0.0   120.0   16.666666666666668
-50.0   150.0   16.666666666666668
-50.0   120.0   33.333333333333336
0.0   120.0   33.333333333333336
-50.0   150.0   33.333333333333336
-50.0   120.0   50.0
0.0   120.0   33.333333333333336
0.0   150.0   33.333333333333336
-50.0   150.0   33.333333333333336
0.0   150.0   50.0
-50.0   120.0   50.0
-50.0   150.0   50.0
0.0   150.0   50.0
-50.0   150.0   33.333333333333336
-50.0   120.0   50.0
0.0   150.0   50.0
0.0   120.0   50.0
0.0   120.0   33.333333333333336
-50.0   120.0   50.0
0.0   150.0   50.0
0.0   120.0   33.333333333333336
-50.0   150.0   33.333333333333336
0.0   0.0   0.0
50.0   0.0   0.0
0.0   30.0   0.0
0.0   0.0   16.666666666666668
50.0   0.0   0.0
50.0   30.0   0.0
0.0   30.0   0.0
50.0   30.0   16.666666666666668
0.0   0.0   16.666666666666668
0.0   30.0   16.666666666666668
50.0   30.0   16.666666666666668
0.0   30.0   0.0
0.0   0.0   16.666666666666668
50.0   30.0   16.666666666666668
50.0   0.0   16.666666666666668
50.0   0.0   0.0
0.0   0.0   16.666666666666668
50.0   30.0   16.666666666666668
50.0   0.0   0.0
0.0   30.0   0.0
0.0   0.0   16.666666666666668
50.0   0.0   16.666666666666668
0.0   30.0   16.666666666666668
0.0   0.0   33.333333333333336
50.0   0.0   16.666666666666668
50.0   30.0   16.666666666666668
0.0   30.0   16.666666666666668
50.0   30.0   33.333333333333336
0.0   0.0   33.333333333333336
0.0   30.0   33.333333333333336
50.0   30.0   33.333333333333336
0.0   30.0   16.666666666666668
0.0   0.0   33.333333333333336
50.0   30.0   33.333333333333336
50.0   0.0   33.333333333333336
50.0   0.0   16.666666666666668
0.0   0.0   33.333333333333336
50.0   30.0   33.333333333333336
50.0   0.0   16.666666666666668
0.0   30.0   16.666666666666668
0.0   0.0   33.333333333333336
50.0   0.0   33.333333333333336
0.0   30.0   33.333333333333336
0.0   0.0   50.0
50.0   0.0   33.333333333333336
50.0   30.0   33.333333333333336
0.0   30.0   33.333333333333336
50.0   30.0   50.0
0.0   0.0   50.0
0.0   30.0   50.0
50.0   30.0   50.0
0.0   30.0   33.333333333333336
0.0   0.0   50.0
50.0   30.0   50.0
50.0   0.0   50.0
50.0   0.0   33.333333333333336
0.0   0.0   50.0
50.0   30.0   50.0
50.0   0.0   33.333333333333336
0.0   30.0   33.333333333333336
0.0   30.0   0.0
50.0   30.0   0.0
0.0   60.0   0.0
0.0   30.0   16.666666666666668
50.0   30.0   0.0
50.0   60.0   0.0
0.0   60.0   0.0
50.0   60.0   16.666666666666668
0.0   30.0   16.666666666666668
0.0   60.0   16.666666666666668
50.0   60.0   16.666666666666668
0.0   60.0   0.0
0.0   30.0   16.666666666666668
50.0   60.0   16.666666666666668
50.0   30.0   16.666666666666668
50.0   30.0   0.0
0.0   30.0   16.666666666666668
50.0   60.0   16.666666666666668
50.0   30.0   0.0
0.0   60.0   0.0
0.0   30.0   16.666666666666668
50.0   30.0   16.666666666666668
0.0   60.0   16.666666666666668
0.0   30.0   33.333333333333336
50.0   30.0   16.666666666666668
50.0   60.0   16.666666666666668
0.0   60.0   16.666666666666668
50.0   60.0   33.333333333333336
0.0   30.0   33.333333333333336
0.0   60.0   33.333333333333336
50.0   60.0   33.333333333333336
0.0   60.0   16.666666666666668
0.0   30.0   33.333333333333336
50.0   60.0   33.333333333333336
50.0   30.0   33.333333333333336
50.0   30.0   16.666666666666668
0.0   30.0   33.333333333333336
50.0   60.0   33.333333333333336
50.0   30.0   16.666666666666668
0.0   60.0   16.666666666666668
0.0   30.0   33.333333333333336
50.0   30.0   33.333333333333336
0.0   60.0   33.333333333333336
0.0   30.0   50.0
50.0   30.0   33.333333333333336
50.0   60.0   33.333333333333336
0.0   60.0   33.333333333333336
50.0   60.0   50.0
0.0   30.0   50.0
0.0   60.0   50.0
50.0   60.0   50.0
0.0   60.0   33.333333333333336
0.0   30.0   50.0
50.0   60.0   50.0
50.0   30.0   50.0
50.0   30.0   33.333333333333336
0.0   30.0   50.0
50.0   60.0   50.0
50.0   30.0   33.333333333333336
0.0   60.0   33.333333333333336
0.0   60.0   0.0
50.0   60.0   0.0
0.0   90.0   0.0
0.0   60.0   16.666666666666668
50.0   60.0   0.0
50.0   90.0   0.0
0.0   90.0   0.0
50.0   90.0   16.666666666666668
0.0   60.0   16.666666666666668
0.0   90.0   16.666666666666668
50.0   90.0   16.666666666666668
0.0   90.0   0.0
0.0   60.0   16.666666666666668
50.0   90.0   16.666666666666668
50.0   60.0   16.666666666666668
50.0   60.0   0.0
0.0   60.0   16.666666666666668
50.0   90.0   16.666666666666668
50.0   60.0   0.0
0.0   90.0   0.0
0.0   60.0   16.666666666666668
50.0   60.0   16.666666666666668
0.0   90.0   16.666666666666668
0.0   60.0   33.333333333333336
50.0   60.0   16.666666666666668
50.0   90.0   16.666666666666668
0.0   90.0   16.666666666666668
50.0   90.0   33.333333333333336
0.0   60.0   33.333333333333336
0.0   90.0   33.333333333333336
50.0   90.0   33.333333333333336
0.0   90.0   16.666666666666668
0.0   60.0   33.333333333333336
50.0   90.0   33.333333333333336
50.0   60.0   33.333333333333336
50.0   60.0   16.666666666666668
0.0   60.0   33.333333333333336
50.0   90.0   33.333333333333336
50.0   60.0   16.666666666666668
0.0   90.0   16.666666666666668
0.0   60.0   33.333333333333336
50.0   60.0   33.333333333333336
0.0   90.0   33.333333333333336
0.0   60.0   50.0
50.0   60.0   33.333333333333336
50.0   90.0   33.333333333333336
0.0   90.0   33.333333333333336
50.0   90.0   50.0
0.0   60.0   50.0
0.0   90.0   50.0
50.0   90.0   50.0
0.0   90.0   33.333333333333336
0.0   60.0   50.0
50.0   90.0   50.0
50.0   60.0   50.0
50.0   60.0   33.333333333333336
0.0   60.0   50.0
50.0   90.0   50.0
50.0   60.0   33.333333333333336
0.0   90.0   33.333333333333336
0.0   90.0   0.0
50.0   90.0   0.0
0.0   120.0   0.0
0.0   90.0   16.666666666666668
50.0   90.0   0.0
50.0   120.0   0.0
0.0   120.0   0.0
50.0   120.0   16.666666666666668
0.0   90.0   16.666666666666668
0.0   120.0   16.666666666666668
50.0   120.0   16.666666666666668
0.0   120.0   0.0
0.0   90.0   16.666666666666668
50.0   120.0   16.666666666666668
50.0   90.0   16.666666666666668
50.0   90.0   0.0
0.0   90.0   16.666666666666668
50.0   120.0   16.666666666666668
50.0   90.0   0.0
0.0   120.0   0.0
0.0   90.0   16.666666666666668
50.0   90.0   16.666666666666668
0.0   120.0   16.666666666666668
0.0   90.0   33.333333333333336
50.0   90.0   16.666666666666668
50.0   120.0   16.666666666666668
0.0   120.0   16.666666666666668
50.0   120.0   33.333333333333336
0.0   90.0   33.333333333333336
0.0   120.0   33.333333333333336
50.0   120.0   33.333333333333336
0.0   120.0   16.666666666666668
0.0   90.0   33.333333333333336
50.0   120.0   33.333333333333336
50.0   90.0   33.333333333333336
50.0   90.0   16.666666666666668
0.0   90.0   33.333333333333336
50.0   120.0   33.333333333333336
50.0   90.0   16.666666666666668
0.0   120.0   16.666666666666668
0.0   90.0   33.333333333333336
50.0   90.0   33.333333333333336
0.0   120.0   33.333333333333336
0.0   90.0   50.0
50.0   90.0   33.333333333333336
50.0   120.0   33.333333333333336
0.0   120.0   33.333333333333336
50.0   120.0   50.0
0.0   90.0   50.0
0.0   120.0   50.0
50.0   120.0   50.0
0.0   120.0   33.333333333333336
0.0   90.0   50.0
50.0   120.0   50.0
50.0   90.0   50.0
50.0   90.0   33.333333333333336
0.0   90.0   50.0
50.0   120.0   50.0
50.0   90.0   33.333333333333336
0.0   120.0   33.333333333333336
0.0   120.0   0.0
50.0   120.0   0.0
0.0   150.0   0.0
0.0   120.0   16.666666666666668
50.0   120.0   0.0
50.0   150.0   0.0
0.0   150.0   0.0
50.0   150.0   16.666666666666668
0.0   120.0   16.666666666666668
0.0   150.0   16.666666666666668
50.0   150.0   16.666666666666668
0.0   150.0   0.0
0.0   120.0   16.666666666666668
50.0   150.0   16.666666666666668
50.0   120.0   16.666666666666668
50.0   120.0   0.0
0.0   120.0   16.666666666666668
50.0   150.0   16.666666666666668
50.0   120.0   0.0
0.0   150.0   0.0
0.0   120.0   16.666666666666668
50.0   120.0   16.666666666666668
0.0   150.0   16.666666666666668
0.0   120.0   33.333333333333336
50.0   120.0   16.666666666666668
50.0   150.0   16.666666666666668
0.0   150.0   16.666666666666668
50.0   150.0   33.333333333333336
0.0   120.0   33.333333333333336
0.0   150.0   33.333333333333336
50.0   150.0   33.333333333333336
0.0   150.0   16.666666666666668
0.0   120.0   33.333333333333336
50.0   150.0   33.333333333333336
50.0   120.0   33.333333333333336
50.0   120.0   16.666666666666668
0.0   120.0   33.333333333333336
50.0   150.0   33.333333333333336
50.0   120.0   16.666666666666668
0.0   150.0   16.666666666666668
0.0   120.0   33.333333333333336
50.0   120.0   33.333333333333336
0.0   150.0   33.333333333333336
0.0   120.0   50.0
50.0   120.0   33.333333333333336
50.0   150.0   33.333333333333336
0.0   150.0   33.333333333333336
50.0   150.0   50.0
0.0   120.0   50.0
0.0   150.0   50.0
50.0   150.0   50.0
0.0   150.0   33.333333333333336
0.0   120.0   50.0
50.0   150.0   50.0
50.0   120.0   50.0
50.0   120.0   33.333333333333336
0.0   120.0   50.0
50.0   150.0   50.0
50.0   120.0   33.333333333333336
0.0   150.0   33.333333333333336
50.0   0.0   0.0
100.0   0.0   0.0
50.0   30.0   0.0
50.0   0.0   16.666666666666668
100.0   0.0   0.0
100.0   30.0   0.0
50.0   30.0   0.0
100.0   30.0   16.666666666666668
50.0   0.0   16.666666666666668
50.0   30.0   16.666666666666668
100.0   30.0   16.666666666666668
50.0   30.0   0.0
50.0   0.0   16.666666666666668
100.0   30.0   16.666666666666668
100.0   0.0   16.666666666666668
100.0   0.0   0.0
50.0   0.0   16.666666666666668
100.0   30.0   16.666666666666668
100.0   0.0   0.0
50.0   30.0   0.0
50.0   0.0   16.666666666666668
100.0   0.0   16.666666666666668
50.0   30.0   16.666666666666668
50.0   0.0   33.333333333333336
100.0   0.0   16.666666666666668
100.0   30.0   16.666666666666668
50.0   30.0   16.666666666666668
100.0   30.0   33.333333333333336
50.0   0.0   33.333333333333336
50.0   30.0   33.333333333333336
100.0   30.0   33.333333333333336
50.0   30.0   16.666666666666668
50.0   0.0   33.333333333333336
100.0   30.0   33.333333333333336
100.0   0.0   33.333333333333336
100.0   0.0   16.666666666666668
50.0   0.0   33.333333333333336
100.0   30.0   33.333333333333336
100.0   0.0   16.666666666666668
50.0   30.0   16.666666666666668
50.0   0.0   33.333333333333336
100.0   0.0   33.333333333333336
50.0   30.0   33.333333333333336
50.0   0.0   50.0
100.0   0.0   33.333333333333336
100.0   30.0   33.333333333333336
50.0   30.0   33.333333333333336
100.0   30.0   50.0
50.0   0.0   50.0
50.0   30.0   50.0
100.0   30.0   50.0
50.0   30.0   33.333333333333336
50.0   0.0   50.0
100.0   30.0   50.0
100.0   0.0   50.0
100.0   0.0   33.333333333333336
50.0   0.0   50.0
100.0   30.0   50.0
100.0   0.0   33.333333333333336
50.0   30.0   33.333333333333336
50.0   30.0   0.0
100.0   30.0   0.0
50.0   60.0   0.0
50.0   30.0   16.666666666666668
100.0   30.0   0.0
100.0   60.0   0.0
50.0   60.0   0.0
100.0   60.0   16.666666666666668
50.0   30.0   16.666666666666668
50.0   60.0   16.666666666666668
100.0   60.0   16.666666666666668
50.0   60.0   0.0
50.0   30.0   16.666666666666668
100.0   60.0   16.666666666666668
100.0   30.0   16.666666666666668
100.0   30.0   0.0
50.0   30.0   16.666666666666668
100.0   60.0   16.666666666666668
100.0   30.0   0.0
50.0   60.0   0.0
50.0   30.0   16.666666666666668
100.0   30.0   16.666666666666668
50.0   60.0   16.666666666666668
50.0   30.0   33.333333333333336
100.0   30.0   16.666666666666668
100.0   60.0   16.666666666666668
50.0   60.0   16.666666666666668
100.0   60.0   33.333333333333336
50.0   30.0   33.333333333333336
50.0   60.0   33.333333333333336
100.0   60.0   33.333333333333336
50.0   60.0   16.666666666666668
50.0   30.0   33.333333333333336
100.0   60.0   33.333333333333336
100.0   30.0   33.333333333333336
100.0   30.0   16.666666666666668
50.0   30.0   33.333333333333336
100.0   60.0   33.333333333333336
100.0   30.0   16.666666666666668
50.0   60.0   16.666666666666668
50.0   30.0   33.333333333333336
100.0   30.0   33.333333333333336
50.0   60.0   33.333333333333336
50.0   30.0   50.0
100.0   30.0   33.333333333333336
100.0   60.0   33.333333333333336
50.0   60.0   33.333333333333336
100.0   60.0   50.0
50.0   30.0   50.0
50.0   60.0   50.0
100.0   60.0   50.0
50.0   60.0   33.333333333333336
50.0   30.0   50.0
100.0   60.0   50.0
100.0   30.0   50.0
100.0   30.0   33.333333333333336
50.0   30.0   50.0
100.0   60.0   50.0
100.0   30.0   33.333333333333336
50.0   60.0   33.333333333333336
50.0   60.0   0.0
100.0   60.0   0.0
50.0   90.0   0.0
50.0   60.0   16.666666666666668
100.0   60.0   0.0
100.0   90.0   0.0
50.0   90.0   0.0
100.0   90.0   16.666666666666668
50.0   60.0   16.666666666666668
50.0   90.0   16.666666666666668
100.0   90.0   16.666666666666668
50.0   90.0   0.0
50.0   60.0   16.666666666666668
100.0   90.0   16.666666666666668
100.0   60.0   16.666666666666668
100.0   60.0   0.0
50.0   60.0   16.666666666666668
100.0   90.0   16.666666666666668
100.0   60.0   0.0
50.0   90.0   0.0
50.0   60.0   16.666666666666668
100.0   60.0   16.666666666666668
50.0   90.0   16.666666666666668
50.0   60.0   33.333333333333336
100.0   60.0   16.666666666666668
100.0   90.0   16.666666666666668
50.0   90.0   16.666666666666668
100.0   90.0   33.333333333333336
50.0   60.0   33.333333333333336
50.0   90.0   33.333333333333336
100.0   90.0   33.333333333333336
50.0   90.0   16.666666666666668
50.0   60.0   33.333333333333336
100.0   90.0   33.333333333333336
100.0   60.0   33.333333333333336
100.0   60.0   16.666666666666668
50.0   60.0   33.333333333333336
100.0   90.0   33.333333333333336
100.0   60.0   16.666666666666668
50.0   90.0   16.666666666666668
50.0   60.0   33.333333333333336
100.0   60.0   33.333333333333336
50.0   90.0   33.333333333333336
50.0   60.0   50.0
100.0   60.0   33.333333333333336
100.0   90.0   33.333333333333336
50.0   90.0   33.333333333333336
100.0   90.0   50.0
50.0   60.0   50.0
50.0   90.0   50.0
100.0   90.0   50.0
50.0   90.0   33.333333333333336
50.0   60.0   50.0
100.0   90.0   50.0
100.0   60.0   50.0
100.0   60.0   33.333333333333336
50.0   60.0   50.0
100.0   90.0   50.0
100.0   60.0   33.333333333333336
50.0   90.0   33.333333333333336
50.0   90.0   0.0
100.0   90.0   0.0
50.0   120.0   0.0
50.0   90.0   16.666666666666668
100.0   90.0   0.0
100.0   120.0   0.0
50.0   120.0   0.0
100.0   120.0   16.666666666666668
50.0   90.0   16.666666666666668
50.0   120.0   16.666666666666668
100.0   120.0   16.666666666666668
50.0   120.0   0.0
50.0   90.0   16.666666666666668
100.0   120.0   16.666666666666668
100.0   90.0   16.666666666666668
100.0   90.0   0.0
50.0   90.0   16.666666666666668
100.0   120.0   16.666666666666668
100.0   90.0   0.0
50.0   120.0   0.0
50.0   90.0   16.666666666666668
100.0   90.0   16.666666666666668
50.0   120.0   16.666666666666668
50.0   90.0   33.333333333333336
100.0   90.0   16.666666666666668
100.0   120.0   16.666666666666668
50.0   120.0   16.666666666666668
100.0   120.0   33.333333333333336
50.0   90.0   33.333333333333336
50.0   120.0   33.333333333333336
100.0   120.0   33.333333333333336
50.0   120.0   16.666666666666668
50.0   90.0   33.333333333333336
100.0   120.0   33.333333333333336
100.0   90.0   33.333333333333336
100.0   90.0   16.666666666666668
50.0   90.0   33.333333333333336
100.0   120.0   33.333333333333336
100.0   90.0   16.666666666666668
50.0   120.0   16.666666666666668
50.0   90.0   33.333333333333336
100.0   90.0   33.333333333333336
50.0   120.0   33.333333333333336
50.0   90.0   50.0
100.0   90.0   33.333333333333336
100.0   120.0   33.333333333333336
50.0   120.0   33.333333333333336
100.0   120.0   50.0
50.0   90.0   50.0
50.0   120.0   50.0
100.0   120.0   50.0
50.0   120.0   33.333333333333336
50.0   90.0   50.0
100.0   120.0   50.0
100.0   90.0   50.0
100.0   90.0   33.333333333333336
50.0   90.0   50.0
100.0   120.0   50.0
100.0   90.0   33.333333333333336
50.0   120.0   33.333333333333336
50.0   120.0   0.0
100.0   120.0   0.0
50.0   150.0   0.0
50.0   120.0   16.666666666666668
100.0   120.0   0.0
100.0   150.0   0.0
50.0   150.0   0.0
100.0   150.0   16.666666666666668
50.0   120.0   16.666666666666668
50.0   150.0   16.666666666666668
100.0   150.0   16.666666666666668
50.0   150.0   0.0
50.0   120.0   16.666666666666668
100.0   150.0   16.666666666666668
100.0   120.0   16.666666666666668
100.0   120.0   0.0
50.0   120.0   16.666666666666668
100.0   150.0   16.666666666666668
100.0   120.0   0.0
50.0   150.0   0.0
50.0   120.0   16.666666666666668
100.0   120.0   16.666666666666668
50.0   150.0   16.666666666666668
50.0   120.0   33.333333333333336
100.0   120.0   16.666666666666668
100.0   150.0   16.666666666666668
50.0   150.0   16.666666666666668
100.0   150.0   33.333333333333336
50.0   120.0   33.333333333333336
50.0   150.0   33.333333333333336
100.0   150.0   33.333333333333336
50.0   150.0   16.666666666666668
50.0   120.0   33.333333333333336
100.0   150.0   33.333333333333336
100.0   120.0   33.333333333333336
100.0   120.0   16.666666666666668
50.0   120.0   33.333333333333336
100.0   150.0   33.333333333333336
100.0   120.0   16.666666666666668
50.0   150.0   16.666666666666668
50.0   120.0   33.333333333333336
100.0   120.0   33.333333333333336
50.0   150.0   33.333333333333336
50.0   120.0   50.0
100.0   120.0   33.333333333333336
100.0   150.0   33.333333333333336
50.0   150.0   33.333333333333336
100.0   150.0   50.0
50.0   120.0   50.0
50.0   150.0   50.0
100.0   150.0   50.0
50.0   150.0   33.333333333333336
50.0   120.0   50.0
100.0   150.0   50.0
100.0   120.0   50.0
100.0   120.0   33.333333333333336
50.0   120.0   50.0
100.0   150.0   50.0
100.0   120.0   33.333333333333336
50.0   150.0   33.333333333333336
100.0   0.0   0.0
150.0   0.0   0.0
100.0   30.0   0.0
100.0   0.0   16.666666666666668
150.0   0.0   0.0
150.0   30.0   0.0
100.0   30.0   0.0
150.0   30.0   16.666666666666668
100.0   0.0   16.666666666666668
100.0   30.0   16.666666666666668
150.0   30.0   16.666666666666668
100.0   30.0   0.0
100.0   0.0   16.666666666666668
150.0   30.0   16.666666666666668
150.0   0.0   16.666666666666668
150.0   0.0   0.0
100.0   0.0   16.666666666666668
150.0   30.0   16.666666666666668
150.0   0.0   0.0
100.0   30.0   0.0
100.0   0.0   16.666666666666668
150.0   0.0   16.666666666666668
100.0   30.0   16.666666666666668
100.0   0.0   33.333333333333336
150.0   0.0   16.666666666666668
150.0   30.0   16.666666666666668
100.0   30.0   16.666666666666668
150.0   30.0   33.333333333333336
100.0   0.0   33.333333333333336
100.0   30.0   33.333333333333336
150.0   30.0   33.333333333333336
100.0   30.0   16.666666666666668
100.0   0.0   33.333333333333336
150.0   30.0   33.333333333333336
150.0   0.0   33.333333333333336
150.0   0.0   16.666666666666668
100.0   0.0   33.333333333333336
150.0   30.0   33.333333333333336
150.0   0.0   16.666666666666668
100.0   30.0   16.666666666666668
100.0   0.0   33.333333333333336
150.0   0.0   33.333333333333336
100.0   30.0   33.333333333333336
100.0   0.0   50.0
150.0   0.0   33.333333333333336
150.0   30.0   33.333333333333336
100.0   30.0   33.333333333333336
150.0   30.0   50.0
100.0   0.0   50.0
100.0   30.0   50.0
150.0   30.0   50.0
100.0   30.0   33.333333333333336
100.0   0.0   50.0
150.0   30.0   50.0
150.0   0.0   50.0
150.0   0.0   33.333333333333336
100.0   0.0   50.0
150.0   30.0   50.0
150.0   0.0   33.333333333333336
100.0   30.0   33.333333333333336
100.0   30.0   0.0
150.0   30.0   0.0
100.0   60.0   0.0
100.0   30.0   16.666666666666668
150.0   30.0   0.0
150.0   60.0   0.0
100.0   60.0   0.0
150.0   60.0   16.666666666666668
100.0   30.0   16.666666666666668
100.0   60.0   16.666666666666668
150.0   60.0   16.666666666666668
100.0   60.0   0.0
100.0   30.0   16.666666666666668
150.0   60.0   16.666666666666668
150.0   30.0   16.666666666666668
150.0   30.0   0.0
100.0   30.0   16.666666666666668
150.0   60.0   16.666666666666668
150.0   30.0   0.0
100.0   60.0   0.0
100.0   30.0   16.666666666666668
150.0   30.0   16.666666666666668
100.0   60.0   16.666666666666668
100.0   30.0   33.333333333333336
150.0   30.0   16.666666666666668
150.0   60.0   16.666666666666668
100.0   60.0   16.666666666666668
150.0   60.0   33.333333333333336
100.0   30.0   33.333333333333336
100.0   60.0   33.333333333333336
150.0   60.0   33.333333333333336
100.0   60.0   16.666666666666668
100.0   30.0   33.333333333333336
150.0   60.0   33.333333333333336
150.0   30.0   33.333333333333336
150.0   30.0   16.666666666666668
100.0   30.0   33.333333333333336
150.0   60.0   33.333333333333336
150.0   30.0   16.666666666666668
100.0   60.0   16.666666666666668
100.0   30.0   33.333333333333336
150.0   30.0   33.333333333333336
100.0   60.0   33.333333333333336
100.0   30.0   50.0
150.0   30.0   33.333333333333336
150.0   60.0   33.333333333333336
100.0   60.0   33.333333333333336
150.0   60.0   50.0
100.0   30.0   50.0
100.0   60.0   50.0
150.0   60.0   50.0
100.0   60.0   33.333333333333336
100.0   30.0   50.0
150.0   60.0   50.0
150.0   30.0   50.0
150.0   30.0   33.333333333333336
100.0   30.0   50.0
150.0   60.0   50.0
150.0   30.0   33.333333333333336
100.0   60.0   33.333333333333336
100.0   60.0   0.0
150.0   60.0   0.0
100.0   90.0   0.0
100.0   60.0   16.666666666666668
150.0   60.0   0.0
150.0   90.0   0.0
100.0   90.0   0.0
150.0   90.0   16.666666666666668
100.0   60.0   16.666666666666668
100.0   90.0   16.666666666666668
150.0   90.0   16.666666666666668
100.0   90.0   0.0
100.0   60.0   16.666666666666668
150.0   90.0   16.666666666666668
150.0   60.0   16.666666666666668
150.0   60.0   0.0
100.0   60.0   16.666666666666668
150.0   90.0   16.666666666666668
150.0   60.0   0.0
100.0   90.0   0.0
100.0   60.0   16.666666666666668
150.0   60.0   16.666666666666668
100.0   90.0   16.666666666666668
100.0   60.0   33.333333333333336
150.0   60.0   16.666666666666668
150.0   90.0   16.666666666666668
100.0   90.0   16.666666666666668
150.0   90.0   33.333333333333336
100.0   60.0   33.333333333333336
100.0   90.0   33.333333333333336
150.0   90.0   33.333333333333336
100.0   90.0   16.666666666666668
100.0   60.0   33.333333333333336
150.0   90.0   33.333333333333336
150.0   60.0   33.333333333333336
150.0   60.0   16.666666666666668
100.0   60.0   33.333333333333336
150.0   90.0   33.333333333333336
150.0   60.0   16.666666666666668
100.0   90.0   16.666666666666668
100.0   60.0   33.333333333333336
150.0   60.0   33.333333333333336
100.0   90.0   33.333333333333336
100.0   60.0   50.0
150.0   60.0   33.333333333333336
150.0   90.0   33.333333333333336
100.0   90.0   33.333333333333336
150.0   90.0   50.0
100.0   60.0   50.0
100.0   90.0   50.0
150.0   90.0   50.0
100.0   90.0   33.333333333333336
100.0   60.0   50.0
150.0   90.0   50.0
150.0   60.0   50.0
150.0   60.0   33.333333333333336
100.0   60.0   50.0
150.0   90.0   50.0
150.0   60.0   33.333333333333336
100.0   90.0   33.333333333333336
100.0   90.0   0.0
150.0   90.0   0.0
100.0   120.0   0.0
100.0   90.0   16.666666666666668
150.0   90.0   0.0
150.0   120.0   0.0
100.0   120.0   0.0
150.0   120.0   16.666666666666668
100.0   90.0   16.666666666666668
100.0   120.0   16.666666666666668
150.0   120.0   16.666666666666668
100.0   120.0   0.0
100.0   90.0   16.666666666666668
150.0   120.0   16.666666666666668
150.0   90.0   16.666666666666668
150.0   90.0   0.0
100.0   90.0   16.666666666666668
150.0   120.0   16.666666666666668
150.0   90.0   0.0
100.0   120.0   0.0
100.0   90.0   16.666666666666668
150.0   90.0   16.666666666666668
100.0   120.0   16.666666666666668
100.0   90.0   33.333333333333336
150.0   90.0   16.666666666666668
150.0   120.0   16.666666666666668
100.0   120.0   16.666666666666668
150.0   120.0   33.333333333333336
100.0   90.0   33.333333333333336
100.0   120.0   33.333333333333336
150.0   120.0   33.333333333333336
100.0   120.0   16.666666666666668
100.0   90.0   33.333333333333336
150.0   120.0   33.333333333333336
150.0   90.0   33.333333333333336
150.0   90.0   16.666666666666668
100.0   90.0   33.333333333333336
150.0   120.0   33.333333333333336
150.0   90.0   16.666666666666668
100.0   120.0   16.666666666666668
100.0   90.0   33.333333333333336
150.0   90.0   33.333333333333336
100.0   120.0   33.333333333333336
100.0   90.0   50.0
150.0   90.0   33.333333333333336
150.0   120.0   33.333333333333336
100.0   120.0   33.333333333333336
150.0   120.0   50.0
100.0   90.0   50.0
100.0   120.0   50.0
150.0   120.0   50.0
100.0   120.0   33.333333333333336
100.0   90.0   50.0
150.0   120.0   50.0
150.0   90.0   50.0
150.0   90.0   33.333333333333336
100.0   90.0   50.0
150.0   120.0   50.0
150.0   90.0   33.333333333333336
100.0   120.0   33.333333333333336
100.0   120.0   0.0
150.0   120.0   0.0
100.0   150.0   0.0
100.0   120.0   16.666666666666668
150.0   120.0   0.0
150.0   150.0   0.0
100.0   150.0   0.0
150.0   150.0   16.666666666666668
100.0   120.0   16.666666666666668
100.0   150.0   16.666666666666668
150.0   150.0   16.666666666666668
100.0   150.0   0.0
100.0   120.0   16.666666666666668
150.0   150.0   16.666666666666668
150.0   120.0   16.666666666666668
150.0   120.0   0.0
100.0   120.0   16.666666666666668
150.0   150.0   16.666666666666668
150.0   120.0   0.0
100.0   150.0   0.0
100.0   120.0   16.666666666666668
150.0   120.0   16.666666666666668
100.0   150.0   16.666666666666668
100.0   120.0   33.333333333333336
150.0   120.0   16.666666666666668
150.0   150.0   16.666666666666668
100.0   150.0   16.666666666666668
150.0   150.0   33.333333333333336
100.0   120.0   33.333333333333336
100.0   150.0   33.333333333333336
150.0   150.0   33.333333333333336
100.0   150.0   16.666666666666668
100.0   120.0   33.333333333333336
150.0   150.0   33.333333333333336
150.0   120.0   33.333333333333336
150.0   120.0   16.666666666666668
100.0   120.0   33.333333333333336
150.0   150.0   33.333333333333336
150.0   120.0   16.666666666666668
100.0   150.0   16.666666666666668
100.0   120.0   33.333333333333336
150.0   120.0   33.333333333333336
100.0   150.0   33.333333333333336
100.0   120.0   50.0
150.0   120.0   33.333333333333336
150.0   150.0   33.333333333333336
100.0   150.0   33.333333333333336
150.0   150.0   50.0
100.0   120.0   50.0
100.0   150.0   50.0
150.0   150.0   50.0
100.0   150.0   33.333333333333336
100.0   120.0   50.0
150.0   150.0   50.0
150.0   120.0   50.0
150.0   120.0   33.333333333333336
100.0   120.0   50.0
150.0   150.0   50.0
150.0   120.0   33.333333333333336
100.0   150.0   33.333333333333336
150.0   0.0   0.0
200.0   0.0   0.0
150.0   30.0   0.0
150.0   0.0   16.666666666666668
200.0   0.0   0.0
200.0   30.0   0.0
150.0   30.0   0.0
200.0   30.0   16.666666666666668
150.0   0.0   16.666666666666668
150.0   30.0   16.666666666666668
200.0   30.0   16.666666666666668
150.0   30.0   0.0
150.0   0.0   16.666666666666668
200.0   30.0   16.666666666666668
200.0   0.0   16.666666666666668
200.0   0.0   0.0
150.0   0.0   16.666666666666668
200.0   30.0   16.666666666666668
200.0   0.0   0.0
150.0   30.0   0.0
150.0   0.0   16.666666666666668
200.0   0.0   16.666666666666668
150.0   30.0   16.666666666666668
150.0   0.0   33.333333333333336
200.0   0.0   16.666666666666668
200.0   30.0   16.666666666666668
150.0   30.0   16.666666666666668
200.0   30.0   33.333333333333336
150.0   0.0   33.333333333333336
150.0   30.0   33.333333333333336
200.0   30.0   33.333333333333336
150.0   30.0   16.666666666666668
150.0   0.0   33.333333333333336
200.0   30.0   33.333333333333336
200.0   0.0   33.333333333333336
200.0   0.0   16.666666666666668
150.0   0.0   33.333333333333336
200.0   30.0   33.333333333333336
200.0   0.0   16.666666666666668
150.0   30.0   16.666666666666668
150.0   0.0   33.333333333333336
200.0   0.0   33.333333333333336
150.0   30.0   33.333333333333336
150.0   0.0   50.0
200.0   0.0   33.333333333333336
200.0   30.0   33.333333333333336
150.0   30.0   33.333333333333336
200.0   30.0   50.0
150.0   0.0   50.0
150.0   30.0   50.0
200.0   30.0   50.0
150.0   30.0   33.333333333333336
150.0   0.0   50.0
200.0   30.0   50.0
200.0   0.0   50.0
200.0   0.0   33.333333333333336
150.0   0.0   50.0
200.0   30.0   50.0
200.0   0.0   33.333333333333336
150.0   30.0   33.333333333333336
150.0   30.0   0.0
200.0   30.0   0.0
150.0   60.0   0.0
150.0   30.0   16.666666666666668
200.0   30.0   0.0
200.0   60.0   0.0
150.0   60.0   0.0
200.0   60.0   16.666666666666668
150.0   30.0   16.666666666666668
150.0   60.0   16.666666666666668
200.0   60.0   16.666666666666668
150.0   60.0   0.0
150.0   30.0   16.666666666666668
200.0   60.0   16.666666666666668
200.0   30.0   16.666666666666668
200.0   30.0   0.0
150.0   30.0   16.666666666666668
200.0   60.0   16.666666666666668
200.0   30.0   0.0
150.0   60.0   0.0
150.0   30.0   16.666666666666668
200.0   30.0   16.666666666666668
150.0   60.0   16.666666666666668
150.0   30.0   33.333333333333336
200.0   30.0   16.666666666666668
200.0   60.0   16.666666666666668
150.0   60.0   16.666666666666668
200.0   60.0   33.333333333333336
150.0   30.0   33.333333333333336
150.0   60.0   33.333333333333336
200.0   60.0   33.333333333333336
150.0   60.0   16.666666666666668
150.0   30.0   33.333333333333336
200.0   60.0   33.333333333333336
200.0   30.0   33.333333333333336
200.0   30.0   16.666666666666668
150.0   30.0   33.333333333333336
200.0   60.0   33.333333333333336
200.0   30.0   16.666666666666668
150.0   60.0   16.666666666666668
150.0   30.0   33.333333333333336
200.0   30.0   33.333333333333336
150.0   60.0   33.333333333333336
150.0   30.0   50.0
200.0   30.0   33.333333333333336
200.0   60.0   33.333333333333336
150.0   60.0   33.333333333333336
200.0   60.0   50.0
150.0   30.0   50.0
150.0   60.0   50.0
200.0   60.0   50.0
150.0   60.0   33.333333333333336
150.0   30.0   50.0
200.0   60.0   50.0
200.0   30.0   50.0
200.0   30.0   33.333333333333336
150.0   30.0   50.0
200.0   60.0   50.0
200.0   30.0   33.333333333333336
150.0   60.0   33.333333333333336
150.0   60.0   0.0
200.0   60.0   0.0
150.0   90.0   0.0
150.0   60.0   16.666666666666668
200.0   60.0   0.0
200.0   90.0   0.0
150.0   90.0   0.0
200.0   90.0   16.666666666666668
150.0   60.0   16.666666666666668
150.0   90.0   16.666666666666668
200.0   90.0   16.666666666666668
150.0   90.0   0.0
150.0   60.0   16.666666666666668
200.0   90.0   16.666666666666668
200.0   60.0   16.666666666666668
200.0   60.0   0.0
150.0   60.0   16.666666666666668
200.0   90.0   16.666666666666668
200.0   60.0   0.0
150.0   90.0   0.0
150.0   60.0   16.666666666666668
200.0   60.0   16.666666666666668
150.0   90.0   16.666666666666668
150.0   60.0   33.333333333333336
200.0   60.0   16.666666666666668
200.0   90.0   16.666666666666668
150.0   90.0   16.666666666666668
200.0   90.0   33.333333333333336
150.0   60.0   33.333333333333336
150.0   90.0   33.333333333333336
200.0   90.0   33.333333333333336
150.0   90.0   16.666666666666668
150.0   60.0   33.333333333333336
200.0   90.0   33.333333333333336
200.0   60.0   33.333333333333336
200.0   60.0   16.666666666666668
150.0   60.0   33.333333333333336
200.0   90.0   33.333333333333336
200.0   60.0   16.666666666666668
150.0   90.0   16.666666666666668
150.0   60.0   33.333333333333336
200.0   60.0   33.333333333333336
150.0   90.0   33.333333333333336
150.0   60.0   50.0
200.0   60.0   33.333333333333336
200.0   90.0   33.333333333333336
150.0   90.0   33.333333333333336
200.0   90.0   50.0
150.0   60.0   50.0
150.0   90.0   50.0
200.0   90.0   50.0
150.0   90.0   33.333333333333336
150.0   60.0   50.0
200.0   90.0   50.0
200.0   60.0   50.0
200.0   60.0   33.333333333333336
150.0   60.0   50.0
200.0   90.0   50.0
200.0   60.0   33.333333333333336
150.0   90.0   33.333333333333336
150.0   90.0   0.0
200.0   90.0   0.0
150.0   120.0   0.0
150.0   90.0   16.666666666666668
200.0   90.0   0.0
200.0   120.0   0.0
150.0   120.0   0.0
200.0   120.0   16.666666666666668
150.0   90.0   16.666666666666668
150.0   120.0   16.666666666666668
200.0   120.0   16.666666666666668
150.0   120.0   0.0
150.0   90.0   16.666666666666668
200.0   120.0   16.666666666666668
200.0   90.0   16.666666666666668
200.0   90.0   0.0
150.0   90.0   16.666666666666668
200.0   120.0   16.666666666666668
200.0   90.0   0.0
150.0   120.0   0.0
150.0   90.0   16.666666666666668
200.0   90.0   16.666666666666668
150.0   120.0   16.666666666666668
150.0   90.0   33.333333333333336
200.0   90.0   16.666666666666668
200.0   120.0   16.666666666666668
150.0   120.0   16.666666666666668
200.0   120.0   33.333333333333336
150.0   90.0   33.333333333333336
150.0   120.0   33.333333333333336
200.0   120.0   33.333333333333336
150.0   120.0   16.666666666666668
150.0   90.0   33.333333333333336
200.0   120.0   33.333333333333336
200.0   90.0   33.333333333333336
200.0   90.0   16.666666666666668
150.0   90.0   33.333333333333336
200.0   120.0   33.333333333333336
200.0   90.0   16.666666666666668
150.0   120.0   16.666666666666668
150.0   90.0   33.333333333333336
200.0   90.0   33.333333333333336
150.0   120.0   33.333333333333336
150.0   90.0   50.0
200.0   90.0   33.333333333333336
200.0   120.0   33.333333333333336
150.0   120.0   33.333333333333336
200.0   120.0   50.0
150.0   90.0   50.0
150.0   120.0   50.0
200.0   120.0   50.0
150.0   120.0   33.333333333333336
150.0   90.0   50.0
200.0   120.0   50.0
200.0   90.0   50.0
200.0   90.0   33.333333333333336
150.0   90.0   50.0
200.0   120.0   50.0
200.0   90.0   33.333333333333336
150.0   120.0   33.333333333333336
150.0   120.0   0.0
200.0   120.0   0.0
150.0   150.0   0.0
150.0   120.0   16.666666666666668
200.0   120.0   0.0
200.0   150.0   0.0
150.0   150.0   0.0
200.0   150.0   16.666666666666668
150.0   120.0   16.666666666666668
150.0   150.0   16.666666666666668
200.0   150.0   16.666666666666668
150.0   150.0   0.0
150.0   120.0   16.666666666666668
200.0   150.0   16.666666666666668
200.0   120.0   16.666666666666668
200.0   120.0   0.0
150.0   120.0   16.666666666666668
200.0   150.0   16.666666666666668
200.0   120.0   0.0
150.0   150.0   0.0
150.0   120.0   16.666666666666668
200.0   120.0   16.666666666666668
150.0   150.0   16.666666666666668
150.0   120.0   33.333333333333336
200.0   120.0   16.666666666666668
200.0   150.0   16.666666666666668
150.0   150.0   16.666666666666668
200.0   150.0   33.333333333333336
150.0   120.0   33.333333333333336
150.0   150.0   33.333333333333336
200.0   150.0   33.333333333333336
150.0   150.0   16.666666666666668
150.0   120.0   33.333333333333336
200.0   150.0   33.333333333333336
200.0   120.0   33.333333333333336
200.0   120.0   16.666666666666668
150.0   120.0   33.333333333333336
200.0   150.0   33.333333333333336
200.0   120.0   16.666666666666668
150.0   150.0   16.666666666666668
150.0   120.0   33.333333333333336
200.0   120.0   33.333333333333336
150.0   150.0   33.333333333333336
150.0   120.0   50.0
200.0   120.0   33.333333333333336
200.0   150.0   33.333333333333336
150.0   150.0   33.333333333333336
200.0   150.0   50.0
150.0   120.0   50.0
150.0   150.0   50.0
200.0   150.0   50.0
150.0   150.0   33.333333333333336
150.0   120.0   50.0
200.0   150.0   50.0
200.0   120.0   50.0
200.0   120.0   33.333333333333336
150.0   120.0   50.0
200.0   150.0   50.0
200.0   120.0   33.333333333333336
150.0   150.0   33.333333333333336
200.0   0.0   0.0
250.0   0.0   0.0
200.0   30.0   0.0
200.0   0.0   16.666666666666668
250.0   0.0   0.0
250.0   30.0   0.0
200.0   30.0   0.0
250.0   30.0   16.666666666666668
200.0   0.0   16.666666666666668
200.0   30.0   16.666666666666668
250.0   30.0   16.666666666666668
200.0   30.0   0.0
200.0   0.0   16.666666666666668
250.0   30.0   16.666666666666668
250.0   0.0   16.666666666666668
250.0   0.0   0.0
200.0   0.0   16.666666666666668
250.0   30.0   16.666666666666668
250.0   0.0   0.0
200.0   30.0   0.0
200.0   0.0   16.666666666666668
250.0   0.0   16.666666666666668
200.0   30.0   16.666666666666668
200.0   0.0   33.333333333333336
250.0   0.0   16.666666666666668
250.0   30.0   16.666666666666668
200.0   30.0   16.666666666666668
250.0   30.0   33.333333333333336
200.0   0.0   33.333333333333336
200.0   30.0   33.333333333333336
250.0   30.0   33.333333333333336
200.0   30.0   16.666666666666668
200.0   0.0   33.333333333333336
250.0   30.0   33.333333333333336
250.0   0.0   33.333333333333336
250.0   0.0   16.666666666666668
200.0   0.0   33.333333333333336
250.0   30.0   33.333333333333336
250.0   0.0   16.666666666666668
200.0   30.0   16.666666666666668
200.0   0.0   33.333333333333336
250.0   0.0   33.333333333333336
200.0   30.0   33.333333333333336
200.0   0.0   50.0
250.0   0.0   33.333333333333336
250.0   30.0   33.333333333333336
200.0   30.0   33.333333333333336
250.0   30.0   50.0
200.0   0.0   50.0
200.0   30.0   50.0
250.0   30.0   50.0
200.0   30.0   33.333333333333336
200.0   0.0   50.0
250.0   30.0   50.0
250.0   0.0   50.0
250.0   0.0   33.333333333333336
200.0   0.0   50.0
250.0   30.0   50.0
250.0   0.0   33.333333333333336
200.0   30.0   33.333333333333336
200.0   30.0   0.0
250.0   30.0   0.0
200.0   60.0   0.0
200.0   30.0   16.666666666666668
250.0   30.0   0.0
250.0   60.0   0.0
200.0   60.0   0.0
250.0   60.0   16.666666666666668
200.0   30.0   16.666666666666668
200.0   60.0   16.666666666666668
250.0   60.0   16.666666666666668
200.0   60.0   0.0
200.0   30.0   16.666666666666668
250.0   60.0   16.666666666666668
250.0   30.0   16.666666666666668
250.0   30.0   0.0
200.0   30.0   16.666666666666668
250.0   60.0   16.666666666666668
250.0   30.0   0.0
200.0   60.0   0.0
200.0   30.0   16.666666666666668
250.0   30.0   16.666666666666668
200.0   60.0   16.666666666666668
200.0   30.0   33.333333333333336
250.0   30.0   16.666666666666668
250.0   60.0   16.666666666666668
200.0   60.0   16.666666666666668
250.0   60.0   33.333333333333336
200.0   30.0   33.333333333333336
200.0   60.0   33.333333333333336
250.0   60.0   33.333333333333336
200.0   60.0   16.666666666666668
200.0   30.0   33.333333333333336
250.0   60.0   33.333333333333336
250.0   30.0   33.333333333333336
250.0   30.0   16.666666666666668
200.0   30.0   33.333333333333336
250.0   60.0   33.333333333333336
250.0   30.0   16.666666666666668
200.0   60.0   16.666666666666668
200.0   30.0   33.333333333333336
250.0   30.0   33.333333333333336
200.0   60.0   33.333333333333336
200.0   30.0   50.0
250.0   30.0   33.333333333333336
250.0   60.0   33.333333333333336
200.0   60.0   33.333333333333336
250.0   60.0   50.0
200.0   30.0   50.0
200.0   60.0   50.0
250.0   60.0   50.0
200.0   60.0   33.333333333333336
200.0   30.0   50.0
250.0   60.0   50.0
250.0   30.0   50.0
250.0   30.0   33.333333333333336
200.0   30.0   50.0
250.0   60.0   50.0
250.0   30.0   33.333333333333336
200.0   60.0   33.333333333333336
200.0   60.0   0.0
250.0   60.0   0.0
200.0   90.0   0.0
200.0   60.0   16.666666666666668
250.0   60.0   0.0
250.0   90.0   0.0
200.0   90.0   0.0
250.0   90.0   16.666666666666668
200.0   60.0   16.666666666666668
200.0   90.0   16.666666666666668
250.0   90.0   16.666666666666668
200.0   90.0   0.0
200.0   60.0   16.666666666666668
250.0   90.0   16.666666666666668
250.0   60.0   16.666666666666668
250.0   60.0   0.0
200.0   60.0   16.666666666666668
250.0   90.0   16.666666666666668
250.0   60.0   0.0
200.0   90.0   0.0
200.0   60.0   16.666666666666668
250.0   60.0   16.666666666666668
200.0   90.0   16.666666666666668
200.0   60.0   33.333333333333336
250.0   60.0   16.666666666666668
250.0   90.0   16.666666666666668
200.0   90.0   16.666666666666668
250.0   90.0   33.333333333333336
200.0   60.0   33.333333333333336
200.0   90.0   33.333333333333336
250.0   90.0   33.333333333333336
200.0   90.0   16.666666666666668
200.0   60.0   33.333333333333336
250.0   90.0   33.333333333333336
250.0   60.0   33.333333333333336
250.0   60.0   16.666666666666668
200.0   60.0   33.333333333333336
250.0   90.0   33.333333333333336
250.0   60.0   16.666666666666668
200.0   90.0   16.666666666666668
200.0   60.0   33.333333333333336
250.0   60.0   33.333333333333336
200.0   90.0   33.333333333333336
200.0   60.0   50.0
250.0   60.0   33.333333333333336
250.0   90.0   33.333333333333336
200.0   90.0   33.333333333333336
250.0   90.0   50.0
200.0   60.0   50.0
200.0   90.0   50.0
250.0   90.0   50.0
200.0   90.0   33.333333333333336
200.0   60.0   50.0
250.0   90.0   50.0
250.0   60.0   50.0
250.0   60.0   33.333333333333336
200.0   60.0   50.0
250.0   90.0   50.0
250.0   60.0   33.333333333333336
200.0   90.0   33.333333333333336
200.0   90.0   0.0
250.0   90.0   0.0
200.0   120.0   0.0
200.0   90.0   16.666666666666668
250.0   90.0   0.0
250.0   120.0   0.0
200.0   120.0   0.0
250.0   120.0   16.666666666666668
200.0   90.0   16.666666666666668
200.0   120.0   16.666666666666668
250.0   120.0   16.666666666666668
200.0   120.0   0.0
200.0   90.0   16.666666666666668
250.0   120.0   16.666666666666668
250.0   90.0   16.666666666666668
250.0   90.0   0.0
200.0   90.0   16.666666666666668
250.0   120.0   16.666666666666668
250.0   90.0   0.0
200.0   120.0   0.0
200.0   90.0   16.666666666666668
250.0   90.0   16.666666666666668
200.0   120.0   16.666666666666668
200.0   90.0   33.333333333333336
250.0   90.0   16.666666666666668
250.0   120.0   16.666666666666668
200.0   120.0   16.666666666666668
250.0   120.0   33.333333333333336
200.0   90.0   33.333333333333336
200.0   120.0   33.333333333333336
250.0   120.0   33.333333333333336
200.0   120.0   16.666666666666668
200.0   90.0   33.333333333333336
250.0   120.0   33.333333333333336
250.0   90.0   33.333333333333336
250.0   90.0   16.666666666666668
200.0   90.0   33.333333333333336
250.0   120.0   33.333333333333336
250.0   90.0   16.666666666666668
200.0   120.0   16.666666666666668
200.0   90.0   33.333333333333336
250.0   90.0   33.333333333333336
200.0   120.0   33.333333333333336
200.0   90.0   50.0
250.0   90.0   33.333333333333336
250.0   120.0   33.333333333333336
200.0   120.0   33.333333333333336
250.0   120.0   50.0
200.0   90.0   50.0
200.0   120.0   50.0
250.0   120.0   50.0
200.0   120.0   33.333333333333336
200.0   90.0   50.0
250.0   120.0   50.0
250.0   90.0   50.0
250.0   90.0   33.333333333333336
200.0   90.0   50.0
250.0   120.0   50.0
250.0   90.0   33.333333333333336
200.0   120.0   33.333333333333336
200.0   120.0   0.0
250.0   120.0   0.0
200.0   150.0   0.0
200.0   120.0   16.666666666666668
250.0   120.0   0.0
250.0   150.0   0.0
200.0   150.0   0.0
250.0   150.0   16.666666666666668
200.0   120.0   16.666666666666668
200.0   150.0   16.666666666666668
250.0   150.0   16.666666666666668
200.0   150.0   0.0
200.0   120.0   16.666666666666668
250.0   150.0   16.666666666666668
250.0   120.0   16.666666666666668
250.0   120.0   0.0
200.0   120.0   16.666666666666668
250.0   150.0   16.666666666666668
250.0   120.0   0.0
200.0   150.0   0.0
200.0   120.0   16.666666666666668
250.0   120.0   16.666666666666668
200.0   150.0   16.666666666666668
200.0   120.0   33.333333333333336
250.0   120.0   16.666666666666668
250.0   150.0   16.666666666666668
200.0   150.0   16.666666666666668
250.0   150.0   33.333333333333336
200.0   120.0   33.333333333333336
200.0   150.0   33.333333333333336
250.0   150.0   33.333333333333336
200.0   150.0   16.666666666666668
200.0   120.0   33.333333333333336
250.0   150.0   33.333333333333336
250.0   120.0   33.333333333333336
250.0   120.0   16.666666666666668
200.0   120.0   33.333333333333336
250.0   150.0   33.333333333333336
250.0   120.0   16.666666666666668
200.0   150.0   16.666666666666668
200.0   120.0   33.333333333333336
250.0   120.0   33.333333333333336
200.0   150.0   33.333333333333336
200.0   120.0   50.0
250.0   120.0   33.333333333333336
250.0   150.0   33.333333333333336
200.0   150.0   33.333333333333336
250.0   150.0   50.0
200.0   120.0   50.0
200.0   150.0   50.0
250.0   150.0   50.0
200.0   150.0   33.333333333333336
200.0   120.0   50.0
250.0   150.0   50.0
250.0   120.0   50.0
250.0   120.0   33.333333333333336
200.0   120.0   50.0
250.0   150.0   50.0
250.0   120.0   33.333333333333336
200.0   150.0   33.333333333333336
250.0   0.0   0.0
300.0   0.0   0.0
250.0   30.0   0.0
250.0   0.0   16.666666666666668
300.0   0.0   0.0
300.0   30.0   0.0
250.0   30.0   0.0
300.0   30.0   16.666666666666668
250.0   0.0   16.666666666666668
250.0   30.0   16.666666666666668
300.0   30.0   16.666666666666668
250.0   30.0   0.0
250.0   0.0   16.666666666666668
300.0   30.0   16.666666666666668
300.0   0.0   16.666666666666668
300.0   0.0   0.0
250.0   0.0   16.666666666666668
300.0   30.0   16.666666666666668
300.0   0.0   0.0
250.0   30.0   0.0
250.0   0.0   16.666666666666668
300.0   0.0   16.666666666666668
250.0   30.0   16.666666666666668
250.0   0.0   33.333333333333336
300.0   0.0   16.666666666666668
300.0   30.0   16.666666666666668
250.0   30.0   16.666666666666668
300.0   30.0   33.333333333333336
250.0   0.0   33.333333333333336
250.0   30.0   33.333333333333336
300.0   30.0   33.333333333333336
250.0   30.0   16.666666666666668
250.0   0.0   33.333333333333336
300.0   30.0   33.333333333333336
300.0   0.0   33.333333333333336
300.0   0.0   16.666666666666668
250.0   0.0   33.333333333333336
300.0   30.0   33.333333333333336
300.0   0.0   16.666666666666668
250.0   30.0   16.666666666666668
250.0   0.0   33.333333333333336
300.0   0.0   33.333333333333336
250.0   30.0   33.333333333333336
250.0   0.0   50.0
300.0   0.0   33.333333333333336
300.0   30.0   33.333333333333336
250.0   30.0   33.333333333333336
300.0   30.0   50.0
250.0   0.0   50.0
250.0   30.0   50.0
300.0   30.0   50.0
250.0   30.0   33.333333333333336
250.0   0.0   50.0
300.0   30.0   50.0
300.0   0.0   50.0
300.0   0.0   33.333333333333336
250.0   0.0   50.0
300.0   30.0   50.0
300.0   0.0   33.333333333333336
250.0   30.0   33.333333333333336
250.0   30.0   0.0
300.0   30.0   0.0
250.0   60.0   0.0
250.0   30.0   16.666666666666668
300.0   30.0   0.0
300.0   60.0   0.0
250.0   60.0   0.0
300.0   60.0   16.666666666666668
250.0   30.0   16.666666666666668
250.0   60.0   16.666666666666668
300.0   60.0   16.666666666666668
250.0   60.0   0.0
250.0   30.0   16.666666666666668
300.0   60.0   16.666666666666668
300.0   30.0   16.666666666666668
300.0   30.0   0.0
250.0   30.0   16.666666666666668
300.0   60.0   16.666666666666668
300.0   30.0   0.0
250.0   60.0   0.0
250.0   30.0   16.666666666666668
300.0   30.0   16.666666666666668
250.0   60.0   16.666666666666668
250.0   30.0   33.333333333333336
300.0   30.0   16.666666666666668
300.0   60.0   16.666666666666668
250.0   60.0   16.666666666666668
300.0   60.0   33.333333333333336
250.0   30.0   33.333333333333336
250.0   60.0   33.333333333333336
300.0   60.0   33.333333333333336
250.0   60.0   16.666666666666668
250.0   30.0   33.333333333333336
300.0   60.0   33.333333333333336
300.0   30.0   33.333333333333336
300.0   30.0   16.666666666666668
250.0   30.0   33.333333333333336
300.0   60.0   33.333333333333336
300.0   30.0   16.666666666666668
250.0   60.0   16.666666666666668
250.0   30.0   33.333333333333336
300.0   30.0   33.333333333333336
250.0   60.0   33.333333333333336
250.0   30.0   50.0
300.0   30.0   33.333333333333336
300.0   60.0   33.333333333333336
250.0   60.0   33.333333333333336
300.0   60.0   50.0
250.0   30.0   50.0
250.0   60.0   50.0
300.0   60.0   50.0
250.0   60.0   33.333333333333336
250.0   30.0   50.0
300.0   60.0   50.0
300.0   30.0   50.0
300.0   30.0   33.333333333333336
250.0   30.0   50.0
300.0   60.0   50.0
300.0   30.0   33.333333333333336
250.0   60.0   33.333333333333336
250.0   60.0   0.0
300.0   60.0   0.0
250.0   90.0   0.0
250.0   60.0   16.666666666666668
300.0   60.0   0.0
300.0   90.0   0.0
250.0   90.0   0.0
300.0   90.0   16.666666666666668
250.0   60.0   16.666666666666668
250.0   90.0   16.666666666666668
300.0   90.0   16.666666666666668
250.0   90.0   0.0
250.0   60.0   16.666666666666668
300.0   90.0   16.666666666666668
300.0   60.0   16.666666666666668
300.0   60.0   0.0
250.0   60.0   16.666666666666668
300.0   90.0   16.666666666666668
300.0   60.0   0.0
250.0   90.0   0.0
250.0   60.0   16.666666666666668
300.0   60.0   16.666666666666668
250.0   90.0   16.666666666666668
250.0   60.0   33.333333333333336
300.0   60.0   16.666666666666668
300.0   90.0   16.666666666666668
250.0   90.0   16.666666666666668
300.0   90.0   33.333333333333336
250.0   60.0   33.333333333333336
250.0   90.0   33.333333333333336
300.0   90.0   33.333333333333336
250.0   90.0   16.666666666666668
250.0   60.0   33.333333333333336
300.0   90.0   33.333333333333336
300.0   60.0   33.333333333333336
300.0   60.0   16.666666666666668
250.0   60.0   33.333333333333336
300.0   90.0   33.333333333333336
300.0   60.0   16.666666666666668
250.0   90.0   16.666666666666668
250.0   60.0   33.333333333333336
300.0   60.0   33.333333333333336
250.0   90.0   33.333333333333336
250.0   60.0   50.0
300.0   60.0   33.333333333333336
300.0   90.0   33.333333333333336
250.0   90.0   33.333333333333336
300.0   90.0   50.0
250.0   60.0   50.0
250.0   90.0   50.0
300.0   90.0   50.0
250.0   90.0   33.333333333333336
250.0   60.0   50.0
300.0   90.0   50.0
300.0   60.0   50.0
300.0   60.0   33.333333333333336
250.0   60.0   50.0
300.0   90.0   50.0
300.0   60.0   33.333333333333336
250.0   90.0   33.333333333333336
250.0   90.0   0.0
300.0   90.0   0.0
250.0   120.0   0.0
250.0   90.0   16.666666666666668
300.0   90.0   0.0
300.0   120.0   0.0
250.0   120.0   0.0
300.0   120.0   16.666666666666668
250.0   90.0   16.666666666666668
250.0   120.0   16.666666666666668
300.0   120.0   16.666666666666668
250.0   120.0   0.0
250.0   90.0   16.666666666666668
300.0   120.0   16.666666666666668
300.0   90.0   16.666666666666668
300.0   90.0   0.0
250.0   90.0   16.666666666666668
300.0   120.0   16.666666666666668
300.0   90.0   0.0
250.0   120.0   0.0
250.0   90.0   16.666666666666668
300.0   90.0   16.666666666666668
250.0   120.0   16.666666666666668
250.0   90.0   33.333333333333336
300.0   90.0   16.666666666666668
300.0   120.0   16.666666666666668
250.0   120.0   16.666666666666668
300.0   120.0   33.333333333333336
250.0   90.0   33.333333333333336
250.0   120.0   33.333333333333336
300.0   120.0   33.333333333333336
250.0   120.0   16.666666666666668
250.0   90.0   33.333333333333336
300.0   120.0   33.333333333333336
300.0   90.0   33.333333333333336
300.0   90.0   16.666666666666668
250.0   90.0   33.333333333333336
300.0   120.0   33.333333333333336
300.0   90.0   16.666666666666668
250.0   120.0   16.666666666666668
250.0   90.0   33.333333333333336
300.0   90.0   33.333333333333336
250.0   120.0   33.333333333333336
250.0   90.0   50.0
300.0   90.0   33.333333333333336
300.0   120.0   33.333333333333336
250.0   120.0   33.333333333333336
300.0   120.0   50.0
250.0   90.0   50.0
250.0   120.0   50.0
300.0   120.0   50.0
250.0   120.0   33.333333333333336
250.0   90.0   50.0
300.0   120.0   50.0
300.0   90.0   50.0
300.0   90.0   33.333333333333336
250.0   90.0   50.0
300.0   120.0   50.0
300.0   90.0   33.333333333333336
250.0   120.0   33.333333333333336
250.0   120.0   0.0
300.0   120.0   0.0
250.0   150.0   0.0
250.0   120.0   16.666666666666668
300.0   120.0   0.0
300.0   150.0   0.0
250.0   150.0   0.0
300.0   150.0   16.666666666666668
250.0   120.0   16.666666666666668
250.0   150.0   16.666666666666668
300.0   150.0   16.666666666666668
250.0   150.0   0.0
250.0   120.0   16.666666666666668
300.0   150.0   16.666666666666668
300.0   120.0   16.666666666666668
300.0   120.0   0.0
250.0   120.0   16.666666666666668
300.0   150.0   16.666666666666668
300.0   120.0   0.0
250.0   150.0   0.0
250.0   120.0   16.666666666666668
300.0   120.0   16.666666666666668
250.0   150.0   16.666666666666668
250.0   120.0   33.333333333333336
300.0   120.0   16.666666666666668
300.0   150.0   16.666666666666668
250.0   150.0   16.666666666666668
300.0   150.0   33.333333333333336
250.0   120.0   33.333333333333336
250.0   150.0   33.333333333333336
300.0   150.0   33.333333333333336
250.0   150.0   16.666666666666668
250.0   120.0   33.333333333333336
300.0   150.0   33.333333333333336
300.0   120.0   33.333333333333336
300.0   120.0   16.666666666666668
250.0   120.0   33.333333333333336
300.0   150.0   33.333333333333336
300.0   120.0   16.666666666666668
250.0   150.0   16.666666666666668
250.0   120.0   33.333333333333336
300.0   120.0   33.333333333333336
250.0   150.0   33.333333333333336
250.0   120.0   50.0
300.0   120.0   33.333333333333336
300.0   150.0   33.333333333333336
250.0   150.0   33.333333333333336
300.0   150.0   50.0
250.0   120.0   50.0
250.0   150.0   50.0
300.0   150.0   50.0
250.0   150.0   33.333333333333336
250.0   120.0   50.0
300.0   150.0   50.0
300.0   120.0   50.0
300.0   120.0   33.333333333333336
250.0   120.0   50.0
300.0   150.0   50.0
300.0   120.0   33.333333333333336
250.0   150.0   33.333333333333336
300.0   0.0   0.0
350.0   0.0   0.0
300.0   30.0   0.0
300.0   0.0   16.666666666666668
350.0   0.0   0.0
350.0   30.0   0.0
300.0   30.0   0.0
350.0   30.0   16.666666666666668
300.0   0.0   16.666666666666668
300.0   30.0   16.666666666666668
350.0   30.0   16.666666666666668
300.0   30.0   0.0
300.0   0.0   16.666666666666668
350.0   30.0   16.666666666666668
350.0   0.0   16.666666666666668
350.0   0.0   0.0
300.0   0.0   16.666666666666668
350.0   30.0   16.666666666666668
350.0   0.0   0.0
300.0   30.0   0.0
300.0   0.0   16.666666666666668
350.0   0.0   16.666666666666668
300.0   30.0   16.666666666666668
300.0   0.0   33.333333333333336
350.0   0.0   16.666666666666668
350.0   30.0   16.666666666666668
300.0   30.0   16.666666666666668
350.0   30.0   33.333333333333336
300.0   0.0   33.333333333333336
300.0   30.0   33.333333333333336
350.0   30.0   33.333333333333336
300.0   30.0   16.666666666666668
300.0   0.0   33.333333333333336
350.0   30.0   33.333333333333336
350.0   0.0   33.333333333333336
350.0   0.0   16.666666666666668
300.0   0.0   33.333333333333336
350.0   30.0   33.333333333333336
350.0   0.0   16.666666666666668
300.0   30.0   16.666666666666668
300.0   0.0   33.333333333333336
350.0   0.0   33.333333333333336
300.0   30.0   33.333333333333336
300.0   0.0   50.0
350.0   0.0   33.333333333333336
350.0   30.0   33.333333333333336
300.0   30.0   33.333333333333336
350.0   30.0   50.0
300.0   0.0   50.0
300.0   30.0   50.0
350.0   30.0   50.0
300.0   30.0   33.333333333333336
300.0   0.0   50.0
350.0   30.0   50.0
350.0   0.0   50.0
350.0   0.0   33.333333333333336
300.0   0.0   50.0
350.0   30.0   50.0
350.0   0.0   33.333333333333336
300.0   30.0   33.333333333333336
300.0   30.0   0.0
350.0   30.0   0.0
300.0   60.0   0.0
300.0   30.0   16.666666666666668
350.0   30.0   0.0
350.0   60.0   0.0
300.0   60.0   0.0
350.0   60.0   16.666666666666668
300.0   30.0   16.666666666666668
300.0   60.0   16.666666666666668
350.0   60.0   16.666666666666668
300.0   60.0   0.0
300.0   30.0   16.666666666666668
350.0   60.0   16.666666666666668
350.0   30.0   16.666666666666668
350.0   30.0   0.0
300.0   30.0   16.666666666666668
350.0   60.0   16.666666666666668
350.0   30.0   0.0
300.0   60.0   0.0
300.0   30.0   16.666666666666668
350.0   30.0   16.666666666666668
300.0   60.0   16.666666666666668
300.0   30.0   33.333333333333336
350.0   30.0   16.666666666666668
350.0   60.0   16.666666666666668
300.0   60.0   16.666666666666668
350.0   60.0   33.333333333333336
300.0   30.0   33.333333333333336
300.0   60.0   33.333333333333336
350.0   60.0   33.333333333333336
300.0   60.0   16.666666666666668
300.0   30.0   33.333333333333336
350.0   60.0   33.333333333333336
350.0   30.0   33.333333333333336
350.0   30.0   16.666666666666668
300.0   30.0   33.333333333333336
350.0   60.0   33.333333333333336
350.0   30.0   16.666666666666668
300.0   60.0   16.666666666666668
300.0   30.0   33.333333333333336
350.0   30.0   33.333333333333336
300.0   60.0   33.333333333333336
300.0   30.0   50.0
350.0   30.0   33.333333333333336
350.0   60.0   33.333333333333336
300.0   60.0   33.333333333333336
350.0   60.0   50.0
300.0   30.0   50.0
300.0   60.0   50.0
350.0   60.0   50.0
300.0   60.0   33.333333333333336
300.0   30.0   50.0
350.0   60.0   50.0
350.0   30.0   50.0
350.0   30.0   33.333333333333336
300.0   30.0   50.0
350.0   60.0   50.0
350.0   30.0   33.333333333333336
300.0   60.0   33.333333333333336
300.0   60.0   0.0
350.0   60.0   0.0
300.0   90.0   0.0
300.0   60.0   16.666666666666668
350.0   60.0   0.0
350.0   90.0   0.0
300.0   90.0   0.0
350.0   90.0   16.666666666666668
300.0   60.0   16.666666666666668
300.0   90.0   16.666666666666668
350.0   90.0   16.666666666666668
300.0   90.0   0.0
300.0   60.0   16.666666666666668
350.0   90.0   16.666666666666668
350.0   60.0   16.666666666666668
350.0   60.0   0.0
300.0   60.0   16.666666666666668
350.0   90.0   16.666666666666668
350.0   60.0   0.0
300.0   90.0   0.0
300.0   60.0   16.666666666666668
350.0   60.0   16.666666666666668
300.0   90.0   16.666666666666668
300.0   60.0   33.333333333333336
350.0   60.0   16.666666666666668
350.0   90.0   16.666666666666668
300.0   90.0   16.666666666666668
350.0   90.0   33.333333333333336
300.0   60.0   33.333333333333336
300.0   90.0   33.333333333333336
350.0   90.0   33.333333333333336
300.0   90.0   16.666666666666668
300.0   60.0   33.333333333333336
350.0   90.0   33.333333333333336
350.0   60.0   33.333333333333336
350.0   60.0   16.666666666666668
300.0   60.0   33.333333333333336
350.0   90.0   33.333333333333336
350.0   60.0   16.666666666666668
300.0   90.0   16.666666666666668
300.0   60.0   33.333333333333336
350.0   60.0   33.333333333333336
300.0   90.0   33.333333333333336
300.0   60.0   50.0
350.0   60.0   33.333333333333336
350.0   90.0   33.333333333333336
300.0   90.0   33.333333333333336
350.0   90.0   50.0
300.0   60.0   50.0
300.0   90.0   50.0
350.0   90.0   50.0
300.0   90.0   33.333333333333336
300.0   60.0   50.0
350.0   90.0   50.0
350.0   60.0   50.0
350.0   60.0   33.333333333333336
300.0   60.0   50.0
350.0   90.0   50.0
350.0   60.0   33.333333333333336
300.0   90.0   33.333333333333336
300.0   90.0   0.0
350.0   90.0   0.0
300.0   120.0   0.0
300.0   90.0   16.666666666666668
350.0   90.0   0.0
350.0   120.0   0.0
300.0   120.0   0.0
350.0   120.0   16.666666666666668
300.0   90.0   16.666666666666668
300.0   120.0   16.666666666666668
350.0   120.0   16.666666666666668
300.0   120.0   0.0
300.0   90.0   16.666666666666668
350.0   120.0   16.666666666666668
350.0   90.0   16.666666666666668
350.0   90.0   0.0
300.0   90.0   16.666666666666668
350.0   120.0   16.666666666666668
350.0   90.0   0.0
300.0   120.0   0.0
300.0   90.0   16.666666666666668
350.0   90.0   16.666666666666668
300.0   120.0   16.666666666666668
300.0   90.0   33.333333333333336
350.0   90.0   16.666666666666668
350.0   120.0   16.666666666666668
300.0   120.0   16.666666666666668
350.0   120.0   33.333333333333336
300.0   90.0   33.333333333333336
300.0   120.0   33.333333333333336
350.0   120.0   33.333333333333336
300.0   120.0   16.666666666666668
300.0   90.0   33.333333333333336
350.0   120.0   33.333333333333336
350.0   90.0   33.333333333333336
350.0   90.0   16.666666666666668
300.0   90.0   33.333333333333336
350.0   120.0   33.333333333333336
350.0   90.0   16.666666666666668
300.0   120.0   16.666666666666668
300.0   90.0   33.333333333333336
350.0   90.0   33.333333333333336
300.0   120.0   33.333333333333336
300.0   90.0   50.0
350.0   90.0   33.333333333333336
350.0   120.0   33.333333333333336
300.0   120.0   33.333333333333336
350.0   120.0   50.0
300.0   90.0   50.0
300.0   120.0   50.0
350.0   120.0   50.0
300.0   120.0   33.333333333333336
300.0   90.0   50.0
350.0   120.0   50.0
350.0   90.0   50.0
350.0   90.0   33.333333333333336
300.0   90.0   50.0
350.0   120.0   50.0
350.0   90.0   33.333333333333336
300.0   120.0   33.333333333333336
300.0   120.0   0.0
350.0   120.0   0.0
300.0   150.0   0.0
300.0   120.0   16.666666666666668
350.0   120.0   0.0
350.0   150.0   0.0
300.0   150.0   0.0
350.0   150.0   16.666666666666668
300.0   120.0   16.666666666666668
300.0   150.0   16.666666666666668
350.0   150.0   16.666666666666668
300.0   150.0   0.0
300.0   120.0   16.666666666666668
350.0   150.0   16.666666666666668
350.0   120.0   16.666666666666668
350.0   120.0   0.0
300.0   120.0   16.666666666666668
350.0   150.0   16.666666666666668
350.0   120.0   0.0
300.0   150.0   0.0
300.0   120.0   16.666666666666668
350.0   120.0   16.666666666666668
300.0   150.0   16.666666666666668
300.0   120.0   33.333333333333336
350.0   120.0   16.666666666666668
350.0   150.0   16.666666666666668
300.0   150.0   16.666666666666668
350.0   150.0   33.333333333333336
300.0   120.0   33.333333333333336
300.0   150.0   33.333333333333336
350.0   150.0   33.333333333333336
300.0   150.0   16.666666666666668
300.0   120.0   33.333333333333336
350.0   150.0   33.333333333333336
350.0   120.0   33.333333333333336
350.0   120.0   16.666666666666668
300.0   120.0   33.333333333333336
350.0   150.0   33.333333333333336
350.0   120.0   16.666666666666668
300.0   150.0   16.666666666666668
300.0   120.0   33.333333333333336
350.0   120.0   33.333333333333336
300.0   150.0   33.333333333333336
300.0   120.0   50.0
350.0   120.0   33.333333333333336
350.0   150.0   33.333333333333336
300.0   150.0   33.333333333333336
350.0   150.0   50.0
300.0   120.0   50.0
300.0   150.0   50.0
350.0   150.0   50.0
300.0   150.0   33.333333333333336
300.0   120.0   50.0
350.0   150.0   50.0
350.0   120.0   50.0
350.0   120.0   33.333333333333336
300.0   120.0   50.0
350.0   150.0   50.0
350.0   120.0   33.333333333333336
300.0   150.0   33.333333333333336
350.0   0.0   0.0
400.0   0.0   0.0
350.0   30.0   0.0
350.0   0.0   16.666666666666668
400.0   0.0   0.0
400.0   30.0   0.0
350.0   30.0   0.0
400.0   30.0   16.666666666666668
350.0   0.0   16.666666666666668
350.0   30.0   16.666666666666668
400.0   30.0   16.666666666666668
350.0   30.0   0.0
350.0   0.0   16.666666666666668
400.0   30.0   16.666666666666668
400.0   0.0   16.666666666666668
400.0   0.0   0.0
350.0   0.0   16.666666666666668
400.0   30.0   16.666666666666668
400.0   0.0   0.0
350.0   30.0   0.0
350.0   0.0   16.666666666666668
400.0   0.0   16.666666666666668
350.0   30.0   16.666666666666668
350.0   0.0   33.333333333333336
400.0   0.0   16.666666666666668
400.0   30.0   16.666666666666668
350.0   30.0   16.666666666666668
400.0   30.0   33.333333333333336
350.0   0.0   33.333333333333336
350.0   30.0   33.333333333333336
400.0   30.0   33.333333333333336
350.0   30.0   16.666666666666668
350.0   0.0   33.333333333333336
400.0   30.0   33.333333333333336
400.0   0.0   33.333333333333336
400.0   0.0   16.666666666666668
350.0   0.0   33.333333333333336
400.0   30.0   33.333333333333336
400.0   0.0   16.666666666666668
350.0   30.0   16.666666666666668
350.0   0.0   33.333333333333336
400.0   0.0   33.333333333333336
350.0   30.0   33.333333333333336
350.0   0.0   50.0
400.0   0.0   33.333333333333336
400.0   30.0   33.333333333333336
350.0   30.0   33.333333333333336
400.0   30.0   50.0
350.0   0.0   50.0
350.0   30.0   50.0
400.0   30.0   50.0
350.0   30.0   33.333333333333336
350.0   0.0   50.0
400.0   30.0   50.0
400.0   0.0   50.0
400.0   0.0   33.333333333333336
350.0   0.0   50.0
400.0   30.0   50.0
400.0   0.0   33.333333333333336
350.0   30.0   33.333333333333336
350.0   30.0   0.0
400.0   30.0   0.0
350.0   60.0   0.0
350.0   30.0   16.666666666666668
400.0   30.0   0.0
400.0   60.0   0.0
350.0   60.0   0.0
400.0   60.0   16.666666666666668
350.0   30.0   16.666666666666668
350.0   60.0   16.666666666666668
400.0   60.0   16.666666666666668
350.0   60.0   0.0
350.0   30.0   16.666666666666668
400.0   60.0   16.666666666666668
400.0   30.0   16.666666666666668
400.0   30.0   0.0
350.0   30.0   16.666666666666668
400.0   60.0   16.666666666666668
400.0   30.0   0.0
350.0   60.0   0.0
350.0   30.0   16.666666666666668
400.0   30.0   16.666666666666668
350.0   60.0   16.666666666666668
350.0   30.0   33.333333333333336
400.0   30.0   16.666666666666668
400.0   60.0   16.666666666666668
350.0   60.0   16.666666666666668
400.0   60.0   33.333333333333336
350.0   30.0   33.333333333333336
350.0   60.0   33.333333333333336
400.0   60.0   33.333333333333336
350.0   60.0   16.666666666666668
350.0   30.0   33.333333333333336
400.0   60.0   33.333333333333336
400.0   30.0   33.333333333333336
400.0   30.0   16.666666666666668
350.0   30.0   33.333333333333336
400.0   60.0   33.333333333333336
400.0   30.0   16.666666666666668
350.0   60.0   16.666666666666668
350.0   30.0   33.333333333333336
400.0   30.0   33.333333333333336
350.0   60.0   33.333333333333336
350.0   30.0   50.0
400.0   30.0   33.333333333333336
400.0   60.0   33.333333333333336
350.0   60.0   33.333333333333336
400.0   60.0   50.0
350.0   30.0   50.0
350.0   60.0   50.0
400.0   60.0   50.0
350.0   60.0   33.333333333333336
350.0   30.0   50.0
400.0   60.0   50.0
400.0   30.0   50.0
400.0   30.0   33.333333333333336
350.0   30.0   50.0
400.0   60.0   50.0
400.0   30.0   33.333333333333336
350.0   60.0   33.333333333333336
350.0   60.0   0.0
400.0   60.0   0.0
350.0   90.0   0.0
350.0   60.0   16.666666666666668
400.0   60.0   0.0
400.0   90.0   0.0
350.0   90.0   0.0
400.0   90.0   16.666666666666668
350.0   60.0   16.666666666666668
350.0   90.0   16.666666666666668
400.0   90.0   16.666666666666668
350.0   90.0   0.0
350.0   60.0   16.666666666666668
400.0   90.0   16.666666666666668
400.0   60.0   16.666666666666668
400.0   60.0   0.0
350.0   60.0   16.666666666666668
400.0   90.0   16.666666666666668
400.0   60.0   0.0
350.0   90.0   0.0
350.0   60.0   16.666666666666668
400.0   60.0   16.666666666666668
350.0   90.0   16.666666666666668
350.0   60.0   33.333333333333336
400.0   60.0   16.666666666666668
400.0   90.0   16.666666666666668
350.0   90.0   16.666666666666668
400.0   90.0   33.333333333333336
350.0   60.0   33.333333333333336
350.0   90.0   33.333333333333336
400.0   90.0   33.333333333333336
350.0   90.0   16.666666666666668
350.0   60.0   33.333333333333336
400.0   90.0   33.333333333333336
400.0   60.0   33.333333333333336
400.0   60.0   16.666666666666668
350.0   60.0   33.333333333333336
400.0   90.0   33.333333333333336
400.0   60.0   16.666666666666668
350.0   90.0   16.666666666666668
350.0   60.0   33.333333333333336
400.0   60.0   33.333333333333336
350.0   90.0   33.333333333333336
350.0   60.0   50.0
400.0   60.0   33.333333333333336
400.0   90.0   33.333333333333336
350.0   90.0   33.333333333333336
400.0   90.0   50.0
350.0   60.0   50.0
350.0   90.0   50.0
400.0   90.0   50.0
350.0   90.0   33.333333333333336
350.0   60.0   50.0
400.0   90.0   50.0
400.0   60.0   50.0
400.0   60.0   33.333333333333336
350.0   60.0   50.0
400.0   90.0   50.0
400.0   60.0   33.333333333333336
350.0   90.0   33.333333333333336
350.0   90.0   0.0
400.0   90.0   0.0
350.0   120.0   0.0
350.0   90.0   16.666666666666668
400.0   90.0   0.0
400.0   120.0   0.0
350.0   120.0   0.0
400.0   120.0   16.666666666666668
350.0   90.0   16.666666666666668
350.0   120.0   16.666666666666668
400.0   120.0   16.666666666666668
350.0   120.0   0.0
350.0   90.0   16.666666666666668
400.0   120.0   16.666666666666668
400.0   90.0   16.666666666666668
400.0   90.0   0.0
350.0   90.0   16.666666666666668
400.0   120.0   16.666666666666668
400.0   90.0   0.0
350.0   120.0   0.0
350.0   90.0   16.666666666666668
400.0   90.0   16.666666666666668
350.0   120.0   16.666666666666668
350.0   90.0   33.333333333333336
400.0   90.0   16.666666666666668
400.0   120.0   16.666666666666668
350.0   120.0   16.666666666666668
400.0   120.0   33.333333333333336
350.0   90.0   33.333333333333336
350.0   120.0   33.333333333333336
400.0   120.0   33.333333333333336
350.0   120.0   16.666666666666668
350.0   90.0   33.333333333333336
400.0   120.0   33.333333333333336
400.0   90.0   33.333333333333336
400.0   90.0   16.666666666666668
350.0   90.0   33.333333333333336
400.0   120.0   33.333333333333336
400.0   90.0   16.666666666666668
350.0   120.0   16.666666666666668
350.0   90.0   33.333333333333336
400.0   90.0   33.333333333333336
350.0   120.0   33.333333333333336
350.0   90.0   50.0
400.0   90.0   33.333333333333336
400.0   120.0   33.333333333333336
350.0   120.0   33.333333333333336
400.0   120.0   50.0
350.0   90.0   50.0
350.0   120.0   50.0
400.0   120.0   50.0
350.0   120.0   33.333333333333336
350.0   90.0   50.0
400.0   120.0   50.0
400.0   90.0   50.0
400.0   90.0   33.333333333333336
350.0   90.0   50.0
400.0   120.0   50.0
400.0   90.0   33.333333333333336
350.0   120.0   33.333333333333336
350.0   120.0   0.0
400.0   120.0   0.0
350.0   150.0   0.0
350.0   120.0   16.666666666666668
400.0   120.0   0.0
400.0   150.0   0.0
350.0   150.0   0.0
400.0   150.0   16.666666666666668
350.0   120.0   16.666666666666668
350.0   150.0   16.666666666666668
400.0   150.0   16.666666666666668
350.0   150.0   0.0
350.0   120.0   16.666666666666668
400.0   150.0   16.666666666666668
400.0   120.0   16.666666666666668
400.0   120.0   0.0
350.0   120.0   16.666666666666668
400.0   150.0   16.666666666666668
400.0   120.0   0.0
350.0   150.0   0.0
350.0   120.0   16.666666666666668
400.0   120.0   16.666666666666668
350.0   150.0   16.666666666666668
350.0   120.0   33.333333333333336
400.0   120.0   16.666666666666668
400.0   150.0   16.666666666666668
350.0   150.0   16.666666666666668
400.0   150.0   33.333333333333336
350.0   120.0   33.333333333333336
350.0   150.0   33.333333333333336
400.0   150.0   33.333333333333336
350.0   150.0   16.666666666666668
350.0   120.0   33.333333333333336
400.0   150.0   33.333333333333336
400.0   120.0   33.333333333333336
400.0   120.0   16.666666666666668
350.0   120.0   33.333333333333336
400.0   150.0   33.333333333333336
400.0   120.0   16.666666666666668
350.0   150.0   16.666666666666668
350.0   120.0   33.333333333333336
400.0   120.0   33.333333333333336
350.0   150.0   33.333333333333336
350.0   120.0   50.0
400.0   120.0   33.333333333333336
400.0   150.0   33.333333333333336
350.0   150.0   33.333333333333336
400.0   150.0   50.0
350.0   120.0   50.0
350.0   150.0   50.0
400.0   150.0   50.0
350.0   150.0   33.333333333333336
350.0   120.0   50.0
400.0   150.0   50.0
400.0   120.0   50.0
400.0   120.0   33.333333333333336
350.0   120.0   50.0
400.0   150.0   50.0
400.0   120.0   33.333333333333336
350.0   150.0   33.333333333333336
400.0   0.0   0.0
450.0   0.0   0.0
400.0   30.0   0.0
400.0   0.0   16.666666666666668
450.0   0.0   0.0
450.0   30.0   0.0
400.0   30.0   0.0
450.0   30.0   16.666666666666668
400.0   0.0   16.666666666666668
400.0   30.0   16.666666666666668
450.0   30.0   16.666666666666668
400.0   30.0   0.0
400.0   0.0   16.666666666666668
450.0   30.0   16.666666666666668
450.0   0.0   16.666666666666668
450.0   0.0   0.0
400.0   0.0   16.666666666666668
450.0   30.0   16.666666666666668
450.0   0.0   0.0
400.0   30.0   0.0
400.0   0.0   16.666666666666668
450.0   0.0   16.666666666666668
400.0   30.0   16.666666666666668
400.0   0.0   33.333333333333336
450.0   0.0   16.666666666666668
450.0   30.0   16.666666666666668
400.0   30.0   16.666666666666668
450.0   30.0   33.333333333333336
400.0   0.0   33.333333333333336
400.0   30.0   33.333333333333336
450.0   30.0   33.333333333333336
400.0   30.0   16.666666666666668
400.0   0.0   33.333333333333336
450.0   30.0   33.333333333333336
450.0   0.0   33.333333333333336
450.0   0.0   16.666666666666668
400.0   0.0   33.333333333333336
450.0   30.0   33.333333333333336
450.0   0.0   16.666666666666668
400.0   30.0   16.666666666666668
400.0   0.0   33.333333333333336
450.0   0.0   33.333333333333336
400.0   30.0   33.333333333333336
400.0   0.0   50.0
450.0   0.0   33.333333333333336
450.0   30.0   33.333333333333336
400.0   30.0   33.333333333333336
450.0   30.0   50.0
400.0   0.0   50.0
400.0   30.0   50.0
450.0   30.0   50.0
400.0   30.0   33.333333333333336
400.0   0.0   50.0
450.0   30.0   50.0
450.0   0.0   50.0
450.0   0.0   33.333333333333336
400.0   0.0   50.0
450.0   30.0   50.0
450.0   0.0   33.333333333333336
400.0   30.0   33.333333333333336
400.0   30.0   0.0
450.0   30.0   0.0
400.0   60.0   0.0
400.0   30.0   16.666666666666668
450.0   30.0   0.0
450.0   60.0   0.0
400.0   60.0   0.0
450.0   60.0   16.666666666666668
400.0   30.0   16.666666666666668
400.0   60.0   16.666666666666668
450.0   60.0   16.666666666666668
400.0   60.0   0.0
400.0   30.0   16.666666666666668
450.0   60.0   16.666666666666668
450.0   30.0   16.666666666666668
450.0   30.0   0.0
400.0   30.0   16.666666666666668
450.0   60.0   16.666666666666668
450.0   30.0   0.0
400.0   60.0   0.0
400.0   30.0   16.666666666666668
450.0   30.0   16.666666666666668
400.0   60.0   16.666666666666668
400.0   30.0   33.333333333333336
450.0   30.0   16.666666666666668
450.0   60.0   16.666666666666668
400.0   60.0   16.666666666666668
450.0   60.0   33.333333333333336
400.0   30.0   33.333333333333336
400.0   60.0   33.333333333333336
450.0   60.0   33.333333333333336
400.0   60.0   16.666666666666668
400.0   30.0   33.333333333333336
450.0   60.0   33.333333333333336
450.0   30.0   33.333333333333336
450.0   30.0   16.666666666666668
400.0   30.0   33.333333333333336
450.0   60.0   33.333333333333336
450.0   30.0   16.666666666666668
400.0   60.0   16.666666666666668
400.0   30.0   33.333333333333336
450.0   30.0   33.333333333333336
400.0   60.0   33.333333333333336
400.0   30.0   50.0
450.0   30.0   33.333333333333336
450.0   60.0   33.333333333333336
400.0   60.0   33.333333333333336
450.0   60.0   50.0
400.0   30.0   50.0
400.0   60.0   50.0
450.0   60.0   50.0
400.0   60.0   33.333333333333336
400.0   30.0   50.0
450.0   60.0   50.0
450.0   30.0   50.0
450.0   30.0   33.333333333333336
400.0   30.0   50.0
450.0   60.0   50.0
450.0   30.0   33.333333333333336
400.0   60.0   33.333333333333336
400.0   60.0   0.0
450.0   60.0   0.0
400.0   90.0   0.0
400.0   60.0   16.666666666666668
450.0   60.0   0.0
450.0   90.0   0.0
400.0   90.0   0.0
450.0   90.0   16.666666666666668
400.0   60.0   16.666666666666668
400.0   90.0   16.666666666666668
450.0   90.0   16.666666666666668
400.0   90.0   0.0
400.0   60.0   16.666666666666668
450.0   90.0   16.666666666666668
450.0   60.0   16.666666666666668
450.0   60.0   0.0
400.0   60.0   16.666666666666668
450.0   90.0   16.666666666666668
450.0   60.0   0.0
400.0   90.0   0.0
400.0   60.0   16.666666666666668
450.0   60.0   16.666666666666668
400.0   90.0   16.666666666666668
400.0   60.0   33.333333333333336
450.0   60.0   16.666666666666668
450.0   90.0   16.666666666666668
400.0   90.0   16.666666666666668
450.0   90.0   33.333333333333336
400.0   60.0   33.333333333333336
400.0   90.0   33.333333333333336
450.0   90.0   33.333333333333336
400.0   90.0   16.666666666666668
400.0   60.0   33.333333333333336
450.0   90.0   33.333333333333336
450.0   60.0   33.333333333333336
450.0   60.0   16.666666666666668
400.0   60.0   33.333333333333336
450.0   90.0   33.333333333333336
450.0   60.0   16.666666666666668
400.0   90.0   16.666666666666668
400.0   60.0   33.333333333333336
450.0   60.0   33.333333333333336
400.0   90.0   33.333333333333336
400.0   60.0   50.0
450.0   60.0   33.333333333333336
450.0   90.0   33.333333333333336
400.0   90.0   33.333333333333336
450.0   90.0   50.0
400.0   60.0   50.0
400.0   90.0   50.0
450.0   90.0   50.0
400.0   90.0   33.333333333333336
400.0   60.0   50.0
450.0   90.0   50.0
450.0   60.0   50.0
450.0   60.0   33.333333333333336
400.0   60.0   50.0
450.0   90.0   50.0
450.0   60.0   33.333333333333336
400.0   90.0   33.333333333333336
400.0   90.0   0.0
450.0   90.0   0.0
400.0   120.0   0.0
400.0   90.0   16.666666666666668
450.0   90.0   0.0
450.0   120.0   0.0
400.0   120.0   0.0
450.0   120.0   16.666666666666668
400.0   90.0   16.666666666666668
400.0   120.0   16.666666666666668
450.0   120.0   16.666666666666668
400.0   120.0   0.0
400.0   90.0   16.666666666666668
450.0   120.0   16.666666666666668
450.0   90.0   16.666666666666668
450.0   90.0   0.0
400.0   90.0   16.666666666666668
450.0   120.0   16.666666666666668
450.0   90.0   0.0
400.0   120.0   0.0
400.0   90.0   16.666666666666668
450.0   90.0   16.666666666666668
400.0   120.0   16.666666666666668
400.0   90.0   33.333333333333336
450.0   90.0   16.666666666666668
450.0   120.0   16.666666666666668
400.0   120.0   16.666666666666668
450.0   120.0   33.333333333333336
400.0   90.0   33.333333333333336
400.0   120.0   33.333333333333336
450.0   120.0   33.333333333333336
400.0   120.0   16.666666666666668
400.0   90.0   33.333333333333336
450.0   120.0   33.333333333333336
450.0   90.0   33.333333333333336
450.0   90.0   16.666666666666668
400.0   90.0   33.333333333333336
450.0   120.0   33.333333333333336
450.0   90.0   16.666666666666668
400.0   120.0   16.666666666666668
400.0   90.0   33.333333333333336
450.0   90.0   33.333333333333336
400.0   120.0   33.333333333333336
400.0   90.0   50.0
450.0   90.0   33.333333333333336
450.0   120.0   33.333333333333336
400.0   120.0   33.333333333333336
450.0   120.0   50.0
400.0   90.0   50.0
400.0   120.0   50.0
450.0   120.0   50.0
400.0   120.0   33.333333333333336
400.0   90.0   50.0
450.0   120.0   50.0
450.0   90.0   50.0
450.0   90.0   33.333333333333336
400.0   90.0   50.0
450.0   120.0   50.0
450.0   90.0   33.333333333333336
400.0   120.0   33.333333333333336
400.0   120.0   0.0
450.0   120.0   0.0
400.0   150.0   0.0
400.0   120.0   16.666666666666668
450.0   120.0   0.0
450.0   150.0   0.0
400.0   150.0   0.0
450.0   150.0   16.666666666666668
400.0   120.0   16.666666666666668
400.0   150.0   16.666666666666668
450.0   150.0   16.666666666666668
400.0   150.0   0.0
400.0   120.0   16.666666666666668
450.0   150.0   16.666666666666668
450.0   120.0   16.666666666666668
450.0   120.0   0.0
400.0   120.0   16.666666666666668
450.0   150.0   16.666666666666668
450.0   120.0   0.0
400.0   150.0   0.0
400.0   120.0   16.666666666666668
450.0   120.0   16.666666666666668
400.0   150.0   16.666666666666668
400.0   120.0   33.333333333333336
450.0   120.0   16.666666666666668
450.0   150.0   16.666666666666668
400.0   150.0   16.666666666666668
450.0   150.0   33.333333333333336
400.0   120.0   33.333333333333336
400.0   150.0   33.333333333333336
450.0   150.0   33.333333333333336
400.0   150.0   16.666666666666668
400.0   120.0   33.333333333333336
450.0   150.0   33.333333333333336
450.0   120.0   33.333333333333336
450.0   120.0   16.666666666666668
400.0   120.0   33.333333333333336
450.0   150.0   33.333333333333336
450.0   120.0   16.666666666666668
400.0   150.0   16.666666666666668
400.0   120.0   33.333333333333336
450.0   120.0   33.333333333333336
400.0   150.0   33.333333333333336
400.0   120.0   50.0
450.0   120.0   33.333333333333336
450.0   150.0   33.333333333333336
400.0   150.0   33.333333333333336
450.0   150.0   50.0
400.0   120.0   50.0
400.0   150.0   50.0
450.0   150.0   50.0
400.0   150.0   33.333333333333336
400.0   120.0   50.0
450.0   150.0   50.0
450.0   120.0   50.0
450.0   120.0   33.333333333333336
400.0   120.0   50.0
450.0   150.0   50.0
450.0   120.0   33.333333333333336
400.0   150.0   33.333333333333336
450.0   0.0   0.0
500.0   0.0   0.0
450.0   30.0   0.0
450.0   0.0   16.666666666666668
500.0   0.0   0.0
500.0   30.0   0.0
450.0   30.0   0.0
500.0   30.0   16.666666666666668
450.0   0.0   16.666666666666668
450.0   30.0   16.666666666666668
500.0   30.0   16.666666666666668
450.0   30.0   0.0
450.0   0.0   16.666666666666668
500.0   30.0   16.666666666666668
500.0   0.0   16.666666666666668
500.0   0.0   0.0
450.0   0.0   16.666666666666668
500.0   30.0   16.666666666666668
500.0   0.0   0.0
450.0   30.0   0.0
450.0   0.0   16.666666666666668
500.0   0.0   16.666666666666668
450.0   30.0   16.666666666666668
450.0   0.0   33.333333333333336
500.0   0.0   16.666666666666668
500.0   30.0   16.666666666666668
450.0   30.0   16.666666666666668
500.0   30.0   33.333333333333336
450.0   0.0   33.333333333333336
450.0   30.0   33.333333333333336
500.0   30.0   33.333333333333336
450.0   30.0   16.666666666666668
450.0   0.0   33.333333333333336
500.0   30.0   33.333333333333336
500.0   0.0   33.333333333333336
500.0   0.0   16.666666666666668
450.0   0.0   33.333333333333336
500.0   30.0   33.333333333333336
500.0   0.0   16.666666666666668
450.0   30.0   16.666666666666668
450.0   0.0   33.333333333333336
500.0   0.0   33.333333333333336
450.0   30.0   33.333333333333336
450.0   0.0   50.0
500.0   0.0   33.333333333333336
500.0   30.0   33.333333333333336
450.0   30.0   33.333333333333336
500.0   30.0   50.0
450.0   0.0   50.0
450.0   30.0   50.0
500.0   30.0   50.0
450.0   30.0   33.333333333333336
450.0   0.0   50.0
500.0   30.0   50.0
500.0   0.0   50.0
500.0   0.0   33.333333333333336
450.0   0.0   50.0
500.0   30.0   50.0
500.0   0.0   33.333333333333336
450.0   30.0   33.333333333333336
450.0   30.0   0.0
500.0   30.0   0.0
450.0   60.0   0.0
450.0   30.0   16.666666666666668
500.0   30.0   0.0
500.0   60.0   0.0
450.0   60.0   0.0
500.0   60.0   16.666666666666668
450.0   30.0   16.666666666666668
450.0   60.0   16.666666666666668
500.0   60.0   16.666666666666668
450.0   60.0   0.0
450.0   30.0   16.666666666666668
500.0   60.0   16.666666666666668
500.0   30.0   16.666666666666668
500.0   30.0   0.0
450.0   30.0   16.666666666666668
500.0   60.0   16.666666666666668
500.0   30.0   0.0
450.0   60.0   0.0
450.0   30.0   16.666666666666668
500.0   30.0   16.666666666666668
450.0   60.0   16.666666666666668
450.0   30.0   33.333333333333336
500.0   30.0   16.666666666666668
500.0   60.0   16.666666666666668
450.0   60.0   16.666666666666668
500.0   60.0   33.333333333333336
450.0   30.0   33.333333333333336
450.0   60.0   33.333333333333336
500.0   60.0   33.333333333333336
450.0   60.0   16.666666666666668
450.0   30.0   33.333333333333336
500.0   60.0   33.333333333333336
500.0   30.0   33.333333333333336
500.0   30.0   16.666666666666668
450.0   30.0   33.333333333333336
500.0   60.0   33.333333333333336
500.0   30.0   16.666666666666668
450.0   60.0   16.666666666666668
450.0   30.0   33.333333333333336
500.0   30.0   33.333333333333336
450.0   60.0   33.333333333333336
450.0   30.0   50.0
500.0   30.0   33.333333333333336
500.0   60.0   33.333333333333336
450.0   60.0   33.333333333333336
500.0   60.0   50.0
450.0   30.0   50.0
450.0   60.0   50.0
500.0   60.0   50.0
450.0   60.0   33.333333333333336
450.0   30.0   50.0
500.0   60.0   50.0
500.0   30.0   50.0
500.0   30.0   33.333333333333336
450.0   30.0   50.0
500.0   60.0   50.0
500.0   30.0   33.333333333333336
450.0   60.0   33.333333333333336
450.0   60.0   0.0
500.0   60.0   0.0
450.0   90.0   0.0
450.0   60.0   16.666666666666668
500.0   60.0   0.0
500.0   90.0   0.0
450.0   90.0   0.0
500.0   90.0   16.666666666666668
450.0   60.0   16.666666666666668
450.0   90.0   16.666666666666668
500.0   90.0   16.666666666666668
450.0   90.0   0.0
450.0   60.0   16.666666666666668
500.0   90.0   16.666666666666668
500.0   60.0   16.666666666666668
500.0   60.0   0.0
450.0   60.0   16.666666666666668
500.0   90.0   16.666666666666668
500.0   60.0   0.0
450.0   90.0   0.0
450.0   60.0   16.666666666666668
500.0   60.0   16.666666666666668
450.0   90.0   16.666666666666668
450.0   60.0   33.333333333333336
500.0   60.0   16.666666666666668
500.0   90.0   16.666666666666668
450.0   90.0   16.666666666666668
500.0   90.0   33.333333333333336
450.0   60.0   33.333333333333336
450.0   90.0   33.333333333333336
500.0   90.0   33.333333333333336
450.0   90.0   16.666666666666668
450.0   60.0   33.333333333333336
500.0   90.0   33.333333333333336
500.0   60.0   33.333333333333336
500.0   60.0   16.666666666666668
450.0   60.0   33.333333333333336
500.0   90.0   33.333333333333336
500.0   60.0   16.666666666666668
450.0   90.0   16.666666666666668
450.0   60.0   33.333333333333336
500.0   60.0   33.333333333333336
450.0   90.0   33.333333333333336
450.0   60.0   50.0
500.0   60.0   33.333333333333336
500.0   90.0   33.333333333333336
450.0   90.0   33.333333333333336
500.0   90.0   50.0
450.0   60.0   50.0
450.0   90.0   50.0
500.0   90.0   50.0
450.0   90.0   33.333333333333336
450.0   60.0   50.0
500.0   90.0   50.0
500.0   60.0   50.0
500.0   60.0   33.333333333333336
450.0   60.0   50.0
500.0   90.0   50.0
500.0   60.0   33.333333333333336
450.0   90.0   33.333333333333336
450.0   90.0   0.0
500.0   90.0   0.0
450.0   120.0   0.0
450.0   90.0   16.666666666666668
500.0   90.0   0.0
500.0   120.0   0.0
450.0   120.0   0.0
500.0   120.0   16.666666666666668
450.0   90.0   16.666666666666668
450.0   120.0   16.666666666666668
500.0   120.0   16.666666666666668
450.0   120.0   0.0
450.0   90.0   16.666666666666668
500.0   120.0   16.666666666666668
500.0   90.0   16.666666666666668
500.0   90.0   0.0
450.0   90.0   16.666666666666668
500.0   120.0   16.666666666666668
500.0   90.0   0.0
450.0   120.0   0.0
450.0   90.0   16.666666666666668
500.0   90.0   16.666666666666668
450.0   120.0   16.666666666666668
450.0   90.0   33.333333333333336
500.0   90.0   16.666666666666668
500.0   120.0   16.666666666666668
450.0   120.0   16.666666666666668
500.0   120.0   33.333333333333336
450.0   90.0   33.333333333333336
450.0   120.0   33.333333333333336
500.0   120.0   33.333333333333336
450.0   120.0   16.666666666666668
450.0   90.0   33.333333333333336
500.0   120.0   33.333333333333336
500.0   90.0   33.333333333333336
500.0   90.0   16.666666666666668
450.0   90.0   33.333333333333336
500.0   120.0   33.333333333333336
500.0   90.0   16.666666666666668
450.0   120.0   16.666666666666668
450.0   90.0   33.333333333333336
500.0   90.0   33.333333333333336
450.0   120.0   33.333333333333336
450.0   90.0   50.0
500.0   90.0   33.333333333333336
500.0   120.0   33.333333333333336
450.0   120.0   33.333333333333336
500.0   120.0   50.0
450.0   90.0   50.0
450.0   120.0   50.0
500.0   120.0   50.0
450.0   120.0   33.333333333333336
450.0   90.0   50.0
500.0   120.0   50.0
500.0   90.0   50.0
500.0   90.0   33.333333333333336
450.0   90.0   50.0
500.0   120.0   50.0
500.0   90.0   33.333333333333336
450.0   120.0   33.333333333333336
450.0   120.0   0.0
500.0   120.0   0.0
450.0   150.0   0.0
450.0   120.0   16.666666666666668
500.0   120.0   0.0
500.0   150.0   0.0
450.0   150.0   0.0
500.0   150.0   16.666666666666668
450.0   120.0   16.666666666666668
450.0   150.0   16.666666666666668
500.0   150.0   16.666666666666668
450.0   150.0   0.0
450.0   120.0   16.666666666666668
500.0   150.0   16.666666666666668
500.0   120.0   16.666666666666668
500.0   120.0   0.0
450.0   120.0   16.666666666666668
500.0   150.0   16.666666666666668
500.0   120.0   0.0
450.0   150.0   0.0
450.0   120.0   16.666666666666668
500.0   120.0   16.666666666666668
450.0   150.0   16.666666666666668
450.0   120.0   33.333333333333336
500.0   120.0   16.666666666666668
500.0   150.0   16.666666666666668
450.0   150.0   16.666666666666668
500.0   150.0   33.333333333333336
450.0   120.0   33.333333333333336
450.0   150.0   33.333333333333336
500.0   150.0   33.333333333333336
450.0   150.0   16.666666666666668
450.0   120.0   33.333333333333336
500.0   150.0   33.333333333333336
500.0   120.0   33.333333333333336
500.0   120.0   16.666666666666668
450.0   120.0   33.333333333333336
500.0   150.0   33.333333333333336
500.0   120.0   16.666666666666668
450.0   150.0   16.666666666666668
450.0   120.0   33.333333333333336
500.0   120.0   33.333333333333336
450.0   150.0   33.333333333333336
450.0   120.0   50.0
500.0   120.0   33.333333333333336
500.0   150.0   33.333333333333336
450.0   150.0   33.333333333333336
500.0   150.0   50.0
450.0   120.0   50.0
450.0   150.0   50.0
500.0   150.0   50.0
450.0   150.0   33.333333333333336
450.0   120.0   50.0
500.0   150.0   50.0
500.0   120.0   50.0
500.0   120.0   33.333333333333336
450.0   120.0   50.0
500.0   150.0   50.0
500.0   120.0   33.333333333333336
450.0   150.0   33.333333333333336
             </DataArray>   
          </Points>  
          <Cells>  
             <DataArray type="Int32" Name="connectivity" format="ascii">   
0   1   2   3
4   5   6   7
8   9   10   11
12   13   14   15
16   17   18   19
20   21   22   23
24   25   26   27
28   29   30   31
32   33   34   35
36   37   38   39
40   41   42   43
44   45   46   47
48   49   50   51
52   53   54   55
56   57   58   59
60   61   62   63
64   65   66   67
68   69   70   71
72   73   74   75
76   77   78   79
80   81   82   83
84   85   86   87
88   89   90   91
92   93   94   95
96   97   98   99
100   101   102   103
104   105   106   107
108   109   110   111
112   113   114   115
116   117   118   119
120   121   122   123
124   125   126   127
128   129   130   131
132   133   134   135
136   137   138   139
140   141   142   143
144   145   146   147
148   149   150   151
152   153   154   155
156   157   158   159
160   161   162   163
164   165   166   167
168   169   170   171
172   173   174   175
176   177   178   179
180   181   182   183
184   185   186   187
188   189   190   191
192   193   194   195
196   197   198   199
200   201   202   203
204   205   206   207
208   209   210   211
212   213   214   215
216   217   218   219
220   221   222   223
224   225   226   227
228   229   230   231
232   233   234   235
236   237   238   239
240   241   242   243
244   245   246   247
248   249   250   251
252   253   254   255
256   257   258   259
260   261   262   263
264   265   266   267
268   269   270   271
272   273   274   275
276   277   278   279
280   281   282   283
284   285   286   287
288   289   290   291
292   293   294   295
296   297   298   299
300   301   302   303
304   305   306   307
308   309   310   311
312   313   314   315
316   317   318   319
320   321   322   323
324   325   326   327
328   329   330   331
332   333   334   335
336   337   338   339
340   341   342   343
344   345   346   347
348   349   350   351
352   353   354   355
356   357   358   359
360   361   362   363
364   365   366   367
368   369   370   371
372   373   374   375
376   377   378   379
380   381   382   383
384   385   386   387
388   389   390   391
392   393   394   395
396   397   398   399
400   401   402   403
404   405   406   407
408   409   410   411
412   413   414   415
416   417   418   419
420   421   422   423
424   425   426   427
428   429   430   431
432   433   434   435
436   437   438   439
440   441   442   443
444   445   446   447
448   449   450   451
452   453   454   455
456   457   458   459
460   461   462   463
464   465   466   467
468   469   470   471
472   473   474   475
476   477   478   479
480   481   482   483
484   485   486   487
488   489   490   491
492   493   494   495
496   497   498   499
500   501   502   503
504   505   506   507
508   509   510   511
512   513   514   515
516   517   518   519
520   521   522   523
524   525   526   527
528   529   530   531
532   533   534   535
536   537   538   539
540   541   542   543
544   545   546   547
548   549   550   551
552   553   554   555
556   557   558   559
560   561   562   563
564   565   566   567
568   569   570   571
572   573   574   575
576   577   578   579
580   581   582   583
584   585   586   587
588   589   590   591
592   593   594   595
596   597   598   599
600   601   602   603
604   605   606   607
608   609   610   611
612   613   614   615
616   617   618   619
620   621   622   623
624   625   626   627
628   629   630   631
632   633   634   635
636   637   638   639
640   641   642   643
644   645   646   647
648   649   650   651
652   653   654   655
656   657   658   659
660   661   662   663
664   665   666   667
668   669   670   671
672   673   674   675
676   677   678   679
680   681   682   683
684   685   686   687
688   689   690   691
692   693   694   695
696   697   698   699
700   701   702   703
704   705   706   707
708   709   710   711
712   713   714   715
716   717   718   719
720   721   722   723
724   725   726   727
728   729   730   731
732   733   734   735
736   737   738   739
740   741   742   743
744   745   746   747
748   749   750   751
752   753   754   755
756   757   758   759
760   761   762   763
764   765   766   767
768   769   770   771
772   773   774   775
776   777   778   779
780   781   782   783
784   785   786   787
788   789   790   791
792   793   794   795
796   797   798   799
800   801   802   803
804   805   806   807
808   809   810   811
812   813   814   815
816   817   818   819
820   821   822   823
824   825   826   827
828   829   830   831
832   833   834   835
836   837   838   839
840   841   842   843
844   845   846   847
848   849   850   851
852   853   854   855
856   857   858   859
860   861   862   863
864   865   866   867
868   869   870   871
872   873   874   875
876   877   878   879
880   881   882   883
884   885   886   887
888   889   890   891
892   893   894   895
896   897   898   899
900   901   902   903
904   905   906   907
908   909   910   911
912   913   914   915
916   917   918   919
920   921   922   923
924   925   926   927
928   929   930   931
932   933   934   935
936   937   938   939
940   941   942   943
944   945   946   947
948   949   950   951
952   953   954   955
956   957   958   959
960   961   962   963
964   965   966   967
968   969   970   971
972   973   974   975
976   977   978   979
980   981   982   983
984   985   986   987
988   989   990   991
992   993   994   995
996   997   998   999
1000   1001   1002   1003
1004   1005   1006   1007
1008   1009   1010   1011
1012   1013   1014   1015
1016   1017   1018   1019
1020   1021   1022   1023
1024   1025   1026   1027
1028   1029   1030   1031
1032   1033   1034   1035
1036   1037   1038   1039
1040   1041   1042   1043
1044   1045   1046   1047
1048   1049   1050   1051
1052   1053   1054   1055
1056   1057   1058   1059
1060   1061   1062   1063
1064   1065   1066   1067
1068   1069   1070   1071
1072   1073   1074   1075
1076   1077   1078   1079
1080   1081   1082   1083
1084   1085   1086   1087
1088   1089   1090   1091
1092   1093   1094   1095
1096   1097   1098   1099
1100   1101   1102   1103
1104   1105   1106   1107
1108   1109   1110   1111
1112   1113   1114   1115
1116   1117   1118   1119
1120   1121   1122   1123
1124   1125   1126   1127
1128   1129   1130   1131
1132   1133   1134   1135
1136   1137   1138   1139
1140   1141   1142   1143
1144   1145   1146   1147
1148   1149   1150   1151
1152   1153   1154   1155
1156   1157   1158   1159
1160   1161   1162   1163
1164   1165   1166   1167
1168   1169   1170   1171
1172   1173   1174   1175
1176   1177   1178   1179
1180   1181   1182   1183
1184   1185   1186   1187
1188   1189   1190   1191
1192   1193   1194   1195
1196   1197   1198   1199
1200   1201   1202   1203
1204   1205   1206   1207
1208   1209   1210   1211
1212   1213   1214   1215
1216   1217   1218   1219
1220   1221   1222   1223
1224   1225   1226   1227
1228   1229   1230   1231
1232   1233   1234   1235
1236   1237   1238   1239
1240   1241   1242   1243
1244   1245   1246   1247
1248   1249   1250   1251
1252   1253   1254   1255
1256   1257   1258   1259
1260   1261   1262   1263
1264   1265   1266   1267
1268   1269   1270   1271
1272   1273   1274   1275
1276   1277   1278   1279
1280   1281   1282   1283
1284   1285   1286   1287
1288   1289   1290   1291
1292   1293   1294   1295
1296   1297   1298   1299
1300   1301   1302   1303
1304   1305   1306   1307
1308   1309   1310   1311
1312   1313   1314   1315
1316   1317   1318   1319
1320   1321   1322   1323
1324   1325   1326   1327
1328   1329   1330   1331
1332   1333   1334   1335
1336   1337   1338   1339
1340   1341   1342   1343
1344   1345   1346   1347
1348   1349   1350   1351
1352   1353   1354   1355
1356   1357   1358   1359
1360   1361   1362   1363
1364   1365   1366   1367
1368   1369   1370   1371
1372   1373   1374   1375
1376   1377   1378   1379
1380   1381   1382   1383
1384   1385   1386   1387
1388   1389   1390   1391
1392   1393   1394   1395
1396   1397   1398   1399
1400   1401   1402   1403
1404   1405   1406   1407
1408   1409   1410   1411
1412   1413   1414   1415
1416   1417   1418   1419
1420   1421   1422   1423
1424   1425   1426   1427
1428   1429   1430   1431
1432   1433   1434   1435
1436   1437   1438   1439
1440   1441   1442   1443
1444   1445   1446   1447
1448   1449   1450   1451
1452   1453   1454   1455
1456   1457   1458   1459
1460   1461   1462   1463
1464   1465   1466   1467
1468   1469   1470   1471
1472   1473   1474   1475
1476   1477   1478   1479
1480   1481   1482   1483
1484   1485   1486   1487
1488   1489   1490   1491
1492   1493   1494   1495
1496   1497   1498   1499
1500   1501   1502   1503
1504   1505   1506   1507
1508   1509   1510   1511
1512   1513   1514   1515
1516   1517   1518   1519
1520   1521   1522   1523
1524   1525   1526   1527
1528   1529   1530   1531
1532   1533   1534   1535
1536   1537   1538   1539
1540   1541   1542   1543
1544   1545   1546   1547
1548   1549   1550   1551
1552   1553   1554   1555
1556   1557   1558   1559
1560   1561   1562   1563
1564   1565   1566   1567
1568   1569   1570   1571
1572   1573   1574   1575
1576   1577   1578   1579
1580   1581   1582   1583
1584   1585   1586   1587
1588   1589   1590   1591
1592   1593   1594   1595
1596   1597   1598   1599
1600   1601   1602   1603
1604   1605   1606   1607
1608   1609   1610   1611
1612   1613   1614   1615
1616   1617   1618   1619
1620   1621   1622   1623
1624   1625   1626   1627
1628   1629   1630   1631
1632   1633   1634   1635
1636   1637   1638   1639
1640   1641   1642   1643
1644   1645   1646   1647
1648   1649   1650   1651
1652   1653   1654   1655
1656   1657   1658   1659
1660   1661   1662   1663
1664   1665   1666   1667
1668   1669   1670   1671
1672   1673   1674   1675
1676   1677   1678   1679
1680   1681   1682   1683
1684   1685   1686   1687
1688   1689   1690   1691
1692   1693   1694   1695
1696   1697   1698   1699
1700   1701   1702   1703
1704   1705   1706   1707
1708   1709   1710   1711
1712   1713   1714   1715
1716   1717   1718   1719
1720   1721   1722   1723
1724   1725   1726   1727
1728   1729   1730   1731
1732   1733   1734   1735
1736   1737   1738   1739
1740   1741   1742   1743
1744   1745   1746   1747
1748   1749   1750   1751
1752   1753   1754   1755
1756   1757   1758   1759
1760   1761   1762   1763
1764   1765   1766   1767
1768   1769   1770   1771
1772   1773   1774   1775
1776   1777   1778   1779
1780   1781   1782   1783
1784   1785   1786   1787
1788   1789   1790   1791
1792   1793   1794   1795
1796   1797   1798   1799
1800   1801   1802   1803
1804   1805   1806   1807
1808   1809   1810   1811
1812   1813   1814   1815
1816   1817   1818   1819
1820   1821   1822   1823
1824   1825   1826   1827
1828   1829   1830   1831
1832   1833   1834   1835
1836   1837   1838   1839
1840   1841   1842   1843
1844   1845   1846   1847
1848   1849   1850   1851
1852   1853   1854   1855
1856   1857   1858   1859
1860   1861   1862   1863
1864   1865   1866   1867
1868   1869   1870   1871
1872   1873   1874   1875
1876   1877   1878   1879
1880   1881   1882   1883
1884   1885   1886   1887
1888   1889   1890   1891
1892   1893   1894   1895
1896   1897   1898   1899
1900   1901   1902   1903
1904   1905   1906   1907
1908   1909   1910   1911
1912   1913   1914   1915
1916   1917   1918   1919
1920   1921   1922   1923
1924   1925   1926   1927
1928   1929   1930   1931
1932   1933   1934   1935
1936   1937   1938   1939
1940   1941   1942   1943
1944   1945   1946   1947
1948   1949   1950   1951
1952   1953   1954   1955
1956   1957   1958   1959
1960   1961   1962   1963
1964   1965   1966   1967
1968   1969   1970   1971
1972   1973   1974   1975
1976   1977   1978   1979
1980   1981   1982   1983
1984   1985   1986   1987
1988   1989   1990   1991
1992   1993   1994   1995
1996   1997   1998   1999
2000   2001   2002   2003
2004   2005   2006   2007
2008   2009   2010   2011
2012   2013   2014   2015
2016   2017   2018   2019
2020   2021   2022   2023
2024   2025   2026   2027
2028   2029   2030   2031
2032   2033   2034   2035
2036   2037   2038   2039
2040   2041   2042   2043
2044   2045   2046   2047
2048   2049   2050   2051
2052   2053   2054   2055
2056   2057   2058   2059
2060   2061   2062   2063
2064   2065   2066   2067
2068   2069   2070   2071
2072   2073   2074   2075
2076   2077   2078   2079
2080   2081   2082   2083
2084   2085   2086   2087
2088   2089   2090   2091
2092   2093   2094   2095
2096   2097   2098   2099
2100   2101   2102   2103
2104   2105   2106   2107
2108   2109   2110   2111
2112   2113   2114   2115
2116   2117   2118   2119
2120   2121   2122   2123
2124   2125   2126   2127
2128   2129   2130   2131
2132   2133   2134   2135
2136   2137   2138   2139
2140   2141   2142   2143
2144   2145   2146   2147
2148   2149   2150   2151
2152   2153   2154   2155
2156   2157   2158   2159
2160   2161   2162   2163
2164   2165   2166   2167
2168   2169   2170   2171
2172   2173   2174   2175
2176   2177   2178   2179
2180   2181   2182   2183
2184   2185   2186   2187
2188   2189   2190   2191
2192   2193   2194   2195
2196   2197   2198   2199
2200   2201   2202   2203
2204   2205   2206   2207
2208   2209   2210   2211
2212   2213   2214   2215
2216   2217   2218   2219
2220   2221   2222   2223
2224   2225   2226   2227
2228   2229   2230   2231
2232   2233   2234   2235
2236   2237   2238   2239
2240   2241   2242   2243
2244   2245   2246   2247
2248   2249   2250   2251
2252   2253   2254   2255
2256   2257   2258   2259
2260   2261   2262   2263
2264   2265   2266   2267
2268   2269   2270   2271
2272   2273   2274   2275
2276   2277   2278   2279
2280   2281   2282   2283
2284   2285   2286   2287
2288   2289   2290   2291
2292   2293   2294   2295
2296   2297   2298   2299
2300   2301   2302   2303
2304   2305   2306   2307
2308   2309   2310   2311
2312   2313   2314   2315
2316   2317   2318   2319
2320   2321   2322   2323
2324   2325   2326   2327
2328   2329   2330   2331
2332   2333   2334   2335
2336   2337   2338   2339
2340   2341   2342   2343
2344   2345   2346   2347
2348   2349   2350   2351
2352   2353   2354   2355
2356   2357   2358   2359
2360   2361   2362   2363
2364   2365   2366   2367
2368   2369   2370   2371
2372   2373   2374   2375
2376   2377   2378   2379
2380   2381   2382   2383
2384   2385   2386   2387
2388   2389   2390   2391
2392   2393   2394   2395
2396   2397   2398   2399
2400   2401   2402   2403
2404   2405   2406   2407
2408   2409   2410   2411
2412   2413   2414   2415
2416   2417   2418   2419
2420   2421   2422   2423
2424   2425   2426   2427
2428   2429   2430   2431
2432   2433   2434   2435
2436   2437   2438   2439
2440   2441   2442   2443
2444   2445   2446   2447
2448   2449   2450   2451
2452   2453   2454   2455
2456   2457   2458   2459
2460   2461   2462   2463
2464   2465   2466   2467
2468   2469   2470   2471
2472   2473   2474   2475
2476   2477   2478   2479
2480   2481   2482   2483
2484   2485   2486   2487
2488   2489   2490   2491
2492   2493   2494   2495
2496   2497   2498   2499
2500   2501   2502   2503
2504   2505   2506   2507
2508   2509   2510   2511
2512   2513   2514   2515
2516   2517   2518   2519
2520   2521   2522   2523
2524   2525   2526   2527
2528   2529   2530   2531
2532   2533   2534   2535
2536   2537   2538   2539
2540   2541   2542   2543
2544   2545   2546   2547
2548   2549   2550   2551
2552   2553   2554   2555
2556   2557   2558   2559
2560   2561   2562   2563
2564   2565   2566   2567
2568   2569   2570   2571
2572   2573   2574   2575
2576   2577   2578   2579
2580   2581   2582   2583
2584   2585   2586   2587
2588   2589   2590   2591
2592   2593   2594   2595
2596   2597   2598   2599
2600   2601   2602   2603
2604   2605   2606   2607
2608   2609   2610   2611
2612   2613   2614   2615
2616   2617   2618   2619
2620   2621   2622   2623
2624   2625   2626   2627
2628   2629   2630   2631
2632   2633   2634   2635
2636   2637   2638   2639
2640   2641   2642   2643
2644   2645   2646   2647
2648   2649   2650   2651
2652   2653   2654   2655
2656   2657   2658   2659
2660   2661   2662   2663
2664   2665   2666   2667
2668   2669   2670   2671
2672   2673   2674   2675
2676   2677   2678   2679
2680   2681   2682   2683
2684   2685   2686   2687
2688   2689   2690   2691
2692   2693   2694   2695
2696   2697   2698   2699
2700   2701   2702   2703
2704   2705   2706   2707
2708   2709   2710   2711
2712   2713   2714   2715
2716   2717   2718   2719
2720   2721   2722   2723
2724   2725   2726   2727
2728   2729   2730   2731
2732   2733   2734   2735
2736   2737   2738   2739
2740   2741   2742   2743
2744   2745   2746   2747
2748   2749   2750   2751
2752   2753   2754   2755
2756   2757   2758   2759
2760   2761   2762   2763
2764   2765   2766   2767
2768   2769   2770   2771
2772   2773   2774   2775
2776   2777   2778   2779
2780   2781   2782   2783
2784   2785   2786   2787
2788   2789   2790   2791
2792   2793   2794   2795
2796   2797   2798   2799
2800   2801   2802   2803
2804   2805   2806   2807
2808   2809   2810   2811
2812   2813   2814   2815
2816   2817   2818   2819
2820   2821   2822   2823
2824   2825   2826   2827
2828   2829   2830   2831
2832   2833   2834   2835
2836   2837   2838   2839
2840   2841   2842   2843
2844   2845   2846   2847
2848   2849   2850   2851
2852   2853   2854   2855
2856   2857   2858   2859
2860   2861   2862   2863
2864   2865   2866   2867
2868   2869   2870   2871
2872   2873   2874   2875
2876   2877   2878   2879
2880   2881   2882   2883
2884   2885   2886   2887
2888   2889   2890   2891
2892   2893   2894   2895
2896   2897   2898   2899
2900   2901   2902   2903
2904   2905   2906   2907
2908   2909   2910   2911
2912   2913   2914   2915
2916   2917   2918   2919
2920   2921   2922   2923
2924   2925   2926   2927
2928   2929   2930   2931
2932   2933   2934   2935
2936   2937   2938   2939
2940   2941   2942   2943
2944   2945   2946   2947
2948   2949   2950   2951
2952   2953   2954   2955
2956   2957   2958   2959
2960   2961   2962   2963
2964   2965   2966   2967
2968   2969   2970   2971
2972   2973   2974   2975
2976   2977   2978   2979
2980   2981   2982   2983
2984   2985   2986   2987
2988   2989   2990   2991
2992   2993   2994   2995
2996   2997   2998   2999
3000   3001   3002   3003
3004   3005   3006   3007
3008   3009   3010   3011
3012   3013   3014   3015
3016   3017   3018   3019
3020   3021   3022   3023
3024   3025   3026   3027
3028   3029   3030   3031
3032   3033   3034   3035
3036   3037   3038   3039
3040   3041   3042   3043
3044   3045   3046   3047
3048   3049   3050   3051
3052   3053   3054   3055
3056   3057   3058   3059
3060   3061   3062   3063
3064   3065   3066   3067
3068   3069   3070   3071
3072   3073   3074   3075
3076   3077   3078   3079
3080   3081   3082   3083
3084   3085   3086   3087
3088   3089   3090   3091
3092   3093   3094   3095
3096   3097   3098   3099
3100   3101   3102   3103
3104   3105   3106   3107
3108   3109   3110   3111
3112   3113   3114   3115
3116   3117   3118   3119
3120   3121   3122   3123
3124   3125   3126   3127
3128   3129   3130   3131
3132   3133   3134   3135
3136   3137   3138   3139
3140   3141   3142   3143
3144   3145   3146   3147
3148   3149   3150   3151
3152   3153   3154   3155
3156   3157   3158   3159
3160   3161   3162   3163
3164   3165   3166   3167
3168   3169   3170   3171
3172   3173   3174   3175
3176   3177   3178   3179
3180   3181   3182   3183
3184   3185   3186   3187
3188   3189   3190   3191
3192   3193   3194   3195
3196   3197   3198   3199
3200   3201   3202   3203
3204   3205   3206   3207
3208   3209   3210   3211
3212   3213   3214   3215
3216   3217   3218   3219
3220   3221   3222   3223
3224   3225   3226   3227
3228   3229   3230   3231
3232   3233   3234   3235
3236   3237   3238   3239
3240   3241   3242   3243
3244   3245   3246   3247
3248   3249   3250   3251
3252   3253   3254   3255
3256   3257   3258   3259
3260   3261   3262   3263
3264   3265   3266   3267
3268   3269   3270   3271
3272   3273   3274   3275
3276   3277   3278   3279
3280   3281   3282   3283
3284   3285   3286   3287
3288   3289   3290   3291
3292   3293   3294   3295
3296   3297   3298   3299
3300   3301   3302   3303
3304   3305   3306   3307
3308   3309   3310   3311
3312   3313   3314   3315
3316   3317   3318   3319
3320   3321   3322   3323
3324   3325   3326   3327
3328   3329   3330   3331
3332   3333   3334   3335
3336   3337   3338   3339
3340   3341   3342   3343
3344   3345   3346   3347
3348   3349   3350   3351
3352   3353   3354   3355
3356   3357   3358   3359
3360   3361   3362   3363
3364   3365   3366   3367
3368   3369   3370   3371
3372   3373   3374   3375
3376   3377   3378   3379
3380   3381   3382   3383
3384   3385   3386   3387
3388   3389   3390   3391
3392   3393   3394   3395
3396   3397   3398   3399
3400   3401   3402   3403
3404   3405   3406   3407
3408   3409   3410   3411
3412   3413   3414   3415
3416   3417   3418   3419
3420   3421   3422   3423
3424   3425   3426   3427
3428   3429   3430   3431
3432   3433   3434   3435
3436   3437   3438   3439
3440   3441   3442   3443
3444   3445   3446   3447
3448   3449   3450   3451
3452   3453   3454   3455
3456   3457   3458   3459
3460   3461   3462   3463
3464   3465   3466   3467
3468   3469   3470   3471
3472   3473   3474   3475
3476   3477   3478   3479
3480   3481   3482   3483
3484   3485   3486   3487
3488   3489   3490   3491
3492   3493   3494   3495
3496   3497   3498   3499
3500   3501   3502   3503
3504   3505   3506   3507
3508   3509   3510   3511
3512   3513   3514   3515
3516   3517   3518   3519
3520   3521   3522   3523
3524   3525   3526   3527
3528   3529   3530   3531
3532   3533   3534   3535
3536   3537   3538   3539
3540   3541   3542   3543
3544   3545   3546   3547
3548   3549   3550   3551
3552   3553   3554   3555
3556   3557   3558   3559
3560   3561   3562   3563
3564   3565   3566   3567
3568   3569   3570   3571
3572   3573   3574   3575
3576   3577   3578   3579
3580   3581   3582   3583
3584   3585   3586   3587
3588   3589   3590   3591
3592   3593   3594   3595
3596   3597   3598   3599
3600   3601   3602   3603
3604   3605   3606   3607
3608   3609   3610   3611
3612   3613   3614   3615
3616   3617   3618   3619
3620   3621   3622   3623
3624   3625   3626   3627
3628   3629   3630   3631
3632   3633   3634   3635
3636   3637   3638   3639
3640   3641   3642   3643
3644   3645   3646   3647
3648   3649   3650   3651
3652   3653   3654   3655
3656   3657   3658   3659
3660   3661   3662   3663
3664   3665   3666   3667
3668   3669   3670   3671
3672   3673   3674   3675
3676   3677   3678   3679
3680   3681   3682   3683
3684   3685   3686   3687
3688   3689   3690   3691
3692   3693   3694   3695
3696   3697   3698   3699
3700   3701   3702   3703
3704   3705   3706   3707
3708   3709   3710   3711
3712   3713   3714   3715
3716   3717   3718   3719
3720   3721   3722   3723
3724   3725   3726   3727
3728   3729   3730   3731
3732   3733   3734   3735
3736   3737   3738   3739
3740   3741   3742   3743
3744   3745   3746   3747
3748   3749   3750   3751
3752   3753   3754   3755
3756   3757   3758   3759
3760   3761   3762   3763
3764   3765   3766   3767
3768   3769   3770   3771
3772   3773   3774   3775
3776   3777   3778   3779
3780   3781   3782   3783
3784   3785   3786   3787
3788   3789   3790   3791
3792   3793   3794   3795
3796   3797   3798   3799
3800   3801   3802   3803
3804   3805   3806   3807
3808   3809   3810   3811
3812   3813   3814   3815
3816   3817   3818   3819
3820   3821   3822   3823
3824   3825   3826   3827
3828   3829   3830   3831
3832   3833   3834   3835
3836   3837   3838   3839
3840   3841   3842   3843
3844   3845   3846   3847
3848   3849   3850   3851
3852   3853   3854   3855
3856   3857   3858   3859
3860   3861   3862   3863
3864   3865   3866   3867
3868   3869   3870   3871
3872   3873   3874   3875
3876   3877   3878   3879
3880   3881   3882   3883
3884   3885   3886   3887
3888   3889   3890   3891
3892   3893   3894   3895
3896   3897   3898   3899
3900   3901   3902   3903
3904   3905   3906   3907
3908   3909   3910   3911
3912   3913   3914   3915
3916   3917   3918   3919
3920   3921   3922   3923
3924   3925   3926   3927
3928   3929   3930   3931
3932   3933   3934   3935
3936   3937   3938   3939
3940   3941   3942   3943
3944   3945   3946   3947
3948   3949   3950   3951
3952   3953   3954   3955
3956   3957   3958   3959
3960   3961   3962   3963
3964   3965   3966   3967
3968   3969   3970   3971
3972   3973   3974   3975
3976   3977   3978   3979
3980   3981   3982   3983
3984   3985   3986   3987
3988   3989   3990   3991
3992   3993   3994   3995
3996   3997   3998   3999
4000   4001   4002   4003
4004   4005   4006   4007
4008   4009   4010   4011
4012   4013   4014   4015
4016   4017   4018   4019
4020   4021   4022   4023
4024   4025   4026   4027
4028   4029   4030   4031
4032   4033   4034   4035
4036   4037   4038   4039
4040   4041   4042   4043
4044   4045   4046   4047
4048   4049   4050   4051
4052   4053   4054   4055
4056   4057   4058   4059
4060   4061   4062   4063
4064   4065   4066   4067
4068   4069   4070   4071
4072   4073   4074   4075
4076   4077   4078   4079
4080   4081   4082   4083
4084   4085   4086   4087
4088   4089   4090   4091
4092   4093   4094   4095
4096   4097   4098   4099
4100   4101   4102   4103
4104   4105   4106   4107
4108   4109   4110   4111
4112   4113   4114   4115
4116   4117   4118   4119
4120   4121   4122   4123
4124   4125   4126   4127
4128   4129   4130   4131
4132   4133   4134   4135
4136   4137   4138   4139
4140   4141   4142   4143
4144   4145   4146   4147
4148   4149   4150   4151
4152   4153   4154   4155
4156   4157   4158   4159
4160   4161   4162   4163
4164   4165   4166   4167
4168   4169   4170   4171
4172   4173   4174   4175
4176   4177   4178   4179
4180   4181   4182   4183
4184   4185   4186   4187
4188   4189   4190   4191
4192   4193   4194   4195
4196   4197   4198   4199
4200   4201   4202   4203
4204   4205   4206   4207
4208   4209   4210   4211
4212   4213   4214   4215
4216   4217   4218   4219
4220   4221   4222   4223
4224   4225   4226   4227
4228   4229   4230   4231
4232   4233   4234   4235
4236   4237   4238   4239
4240   4241   4242   4243
4244   4245   4246   4247
4248   4249   4250   4251
4252   4253   4254   4255
4256   4257   4258   4259
4260   4261   4262   4263
4264   4265   4266   4267
4268   4269   4270   4271
4272   4273   4274   4275
4276   4277   4278   4279
4280   4281   4282   4283
4284   4285   4286   4287
4288   4289   4290   4291
4292   4293   4294   4295
4296   4297   4298   4299
4300   4301   4302   4303
4304   4305   4306   4307
4308   4309   4310   4311
4312   4313   4314   4315
4316   4317   4318   4319
4320   4321   4322   4323
4324   4325   4326   4327
4328   4329   4330   4331
4332   4333   4334   4335
4336   4337   4338   4339
4340   4341   4342   4343
4344   4345   4346   4347
4348   4349   4350   4351
4352   4353   4354   4355
4356   4357   4358   4359
4360   4361   4362   4363
4364   4365   4366   4367
4368   4369   4370   4371
4372   4373   4374   4375
4376   4377   4378   4379
4380   4381   4382   4383
4384   4385   4386   4387
4388   4389   4390   4391
4392   4393   4394   4395
4396   4397   4398   4399
4400   4401   4402   4403
4404   4405   4406   4407
4408   4409   4410   4411
4412   4413   4414   4415
4416   4417   4418   4419
4420   4421   4422   4423
4424   4425   4426   4427
4428   4429   4430   4431
4432   4433   4434   4435
4436   4437   4438   4439
4440   4441   4442   4443
4444   4445   4446   4447
4448   4449   4450   4451
4452   4453   4454   4455
4456   4457   4458   4459
4460   4461   4462   4463
4464   4465   4466   4467
4468   4469   4470   4471
4472   4473   4474   4475
4476   4477   4478   4479
4480   4481   4482   4483
4484   4485   4486   4487
4488   4489   4490   4491
4492   4493   4494   4495
4496   4497   4498   4499
4500   4501   4502   4503
4504   4505   4506   4507
4508   4509   4510   4511
4512   4513   4514   4515
4516   4517   4518   4519
4520   4521   4522   4523
4524   4525   4526   4527
4528   4529   4530   4531
4532   4533   4534   4535
4536   4537   4538   4539
4540   4541   4542   4543
4544   4545   4546   4547
4548   4549   4550   4551
4552   4553   4554   4555
4556   4557   4558   4559
4560   4561   4562   4563
4564   4565   4566   4567
4568   4569   4570   4571
4572   4573   4574   4575
4576   4577   4578   4579
4580   4581   4582   4583
4584   4585   4586   4587
4588   4589   4590   4591
4592   4593   4594   4595
4596   4597   4598   4599
4600   4601   4602   4603
4604   4605   4606   4607
4608   4609   4610   4611
4612   4613   4614   4615
4616   4617   4618   4619
4620   4621   4622   4623
4624   4625   4626   4627
4628   4629   4630   4631
4632   4633   4634   4635
4636   4637   4638   4639
4640   4641   4642   4643
4644   4645   4646   4647
4648   4649   4650   4651
4652   4653   4654   4655
4656   4657   4658   4659
4660   4661   4662   4663
4664   4665   4666   4667
4668   4669   4670   4671
4672   4673   4674   4675
4676   4677   4678   4679
4680   4681   4682   4683
4684   4685   4686   4687
4688   4689   4690   4691
4692   4693   4694   4695
4696   4697   4698   4699
4700   4701   4702   4703
4704   4705   4706   4707
4708   4709   4710   4711
4712   4713   4714   4715
4716   4717   4718   4719
4720   4721   4722   4723
4724   4725   4726   4727
4728   4729   4730   4731
4732   4733   4734   4735
4736   4737   4738   4739
4740   4741   4742   4743
4744   4745   4746   4747
4748   4749   4750   4751
4752   4753   4754   4755
4756   4757   4758   4759
4760   4761   4762   4763
4764   4765   4766   4767
4768   4769   4770   4771
4772   4773   4774   4775
4776   4777   4778   4779
4780   4781   4782   4783
4784   4785   4786   4787
4788   4789   4790   4791
4792   4793   4794   4795
4796   4797   4798   4799
4800   4801   4802   4803
4804   4805   4806   4807
4808   4809   4810   4811
4812   4813   4814   4815
4816   4817   4818   4819
4820   4821   4822   4823
4824   4825   4826   4827
4828   4829   4830   4831
4832   4833   4834   4835
4836   4837   4838   4839
4840   4841   4842   4843
4844   4845   4846   4847
4848   4849   4850   4851
4852   4853   4854   4855
4856   4857   4858   4859
4860   4861   4862   4863
4864   4865   4866   4867
4868   4869   4870   4871
4872   4873   4874   4875
4876   4877   4878   4879
4880   4881   4882   4883
4884   4885   4886   4887
4888   4889   4890   4891
4892   4893   4894   4895
4896   4897   4898   4899
4900   4901   4902   4903
4904   4905   4906   4907
4908   4909   4910   4911
4912   4913   4914   4915
4916   4917   4918   4919
4920   4921   4922   4923
4924   4925   4926   4927
4928   4929   4930   4931
4932   4933   4934   4935
4936   4937   4938   4939
4940   4941   4942   4943
4944   4945   4946   4947
4948   4949   4950   4951
4952   4953   4954   4955
4956   4957   4958   4959
4960   4961   4962   4963
4964   4965   4966   4967
4968   4969   4970   4971
4972   4973   4974   4975
4976   4977   4978   4979
4980   4981   4982   4983
4984   4985   4986   4987
4988   4989   4990   4991
4992   4993   4994   4995
4996   4997   4998   4999
5000   5001   5002   5003
5004   5005   5006   5007
5008   5009   5010   5011
5012   5013   5014   5015
5016   5017   5018   5019
5020   5021   5022   5023
5024   5025   5026   5027
5028   5029   5030   5031
5032   5033   5034   5035
5036   5037   5038   5039
5040   5041   5042   5043
5044   5045   5046   5047
5048   5049   5050   5051
5052   5053   5054   5055
5056   5057   5058   5059
5060   5061   5062   5063
5064   5065   5066   5067
5068   5069   5070   5071
5072   5073   5074   5075
5076   5077   5078   5079
5080   5081   5082   5083
5084   5085   5086   5087
5088   5089   5090   5091
5092   5093   5094   5095
5096   5097   5098   5099
5100   5101   5102   5103
5104   5105   5106   5107
5108   5109   5110   5111
5112   5113   5114   5115
5116   5117   5118   5119
5120   5121   5122   5123
5124   5125   5126   5127
5128   5129   5130   5131
5132   5133   5134   5135
5136   5137   5138   5139
5140   5141   5142   5143
5144   5145   5146   5147
5148   5149   5150   5151
5152   5153   5154   5155
5156   5157   5158   5159
5160   5161   5162   5163
5164   5165   5166   5167
5168   5169   5170   5171
5172   5173   5174   5175
5176   5177   5178   5179
5180   5181   5182   5183
5184   5185   5186   5187
5188   5189   5190   5191
5192   5193   5194   5195
5196   5197   5198   5199
5200   5201   5202   5203
5204   5205   5206   5207
5208   5209   5210   5211
5212   5213   5214   5215
5216   5217   5218   5219
5220   5221   5222   5223
5224   5225   5226   5227
5228   5229   5230   5231
5232   5233   5234   5235
5236   5237   5238   5239
5240   5241   5242   5243
5244   5245   5246   5247
5248   5249   5250   5251
5252   5253   5254   5255
5256   5257   5258   5259
5260   5261   5262   5263
5264   5265   5266   5267
5268   5269   5270   5271
5272   5273   5274   5275
5276   5277   5278   5279
5280   5281   5282   5283
5284   5285   5286   5287
5288   5289   5290   5291
5292   5293   5294   5295
5296   5297   5298   5299
5300   5301   5302   5303
5304   5305   5306   5307
5308   5309   5310   5311
5312   5313   5314   5315
5316   5317   5318   5319
5320   5321   5322   5323
5324   5325   5326   5327
5328   5329   5330   5331
5332   5333   5334   5335
5336   5337   5338   5339
5340   5341   5342   5343
5344   5345   5346   5347
5348   5349   5350   5351
5352   5353   5354   5355
5356   5357   5358   5359
5360   5361   5362   5363
5364   5365   5366   5367
5368   5369   5370   5371
5372   5373   5374   5375
5376   5377   5378   5379
5380   5381   5382   5383
5384   5385   5386   5387
5388   5389   5390   5391
5392   5393   5394   5395
5396   5397   5398   5399
5400   5401   5402   5403
5404   5405   5406   5407
5408   5409   5410   5411
5412   5413   5414   5415
5416   5417   5418   5419
5420   5421   5422   5423
5424   5425   5426   5427
5428   5429   5430   5431
5432   5433   5434   5435
5436   5437   5438   5439
5440   5441   5442   5443
5444   5445   5446   5447
5448   5449   5450   5451
5452   5453   5454   5455
5456   5457   5458   5459
5460   5461   5462   5463
5464   5465   5466   5467
5468   5469   5470   5471
5472   5473   5474   5475
5476   5477   5478   5479
5480   5481   5482   5483
5484   5485   5486   5487
5488   5489   5490   5491
5492   5493   5494   5495
5496   5497   5498   5499
5500   5501   5502   5503
5504   5505   5506   5507
5508   5509   5510   5511
5512   5513   5514   5515
5516   5517   5518   5519
5520   5521   5522   5523
5524   5525   5526   5527
5528   5529   5530   5531
5532   5533   5534   5535
5536   5537   5538   5539
5540   5541   5542   5543
5544   5545   5546   5547
5548   5549   5550   5551
5552   5553   5554   5555
5556   5557   5558   5559
5560   5561   5562   5563
5564   5565   5566   5567
5568   5569   5570   5571
5572   5573   5574   5575
5576   5577   5578   5579
5580   5581   5582   5583
5584   5585   5586   5587
5588   5589   5590   5591
5592   5593   5594   5595
5596   5597   5598   5599
5600   5601   5602   5603
5604   5605   5606   5607
5608   5609   5610   5611
5612   5613   5614   5615
5616   5617   5618   5619
5620   5621   5622   5623
5624   5625   5626   5627
5628   5629   5630   5631
5632   5633   5634   5635
5636   5637   5638   5639
5640   5641   5642   5643
5644   5645   5646   5647
5648   5649   5650   5651
5652   5653   5654   5655
5656   5657   5658   5659
5660   5661   5662   5663
5664   5665   5666   5667
5668   5669   5670   5671
5672   5673   5674   5675
5676   5677   5678   5679
5680   5681   5682   5683
5684   5685   5686   5687
5688   5689   5690   5691
5692   5693   5694   5695
5696   5697   5698   5699
5700   5701   5702   5703
5704   5705   5706   5707
5708   5709   5710   5711
5712   5713   5714   5715
5716   5717   5718   5719
5720   5721   5722   5723
5724   5725   5726   5727
5728   5729   5730   5731
5732   5733   5734   5735
5736   5737   5738   5739
5740   5741   5742   5743
5744   5745   5746   5747
5748   5749   5750   5751
5752   5753   5754   5755
5756   5757   5758   5759
5760   5761   5762   5763
5764   5765   5766   5767
5768   5769   5770   5771
5772   5773   5774   5775
5776   5777   5778   5779
5780   5781   5782   5783
5784   5785   5786   5787
5788   5789   5790   5791
5792   5793   5794   5795
5796   5797   5798   5799
5800   5801   5802   5803
5804   5805   5806   5807
5808   5809   5810   5811
5812   5813   5814   5815
5816   5817   5818   5819
5820   5821   5822   5823
5824   5825   5826   5827
5828   5829   5830   5831
5832   5833   5834   5835
5836   5837   5838   5839
5840   5841   5842   5843
5844   5845   5846   5847
5848   5849   5850   5851
5852   5853   5854   5855
5856   5857   5858   5859
5860   5861   5862   5863
5864   5865   5866   5867
5868   5869   5870   5871
5872   5873   5874   5875
5876   5877   5878   5879
5880   5881   5882   5883
5884   5885   5886   5887
5888   5889   5890   5891
5892   5893   5894   5895
5896   5897   5898   5899
5900   5901   5902   5903
5904   5905   5906   5907
5908   5909   5910   5911
5912   5913   5914   5915
5916   5917   5918   5919
5920   5921   5922   5923
5924   5925   5926   5927
5928   5929   5930   5931
5932   5933   5934   5935
5936   5937   5938   5939
5940   5941   5942   5943
5944   5945   5946   5947
5948   5949   5950   5951
5952   5953   5954   5955
5956   5957   5958   5959
5960   5961   5962   5963
5964   5965   5966   5967
5968   5969   5970   5971
5972   5973   5974   5975
5976   5977   5978   5979
5980   5981   5982   5983
5984   5985   5986   5987
5988   5989   5990   5991
5992   5993   5994   5995
5996   5997   5998   5999
              </DataArray>   
              <DataArray type="Int32" Name="offsets" format="ascii">   
4
8
12
16
20
24
28
32
36
40
44
48
52
56
60
64
68
72
76
80
84
88
92
96
100
104
108
112
116
120
124
128
132
136
140
144
148
152
156
160
164
168
172
176
180
184
188
192
196
200
204
208
212
216
220
224
228
232
236
240
244
248
252
256
260
264
268
272
276
280
284
288
292
296
300
304
308
312
316
320
324
328
332
336
340
344
348
352
356
360
364
368
372
376
380
384
388
392
396
400
404
408
412
416
420
424
428
432
436
440
444
448
452
456
460
464
468
472
476
480
484
488
492
496
500
504
508
512
516
520
524
528
532
536
540
544
548
552
556
560
564
568
572
576
580
584
588
592
596
600
604
608
612
616
620
624
628
632
636
640
644
648
652
656
660
664
668
672
676
680
684
688
692
696
700
704
708
712
716
720
724
728
732
736
740
744
748
752
756
760
764
768
772
776
780
784
788
792
796
800
804
808
812
816
820
824
828
832
836
840
844
848
852
856
860
864
868
872
876
880
884
888
892
896
900
904
908
912
916
920
924
928
932
936
940
944
948
952
956
960
964
968
972
976
980
984
988
992
996
1000
1004
1008
1012
1016
1020
1024
1028
1032
1036
1040
1044
1048
1052
1056
1060
1064
1068
1072
1076
1080
1084
1088
1092
1096
1100
1104
1108
1112
1116
1120
1124
1128
1132
1136
1140
1144
1148
1152
1156
1160
1164
1168
1172
1176
1180
1184
1188
1192
1196
1200
1204
1208
1212
1216
1220
1224
1228
1232
1236
1240
1244
1248
1252
1256
1260
1264
1268
1272
1276
1280
1284
1288
1292
1296
1300
1304
1308
1312
1316
1320
1324
1328
1332
1336
1340
1344
1348
1352
1356
1360
1364
1368
1372
1376
1380
1384
1388
1392
1396
1400
1404
1408
1412
1416
1420
1424
1428
1432
1436
1440
1444
1448
1452
1456
1460
1464
1468
1472
1476
1480
1484
1488
1492
1496
1500
1504
1508
1512
1516
1520
1524
1528
1532
1536
1540
1544
1548
1552
1556
1560
1564
1568
1572
1576
1580
1584
1588
1592
1596
1600
1604
1608
1612
1616
1620
1624
1628
1632
1636
1640
1644
1648
1652
1656
1660
1664
1668
1672
1676
1680
1684
1688
1692
1696
1700
1704
1708
1712
1716
1720
1724
1728
1732
1736
1740
1744
1748
1752
1756
1760
1764
1768
1772
1776
1780
1784
1788
1792
1796
1800
1804
1808
1812
1816
1820
1824
1828
1832
1836
1840
1844
1848
1852
1856
1860
1864
1868
1872
1876
1880
1884
1888
1892
1896
1900
1904
1908
1912
1916
1920
1924
1928
1932
1936
1940
1944
1948
1952
1956
1960
1964
1968
1972
1976
1980
1984
1988
1992
1996
2000
2004
2008
2012
2016
2020
2024
2028
2032
2036
2040
2044
2048
2052
2056
2060
2064
2068
2072
2076
2080
2084
2088
2092
2096
2100
2104
2108
2112
2116
2120
2124
2128
2132
2136
2140
2144
2148
2152
2156
2160
2164
2168
2172
2176
2180
2184
2188
2192
2196
2200
2204
2208
2212
2216
2220
2224
2228
2232
2236
2240
2244
2248
2252
2256
2260
2264
2268
2272
2276
2280
2284
2288
2292
2296
2300
2304
2308
2312
2316
2320
2324
2328
2332
2336
2340
2344
2348
2352
2356
2360
2364
2368
2372
2376
2380
2384
2388
2392
2396
2400
2404
2408
2412
2416
2420
2424
2428
2432
2436
2440
2444
2448
2452
2456
2460
2464
2468
2472
2476
2480
2484
2488
2492
2496
2500
2504
2508
2512
2516
2520
2524
2528
2532
2536
2540
2544
2548
2552
2556
2560
2564
2568
2572
2576
2580
2584
2588
2592
2596
2600
2604
2608
2612
2616
2620
2624
2628
2632
2636
2640
2644
2648
2652
2656
2660
2664
2668
2672
2676
2680
2684
2688
2692
2696
2700
2704
2708
2712
2716
2720
2724
2728
2732
2736
2740
2744
2748
2752
2756
2760
2764
2768
2772
2776
2780
2784
2788
2792
2796
2800
2804
2808
2812
2816
2820
2824
2828
2832
2836
2840
2844
2848
2852
2856
2860
2864
2868
2872
2876
2880
2884
2888
2892
2896
2900
2904
2908
2912
2916
2920
2924
2928
2932
2936
2940
2944
2948
2952
2956
2960
2964
2968
2972
2976
2980
2984
2988
2992
2996
3000
3004
3008
3012
3016
3020
3024
3028
3032
3036
3040
3044
3048
3052
3056
3060
3064
3068
3072
3076
3080
3084
3088
3092
3096
3100
3104
3108
3112
3116
3120
3124
3128
3132
3136
3140
3144
3148
3152
3156
3160
3164
3168
3172
3176
3180
3184
3188
3192
3196
3200
3204
3208
3212
3216
3220
3224
3228
3232
3236
3240
3244
3248
3252
3256
3260
3264
3268
3272
3276
3280
3284
3288
3292
3296
3300
3304
3308
3312
3316
3320
3324
3328
3332
3336
3340
3344
3348
3352
3356
3360
3364
3368
3372
3376
3380
3384
3388
3392
3396
3400
3404
3408
3412
3416
3420
3424
3428
3432
3436
3440
3444
3448
3452
3456
3460
3464
3468
3472
3476
3480
3484
3488
3492
3496
3500
3504
3508
3512
3516
3520
3524
3528
3532
3536
3540
3544
3548
3552
3556
3560
3564
3568
3572
3576
3580
3584
3588
3592
3596
3600
3604
3608
3612
3616
3620
3624
3628
3632
3636
3640
3644
3648
3652
3656
3660
3664
3668
3672
3676
3680
3684
3688
3692
3696
3700
3704
3708
3712
3716
3720
3724
3728
3732
3736
3740
3744
3748
3752
3756
3760
3764
3768
3772
3776
3780
3784
3788
3792
3796
3800
3804
3808
3812
3816
3820
3824
3828
3832
3836
3840
3844
3848
3852
3856
3860
3864
3868
3872
3876
3880
3884
3888
3892
3896
3900
3904
3908
3912
3916
3920
3924
3928
3932
3936
3940
3944
3948
3952
3956
3960
3964
3968
3972
3976
3980
3984
3988
3992
3996
4000
4004
4008
4012
4016
4020
4024
4028
4032
4036
4040
4044
4048
4052
4056
4060
4064
4068
4072
4076
4080
4084
4088
4092
4096
4100
4104
4108
4112
4116
4120
4124
4128
4132
4136
4140
4144
4148
4152
4156
4160
4164
4168
4172
4176
4180
4184
4188
4192
4196
4200
4204
4208
4212
4216
4220
4224
4228
4232
4236
4240
4244
4248
4252
4256
4260
4264
4268
4272
4276
4280
4284
4288
4292
4296
4300
4304
4308
4312
4316
4320
4324
4328
4332
4336
4340
4344
4348
4352
4356
4360
4364
4368
4372
4376
4380
4384
4388
4392
4396
4400
4404
4408
4412
4416
4420
4424
4428
4432
4436
4440
4444
4448
4452
4456
4460
4464
4468
4472
4476
4480
4484
4488
4492
4496
4500
4504
4508
4512
4516
4520
4524
4528
4532
4536
4540
4544
4548
4552
4556
4560
4564
4568
4572
4576
4580
4584
4588
4592
4596
4600
4604
4608
4612
4616
4620
4624
4628
4632
4636
4640
4644
4648
4652
4656
4660
4664
4668
4672
4676
4680
4684
4688
4692
4696
4700
4704
4708
4712
4716
4720
4724
4728
4732
4736
4740
4744
4748
4752
4756
4760
4764
4768
4772
4776
4780
4784
4788
4792
4796
4800
4804
4808
4812
4816
4820
4824
4828
4832
4836
4840
4844
4848
4852
4856
4860
4864
4868
4872
4876
4880
4884
4888
4892
4896
4900
4904
4908
4912
4916
4920
4924
4928
4932
4936
4940
4944
4948
4952
4956
4960
4964
4968
4972
4976
4980
4984
4988
4992
4996
5000
5004
5008
5012
5016
5020
5024
5028
5032
5036
5040
5044
5048
5052
5056
5060
5064
5068
5072
5076
5080
5084
5088
5092
5096
5100
5104
5108
5112
5116
5120
5124
5128
5132
5136
5140
5144
5148
5152
5156
5160
5164
5168
5172
5176
5180
5184
5188
5192
5196
5200
5204
5208
5212
5216
5220
5224
5228
5232
5236
5240
5244
5248
5252
5256
5260
5264
5268
5272
5276
5280
5284
5288
5292
5296
5300
5304
5308
5312
5316
5320
5324
5328
5332
5336
5340
5344
5348
5352
5356
5360
5364
5368
5372
5376
5380
5384
5388
5392
5396
5400
5404
5408
5412
5416
5420
5424
5428
5432
5436
5440
5444
5448
5452
5456
5460
5464
5468
5472
5476
5480
5484
5488
5492
5496
5500
5504
5508
5512
5516
5520
5524
5528
5532
5536
5540
5544
5548
5552
5556
5560
5564
5568
5572
5576
5580
5584
5588
5592
5596
5600
5604
5608
5612
5616
5620
5624
5628
5632
5636
5640
5644
5648
5652
5656
5660
5664
5668
5672
5676
5680
5684
5688
5692
5696
5700
5704
5708
5712
5716
5720
5724
5728
5732
5736
5740
5744
5748
5752
5756
5760
5764
5768
5772
5776
5780
5784
5788
5792
5796
5800
5804
5808
5812
5816
5820
5824
5828
5832
5836
5840
5844
5848
5852
5856
5860
5864
5868
5872
5876
5880
5884
5888
5892
5896
5900
5904
5908
5912
5916
5920
5924
5928
5932
5936
5940
5944
5948
5952
5956
5960
5964
5968
5972
5976
5980
5984
5988
5992
5996
6000
              </DataArray>   
              <DataArray type="UInt8" Name="types" format="ascii">   
10
10
10
10
10
10
10
10
10
10
10
10
10
10
10
10
10
10
10
10
10
10
10
10
10
10
10
10
10
10
10
10
10
10
10
10
10
10
10
10
10
10
10
10
10
10
10
10
10
10
10
10
10
10
10
10
10
10
10
10
10
10
10
10
10
10
10
10
10
10
10
10
10
10
10
10
10
10
10
10
10
10
10
10
10
10
10
10
10
10
10
10
10
10
10
10
10
10
10
10
10
10
10
10
10
10
10
10
10
10
10
10
10
10
10
10
10
10
10
10
10
10
10
10
10
10
10
10
10
10
10
10
10
10
10
10
10
10
10
10
10
10
10
10
10
10
10
10
10
10
10
10
10
10
10
10
10
10
10
10
10
10
10
10
10
10
10
10
10
10
10
10
10
10
10
10
10
10
10
10
10
10
10
10
10
10
10
10
10
10
10
10
10
10
10
10
10
10
10
10
10
10
10
10
10
10
10
10
10
10
10
10
10
10
10
10
10
10
10
10
10
10
10
10
10
10
10
10
10
10
10
10
10
10
10
10
10
10
10
10
10
10
10
10
10
10
10
10
10
10
10
10
10
10
10
10
10
10
10
10
10
10
10
10
10
10
10
10
10
10
10
10
10
10
10
10
10
10
10
10
10
10
10
10
10
10
10
10
10
10
10
10
10
10
10
10
10
10
10
10
10
10
10
10
10
10
10
10
10
10
10
10
10
10
10
10
10
10
10
10
10
10
10
10
10
10
10
10
10
10
10
10
10
10
10
10
10
10
10
10
10
10
10
10
10
10
10
10
10
10
10
10
10
10
10
10
10
10
10
10
10
10
10
10
10
10
10
10
10
10
10
10
10
10
10
10
10
10
10
10
10
10
10
10
10
10
10
10
10
10
10
10
10
10
10
10
10
10
10
10
10
10
10
10
10
10
10
10
10
10
10
10
10
10
10
10
10
10
10
10
10
10
10
10
10
10
10
10
10
10
10
10
10
10
10
10
10
10
10
10
10
10
10
10
10
10
10
10
10
10
10
10
10
10
10
10
10
10
10
10
10
10
10
10
10
10
10
10
10
10
10
10
10
10
10
10
10
10
10
10
10
10
10
10
10
10
10
10
10
10
10
10
10
10
10
10
10
10
10
10
10
10
10
10
10
10
10
10
10
10
10
10
10
10
10
10
10
10
10
10
10
10
10
10
10
10
10
10
10
10
10
10
10
10
10
10
10
10
10
10
10
10
10
10
10
10
10
10
10
10
10
10
10
10
10
10
10
10
10
10
10
10
10
10
10
10
10
10
10
10
10
10
10
10
10
10
10
10
10
10
10
10
10
10
10
10
10
10
10
10
10
10
10
10
10
10
10
10
10
10
10
10
10
10
10
10
10
10
10
10
10
10
10
10
10
10
10
10
10
10
10
10
10
10
10
10
10
10
10
10
10
10
10
10
10
10
10
10
10
10
10
10
10
10
10
10
10
10
10
10
10
10
10
10
10
10
10
10
10
10
10
10
10
10
10
10
10
10
10
10
10
10
10
10
10
10
10
10
10
10
10
10
10
10
10
10
10
10
10
10
10
10
10
10
10
10
10
10
10
10
10
10
10
10
10
10
10
10
10
10
10
10
10
10
10
10
10
10
10
10
10
10
10
10
10
10
10
10
10
10
10
10
10
10
10
10
10
10
10
10
10
10
10
10
10
10
10
10
10
10
10
10
10
10
10
10
10
10
10
10
10
10
10
10
10
10
10
10
10
10
10
10
10
10
10
10
10
10
10
10
10
10
10
10
10
10
10
10
10
10
10
10
10
10
10
10
10
10
10
10
10
10
10
10
10
10
10
10
10
10
10
10
10
10
10
10
10
10
10
10
10
10
10
10
10
10
10
10
10
10
10
10
10
10
10
10
10
10
10
10
10
10
10
10
10
10
10
10
10
10
10
10
10
10
10
10
10
10
10
10
10
10
10
10
10
10
10
10
10
10
10
10
10
10
10
10
10
10
10
10
10
10
10
10
10
10
10
10
10
10
10
10
10
10
10
10
10
10
10
10
10
10
10
10
10
10
10
10
10
10
10
10
10
10
10
10
10
10
10
10
10
10
10
10
10
10
10
10
10
10
10
10
10
10
10
10
10
10
10
10
10
10
10
10
10
10
10
10
10
10
10
10
10
10
10
10
10
10
10
10
10
10
10
10
10
10
10
10
10
10
10
10
10
10
10
10
10
10
10
10
10
10
10
10
10
10
10
10
10
10
10
10
10
10
10
10
10
10
10
10
10
10
10
10
10
10
10
10
10
10
10
10
10
10
10
10
10
10
10
10
10
10
10
10
10
10
10
10
10
10
10
10
10
10
10
10
10
10
10
10
10
10
10
10
10
10
10
10
10
10
10
10
10
10
10
10
10
10
10
10
10
10
10
10
10
10
10
10
10
10
10
10
10
10
10
10
10
10
10
10
10
10
10
10
10
10
10
10
10
10
10
10
10
10
10
10
10
10
10
10
10
10
10
10
10
10
10
10
10
10
10
10
10
10
10
10
10
10
10
10
10
10
10
10
10
10
10
10
10
10
10
10
10
10
10
10
10
10
10
10
10
10
10
10
10
10
10
10
10
10
10
10
10
10
10
10
10
10
10
10
10
10
10
10
10
10
10
10
10
10
10
10
10
10
10
10
10
10
10
10
10
10
10
10
10
10
10
10
10
10
10
10
10
10
10
10
10
10
10
10
10
10
10
10
10
10
10
10
10
10
10
10
10
10
10
10
10
10
10
10
10
10
10
10
10
10
10
10
10
10
10
10
10
10
10
10
10
10
10
10
10
10
10
10
10
10
10
10
10
10
10
10
10
10
10
10
10
10
10
10
10
10
10
10
10
10
10
10
10
10
10
10
10
10
10
10
10
10
10
10
10
10
10
10
10
10
10
10
10
10
10
10
10
10
10
10
10
10
10
10
10
10
10
10
10
10
10
10
10
10
10
10
10
10
10
10
10
10
10
10
10
10
10
10
10
10
10
10
10
10
10
10
10
10
10
10
10
10
10
10
10
10
10
10
10
10
10
10
10
10
10
10
10
10
10
10
10
10
10
10
10
10
10
10
10
10
10
10
10
10
10
10
10
10
10
10
10
10
10
10
10
10
10
10
10
10
10
10
10
10
10
10
10
10
10
10
10
10
10
10
10
10
10
10
10
10
10
10
10
10
10
10
10
10
10
10
10
10
10
10
10
10
10
10
10
10
10
10
10
10
10
10
10
10
10
10
10
10
10
10
10
10
10
10
10
10
10
10
10
10
10
10
10
10
10
10
10
10
10
10
10
10
10
10
10
10
10
10
10
10
10
10
10
10
10
10
10
10
10
10
10
10
10
10
10
10
10
10
10
10
10
10
10
10
10
10
10
10
10
10
              </DataArray>   
          </Cells>  
          <PointData>  
             <DataArray type="Float64" NumberOfComponents="3" Name="Strains" format="ascii">   
-0.00025083817552188666   0.0   -0.00016419242898767887
-0.00025083817552188666   0.0   -0.00016419242898767887
-0.00025083817552188666   0.0   -0.00016419242898767887
-0.00025083817552188666   0.0   -0.00016419242898767887
-0.00015965603400304283   2.784552888723677e-05   4.485124209402565e-06
-0.00015965603400304283   2.784552888723677e-05   4.485124209402565e-06
-0.00015965603400304283   2.784552888723677e-05   4.485124209402565e-06
-0.00015965603400304283   2.784552888723677e-05   4.485124209402565e-06
-0.00015652865216802322   0.0   -0.00015490821910645874
-0.00015652865216802322   0.0   -0.00015490821910645874
-0.00015652865216802322   0.0   -0.00015490821910645874
-0.00015652865216802322   0.0   -0.00015490821910645874
-0.00026255124108473304   3.338863344758749e-05   1.7629156861724907e-06
-0.00026255124108473304   3.338863344758749e-05   1.7629156861724907e-06
-0.00026255124108473304   3.338863344758749e-05   1.7629156861724907e-06
-0.00026255124108473304   3.338863344758749e-05   1.7629156861724907e-06
-0.00020368341384495458   7.736841567683428e-06   -8.095905458551574e-05
-0.00020368341384495458   7.736841567683428e-06   -8.095905458551574e-05
-0.00020368341384495458   7.736841567683428e-06   -8.095905458551574e-05
-0.00020368341384495458   7.736841567683428e-06   -8.095905458551574e-05
-0.00026255124108473353   0.0   -0.00017494139917501126
-0.00026255124108473353   0.0   -0.00017494139917501126
-0.00026255124108473353   0.0   -0.00017494139917501126
-0.00026255124108473353   0.0   -0.00017494139917501126
-0.00015652865216802322   3.338863344758754e-05   2.179609575472509e-05
-0.00015652865216802322   3.338863344758754e-05   2.179609575472509e-05
-0.00015652865216802322   3.338863344758754e-05   2.179609575472509e-05
-0.00015652865216802322   3.338863344758754e-05   2.179609575472509e-05
-0.0001570026363148518   0.0   -0.0001587085880539093
-0.0001570026363148518   0.0   -0.0001587085880539093
-0.0001570026363148518   0.0   -0.0001587085880539093
-0.0001570026363148518   0.0   -0.0001587085880539093
-0.00027079215332254065   3.576341856248997e-05   9.482555821412227e-06
-0.00027079215332254065   3.576341856248997e-05   9.482555821412227e-06
-0.00027079215332254065   3.576341856248997e-05   9.482555821412227e-06
-0.00027079215332254065   3.576341856248997e-05   9.482555821412227e-06
-0.00020977693869979227   1.3527342600918278e-05   -7.886782297289197e-05
-0.00020977693869979227   1.3527342600918278e-05   -7.886782297289197e-05
-0.00020977693869979227   1.3527342600918278e-05   -7.886782297289197e-05
-0.00020977693869979227   1.3527342600918278e-05   -7.886782297289197e-05
-0.00027079215332254114   0.0   -0.00018016663919140333
-0.00027079215332254114   0.0   -0.00018016663919140333
-0.00027079215332254114   0.0   -0.00018016663919140333
-0.00027079215332254114   0.0   -0.00018016663919140333
-0.0001570026363148518   3.576341856249002e-05   3.094060695890623e-05
-0.0001570026363148518   3.576341856249002e-05   3.094060695890623e-05
-0.0001570026363148518   3.576341856249002e-05   3.094060695890623e-05
-0.0001570026363148518   3.576341856249002e-05   3.094060695890623e-05
-0.00015695680029805746   0.0   -0.000159679999196862
-0.00015695680029805746   0.0   -0.000159679999196862
-0.00015695680029805746   0.0   -0.000159679999196862
-0.00015695680029805746   0.0   -0.000159679999196862
-0.0002885130505926208   4.0718537230149065e-05   3.514929562265477e-05
-0.0002885130505926208   4.0718537230149065e-05   3.514929562265477e-05
-0.0002885130505926208   4.0718537230149065e-05   3.514929562265477e-05
-0.0002885130505926208   4.0718537230149065e-05   3.514929562265477e-05
-0.00021387447681029892   1.7072199995451083e-05   -7.506052500706273e-05
-0.00021387447681029892   1.7072199995451083e-05   -7.506052500706273e-05
-0.00021387447681029892   1.7072199995451083e-05   -7.506052500706273e-05
-0.00021387447681029892   1.7072199995451083e-05   -7.506052500706273e-05
-0.0001596560340030431   0.0   -0.00014748511165533682
-0.0001596560340030431   0.0   -0.00014748511165533682
-0.0001596560340030431   0.0   -0.00014748511165533682
-0.0001596560340030431   0.0   -0.00014748511165533682
-7.267058456788922e-05   1.0223733362352603e-05   3.62487742066449e-06
-7.267058456788922e-05   1.0223733362352603e-05   3.62487742066449e-06
-7.267058456788922e-05   1.0223733362352603e-05   3.62487742066449e-06
-7.267058456788922e-05   1.0223733362352603e-05   3.62487742066449e-06
-6.992526038604306e-05   0.0   -0.00014618632063058558
-6.992526038604306e-05   0.0   -0.00014618632063058558
-6.992526038604306e-05   0.0   -0.00014618632063058558
-6.992526038604306e-05   0.0   -0.00014618632063058558
-0.00015652865216802322   1.453649745978861e-05   -1.0569232803158465e-05
-0.00015652865216802322   1.453649745978861e-05   -1.0569232803158465e-05
-0.00015652865216802322   1.453649745978861e-05   -1.0569232803158465e-05
-0.00015652865216802322   1.453649745978861e-05   -1.0569232803158465e-05
-0.00011479064719454289   1.082325853959349e-06   -7.206007146212762e-05
-0.00011479064719454289   1.082325853959349e-06   -7.206007146212762e-05
-0.00011479064719454289   1.082325853959349e-06   -7.206007146212762e-05
-0.00011479064719454289   1.082325853959349e-06   -7.206007146212762e-05
-0.00015652865216802308   0.0   -0.0001549082191064586
-0.00015652865216802308   0.0   -0.0001549082191064586
-0.00015652865216802308   0.0   -0.0001549082191064586
-0.00015652865216802308   0.0   -0.0001549082191064586
-6.992526038604306e-05   1.453649745978861e-05   -1.8473343272853228e-06
-6.992526038604306e-05   1.453649745978861e-05   -1.8473343272853228e-06
-6.992526038604306e-05   1.453649745978861e-05   -1.8473343272853228e-06
-6.992526038604306e-05   1.453649745978861e-05   -1.8473343272853228e-06
-6.839670564081341e-05   0.0   -0.00014802808383461273
-6.839670564081341e-05   0.0   -0.00014802808383461273
-6.839670564081341e-05   0.0   -0.00014802808383461273
-6.839670564081341e-05   0.0   -0.00014802808383461273
-0.0001570026363148518   1.7800840365494314e-05   -1.1032036930512046e-05
-0.0001570026363148518   1.7800840365494314e-05   -1.1032036930512046e-05
-0.0001570026363148518   1.7800840365494314e-05   -1.1032036930512046e-05
-0.0001570026363148518   1.7800840365494314e-05   -1.1032036930512046e-05
-0.00011246267890441808   5.733446059871691e-06   -7.802486269786063e-05
-0.00011246267890441808   5.733446059871691e-06   -7.802486269786063e-05
-0.00011246267890441808   5.733446059871691e-06   -7.802486269786063e-05
-0.00011246267890441808   5.733446059871691e-06   -7.802486269786063e-05
-0.0001570026363148518   0.0   -0.0001587085880539093
-0.0001570026363148518   0.0   -0.0001587085880539093
-0.0001570026363148518   0.0   -0.0001587085880539093
-0.0001570026363148518   0.0   -0.0001587085880539093
-6.839670564081341e-05   1.7800840365494314e-05   -3.515327112154417e-07
-6.839670564081341e-05   1.7800840365494314e-05   -3.515327112154417e-07
-6.839670564081341e-05   1.7800840365494314e-05   -3.515327112154417e-07
-6.839670564081341e-05   1.7800840365494314e-05   -3.515327112154417e-07
-6.701021317456051e-05   0.0   -0.00014725661788464282
-6.701021317456051e-05   0.0   -0.00014725661788464282
-6.701021317456051e-05   0.0   -0.00014725661788464282
-6.701021317456051e-05   0.0   -0.00014725661788464282
-0.00015695680029805705   2.0705635520364997e-05   -9.769020657700344e-06
-0.00015695680029805705   2.0705635520364997e-05   -9.769020657700344e-06
-0.00015695680029805705   2.0705635520364997e-05   -9.769020657700344e-06
-0.00015695680029805705   2.0705635520364997e-05   -9.769020657700344e-06
-0.00011200642474470612   9.543308474388624e-06   -7.798891701903331e-05
-0.00011200642474470612   9.543308474388624e-06   -7.798891701903331e-05
-0.00011200642474470612   9.543308474388624e-06   -7.798891701903331e-05
-0.00011200642474470612   9.543308474388624e-06   -7.798891701903331e-05
-7.267058456788934e-05   0.0   -0.00014135087163792524
-7.267058456788934e-05   0.0   -0.00014135087163792524
-7.267058456788934e-05   0.0   -0.00014135087163792524
-7.267058456788934e-05   0.0   -0.00014135087163792524
9.54213903159204e-06   -1.3014648624040974e-06   -5.1105445562319116e-06
9.54213903159204e-06   -1.3014648624040974e-06   -5.1105445562319116e-06
9.54213903159204e-06   -1.3014648624040974e-06   -5.1105445562319116e-06
9.54213903159204e-06   -1.3014648624040974e-06   -5.1105445562319116e-06
1.1279388201038586e-05   0.0   -0.0001446422503535721
1.1279388201038586e-05   0.0   -0.0001446422503535721
1.1279388201038586e-05   0.0   -0.0001446422503535721
1.1279388201038586e-05   0.0   -0.0001446422503535721
-6.992526038604306e-05   2.573450461688286e-06   -1.084523965211614e-05
-6.992526038604306e-05   2.573450461688286e-06   -1.084523965211614e-05
-6.992526038604306e-05   2.573450461688286e-06   -1.084523965211614e-05
-6.992526038604306e-05   2.573450461688286e-06   -1.084523965211614e-05
-3.069559818342531e-05   -2.7428155963728093e-06   -7.303825035497543e-05
-3.069559818342531e-05   -2.7428155963728093e-06   -7.303825035497543e-05
-3.069559818342531e-05   -2.7428155963728093e-06   -7.303825035497543e-05
-3.069559818342531e-05   -2.7428155963728093e-06   -7.303825035497543e-05
-6.992526038604306e-05   0.0   -0.00014618632063058558
-6.992526038604306e-05   0.0   -0.00014618632063058558
-6.992526038604306e-05   0.0   -0.00014618632063058558
-6.992526038604306e-05   0.0   -0.00014618632063058558
1.1279388201038606e-05   2.573450461688286e-06   -9.301169375103133e-06
1.1279388201038606e-05   2.573450461688286e-06   -9.301169375103133e-06
1.1279388201038606e-05   2.573450461688286e-06   -9.301169375103133e-06
1.1279388201038606e-05   2.573450461688286e-06   -9.301169375103133e-06
1.2646233666038398e-05   0.0   -0.00014443781708604837
1.2646233666038398e-05   0.0   -0.00014443781708604837
1.2646233666038398e-05   0.0   -0.00014443781708604837
1.2646233666038398e-05   0.0   -0.00014443781708604837
-6.839670564081329e-05   5.983777914273457e-06   -1.295651832319299e-05
-6.839670564081329e-05   5.983777914273457e-06   -1.295651832319299e-05
-6.839670564081329e-05   5.983777914273457e-06   -1.295651832319299e-05
-6.839670564081329e-05   5.983777914273457e-06   -1.295651832319299e-05
-2.8639513360002316e-05   1.4570862871141283e-06   -7.650249048158251e-05
-2.8639513360002316e-05   1.4570862871141283e-06   -7.650249048158251e-05
-2.8639513360002316e-05   1.4570862871141283e-06   -7.650249048158251e-05
-2.8639513360002316e-05   1.4570862871141283e-06   -7.650249048158251e-05
-6.839670564081341e-05   0.0   -0.00014802808383461273
-6.839670564081341e-05   0.0   -0.00014802808383461273
-6.839670564081341e-05   0.0   -0.00014802808383461273
-6.839670564081341e-05   0.0   -0.00014802808383461273
1.264623366603842e-05   5.983777914273484e-06   -9.366251574628938e-06
1.264623366603842e-05   5.983777914273484e-06   -9.366251574628938e-06
1.264623366603842e-05   5.983777914273484e-06   -9.366251574628938e-06
1.264623366603842e-05   5.983777914273484e-06   -9.366251574628938e-06
1.4496134496594454e-05   0.0   -0.00014129517309797977
1.4496134496594454e-05   0.0   -0.00014129517309797977
1.4496134496594454e-05   0.0   -0.00014129517309797977
1.4496134496594454e-05   0.0   -0.00014129517309797977
-6.701021317456044e-05   9.9357413111049e-06   -1.1412705099384565e-05
-6.701021317456044e-05   9.9357413111049e-06   -1.1412705099384565e-05
-6.701021317456044e-05   9.9357413111049e-06   -1.1412705099384565e-05
-6.701021317456044e-05   9.9357413111049e-06   -1.1412705099384565e-05
-2.6950285572109418e-05   5.6107589471939045e-06   -7.558426168512294e-05
-2.6950285572109418e-05   5.6107589471939045e-06   -7.558426168512294e-05
-2.6950285572109418e-05   5.6107589471939045e-06   -7.558426168512294e-05
-2.6950285572109418e-05   5.6107589471939045e-06   -7.558426168512294e-05
9.542139031592057e-06   0.0   -0.00014213175055536768
9.542139031592057e-06   0.0   -0.00014213175055536768
9.542139031592057e-06   0.0   -0.00014213175055536768
9.542139031592057e-06   0.0   -0.00014213175055536768
9.875511752383779e-05   -1.1582795109894915e-05   -3.931301342282982e-07
9.875511752383779e-05   -1.1582795109894915e-05   -3.931301342282982e-07
9.875511752383779e-05   -1.1582795109894915e-05   -3.931301342282982e-07
9.875511752383779e-05   -1.1582795109894915e-05   -3.931301342282982e-07
9.888832796904097e-05   0.0   -0.00014988689139946833
9.888832796904097e-05   0.0   -0.00014988689139946833
9.888832796904097e-05   0.0   -0.00014988689139946833
9.888832796904097e-05   0.0   -0.00014988689139946833
1.1279388201038625e-05   -8.741068409826188e-06   1.3726492597645966e-06
1.1279388201038625e-05   -8.741068409826188e-06   1.3726492597645966e-06
1.1279388201038625e-05   -8.741068409826188e-06   1.3726492597645966e-06
1.1279388201038625e-05   -8.741068409826188e-06   1.3726492597645966e-06
5.4215233500316516e-05   -6.462617370083868e-06   -7.155416352954386e-05
5.4215233500316516e-05   -6.462617370083868e-06   -7.155416352954386e-05
5.4215233500316516e-05   -6.462617370083868e-06   -7.155416352954386e-05
5.4215233500316516e-05   -6.462617370083868e-06   -7.155416352954386e-05
1.1279388201038625e-05   0.0   -0.00014464225035357262
1.1279388201038625e-05   0.0   -0.00014464225035357262
1.1279388201038625e-05   0.0   -0.00014464225035357262
1.1279388201038625e-05   0.0   -0.00014464225035357262
9.888832796904097e-05   -8.741068409826188e-06   -3.871991786131104e-06
9.888832796904097e-05   -8.741068409826188e-06   -3.871991786131104e-06
9.888832796904097e-05   -8.741068409826188e-06   -3.871991786131104e-06
9.888832796904097e-05   -8.741068409826188e-06   -3.871991786131104e-06
9.842827031917401e-05   0.0   -0.00014774625947494555
9.842827031917401e-05   0.0   -0.00014774625947494555
9.842827031917401e-05   0.0   -0.00014774625947494555
9.842827031917401e-05   0.0   -0.00014774625947494555
1.264623366603842e-05   -5.5140706481615306e-06   -1.467755997489353e-06
1.264623366603842e-05   -5.5140706481615306e-06   -1.467755997489353e-06
1.264623366603842e-05   -5.5140706481615306e-06   -1.467755997489353e-06
1.264623366603842e-05   -5.5140706481615306e-06   -1.467755997489353e-06
5.485382926010632e-05   -2.5866742678107936e-06   -7.357018648247955e-05
5.485382926010632e-05   -2.5866742678107936e-06   -7.357018648247955e-05
5.485382926010632e-05   -2.5866742678107936e-06   -7.357018648247955e-05
5.485382926010632e-05   -2.5866742678107936e-06   -7.357018648247955e-05
1.264623366603841e-05   0.0   -0.0001444378170860485
1.264623366603841e-05   0.0   -0.0001444378170860485
1.264623366603841e-05   0.0   -0.0001444378170860485
1.264623366603841e-05   0.0   -0.0001444378170860485
9.842827031917401e-05   -5.5140706481615306e-06   -4.776198386386267e-06
9.842827031917401e-05   -5.5140706481615306e-06   -4.776198386386267e-06
9.842827031917401e-05   -5.5140706481615306e-06   -4.776198386386267e-06
9.842827031917401e-05   -5.5140706481615306e-06   -4.776198386386267e-06
0.00010029942610712191   0.0   -0.0001420004610404089
0.00010029942610712191   0.0   -0.0001420004610404089
0.00010029942610712191   0.0   -0.0001420004610404089
0.00010029942610712191   0.0   -0.0001420004610404089
1.449613449659448e-05   -1.1754799040481563e-06   1.7103129195656854e-06
1.449613449659448e-05   -1.1754799040481563e-06   1.7103129195656854e-06
1.449613449659448e-05   -1.1754799040481563e-06   1.7103129195656854e-06
1.449613449659448e-05   -1.1754799040481563e-06   1.7103129195656854e-06
5.647282988658012e-05   2.0311300380330976e-06   -7.017481202899242e-05
5.647282988658012e-05   2.0311300380330976e-06   -7.017481202899242e-05
5.647282988658012e-05   2.0311300380330976e-06   -7.017481202899242e-05
5.647282988658012e-05   2.0311300380330976e-06   -7.017481202899242e-05
9.875511752383779e-05   0.0   -0.00014908142762130462
9.875511752383779e-05   0.0   -0.00014908142762130462
9.875511752383779e-05   0.0   -0.00014908142762130462
9.875511752383779e-05   0.0   -0.00014908142762130462
0.00022272963278030975   -2.9333812896315133e-05   3.994247673502749e-05
0.00022272963278030975   -2.9333812896315133e-05   3.994247673502749e-05
0.00022272963278030975   -2.9333812896315133e-05   3.994247673502749e-05
0.00022272963278030975   -2.9333812896315133e-05   3.994247673502749e-05
0.0002091240038397244   0.0   -0.00016487537003929357
0.0002091240038397244   0.0   -0.00016487537003929357
0.0002091240038397244   0.0   -0.00016487537003929357
0.0002091240038397244   0.0   -0.00016487537003929357
9.888832796904097e-05   -2.4980797733042026e-05   3.38392350516707e-05
9.888832796904097e-05   -2.4980797733042026e-05   3.38392350516707e-05
9.888832796904097e-05   -2.4980797733042026e-05   3.38392350516707e-05
9.888832796904097e-05   -2.4980797733042026e-05   3.38392350516707e-05
0.00015393956068178108   -1.316161868165745e-05   -6.500432690039353e-05
0.00015393956068178108   -1.316161868165745e-05   -6.500432690039353e-05
0.00015393956068178108   -1.316161868165745e-05   -6.500432690039353e-05
0.00015393956068178108   -1.316161868165745e-05   -6.500432690039353e-05
9.888832796904089e-05   0.0   -0.00014988689139946822
9.888832796904089e-05   0.0   -0.00014988689139946822
9.888832796904089e-05   0.0   -0.00014988689139946822
9.888832796904089e-05   0.0   -0.00014988689139946822
0.00020912400383972366   -2.4980797733041972e-05   1.8850756411845375e-05
0.00020912400383972366   -2.4980797733041972e-05   1.8850756411845375e-05
0.00020912400383972366   -2.4980797733041972e-05   1.8850756411845375e-05
0.00020912400383972366   -2.4980797733041972e-05   1.8850756411845375e-05
0.00020283340260594622   0.0   -0.00016144712038842815
0.00020283340260594622   0.0   -0.00016144712038842815
0.00020283340260594622   0.0   -0.00016144712038842815
0.00020283340260594622   0.0   -0.00016144712038842815
9.842827031917401e-05   -2.2834768189137686e-05   2.6262294336341446e-05
9.842827031917401e-05   -2.2834768189137686e-05   2.6262294336341446e-05
9.842827031917401e-05   -2.2834768189137686e-05   2.6262294336341446e-05
9.842827031917401e-05   -2.2834768189137686e-05   2.6262294336341446e-05
0.00015086086528749351   -9.63352415746653e-06   -6.904611036319374e-05
0.00015086086528749351   -9.63352415746653e-06   -6.904611036319374e-05
0.00015086086528749351   -9.63352415746653e-06   -6.904611036319374e-05
0.00015086086528749351   -9.63352415746653e-06   -6.904611036319374e-05
9.842827031917401e-05   0.0   -0.00014774625947494555
9.842827031917401e-05   0.0   -0.00014774625947494555
9.842827031917401e-05   0.0   -0.00014774625947494555
9.842827031917401e-05   0.0   -0.00014774625947494555
0.00020283340260594552   -2.2834768189137578e-05   1.2561433422858764e-05
0.00020283340260594552   -2.2834768189137578e-05   1.2561433422858764e-05
0.00020283340260594552   -2.2834768189137578e-05   1.2561433422858764e-05
0.00020283340260594552   -2.2834768189137578e-05   1.2561433422858764e-05
0.00019349400149258026   0.0   -0.0001526648911697669
0.00019349400149258026   0.0   -0.0001526648911697669
0.00019349400149258026   0.0   -0.0001526648911697669
0.00019349400149258026   0.0   -0.0001526648911697669
0.00010029942610712191   -1.7774050215597085e-05   1.3323831268688874e-05
0.00010029942610712191   -1.7774050215597085e-05   1.3323831268688874e-05
0.00010029942610712191   -1.7774050215597085e-05   1.3323831268688874e-05
0.00010029942610712191   -1.7774050215597085e-05   1.3323831268688874e-05
0.0001459611359058773   -4.098859745684652e-06   -7.098413267785083e-05
0.0001459611359058773   -4.098859745684652e-06   -7.098413267785083e-05
0.0001459611359058773   -4.098859745684652e-06   -7.098413267785083e-05
0.0001459611359058773   -4.098859745684652e-06   -7.098413267785083e-05
-0.00021795840015850245   2.784552888723666e-05   -0.00014272083000447952
-0.00021795840015850245   2.784552888723666e-05   -0.00014272083000447952
-0.00021795840015850245   2.784552888723666e-05   -0.00014272083000447952
-0.00021795840015850245   2.784552888723666e-05   -0.00014272083000447952
-0.00013957174569966864   2.5060419081338677e-05   -1.3747471789961959e-05
-0.00013957174569966864   2.5060419081338677e-05   -1.3747471789961959e-05
-0.00013957174569966864   2.5060419081338677e-05   -1.3747471789961959e-05
-0.00013957174569966864   2.5060419081338677e-05   -1.3747471789961959e-05
-0.00014310152719818167   3.338863344758743e-05   -0.00011983523674083158
-0.00014310152719818167   3.338863344758743e-05   -0.00011983523674083158
-0.00014310152719818167   3.338863344758743e-05   -0.00011983523674083158
-0.00014310152719818167   3.338863344758743e-05   -0.00011983523674083158
-0.00022035572379544148   3.0060535321504403e-05   1.09186164635851e-05
-0.00022035572379544148   3.0060535321504403e-05   1.09186164635851e-05
-0.00022035572379544148   3.0060535321504403e-05   1.09186164635851e-05
-0.00022035572379544148   3.0060535321504403e-05   1.09186164635851e-05
-0.00017310973997940903   2.907667639008159e-05   -6.723437453761663e-05
-0.00017310973997940903   2.907667639008159e-05   -6.723437453761663e-05
-0.00017310973997940903   2.907667639008159e-05   -6.723437453761663e-05
-0.00017310973997940903   2.907667639008159e-05   -6.723437453761663e-05
-0.00022035572379544148   3.338863344758743e-05   -0.00011783837786518174
-0.00022035572379544148   3.338863344758743e-05   -0.00011783837786518174
-0.00022035572379544148   3.338863344758743e-05   -0.00011783837786518174
-0.00022035572379544148   3.338863344758743e-05   -0.00011783837786518174
-0.00014310152719818216   3.006053532150451e-05   8.921757587935207e-06
-0.00014310152719818216   3.006053532150451e-05   8.921757587935207e-06
-0.00014310152719818216   3.006053532150451e-05   8.921757587935207e-06
-0.00014310152719818216   3.006053532150451e-05   8.921757587935207e-06
-0.00014386014226536157   3.5763418562489914e-05   -0.00010771886752150225
-0.00014386014226536157   3.5763418562489914e-05   -0.00010771886752150225
-0.00014386014226536157   3.5763418562489914e-05   -0.00010771886752150225
-0.00014386014226536157   3.5763418562489914e-05   -0.00010771886752150225
-0.00022193922796036504   3.2316541646084545e-05   2.4481068120012586e-05
-0.00022193922796036504   3.2316541646084545e-05   2.4481068120012586e-05
-0.00022193922796036504   3.2316541646084545e-05   2.4481068120012586e-05
-0.00022193922796036504   3.2316541646084545e-05   2.4481068120012586e-05
-0.00017822446898491237   3.2221551165078775e-05   -4.831986921713773e-05
-0.00017822446898491237   3.2221551165078775e-05   -4.831986921713773e-05
-0.00017822446898491237   3.2221551165078775e-05   -4.831986921713773e-05
-0.00017822446898491237   3.2221551165078775e-05   -4.831986921713773e-05
-0.0002219392279603646   3.5763418562489914e-05   -0.00010565074137165899
-0.0002219392279603646   3.5763418562489914e-05   -0.00010565074137165899
-0.0002219392279603646   3.5763418562489914e-05   -0.00010565074137165899
-0.0002219392279603646   3.5763418562489914e-05   -0.00010565074137165899
-0.00014386014226536184   3.2316541646084545e-05   2.2412941970169375e-05
-0.00014386014226536184   3.2316541646084545e-05   2.2412941970169375e-05
-0.00014386014226536184   3.2316541646084545e-05   2.2412941970169375e-05
-0.00014386014226536184   3.2316541646084545e-05   2.2412941970169375e-05
-0.00014306412213199049   4.071853723014901e-05   -7.953090159959898e-05
-0.00014306412213199049   4.071853723014901e-05   -7.953090159959898e-05
-0.00014306412213199049   4.071853723014901e-05   -7.953090159959898e-05
-0.00014306412213199049   4.071853723014901e-05   -7.953090159959898e-05
-0.00021583263955496357   3.4100973139371184e-05   4.5720499226488995e-05
-0.00021583263955496357   3.4100973139371184e-05   4.5720499226488995e-05
-0.00021583263955496357   3.4100973139371184e-05   4.5720499226488995e-05
-0.00021583263955496357   3.4100973139371184e-05   4.5720499226488995e-05
-0.00017361830840274063   3.533149258571071e-05   -2.5375031028352746e-05
-0.00017361830840274063   3.533149258571071e-05   -2.5375031028352746e-05
-0.00017361830840274063   3.533149258571071e-05   -2.5375031028352746e-05
-0.00017361830840274063   3.533149258571071e-05   -2.5375031028352746e-05
-0.00013957174569966864   1.0223733362352603e-05   -0.00015138638269416804
-0.00013957174569966864   1.0223733362352603e-05   -0.00015138638269416804
-0.00013957174569966864   1.0223733362352603e-05   -0.00015138638269416804
-0.00013957174569966864   1.0223733362352603e-05   -0.00015138638269416804
-6.608555489375657e-05   1.166038978313614e-05   -2.8047404165177438e-05
-6.608555489375657e-05   1.166038978313614e-05   -2.8047404165177438e-05
-6.608555489375657e-05   1.166038978313614e-05   -2.8047404165177438e-05
-6.608555489375657e-05   1.166038978313614e-05   -2.8047404165177438e-05
-6.768374242085827e-05   1.4536497459788583e-05   -0.00015116722161351954
-6.768374242085827e-05   1.4536497459788583e-05   -0.00015116722161351954
-6.768374242085827e-05   1.4536497459788583e-05   -0.00015116722161351954
-6.768374242085827e-05   1.4536497459788583e-05   -0.00015116722161351954
-0.00014310152719818167   1.6258736935114175e-05   -2.6504257336508984e-05
-0.00014310152719818167   1.6258736935114175e-05   -2.6504257336508984e-05
-0.00014310152719818167   1.6258736935114175e-05   -2.6504257336508984e-05
-0.00014310152719818167   1.6258736935114175e-05   -2.6504257336508984e-05
-0.00010381877288685043   1.3093385274351964e-05   -9.007630352560447e-05
-0.00010381877288685043   1.3093385274351964e-05   -9.007630352560447e-05
-0.00010381877288685043   1.3093385274351964e-05   -9.007630352560447e-05
-0.00010381877288685043   1.3093385274351964e-05   -9.007630352560447e-05
-0.00014310152719818154   1.4536497459788583e-05   -0.00015220056529871475
-0.00014310152719818154   1.4536497459788583e-05   -0.00015220056529871475
-0.00014310152719818154   1.4536497459788583e-05   -0.00015220056529871475
-0.00014310152719818154   1.4536497459788583e-05   -0.00015220056529871475
-6.768374242085839e-05   1.6258736935114283e-05   -2.5470913651313634e-05
-6.768374242085839e-05   1.6258736935114283e-05   -2.5470913651313634e-05
-6.768374242085839e-05   1.6258736935114283e-05   -2.5470913651313634e-05
-6.768374242085839e-05   1.6258736935114283e-05   -2.5470913651313634e-05
-6.820137627106271e-05   1.780084036549426e-05   -0.0001483343635714779
-6.820137627106271e-05   1.780084036549426e-05   -0.0001483343635714779
-6.820137627106271e-05   1.780084036549426e-05   -0.0001483343635714779
-6.820137627106271e-05   1.780084036549426e-05   -0.0001483343635714779
-0.00014386014226536157   2.0062753431231628e-05   -2.359356808708901e-05
-0.00014386014226536157   2.0062753431231628e-05   -2.359356808708901e-05
-0.00014386014226536157   2.0062753431231628e-05   -2.359356808708901e-05
-0.00014386014226536157   2.0062753431231628e-05   -2.359356808708901e-05
-0.0001046501822885932   1.6609199668591668e-05   -8.687136912411872e-05
-0.0001046501822885932   1.6609199668591668e-05   -8.687136912411872e-05
-0.0001046501822885932   1.6609199668591668e-05   -8.687136912411872e-05
-0.0001046501822885932   1.6609199668591668e-05   -8.687136912411872e-05
-0.00014386014226536157   1.780084036549426e-05   -0.00014969151141092037
-0.00014386014226536157   1.780084036549426e-05   -0.00014969151141092037
-0.00014386014226536157   1.780084036549426e-05   -0.00014969151141092037
-0.00014386014226536157   1.780084036549426e-05   -0.00014969151141092037
-6.820137627106294e-05   2.0062753431231736e-05   -2.22364202476466e-05
-6.820137627106294e-05   2.0062753431231736e-05   -2.22364202476466e-05
-6.820137627106294e-05   2.0062753431231736e-05   -2.22364202476466e-05
-6.820137627106294e-05   2.0062753431231736e-05   -2.22364202476466e-05
-6.805596573007822e-05   2.0705635520364997e-05   -0.00014681139854820431
-6.805596573007822e-05   2.0705635520364997e-05   -0.00014681139854820431
-6.805596573007822e-05   2.0705635520364997e-05   -0.00014681139854820431
-6.805596573007822e-05   2.0705635520364997e-05   -0.00014681139854820431
-0.00014306412213199035   2.4153871636763266e-05   -2.386674621485639e-05
-0.00014306412213199035   2.4153871636763266e-05   -2.386674621485639e-05
-0.00014306412213199035   2.4153871636763266e-05   -2.386674621485639e-05
-0.00014306412213199035   2.4153871636763266e-05   -2.386674621485639e-05
-0.00010528772577299075   1.9791309148722695e-05   -8.420986932036512e-05
-0.00010528772577299075   1.9791309148722695e-05   -8.420986932036512e-05
-0.00010528772577299075   1.9791309148722695e-05   -8.420986932036512e-05
-0.00010528772577299075   1.9791309148722695e-05   -8.420986932036512e-05
-6.608555489375645e-05   -1.3014648624040974e-06   -0.0001584789319011518
-6.608555489375645e-05   -1.3014648624040974e-06   -0.0001584789319011518
-6.608555489375645e-05   -1.3014648624040974e-06   -0.0001584789319011518
-6.608555489375645e-05   -1.3014648624040974e-06   -0.0001584789319011518
6.476961905929512e-06   -3.42179245435407e-07   -3.6965832531493935e-05
6.476961905929512e-06   -3.42179245435407e-07   -3.6965832531493935e-05
6.476961905929512e-06   -3.42179245435407e-07   -3.6965832531493935e-05
6.476961905929512e-06   -3.42179245435407e-07   -3.6965832531493935e-05
6.158393220879146e-06   2.573450461688286e-06   -0.00015937307331852826
6.158393220879146e-06   2.573450461688286e-06   -0.00015937307331852826
6.158393220879146e-06   2.573450461688286e-06   -0.00015937307331852826
6.158393220879146e-06   2.573450461688286e-06   -0.00015937307331852826
-6.768374242085827e-05   3.893539828058921e-06   -3.709490086878774e-05
-6.768374242085827e-05   3.893539828058921e-06   -3.709490086878774e-05
-6.768374242085827e-05   3.893539828058921e-06   -3.709490086878774e-05
-6.768374242085827e-05   3.893539828058921e-06   -3.709490086878774e-05
-3.0467618342638517e-05   1.290979135716878e-06   -9.75602379170825e-05
-3.0467618342638517e-05   1.290979135716878e-06   -9.75602379170825e-05
-3.0467618342638517e-05   1.290979135716878e-06   -9.75602379170825e-05
-3.0467618342638517e-05   1.290979135716878e-06   -9.75602379170825e-05
-6.768374242085827e-05   2.573450461688259e-06   -0.0001601651269383504
-6.768374242085827e-05   2.573450461688259e-06   -0.0001601651269383504
-6.768374242085827e-05   2.573450461688259e-06   -0.0001601651269383504
-6.768374242085827e-05   2.573450461688259e-06   -0.0001601651269383504
6.158393220879146e-06   3.893539828058921e-06   -3.630284724896545e-05
6.158393220879146e-06   3.893539828058921e-06   -3.630284724896545e-05
6.158393220879146e-06   3.893539828058921e-06   -3.630284724896545e-05
6.158393220879146e-06   3.893539828058921e-06   -3.630284724896545e-05
5.730248756474889e-06   5.983777914273484e-06   -0.00015971072231431809
5.730248756474889e-06   5.983777914273484e-06   -0.00015971072231431809
5.730248756474889e-06   5.983777914273484e-06   -0.00015971072231431809
5.730248756474889e-06   5.983777914273484e-06   -0.00015971072231431809
-6.820137627106271e-05   8.031489362835876e-06   -3.7719974137559594e-05
-6.820137627106271e-05   8.031489362835876e-06   -3.7719974137559594e-05
-6.820137627106271e-05   8.031489362835876e-06   -3.7719974137559594e-05
-6.820137627106271e-05   8.031489362835876e-06   -3.7719974137559594e-05
-3.105760147230661e-05   4.881880930549518e-06   -9.773650040944763e-05
-3.105760147230661e-05   4.881880930549518e-06   -9.773650040944763e-05
-3.105760147230661e-05   4.881880930549518e-06   -9.773650040944763e-05
-3.105760147230661e-05   4.881880930549518e-06   -9.773650040944763e-05
-6.820137627106271e-05   5.983777914273484e-06   -0.00016093934918345548
-6.820137627106271e-05   5.983777914273484e-06   -0.00016093934918345548
-6.820137627106271e-05   5.983777914273484e-06   -0.00016093934918345548
-6.820137627106271e-05   5.983777914273484e-06   -0.00016093934918345548
5.730248756474901e-06   8.031489362835768e-06   -3.649134726842223e-05
5.730248756474901e-06   8.031489362835768e-06   -3.649134726842223e-05
5.730248756474901e-06   8.031489362835768e-06   -3.649134726842223e-05
5.730248756474901e-06   8.031489362835768e-06   -3.649134726842223e-05
4.8911572778384896e-06   9.9357413111049e-06   -0.00015943374109419236
4.8911572778384896e-06   9.9357413111049e-06   -0.00015943374109419236
4.8911572778384896e-06   9.9357413111049e-06   -0.00015943374109419236
4.8911572778384896e-06   9.9357413111049e-06   -0.00015943374109419236
-6.805596573007829e-05   1.2343613324297112e-05   -3.929992595557989e-05
-6.805596573007829e-05   1.2343613324297112e-05   -3.929992595557989e-05
-6.805596573007829e-05   1.2343613324297112e-05   -3.929992595557989e-05
-6.805596573007829e-05   1.2343613324297112e-05   -3.929992595557989e-05
-3.142340531446051e-05   8.570810292209531e-06   -9.809051149569018e-05
-3.142340531446051e-05   8.570810292209531e-06   -9.809051149569018e-05
-3.142340531446051e-05   8.570810292209531e-06   -9.809051149569018e-05
-3.142340531446051e-05   8.570810292209531e-06   -9.809051149569018e-05
6.476961905929512e-06   -1.1582795109894834e-05   -0.0001462362690430301
6.476961905929512e-06   -1.1582795109894834e-05   -0.0001462362690430301
6.476961905929512e-06   -1.1582795109894834e-05   -0.0001462362690430301
6.476961905929512e-06   -1.1582795109894834e-05   -0.0001462362690430301
8.125466856936233e-05   -1.1909880070345644e-05   -2.1803008913579057e-05
8.125466856936233e-05   -1.1909880070345644e-05   -2.1803008913579057e-05
8.125466856936233e-05   -1.1909880070345644e-05   -2.1803008913579057e-05
8.125466856936233e-05   -1.1909880070345644e-05   -2.1803008913579057e-05
8.189652660630482e-05   -8.74106840982616e-06   -0.00014829349767658546
8.189652660630482e-05   -8.74106840982616e-06   -0.00014829349767658546
8.189652660630482e-05   -8.74106840982616e-06   -0.00014829349767658546
8.189652660630482e-05   -8.74106840982616e-06   -0.00014829349767658546
6.158393220879146e-06   -8.064806731368675e-06   -2.2469032374616945e-05
6.158393220879146e-06   -8.064806731368675e-06   -2.2469032374616945e-05
6.158393220879146e-06   -8.064806731368675e-06   -2.2469032374616945e-05
6.158393220879146e-06   -8.064806731368675e-06   -2.2469032374616945e-05
4.3384724893995534e-05   -9.648457393041261e-06   -8.35627280994743e-05
4.3384724893995534e-05   -9.648457393041261e-06   -8.35627280994743e-05
4.3384724893995534e-05   -9.648457393041261e-06   -8.35627280994743e-05
4.3384724893995534e-05   -9.648457393041261e-06   -8.35627280994743e-05
6.158393220879136e-06   -8.741068409826188e-06   -0.00014869925468366028
6.158393220879136e-06   -8.741068409826188e-06   -0.00014869925468366028
6.158393220879136e-06   -8.741068409826188e-06   -0.00014869925468366028
6.158393220879136e-06   -8.741068409826188e-06   -0.00014869925468366028
8.189652660630494e-05   -8.064806731368566e-06   -2.2063275367542308e-05
8.189652660630494e-05   -8.064806731368566e-06   -2.2063275367542308e-05
8.189652660630494e-05   -8.064806731368566e-06   -2.2063275367542308e-05
8.189652660630494e-05   -8.064806731368566e-06   -2.2063275367542308e-05
8.146629017082802e-05   -5.5140706481615035e-06   -0.00015108149330271526
8.146629017082802e-05   -5.5140706481615035e-06   -0.00015108149330271526
8.146629017082802e-05   -5.5140706481615035e-06   -0.00015108149330271526
8.146629017082802e-05   -5.5140706481615035e-06   -0.00015108149330271526
5.730248756474889e-06   -4.296181590723348e-06   -2.558549104658985e-05
5.730248756474889e-06   -4.296181590723348e-06   -2.558549104658985e-05
5.730248756474889e-06   -4.296181590723348e-06   -2.558549104658985e-05
5.730248756474889e-06   -4.296181590723348e-06   -2.558549104658985e-05
4.2898890138420284e-05   -6.575402940891357e-06   -8.616569387306432e-05
4.2898890138420284e-05   -6.575402940891357e-06   -8.616569387306432e-05
4.2898890138420284e-05   -6.575402940891357e-06   -8.616569387306432e-05
4.2898890138420284e-05   -6.575402940891357e-06   -8.616569387306432e-05
5.730248756474886e-06   -5.5140706481615306e-06   -0.00015181222673717822
5.730248756474886e-06   -5.5140706481615306e-06   -0.00015181222673717822
5.730248756474886e-06   -5.5140706481615306e-06   -0.00015181222673717822
5.730248756474886e-06   -5.5140706481615306e-06   -0.00015181222673717822
8.14662901708283e-05   -4.296181590723348e-06   -2.485475761212694e-05
8.14662901708283e-05   -4.296181590723348e-06   -2.485475761212694e-05
8.14662901708283e-05   -4.296181590723348e-06   -2.485475761212694e-05
8.14662901708283e-05   -4.296181590723348e-06   -2.485475761212694e-05
7.906503109840075e-05   -1.1754799040481292e-06   -0.00015134615602618732
7.906503109840075e-05   -1.1754799040481292e-06   -0.00015134615602618732
7.906503109840075e-05   -1.1754799040481292e-06   -0.00015134615602618732
7.906503109840075e-05   -1.1754799040481292e-06   -0.00015134615602618732
4.8911572778384896e-06   3.6787315548100167e-07   -2.8649044827634507e-05
4.8911572778384896e-06   3.6787315548100167e-07   -2.8649044827634507e-05
4.8911572778384896e-06   3.6787315548100167e-07   -2.8649044827634507e-05
4.8911572778384896e-06   3.6787315548100167e-07   -2.8649044827634507e-05
4.2408267406133814e-05   -2.985903791100986e-06   -8.916529554017736e-05
4.2408267406133814e-05   -2.985903791100986e-06   -8.916529554017736e-05
4.2408267406133814e-05   -2.985903791100986e-06   -8.916529554017736e-05
4.2408267406133814e-05   -2.985903791100986e-06   -8.916529554017736e-05
8.125466856936233e-05   -2.9333812896315133e-05   -8.849662541225576e-05
8.125466856936233e-05   -2.9333812896315133e-05   -8.849662541225576e-05
8.125466856936233e-05   -2.9333812896315133e-05   -8.849662541225576e-05
8.125466856936233e-05   -2.9333812896315133e-05   -8.849662541225576e-05
0.0001550989734356473   -2.2153679446933736e-05   3.888529610118112e-05
0.0001550989734356473   -2.2153679446933736e-05   3.888529610118112e-05
0.0001550989734356473   -2.2153679446933736e-05   3.888529610118112e-05
0.0001550989734356473   -2.2153679446933736e-05   3.888529610118112e-05
0.0001609375716157969   -2.4980797733042026e-05   -0.00010766277047163586
0.0001609375716157969   -2.4980797733042026e-05   -0.00010766277047163586
0.0001609375716157969   -2.4980797733042026e-05   -0.00010766277047163586
0.0001609375716157969   -2.4980797733042026e-05   -0.00010766277047163586
8.18965266063051e-05   -2.0114963787794802e-05   2.115280417703581e-05
8.18965266063051e-05   -2.0114963787794802e-05   2.115280417703581e-05
8.18965266063051e-05   -2.0114963787794802e-05   2.115280417703581e-05
8.18965266063051e-05   -2.0114963787794802e-05   2.115280417703581e-05
0.00011422670039968504   -2.4047371495010232e-05   -3.0371374187601597e-05
0.00011422670039968504   -2.4047371495010232e-05   -3.0371374187601597e-05
0.00011422670039968504   -2.4047371495010232e-05   -3.0371374187601597e-05
0.00011422670039968504   -2.4047371495010232e-05   -3.0371374187601597e-05
8.18965266063049e-05   -2.4980797733041972e-05   -0.00011058227083878379
8.18965266063049e-05   -2.4980797733041972e-05   -0.00011058227083878379
8.18965266063049e-05   -2.4980797733041972e-05   -0.00011058227083878379
8.18965266063049e-05   -2.4980797733041972e-05   -0.00011058227083878379
0.0001609375716157969   -2.0114963787794802e-05   2.4072304544184124e-05
0.0001609375716157969   -2.0114963787794802e-05   2.4072304544184124e-05
0.0001609375716157969   -2.0114963787794802e-05   2.4072304544184124e-05
0.0001609375716157969   -2.0114963787794802e-05   2.4072304544184124e-05
0.00016029376074591805   -2.2834768189137632e-05   -0.00011710958687649082
0.00016029376074591805   -2.2834768189137632e-05   -0.00011710958687649082
0.00016029376074591805   -2.2834768189137632e-05   -0.00011710958687649082
0.00016029376074591805   -2.2834768189137632e-05   -0.00011710958687649082
8.14662901708283e-05   -1.794574534997543e-05   1.1336117045161243e-05
8.14662901708283e-05   -1.794574534997543e-05   1.1336117045161243e-05
8.14662901708283e-05   -1.794574534997543e-05   1.1336117045161243e-05
8.14662901708283e-05   -1.794574534997543e-05   1.1336117045161243e-05
0.0001181798718841558   -2.1249235792635186e-05   -4.7871091544788734e-05
0.0001181798718841558   -2.1249235792635186e-05   -4.7871091544788734e-05
0.0001181798718841558   -2.1249235792635186e-05   -4.7871091544788734e-05
0.0001181798718841558   -2.1249235792635186e-05   -4.7871091544788734e-05
8.146629017082817e-05   -2.2834768189137578e-05   -0.0001200430005799879
8.146629017082817e-05   -2.2834768189137578e-05   -0.0001200430005799879
8.146629017082817e-05   -2.2834768189137578e-05   -0.0001200430005799879
8.146629017082817e-05   -2.2834768189137578e-05   -0.0001200430005799879
0.00016029376074591805   -1.794574534997543e-05   1.4269530748658478e-05
0.00016029376074591805   -1.794574534997543e-05   1.4269530748658478e-05
0.00016029376074591805   -1.794574534997543e-05   1.4269530748658478e-05
0.00016029376074591805   -1.794574534997543e-05   1.4269530748658478e-05
0.00015927632920793297   -1.7774050215597085e-05   -0.00013632858341863595
0.00015927632920793297   -1.7774050215597085e-05   -0.00013632858341863595
0.00015927632920793297   -1.7774050215597085e-05   -0.00013632858341863595
0.00015927632920793297   -1.7774050215597085e-05   -0.00013632858341863595
7.906503109840102e-05   -1.3276106355597397e-05   -5.3418528854160614e-06
7.906503109840102e-05   -1.3276106355597397e-05   -5.3418528854160614e-06
7.906503109840102e-05   -1.3276106355597397e-05   -5.3418528854160614e-06
7.906503109840102e-05   -1.3276106355597397e-05   -5.3418528854160614e-06
0.00011476603123872388   -1.830551031608283e-05   -6.182587740966266e-05
0.00011476603123872388   -1.830551031608283e-05   -6.182587740966266e-05
0.00011476603123872388   -1.830551031608283e-05   -6.182587740966266e-05
0.00011476603123872388   -1.830551031608283e-05   -6.182587740966266e-05
-0.0001738873569654409   2.5060419081338677e-05   -0.00011982590754561347
-0.0001738873569654409   2.5060419081338677e-05   -0.00011982590754561347
-0.0001738873569654409   2.5060419081338677e-05   -0.00011982590754561347
-0.0001738873569654409   2.5060419081338677e-05   -0.00011982590754561347
-0.00011393535606961218   1.9171534590421094e-05   -2.3439236747116042e-05
-0.00011393535606961218   1.9171534590421094e-05   -2.3439236747116042e-05
-0.00011393535606961218   1.9171534590421094e-05   -2.3439236747116042e-05
-0.00011393535606961218   1.9171534590421094e-05   -2.3439236747116042e-05
-0.00011449754174763338   3.0060535321504403e-05   -9.947993559471539e-05
-0.00011449754174763338   3.0060535321504403e-05   -9.947993559471539e-05
-0.00011449754174763338   3.0060535321504403e-05   -9.947993559471539e-05
-0.00011449754174763338   3.0060535321504403e-05   -9.947993559471539e-05
-0.00017128580901471316   2.3179689922579044e-05   -7.04316243560878e-07
-0.00017128580901471316   2.3179689922579044e-05   -7.04316243560878e-07
-0.00017128580901471316   2.3179689922579044e-05   -7.04316243560878e-07
-0.00017128580901471316   2.3179689922579044e-05   -7.04316243560878e-07
-0.000137338454588391   2.547657947120775e-05   -5.866137401660859e-05
-0.000137338454588391   2.547657947120775e-05   -5.866137401660859e-05
-0.000137338454588391   2.547657947120775e-05   -5.866137401660859e-05
-0.000137338454588391   2.547657947120775e-05   -5.866137401660859e-05
-0.00017128580901471316   3.0060535321504403e-05   -9.535142835536022e-05
-0.00017128580901471316   3.0060535321504403e-05   -9.535142835536022e-05
-0.00017128580901471316   3.0060535321504403e-05   -9.535142835536022e-05
-0.00017128580901471316   3.0060535321504403e-05   -9.535142835536022e-05
-0.00011449754174763338   2.3179689922579044e-05   -4.832823482915562e-06
-0.00011449754174763338   2.3179689922579044e-05   -4.832823482915562e-06
-0.00011449754174763338   2.3179689922579044e-05   -4.832823482915562e-06
-0.00011449754174763338   2.3179689922579044e-05   -4.832823482915562e-06
-0.00011439365899314978   3.2316541646084545e-05   -8.50975867503264e-05
-0.00011439365899314978   3.2316541646084545e-05   -8.50975867503264e-05
-0.00011439365899314978   3.2316541646084545e-05   -8.50975867503264e-05
-0.00011439365899314978   3.2316541646084545e-05   -8.50975867503264e-05
-0.00016874363760563285   2.4938561544025645e-05   9.912498998380318e-06
-0.00016874363760563285   2.4938561544025645e-05   9.912498998380318e-06
-0.00016874363760563285   2.4938561544025645e-05   9.912498998380318e-06
-0.00016874363760563285   2.4938561544025645e-05   9.912498998380318e-06
-0.00013854382540957034   2.780032705920906e-05   -4.213758063749927e-05
-0.00013854382540957034   2.780032705920906e-05   -4.213758063749927e-05
-0.00013854382540957034   2.780032705920906e-05   -4.213758063749927e-05
-0.00013854382540957034   2.780032705920906e-05   -4.213758063749927e-05
-0.00016874363760563285   3.2316541646084545e-05   -8.067079868909107e-05
-0.00016874363760563285   3.2316541646084545e-05   -8.067079868909107e-05
-0.00016874363760563285   3.2316541646084545e-05   -8.067079868909107e-05
-0.00016874363760563285   3.2316541646084545e-05   -8.067079868909107e-05
-0.00011439365899314994   2.4938561544025862e-05   5.48571093714564e-06
-0.00011439365899314994   2.4938561544025862e-05   5.48571093714564e-06
-0.00011439365899314994   2.4938561544025862e-05   5.48571093714564e-06
-0.00011439365899314994   2.4938561544025862e-05   5.48571093714564e-06
-0.00011451918136769597   3.4100973139371184e-05   -6.494000162740208e-05
-0.00011451918136769597   3.4100973139371184e-05   -6.494000162740208e-05
-0.00011451918136769597   3.4100973139371184e-05   -6.494000162740208e-05
-0.00011451918136769597   3.4100973139371184e-05   -6.494000162740208e-05
-0.00016541509417205376   2.6662784274978073e-05   2.4349433031829694e-05
-0.00016541509417205376   2.6662784274978073e-05   2.4349433031829694e-05
-0.00016541509417205376   2.6662784274978073e-05   2.4349433031829694e-05
-0.00016541509417205376   2.6662784274978073e-05   2.4349433031829694e-05
-0.00013540332697924232   2.9017525756852656e-05   -2.7083023845312347e-05
-0.00013540332697924232   2.9017525756852656e-05   -2.7083023845312347e-05
-0.00013540332697924232   2.9017525756852656e-05   -2.7083023845312347e-05
-0.00013540332697924232   2.9017525756852656e-05   -2.7083023845312347e-05
-0.00011393535606961218   1.1660389783136249e-05   -0.00013852116446784967
-0.00011393535606961218   1.1660389783136249e-05   -0.00013852116446784967
-0.00011393535606961218   1.1660389783136249e-05   -0.00013852116446784967
-0.00011393535606961218   1.1660389783136249e-05   -0.00013852116446784967
-5.791978129829453e-05   9.550888100433134e-06   -4.6427574191942075e-05
-5.791978129829453e-05   9.550888100433134e-06   -4.6427574191942075e-05
-5.791978129829453e-05   9.550888100433134e-06   -4.6427574191942075e-05
-5.791978129829453e-05   9.550888100433134e-06   -4.6427574191942075e-05
-5.8632796589903365e-05   1.6258736935114175e-05   -0.00013656656945490106
-5.8632796589903365e-05   1.6258736935114175e-05   -0.00013656656945490106
-5.8632796589903365e-05   1.6258736935114175e-05   -0.00013656656945490106
-5.8632796589903365e-05   1.6258736935114175e-05   -0.00013656656945490106
-0.00011449754174763322   1.3491038708878574e-05   -4.179804192294299e-05
-0.00011449754174763322   1.3491038708878574e-05   -4.179804192294299e-05
-0.00011449754174763322   1.3491038708878574e-05   -4.179804192294299e-05
-0.00011449754174763322   1.3491038708878574e-05   -4.179804192294299e-05
-8.550930817063893e-05   1.343625876125236e-05   -9.007889658269128e-05
-8.550930817063893e-05   1.343625876125236e-05   -9.007889658269128e-05
-8.550930817063893e-05   1.343625876125236e-05   -9.007889658269128e-05
-8.550930817063893e-05   1.343625876125236e-05   -9.007889658269128e-05
-0.00011449754174763327   1.6258736935114175e-05   -0.0001349059505191593
-0.00011449754174763327   1.6258736935114175e-05   -0.0001349059505191593
-0.00011449754174763327   1.6258736935114175e-05   -0.0001349059505191593
-0.00011449754174763327   1.6258736935114175e-05   -0.0001349059505191593
-5.863279658990347e-05   1.3491038708878791e-05   -4.345866085868398e-05
-5.863279658990347e-05   1.3491038708878791e-05   -4.345866085868398e-05
-5.863279658990347e-05   1.3491038708878791e-05   -4.345866085868398e-05
-5.863279658990347e-05   1.3491038708878791e-05   -4.345866085868398e-05
-5.909846173403861e-05   2.0062753431231628e-05   -0.0001329484528638789
-5.909846173403861e-05   2.0062753431231628e-05   -0.0001329484528638789
-5.909846173403861e-05   2.0062753431231628e-05   -0.0001329484528638789
-5.909846173403861e-05   2.0062753431231628e-05   -0.0001329484528638789
-0.00011439365899314978   1.698882667074109e-05   -3.8945434709066894e-05
-0.00011439365899314978   1.698882667074109e-05   -3.8945434709066894e-05
-0.00011439365899314978   1.698882667074109e-05   -3.8945434709066894e-05
-0.00011439365899314978   1.698882667074109e-05   -3.8945434709066894e-05
-8.567624168631912e-05   1.6675993077804952e-05   -8.662009673135462e-05
-8.567624168631912e-05   1.6675993077804952e-05   -8.662009673135462e-05
-8.567624168631912e-05   1.6675993077804952e-05   -8.662009673135462e-05
-8.567624168631912e-05   1.6675993077804952e-05   -8.662009673135462e-05
-0.00011439365899314978   2.0062753431231736e-05   -0.00013110409680758473
-0.00011439365899314978   2.0062753431231736e-05   -0.00013110409680758473
-0.00011439365899314978   2.0062753431231736e-05   -0.00013110409680758473
-0.00011439365899314978   2.0062753431231736e-05   -0.00013110409680758473
-5.909846173403883e-05   1.698882667074109e-05   -4.078979076536059e-05
-5.909846173403883e-05   1.698882667074109e-05   -4.078979076536059e-05
-5.909846173403883e-05   1.698882667074109e-05   -4.078979076536059e-05
-5.909846173403883e-05   1.698882667074109e-05   -4.078979076536059e-05
-5.969748902746912e-05   2.4153871636763374e-05   -0.0001326249902763451
-5.969748902746912e-05   2.4153871636763374e-05   -0.0001326249902763451
-5.969748902746912e-05   2.4153871636763374e-05   -0.0001326249902763451
-5.969748902746912e-05   2.4153871636763374e-05   -0.0001326249902763451
-0.00011451918136769581   2.070673553332251e-05   -3.9187221380569356e-05
-0.00011451918136769581   2.070673553332251e-05   -3.9187221380569356e-05
-0.00011451918136769581   2.070673553332251e-05   -3.9187221380569356e-05
-0.00011451918136769581   2.070673553332251e-05   -3.9187221380569356e-05
-8.670055058177339e-05   1.9882502897431526e-05   -8.505706644223776e-05
-8.670055058177339e-05   1.9882502897431526e-05   -8.505706644223776e-05
-8.670055058177339e-05   1.9882502897431526e-05   -8.505706644223776e-05
-8.670055058177339e-05   1.9882502897431526e-05   -8.505706644223776e-05
-5.7919781298294425e-05   -3.42179245435407e-07   -0.00014928086521396922
-5.7919781298294425e-05   -3.42179245435407e-07   -0.00014928086521396922
-5.7919781298294425e-05   -3.42179245435407e-07   -0.00014928086521396922
-5.7919781298294425e-05   -3.42179245435407e-07   -0.00014928086521396922
-2.5410619953895924e-06   5.067977632553563e-07   -5.647361350391317e-05
-2.5410619953895924e-06   5.067977632553563e-07   -5.647361350391317e-05
-2.5410619953895924e-06   5.067977632553563e-07   -5.647361350391317e-05
-2.5410619953895924e-06   5.067977632553563e-07   -5.647361350391317e-05
-3.1143670515073704e-06   3.893539828058921e-06   -0.0001478969843428505
-3.1143670515073704e-06   3.893539828058921e-06   -0.0001478969843428505
-3.1143670515073704e-06   3.893539828058921e-06   -0.0001478969843428505
-3.1143670515073704e-06   3.893539828058921e-06   -0.0001478969843428505
-5.8632796589903365e-05   4.382827043932945e-06   -5.56598407750486e-05
-5.8632796589903365e-05   4.382827043932945e-06   -5.56598407750486e-05
-5.8632796589903365e-05   4.382827043932945e-06   -5.56598407750486e-05
-5.8632796589903365e-05   4.382827043932945e-06   -5.56598407750486e-05
-3.0381302260075038e-05   2.551770142727528e-06   -0.0001016470305173725
-3.0381302260075038e-05   2.551770142727528e-06   -0.0001016470305173725
-3.0381302260075038e-05   2.551770142727528e-06   -0.0001016470305173725
-3.0381302260075038e-05   2.551770142727528e-06   -0.0001016470305173725
-5.8632796589903365e-05   3.893539828058921e-06   -0.00014819055667237527
-5.8632796589903365e-05   3.893539828058921e-06   -0.00014819055667237527
-5.8632796589903365e-05   3.893539828058921e-06   -0.00014819055667237527
-5.8632796589903365e-05   3.893539828058921e-06   -0.00014819055667237527
-3.1143670515073755e-06   4.382827043932728e-06   -5.536626844552389e-05
-3.1143670515073755e-06   4.382827043932728e-06   -5.536626844552389e-05
-3.1143670515073755e-06   4.382827043932728e-06   -5.536626844552389e-05
-3.1143670515073755e-06   4.382827043932728e-06   -5.536626844552389e-05
-3.531947216447004e-06   8.031489362835876e-06   -0.00014830266968410375
-3.531947216447004e-06   8.031489362835876e-06   -0.00014830266968410375
-3.531947216447004e-06   8.031489362835876e-06   -0.00014830266968410375
-3.531947216447004e-06   8.031489362835876e-06   -0.00014830266968410375
-5.909846173403872e-05   8.247051145649636e-06   -5.582114922447312e-05
-5.909846173403872e-05   8.247051145649636e-06   -5.582114922447312e-05
-5.909846173403872e-05   8.247051145649636e-06   -5.582114922447312e-05
-5.909846173403872e-05   8.247051145649636e-06   -5.582114922447312e-05
-3.111848185039001e-05   5.969392494604075e-06   -0.00010108785383992617
-3.111848185039001e-05   5.969392494604075e-06   -0.00010108785383992617
-3.111848185039001e-05   5.969392494604075e-06   -0.00010108785383992617
-3.111848185039001e-05   5.969392494604075e-06   -0.00010108785383992617
-5.909846173403872e-05   8.031489362835768e-06   -0.00014843200675379234
-5.909846173403872e-05   8.031489362835768e-06   -0.00014843200675379234
-5.909846173403872e-05   8.031489362835768e-06   -0.00014843200675379234
-5.909846173403872e-05   8.031489362835768e-06   -0.00014843200675379234
-3.5319472164470125e-06   8.247051145649636e-06   -5.569181215478409e-05
-3.5319472164470125e-06   8.247051145649636e-06   -5.569181215478409e-05
-3.5319472164470125e-06   8.247051145649636e-06   -5.569181215478409e-05
-3.5319472164470125e-06   8.247051145649636e-06   -5.569181215478409e-05
-4.182614461840211e-06   1.2343613324297112e-05   -0.0001502124518290303
-4.182614461840211e-06   1.2343613324297112e-05   -0.0001502124518290303
-4.182614461840211e-06   1.2343613324297112e-05   -0.0001502124518290303
-4.182614461840211e-06   1.2343613324297112e-05   -0.0001502124518290303
-5.969748902746907e-05   1.2201379754091767e-05   -5.7602320744192946e-05
-5.969748902746907e-05   1.2201379754091767e-05   -5.7602320744192946e-05
-5.969748902746907e-05   1.2201379754091767e-05   -5.7602320744192946e-05
-5.969748902746907e-05   1.2201379754091767e-05   -5.7602320744192946e-05
-3.19010849255983e-05   9.427588302142898e-06   -0.00010226538604280754
-3.19010849255983e-05   9.427588302142898e-06   -0.00010226538604280754
-3.19010849255983e-05   9.427588302142898e-06   -0.00010226538604280754
-3.19010849255983e-05   9.427588302142898e-06   -0.00010226538604280754
-2.5410619953895958e-06   -1.1909880070345644e-05   -0.00013341240441456934
-2.5410619953895958e-06   -1.1909880070345644e-05   -0.00013341240441456934
-2.5410619953895958e-06   -1.1909880070345644e-05   -0.00013341240441456934
-2.5410619953895958e-06   -1.1909880070345644e-05   -0.00013341240441456934
5.2575353488362514e-05   -8.00055618703087e-06   -3.920611761166061e-05
5.2575353488362514e-05   -8.00055618703087e-06   -3.920611761166061e-05
5.2575353488362514e-05   -8.00055618703087e-06   -3.920611761166061e-05
5.2575353488362514e-05   -8.00055618703087e-06   -3.920611761166061e-05
5.252552755478961e-05   -8.064806731368675e-06   -0.00013189498505224677
5.252552755478961e-05   -8.064806731368675e-06   -0.00013189498505224677
5.252552755478961e-05   -8.064806731368675e-06   -0.00013189498505224677
5.252552755478961e-05   -8.064806731368675e-06   -0.00013189498505224677
-3.1143670515073755e-06   -4.45116603760916e-06   -4.1330011791340865e-05
-3.1143670515073755e-06   -4.45116603760916e-06   -4.1330011791340865e-05
-3.1143670515073755e-06   -4.45116603760916e-06   -4.1330011791340865e-05
-3.1143670515073755e-06   -4.45116603760916e-06   -4.1330011791340865e-05
2.467042677857477e-05   -7.828921706907067e-06   -8.561134810656566e-05
2.467042677857477e-05   -7.828921706907067e-06   -8.561134810656566e-05
2.467042677857477e-05   -7.828921706907067e-06   -8.561134810656566e-05
2.467042677857477e-05   -7.828921706907067e-06   -8.561134810656566e-05
-3.1143670515073755e-06   -8.064806731368566e-06   -0.00013406316946850235
-3.1143670515073755e-06   -8.064806731368566e-06   -0.00013406316946850235
-3.1143670515073755e-06   -8.064806731368566e-06   -0.00013406316946850235
-3.1143670515073755e-06   -8.064806731368566e-06   -0.00013406316946850235
5.252552755478961e-05   -4.451166037608943e-06   -3.91618273750848e-05
5.252552755478961e-05   -4.451166037608943e-06   -3.91618273750848e-05
5.252552755478961e-05   -4.451166037608943e-06   -3.91618273750848e-05
5.252552755478961e-05   -4.451166037608943e-06   -3.91618273750848e-05
5.275993289065729e-05   -4.296181590723348e-06   -0.00013539538310906966
5.275993289065729e-05   -4.296181590723348e-06   -0.00013539538310906966
5.275993289065729e-05   -4.296181590723348e-06   -0.00013539538310906966
5.275993289065729e-05   -4.296181590723348e-06   -0.00013539538310906966
-3.5319472164470176e-06   -9.604643353864836e-07   -4.357701328376507e-05
-3.5319472164470176e-06   -9.604643353864836e-07   -4.357701328376507e-05
-3.5319472164470176e-06   -9.604643353864836e-07   -4.357701328376507e-05
-3.5319472164470176e-06   -9.604643353864836e-07   -4.357701328376507e-05
2.3908285376605267e-05   -4.750401242157752e-06   -8.703677212812202e-05
2.3908285376605267e-05   -4.750401242157752e-06   -8.703677212812202e-05
2.3908285376605267e-05   -4.750401242157752e-06   -8.703677212812202e-05
2.3908285376605267e-05   -4.750401242157752e-06   -8.703677212812202e-05
-3.5319472164470074e-06   -4.296181590723348e-06   -0.0001373968134622712
-3.5319472164470074e-06   -4.296181590723348e-06   -0.0001373968134622712
-3.5319472164470074e-06   -4.296181590723348e-06   -0.0001373968134622712
-3.5319472164470074e-06   -4.296181590723348e-06   -0.0001373968134622712
5.275993289065729e-05   -9.604643353864836e-07   -4.1575582930562186e-05
5.275993289065729e-05   -9.604643353864836e-07   -4.1575582930562186e-05
5.275993289065729e-05   -9.604643353864836e-07   -4.1575582930562186e-05
5.275993289065729e-05   -9.604643353864836e-07   -4.1575582930562186e-05
5.234403537838697e-05   3.6787315548100167e-07   -0.00013935257540603633
5.234403537838697e-05   3.6787315548100167e-07   -0.00013935257540603633
5.234403537838697e-05   3.6787315548100167e-07   -0.00013935257540603633
5.234403537838697e-05   3.6787315548100167e-07   -0.00013935257540603633
-4.18261446184022e-06   3.1240706604217065e-06   -4.679521084195571e-05
-4.18261446184022e-06   3.1240706604217065e-06   -4.679521084195571e-05
-4.18261446184022e-06   3.1240706604217065e-06   -4.679521084195571e-05
-4.18261446184022e-06   3.1240706604217065e-06   -4.679521084195571e-05
2.363558776277035e-05   -1.4537993979811883e-06   -9.041215918126436e-05
2.363558776277035e-05   -1.4537993979811883e-06   -9.041215918126436e-05
2.363558776277035e-05   -1.4537993979811883e-06   -9.041215918126436e-05
2.363558776277035e-05   -1.4537993979811883e-06   -9.041215918126436e-05
5.2575353488362405e-05   -2.2153679446933845e-05   -7.468658513944923e-05
5.2575353488362405e-05   -2.2153679446933845e-05   -7.468658513944923e-05
5.2575353488362405e-05   -2.2153679446933845e-05   -7.468658513944923e-05
5.2575353488362405e-05   -2.2153679446933845e-05   -7.468658513944923e-05
0.00010425301562562553   -1.4532425445393151e-05   1.6015604156913816e-05
0.00010425301562562553   -1.4532425445393151e-05   1.6015604156913816e-05
0.00010425301562562553   -1.4532425445393151e-05   1.6015604156913816e-05
0.00010425301562562553   -1.4532425445393151e-05   1.6015604156913816e-05
0.00010773313381123384   -2.0114963787794802e-05   -8.410543206807067e-05
0.00010773313381123384   -2.0114963787794802e-05   -8.410543206807067e-05
0.00010773313381123384   -2.0114963787794802e-05   -8.410543206807067e-05
0.00010773313381123384   -2.0114963787794802e-05   -8.410543206807067e-05
5.252552755478953e-05   -1.2492508055132051e-05   3.3337715864057197e-06
5.252552755478953e-05   -1.2492508055132051e-05   3.3337715864057197e-06
5.252552755478953e-05   -1.2492508055132051e-05   3.3337715864057197e-06
5.252552755478953e-05   -1.2492508055132051e-05   3.3337715864057197e-06
7.588319402850696e-05   -1.7119333998740025e-05   -3.281957697029187e-05
7.588319402850696e-05   -1.7119333998740025e-05   -3.281957697029187e-05
7.588319402850696e-05   -1.7119333998740025e-05   -3.281957697029187e-05
7.588319402850696e-05   -1.7119333998740025e-05   -3.281957697029187e-05
5.2525527554789475e-05   -2.0114963787794802e-05   -8.8678905507668e-05
5.2525527554789475e-05   -2.0114963787794802e-05   -8.8678905507668e-05
5.2525527554789475e-05   -2.0114963787794802e-05   -8.8678905507668e-05
5.2525527554789475e-05   -2.0114963787794802e-05   -8.8678905507668e-05
0.00010773313381123384   -1.2492508055132051e-05   7.90724502600375e-06
0.00010773313381123384   -1.2492508055132051e-05   7.90724502600375e-06
0.00010773313381123384   -1.2492508055132051e-05   7.90724502600375e-06
0.00010773313381123384   -1.2492508055132051e-05   7.90724502600375e-06
0.00011040140626592958   -1.794574534997543e-05   -9.48791198966895e-05
0.00011040140626592958   -1.794574534997543e-05   -9.48791198966895e-05
0.00011040140626592958   -1.794574534997543e-05   -9.48791198966895e-05
0.00011040140626592958   -1.794574534997543e-05   -9.48791198966895e-05
5.2759932890657126e-05   -1.0736764424822609e-05   -3.1353861596610812e-06
5.2759932890657126e-05   -1.0736764424822609e-05   -3.1353861596610812e-06
5.2759932890657126e-05   -1.0736764424822609e-05   -3.1353861596610812e-06
5.2759932890657126e-05   -1.0736764424822609e-05   -3.1353861596610812e-06
7.84414079012027e-05   -1.5802591534300366e-05   -4.2898348244883324e-05
7.84414079012027e-05   -1.5802591534300366e-05   -4.2898348244883324e-05
7.84414079012027e-05   -1.5802591534300366e-05   -4.2898348244883324e-05
7.84414079012027e-05   -1.5802591534300366e-05   -4.2898348244883324e-05
5.275993289065721e-05   -1.794574534997543e-05   -9.920450845178131e-05
5.275993289065721e-05   -1.794574534997543e-05   -9.920450845178131e-05
5.275993289065721e-05   -1.794574534997543e-05   -9.920450845178131e-05
5.275993289065721e-05   -1.794574534997543e-05   -9.920450845178131e-05
0.00011040140626592942   -1.0736764424822609e-05   1.1900023954311643e-06
0.00011040140626592942   -1.0736764424822609e-05   1.1900023954311643e-06
0.00011040140626592942   -1.0736764424822609e-05   1.1900023954311643e-06
0.00011040140626592942   -1.0736764424822609e-05   1.1900023954311643e-06
0.00011323920075535538   -1.3276106355597397e-05   -0.00011319446268986158
0.00011323920075535538   -1.3276106355597397e-05   -0.00011319446268986158
0.00011323920075535538   -1.3276106355597397e-05   -0.00011319446268986158
0.00011323920075535538   -1.3276106355597397e-05   -0.00011319446268986158
5.234403537838678e-05   -6.9812186728082475e-06   -1.5479453004587935e-05
5.234403537838678e-05   -6.9812186728082475e-06   -1.5479453004587935e-05
5.234403537838678e-05   -6.9812186728082475e-06   -1.5479453004587935e-05
5.234403537838678e-05   -6.9812186728082475e-06   -1.5479453004587935e-05
7.808620213957064e-05   -1.3620985819420449e-05   -5.4399203985259896e-05
7.808620213957064e-05   -1.3620985819420449e-05   -5.4399203985259896e-05
7.808620213957064e-05   -1.3620985819420449e-05   -5.4399203985259896e-05
7.808620213957064e-05   -1.3620985819420449e-05   -5.4399203985259896e-05
-0.00012517871387003577   1.9171534590421094e-05   -9.509224525971441e-05
-0.00012517871387003577   1.9171534590421094e-05   -9.509224525971441e-05
-0.00012517871387003577   1.9171534590421094e-05   -9.509224525971441e-05
-0.00012517871387003577   1.9171534590421094e-05   -9.509224525971441e-05
-8.514874592578138e-05   1.2216792249025287e-05   -3.254847742412809e-05
-8.514874592578138e-05   1.2216792249025287e-05   -3.254847742412809e-05
-8.514874592578138e-05   1.2216792249025287e-05   -3.254847742412809e-05
-8.514874592578138e-05   1.2216792249025287e-05   -3.254847742412809e-05
-8.484047484499165e-05   2.3179689922579044e-05   -8.078066430799178e-05
-8.484047484499165e-05   2.3179689922579044e-05   -8.078066430799178e-05
-8.484047484499165e-05   2.3179689922579044e-05   -8.078066430799178e-05
-8.484047484499165e-05   2.3179689922579044e-05   -8.078066430799178e-05
-0.0001214549495413389   1.5539256264040548e-05   -1.5172279618956173e-05
-0.0001214549495413389   1.5539256264040548e-05   -1.5172279618956173e-05
-0.0001214549495413389   1.5539256264040548e-05   -1.5172279618956173e-05
-0.0001214549495413389   1.5539256264040548e-05   -1.5172279618956173e-05
-9.973746640374182e-05   1.8457129844680516e-05   -5.311880899666892e-05
-9.973746640374182e-05   1.8457129844680516e-05   -5.311880899666892e-05
-9.973746640374182e-05   1.8457129844680516e-05   -5.311880899666892e-05
-9.973746640374182e-05   1.8457129844680516e-05   -5.311880899666892e-05
-0.0001214549495413389   2.3179689922579044e-05   -7.619640411286877e-05
-0.0001214549495413389   2.3179689922579044e-05   -7.619640411286877e-05
-0.0001214549495413389   2.3179689922579044e-05   -7.619640411286877e-05
-0.0001214549495413389   2.3179689922579044e-05   -7.619640411286877e-05
-8.484047484499181e-05   1.5539256264040548e-05   -1.975653981407951e-05
-8.484047484499181e-05   1.5539256264040548e-05   -1.975653981407951e-05
-8.484047484499181e-05   1.5539256264040548e-05   -1.975653981407951e-05
-8.484047484499181e-05   1.5539256264040548e-05   -1.975653981407951e-05
-8.419819567158691e-05   2.4938561544025645e-05   -7.043890854008337e-05
-8.419819567158691e-05   2.4938561544025645e-05   -7.043890854008337e-05
-8.419819567158691e-05   2.4938561544025645e-05   -7.043890854008337e-05
-8.419819567158691e-05   2.4938561544025645e-05   -7.043890854008337e-05
-0.00011866778213030088   1.708442614165636e-05   -8.277116534138353e-06
-0.00011866778213030088   1.708442614165636e-05   -8.277116534138353e-06
-0.00011866778213030088   1.708442614165636e-05   -8.277116534138353e-06
-0.00011866778213030088   1.708442614165636e-05   -8.277116534138353e-06
-9.974980833940032e-05   2.031047130211577e-05   -4.1742699948581945e-05
-9.974980833940032e-05   2.031047130211577e-05   -4.1742699948581945e-05
-9.974980833940032e-05   2.031047130211577e-05   -4.1742699948581945e-05
-9.974980833940032e-05   2.031047130211577e-05   -4.1742699948581945e-05
-0.00011866778213030088   2.4938561544025645e-05   -6.572642729866162e-05
-0.00011866778213030088   2.4938561544025645e-05   -6.572642729866162e-05
-0.00011866778213030088   2.4938561544025645e-05   -6.572642729866162e-05
-0.00011866778213030088   2.4938561544025645e-05   -6.572642729866162e-05
-8.419819567158707e-05   1.708442614165636e-05   -1.2989597775559772e-05
-8.419819567158707e-05   1.708442614165636e-05   -1.2989597775559772e-05
-8.419819567158707e-05   1.708442614165636e-05   -1.2989597775559772e-05
-8.419819567158707e-05   1.708442614165636e-05   -1.2989597775559772e-05
-8.393876881036876e-05   2.6662784274978073e-05   -5.611259598999529e-05
-8.393876881036876e-05   2.6662784274978073e-05   -5.611259598999529e-05
-8.393876881036876e-05   2.6662784274978073e-05   -5.611259598999529e-05
-8.393876881036876e-05   2.6662784274978073e-05   -5.611259598999529e-05
-0.00011501687456109803   1.90230682221835e-05   2.6807655956390987e-07
-0.00011501687456109803   1.90230682221835e-05   2.6807655956390987e-07
-0.00011501687456109803   1.90230682221835e-05   2.6807655956390987e-07
-0.00011501687456109803   1.90230682221835e-05   2.6807655956390987e-07
-9.680222586697554e-05   2.1309283435170254e-05   -3.146140039176574e-05
-9.680222586697554e-05   2.1309283435170254e-05   -3.146140039176574e-05
-9.680222586697554e-05   2.1309283435170254e-05   -3.146140039176574e-05
-9.680222586697554e-05   2.1309283435170254e-05   -3.146140039176574e-05
-8.514874592578127e-05   9.550888100433134e-06   -0.00012098772709975597
-8.514874592578127e-05   9.550888100433134e-06   -0.00012098772709975597
-8.514874592578127e-05   9.550888100433134e-06   -0.00012098772709975597
-8.514874592578127e-05   9.550888100433134e-06   -0.00012098772709975597
-4.8891727294799164e-05   6.302229376098541e-06   -6.250855794938696e-05
-4.8891727294799164e-05   6.302229376098541e-06   -6.250855794938696e-05
-4.8891727294799164e-05   6.302229376098541e-06   -6.250855794938696e-05
-4.8891727294799164e-05   6.302229376098541e-06   -6.250855794938696e-05
-4.8914656324938055e-05   1.3491038708878574e-05   -0.00011995577172321369
-4.8914656324938055e-05   1.3491038708878574e-05   -0.00011995577172321369
-4.8914656324938055e-05   1.3491038708878574e-05   -0.00011995577172321369
-4.8914656324938055e-05   1.3491038708878574e-05   -0.00011995577172321369
-8.484047484499165e-05   9.80789041688749e-06   -5.786951854792931e-05
-8.484047484499165e-05   9.80789041688749e-06   -5.786951854792931e-05
-8.484047484499165e-05   9.80789041688749e-06   -5.786951854792931e-05
-8.484047484499165e-05   9.80789041688749e-06   -5.786951854792931e-05
-6.633234777303476e-05   1.0438278017538879e-05   -8.909462956158197e-05
-6.633234777303476e-05   1.0438278017538879e-05   -8.909462956158197e-05
-6.633234777303476e-05   1.0438278017538879e-05   -8.909462956158197e-05
-6.633234777303476e-05   1.0438278017538879e-05   -8.909462956158197e-05
-8.48404748449916e-05   1.3491038708878574e-05   -0.00011774588274801807
-8.48404748449916e-05   1.3491038708878574e-05   -0.00011774588274801807
-8.48404748449916e-05   1.3491038708878574e-05   -0.00011774588274801807
-8.48404748449916e-05   1.3491038708878574e-05   -0.00011774588274801807
-4.8914656324938055e-05   9.80789041688749e-06   -6.007940752312418e-05
-4.8914656324938055e-05   9.80789041688749e-06   -6.007940752312418e-05
-4.8914656324938055e-05   9.80789041688749e-06   -6.007940752312418e-05
-4.8914656324938055e-05   9.80789041688749e-06   -6.007940752312418e-05
-4.887722227523851e-05   1.698882667074109e-05   -0.00011726637605652358
-4.887722227523851e-05   1.698882667074109e-05   -0.00011726637605652358
-4.887722227523851e-05   1.698882667074109e-05   -0.00011726637605652358
-4.887722227523851e-05   1.698882667074109e-05   -0.00011726637605652358
-8.419819567158691e-05   1.2994956887027193e-05   -5.600176519238132e-05
-8.419819567158691e-05   1.2994956887027193e-05   -5.600176519238132e-05
-8.419819567158691e-05   1.2994956887027193e-05   -5.600176519238132e-05
-8.419819567158691e-05   1.2994956887027193e-05   -5.600176519238132e-05
-6.602186245490762e-05   1.331456019603534e-05   -8.648741587225102e-05
-6.602186245490762e-05   1.331456019603534e-05   -8.648741587225102e-05
-6.602186245490762e-05   1.331456019603534e-05   -8.648741587225102e-05
-6.602186245490762e-05   1.331456019603534e-05   -8.648741587225102e-05
-8.419819567158691e-05   1.698882667074109e-05   -0.0001148700541862952
-8.419819567158691e-05   1.698882667074109e-05   -0.0001148700541862952
-8.419819567158691e-05   1.698882667074109e-05   -0.0001148700541862952
-8.419819567158691e-05   1.698882667074109e-05   -0.0001148700541862952
-4.887722227523862e-05   1.2994956887027193e-05   -5.839808706260943e-05
-4.887722227523862e-05   1.2994956887027193e-05   -5.839808706260943e-05
-4.887722227523862e-05   1.2994956887027193e-05   -5.839808706260943e-05
-4.887722227523862e-05   1.2994956887027193e-05   -5.839808706260943e-05
-4.8914446426101814e-05   2.0706735533322727e-05   -0.00011773804812340201
-4.8914446426101814e-05   2.0706735533322727e-05   -0.00011773804812340201
-4.8914446426101814e-05   2.0706735533322727e-05   -0.00011773804812340201
-4.8914446426101814e-05   2.0706735533322727e-05   -0.00011773804812340201
-8.393876881036886e-05   1.645388380058354e-05   -5.681246644331328e-05
-8.393876881036886e-05   1.645388380058354e-05   -5.681246644331328e-05
-8.393876881036886e-05   1.645388380058354e-05   -5.681246644331328e-05
-8.393876881036886e-05   1.645388380058354e-05   -5.681246644331328e-05
-6.644805007975039e-05   1.615703346251546e-05   -8.578555412483641e-05
-6.644805007975039e-05   1.615703346251546e-05   -8.578555412483641e-05
-6.644805007975039e-05   1.615703346251546e-05   -8.578555412483641e-05
-6.644805007975039e-05   1.615703346251546e-05   -8.578555412483641e-05
-4.889172729479908e-05   5.067977632553563e-07   -0.00013349234785154274
-4.889172729479908e-05   5.067977632553563e-07   -0.00013349234785154274
-4.889172729479908e-05   5.067977632553563e-07   -0.00013349234785154274
-4.889172729479908e-05   5.067977632553563e-07   -0.00013349234785154274
-1.3151274271952282e-05   1.0763665554318694e-06   -7.358318487149214e-05
-1.3151274271952282e-05   1.0763665554318694e-06   -7.358318487149214e-05
-1.3151274271952282e-05   1.0763665554318694e-06   -7.358318487149214e-05
-1.3151274271952282e-05   1.0763665554318694e-06   -7.358318487149214e-05
-1.317485734870069e-05   4.382827043932945e-06   -0.00013202780606722865
-1.317485734870069e-05   4.382827043932945e-06   -0.00013202780606722865
-1.317485734870069e-05   4.382827043932945e-06   -0.00013202780606722865
-1.317485734870069e-05   4.382827043932945e-06   -0.00013202780606722865
-4.8914656324937946e-05   4.5980696645143634e-06   -7.259062001251538e-05
-4.8914656324937946e-05   4.5980696645143634e-06   -7.259062001251538e-05
-4.8914656324937946e-05   4.5980696645143634e-06   -7.259062001251538e-05
-4.8914656324937946e-05   4.5980696645143634e-06   -7.259062001251538e-05
-3.0827665289178445e-05   3.0940776889355065e-06   -0.00010183320988676705
-3.0827665289178445e-05   3.0940776889355065e-06   -0.00010183320988676705
-3.0827665289178445e-05   3.0940776889355065e-06   -0.00010183320988676705
-3.0827665289178445e-05   3.0940776889355065e-06   -0.00010183320988676705
-4.8914656324937946e-05   4.382827043932945e-06   -0.0001321569516395775
-4.8914656324937946e-05   4.382827043932945e-06   -0.0001321569516395775
-4.8914656324937946e-05   4.382827043932945e-06   -0.0001321569516395775
-4.8914656324937946e-05   4.382827043932945e-06   -0.0001321569516395775
-1.317485734870069e-05   4.5980696645143634e-06   -7.246147444016642e-05
-1.317485734870069e-05   4.5980696645143634e-06   -7.246147444016642e-05
-1.317485734870069e-05   4.5980696645143634e-06   -7.246147444016642e-05
-1.317485734870069e-05   4.5980696645143634e-06   -7.246147444016642e-05
-1.3126875830257044e-05   8.247051145649636e-06   -0.0001323673746502249
-1.3126875830257044e-05   8.247051145649636e-06   -0.0001323673746502249
-1.3126875830257044e-05   8.247051145649636e-06   -0.0001323673746502249
-1.3126875830257044e-05   8.247051145649636e-06   -0.0001323673746502249
-4.887722227523851e-05   8.130984254667208e-06   -7.271382377399983e-05
-4.887722227523851e-05   8.130984254667208e-06   -7.271382377399983e-05
-4.887722227523851e-05   8.130984254667208e-06   -7.271382377399983e-05
-4.887722227523851e-05   8.130984254667208e-06   -7.271382377399983e-05
-3.103283353521447e-05   6.173107301521126e-06   -0.00010127974550215213
-3.103283353521447e-05   6.173107301521126e-06   -0.00010127974550215213
-3.103283353521447e-05   6.173107301521126e-06   -0.00010127974550215213
-3.103283353521447e-05   6.173107301521126e-06   -0.00010127974550215213
-4.887722227523851e-05   8.247051145649636e-06   -0.00013229773451563578
-4.887722227523851e-05   8.247051145649636e-06   -0.00013229773451563578
-4.887722227523851e-05   8.247051145649636e-06   -0.00013229773451563578
-4.887722227523851e-05   8.247051145649636e-06   -0.00013229773451563578
-1.3126875830257066e-05   8.130984254667642e-06   -7.278346390858872e-05
-1.3126875830257066e-05   8.130984254667642e-06   -7.278346390858872e-05
-1.3126875830257066e-05   8.130984254667642e-06   -7.278346390858872e-05
-1.3126875830257066e-05   8.130984254667642e-06   -7.278346390858872e-05
-1.3146986292245862e-05   1.2201379754091767e-05   -0.0001343702916543324
-1.3146986292245862e-05   1.2201379754091767e-05   -0.0001343702916543324
-1.3146986292245862e-05   1.2201379754091767e-05   -0.0001343702916543324
-1.3146986292245862e-05   1.2201379754091767e-05   -0.0001343702916543324
-4.891444642610179e-05   1.1725670038473246e-05   -7.447243226853413e-05
-4.891444642610179e-05   1.1725670038473246e-05   -7.447243226853413e-05
-4.891444642610179e-05   1.1725670038473246e-05   -7.447243226853413e-05
-4.891444642610179e-05   1.1725670038473246e-05   -7.447243226853413e-05
-3.1298471087382425e-05   9.292547844401942e-06   -0.00010237251784995724
-3.1298471087382425e-05   9.292547844401942e-06   -0.00010237251784995724
-3.1298471087382425e-05   9.292547844401942e-06   -0.00010237251784995724
-3.1298471087382425e-05   9.292547844401942e-06   -0.00010237251784995724
-1.3151274271952258e-05   -8.00055618703087e-06   -0.0001182287050139725
-1.3151274271952258e-05   -8.00055618703087e-06   -0.0001182287050139725
-1.3151274271952258e-05   -8.00055618703087e-06   -0.0001182287050139725
-1.3151274271952258e-05   -8.00055618703087e-06   -0.0001182287050139725
2.2088638414677347e-05   -3.705348516757235e-06   -5.69183926007594e-05
2.2088638414677347e-05   -3.705348516757235e-06   -5.69183926007594e-05
2.2088638414677347e-05   -3.705348516757235e-06   -5.69183926007594e-05
2.2088638414677347e-05   -3.705348516757235e-06   -5.69183926007594e-05
2.2377073843860842e-05   -4.45116603760916e-06   -0.00011555561409090241
2.2377073843860842e-05   -4.45116603760916e-06   -0.00011555561409090241
2.2377073843860842e-05   -4.45116603760916e-06   -0.00011555561409090241
2.2377073843860842e-05   -4.45116603760916e-06   -0.00011555561409090241
-1.317485734870069e-05   -3.912738340376698e-07   -5.873833075877606e-05
-1.317485734870069e-05   -3.912738340376698e-07   -5.873833075877606e-05
-1.317485734870069e-05   -3.912738340376698e-07   -5.873833075877606e-05
-1.317485734870069e-05   -3.912738340376698e-07   -5.873833075877606e-05
4.5528333461015596e-06   -3.8314341212816044e-06   -8.622038574443346e-05
4.5528333461015596e-06   -3.8314341212816044e-06   -8.622038574443346e-05
4.5528333461015596e-06   -3.8314341212816044e-06   -8.622038574443346e-05
4.5528333461015596e-06   -3.8314341212816044e-06   -8.622038574443346e-05
-1.317485734870069e-05   -4.45116603760916e-06   -0.00011799154941304535
-1.317485734870069e-05   -4.45116603760916e-06   -0.00011799154941304535
-1.317485734870069e-05   -4.45116603760916e-06   -0.00011799154941304535
-1.317485734870069e-05   -4.45116603760916e-06   -0.00011799154941304535
2.2377073843860896e-05   -3.912738340381035e-07   -5.630239543663357e-05
2.2377073843860896e-05   -3.912738340381035e-07   -5.630239543663357e-05
2.2377073843860896e-05   -3.912738340381035e-07   -5.630239543663357e-05
2.2377073843860896e-05   -3.912738340381035e-07   -5.630239543663357e-05
2.3051964520775646e-05   -9.604643353862668e-07   -0.00011799643191732503
2.3051964520775646e-05   -9.604643353862668e-07   -0.00011799643191732503
2.3051964520775646e-05   -9.604643353862668e-07   -0.00011799643191732503
2.3051964520775646e-05   -9.604643353862668e-07   -0.00011799643191732503
-1.3126875830257066e-05   2.7997754344136726e-06   -5.995450852748362e-05
-1.3126875830257066e-05   2.7997754344136726e-06   -5.995450852748362e-05
-1.3126875830257066e-05   2.7997754344136726e-06   -5.995450852748362e-05
-1.3126875830257066e-05   2.7997754344136726e-06   -5.995450852748362e-05
4.350048793471514e-06   -1.075148405158509e-06   -8.675776192995456e-05
4.350048793471514e-06   -1.075148405158509e-06   -8.675776192995456e-05
4.350048793471514e-06   -1.075148405158509e-06   -8.675776192995456e-05
4.350048793471514e-06   -1.075148405158509e-06   -8.675776192995456e-05
-1.3126875830257056e-05   -9.604643353864836e-07   -0.00012025257577920464
-1.3126875830257056e-05   -9.604643353864836e-07   -0.00012025257577920464
-1.3126875830257056e-05   -9.604643353864836e-07   -0.00012025257577920464
-1.3126875830257056e-05   -9.604643353864836e-07   -0.00012025257577920464
2.3051964520775782e-05   2.7997754344136726e-06   -5.769836466560361e-05
2.3051964520775782e-05   2.7997754344136726e-06   -5.769836466560361e-05
2.3051964520775782e-05   2.7997754344136726e-06   -5.769836466560361e-05
2.3051964520775782e-05   2.7997754344136726e-06   -5.769836466560361e-05
2.3381020437901343e-05   3.1240706604214897e-06   -0.000121476110008856
2.3381020437901343e-05   3.1240706604214897e-06   -0.000121476110008856
2.3381020437901343e-05   3.1240706604214897e-06   -0.000121476110008856
2.3381020437901343e-05   3.1240706604214897e-06   -0.000121476110008856
-1.3146986292245838e-05   6.460289995614127e-06   -6.259783039305931e-05
-1.3146986292245838e-05   6.460289995614127e-06   -6.259783039305931e-05
-1.3146986292245838e-05   6.460289995614127e-06   -6.259783039305931e-05
-1.3146986292245838e-05   6.460289995614127e-06   -6.259783039305931e-05
4.474000852183971e-06   1.8762786701364935e-06   -8.921573550515539e-05
4.474000852183971e-06   1.8762786701364935e-06   -8.921573550515539e-05
4.474000852183971e-06   1.8762786701364935e-06   -8.921573550515539e-05
4.474000852183971e-06   1.8762786701364935e-06   -8.921573550515539e-05
2.208863841467732e-05   -1.4532425445393151e-05   -6.500261104415829e-05
2.208863841467732e-05   -1.4532425445393151e-05   -6.500261104415829e-05
2.208863841467732e-05   -1.4532425445393151e-05   -6.500261104415829e-05
2.208863841467732e-05   -1.4532425445393151e-05   -6.500261104415829e-05
5.34597093031124e-05   -6.826095045546661e-06   -8.09369465685876e-06
5.34597093031124e-05   -6.826095045546661e-06   -8.09369465685876e-06
5.34597093031124e-05   -6.826095045546661e-06   -8.09369465685876e-06
5.34597093031124e-05   -6.826095045546661e-06   -8.09369465685876e-06
5.715981071535795e-05   -1.2492508055132051e-05   -6.831569397086455e-05
5.715981071535795e-05   -1.2492508055132051e-05   -6.831569397086455e-05
5.715981071535795e-05   -1.2492508055132051e-05   -6.831569397086455e-05
5.715981071535795e-05   -1.2492508055132051e-05   -6.831569397086455e-05
2.237707384386087e-05   -4.5853061242202495e-06   -1.5088787010249791e-05
2.237707384386087e-05   -4.5853061242202495e-06   -1.5088787010249791e-05
2.237707384386087e-05   -4.5853061242202495e-06   -1.5088787010249791e-05
2.237707384386087e-05   -4.5853061242202495e-06   -1.5088787010249791e-05
3.711814700331708e-05   -9.312042628905216e-06   -3.6821200373199185e-05
3.711814700331708e-05   -9.312042628905216e-06   -3.6821200373199185e-05
3.711814700331708e-05   -9.312042628905216e-06   -3.6821200373199185e-05
3.711814700331708e-05   -9.312042628905216e-06   -3.6821200373199185e-05
2.237707384386087e-05   -1.2492508055132051e-05   -7.306001512941108e-05
2.237707384386087e-05   -1.2492508055132051e-05   -7.306001512941108e-05
2.237707384386087e-05   -1.2492508055132051e-05   -7.306001512941108e-05
2.237707384386087e-05   -1.2492508055132051e-05   -7.306001512941108e-05
5.715981071535779e-05   -4.585306124219816e-06   -1.0344465851702504e-05
5.715981071535779e-05   -4.585306124219816e-06   -1.0344465851702504e-05
5.715981071535779e-05   -4.585306124219816e-06   -1.0344465851702504e-05
5.715981071535779e-05   -4.585306124219816e-06   -1.0344465851702504e-05
6.000473983118677e-05   -1.0736764424822609e-05   -7.493509015913313e-05
6.000473983118677e-05   -1.0736764424822609e-05   -7.493509015913313e-05
6.000473983118677e-05   -1.0736764424822609e-05   -7.493509015913313e-05
6.000473983118677e-05   -1.0736764424822609e-05   -7.493509015913313e-05
2.3051964520775782e-05   -3.034856112671923e-06   -1.7968276295738555e-05
2.3051964520775782e-05   -3.034856112671923e-06   -1.7968276295738555e-05
2.3051964520775782e-05   -3.034856112671923e-06   -1.7968276295738555e-05
2.3051964520775782e-05   -3.034856112671923e-06   -1.7968276295738555e-05
3.9385781387780777e-05   -8.16296140434842e-06   -4.211444123240716e-05
3.9385781387780777e-05   -8.16296140434842e-06   -4.211444123240716e-05
3.9385781387780777e-05   -8.16296140434842e-06   -4.211444123240716e-05
3.9385781387780777e-05   -8.16296140434842e-06   -4.211444123240716e-05
2.30519645207757e-05   -1.0736764424822609e-05   -7.955623514642311e-05
2.30519645207757e-05   -1.0736764424822609e-05   -7.955623514642311e-05
2.30519645207757e-05   -1.0736764424822609e-05   -7.955623514642311e-05
2.30519645207757e-05   -1.0736764424822609e-05   -7.955623514642311e-05
6.000473983118655e-05   -3.034856112671923e-06   -1.3347131308447547e-05
6.000473983118655e-05   -3.034856112671923e-06   -1.3347131308447547e-05
6.000473983118655e-05   -3.034856112671923e-06   -1.3347131308447547e-05
6.000473983118655e-05   -3.034856112671923e-06   -1.3347131308447547e-05
6.378110909286382e-05   -6.981218672808031e-06   -8.761352359233215e-05
6.378110909286382e-05   -6.981218672808031e-06   -8.761352359233215e-05
6.378110909286382e-05   -6.981218672808031e-06   -8.761352359233215e-05
6.378110909286382e-05   -6.981218672808031e-06   -8.761352359233215e-05
2.338102043790137e-05   1.9693130726399638e-08   -2.4480589582848318e-05
2.338102043790137e-05   1.9693130726399638e-08   -2.4480589582848318e-05
2.338102043790137e-05   1.9693130726399638e-08   -2.4480589582848318e-05
2.338102043790137e-05   1.9693130726399638e-08   -2.4480589582848318e-05
4.01300181242322e-05   -6.444180024329192e-06   -4.851726183369978e-05
4.01300181242322e-05   -6.444180024329192e-06   -4.851726183369978e-05
4.01300181242322e-05   -6.444180024329192e-06   -4.851726183369978e-05
4.01300181242322e-05   -6.444180024329192e-06   -4.851726183369978e-05
-7.596443893000137e-05   1.2216792249024853e-05   -7.106452528230422e-05
-7.596443893000137e-05   1.2216792249024853e-05   -7.106452528230422e-05
-7.596443893000137e-05   1.2216792249024853e-05   -7.106452528230422e-05
-7.596443893000137e-05   1.2216792249024853e-05   -7.106452528230422e-05
-5.59828897021519e-05   4.995513248688601e-06   -4.209471063609067e-05
-5.59828897021519e-05   4.995513248688601e-06   -4.209471063609067e-05
-5.59828897021519e-05   4.995513248688601e-06   -4.209471063609067e-05
-5.59828897021519e-05   4.995513248688601e-06   -4.209471063609067e-05
-5.5153523642379625e-05   1.5539256264040548e-05   -6.269106096550361e-05
-5.5153523642379625e-05   1.5539256264040548e-05   -6.269106096550361e-05
-5.5153523642379625e-05   1.5539256264040548e-05   -6.269106096550361e-05
-5.5153523642379625e-05   1.5539256264040548e-05   -6.269106096550361e-05
-7.185003183162353e-05   7.763998161001377e-06   -3.01983924549398e-05
-7.185003183162353e-05   7.763998161001377e-06   -3.01983924549398e-05
-7.185003183162353e-05   7.763998161001377e-06   -3.01983924549398e-05
-7.185003183162353e-05   7.763998161001377e-06   -3.01983924549398e-05
-6.199459995637235e-05   1.095485193770276e-05   -4.853862451304879e-05
-6.199459995637235e-05   1.095485193770276e-05   -4.853862451304879e-05
-6.199459995637235e-05   1.095485193770276e-05   -4.853862451304879e-05
-6.199459995637235e-05   1.095485193770276e-05   -4.853862451304879e-05
-7.185003183162353e-05   1.5539256264040548e-05   -5.802590610368033e-05
-7.185003183162353e-05   1.5539256264040548e-05   -5.802590610368033e-05
-7.185003183162353e-05   1.5539256264040548e-05   -5.802590610368033e-05
-7.185003183162353e-05   1.5539256264040548e-05   -5.802590610368033e-05
-5.5153523642379734e-05   7.76399816100181e-06   -3.486354731676352e-05
-5.5153523642379734e-05   7.76399816100181e-06   -3.486354731676352e-05
-5.5153523642379734e-05   7.76399816100181e-06   -3.486354731676352e-05
-5.5153523642379734e-05   7.76399816100181e-06   -3.486354731676352e-05
-5.3971657997721944e-05   1.708442614165636e-05   -5.598223720935155e-05
-5.3971657997721944e-05   1.708442614165636e-05   -5.598223720935155e-05
-5.3971657997721944e-05   1.708442614165636e-05   -5.598223720935155e-05
-5.3971657997721944e-05   1.708442614165636e-05   -5.598223720935155e-05
-6.856276999105593e-05   9.159445955251363e-06   -2.6908729108618716e-05
-6.856276999105593e-05   9.159445955251363e-06   -2.6908729108618716e-05
-6.856276999105593e-05   9.159445955251363e-06   -2.6908729108618716e-05
-6.856276999105593e-05   9.159445955251363e-06   -2.6908729108618716e-05
-6.090652476642677e-05   1.24473426474387e-05   -4.1641875831646604e-05
-6.090652476642677e-05   1.24473426474387e-05   -4.1641875831646604e-05
-6.090652476642677e-05   1.24473426474387e-05   -4.1641875831646604e-05
-6.090652476642677e-05   1.24473426474387e-05   -4.1641875831646604e-05
-6.856276999105593e-05   1.708442614165636e-05   -5.122724909750894e-05
-6.856276999105593e-05   1.708442614165636e-05   -5.122724909750894e-05
-6.856276999105593e-05   1.708442614165636e-05   -5.122724909750894e-05
-6.856276999105593e-05   1.708442614165636e-05   -5.122724909750894e-05
-5.397165799772205e-05   9.159445955251363e-06   -3.166371722046154e-05
-5.397165799772205e-05   9.159445955251363e-06   -3.166371722046154e-05
-5.397165799772205e-05   9.159445955251363e-06   -3.166371722046154e-05
-5.397165799772205e-05   9.159445955251363e-06   -3.166371722046154e-05
-5.316166540450865e-05   1.90230682221835e-05   -4.736852467062888e-05
-5.316166540450865e-05   1.90230682221835e-05   -4.736852467062888e-05
-5.316166540450865e-05   1.90230682221835e-05   -4.736852467062888e-05
-5.316166540450865e-05   1.90230682221835e-05   -4.736852467062888e-05
-6.437560909887678e-05   1.1368261046610425e-05   -2.4085734208003718e-05
-6.437560909887678e-05   1.1368261046610425e-05   -2.4085734208003718e-05
-6.437560909887678e-05   1.1368261046610425e-05   -2.4085734208003718e-05
-6.437560909887678e-05   1.1368261046610425e-05   -2.4085734208003718e-05
-5.805690844841541e-05   1.3476825178299935e-05   -3.58820404377882e-05
-5.805690844841541e-05   1.3476825178299935e-05   -3.58820404377882e-05
-5.805690844841541e-05   1.3476825178299935e-05   -3.58820404377882e-05
-5.805690844841541e-05   1.3476825178299935e-05   -3.58820404377882e-05
-5.59828897021519e-05   6.302229376098541e-06   -0.00010340817797316435
-5.59828897021519e-05   6.302229376098541e-06   -0.00010340817797316435
-5.59828897021519e-05   6.302229376098541e-06   -0.00010340817797316435
-5.59828897021519e-05   6.302229376098541e-06   -0.00010340817797316435
-3.9760737115742426e-05   2.8500426774843643e-06   -7.844256901498353e-05
-3.9760737115742426e-05   2.8500426774843643e-06   -7.844256901498353e-05
-3.9760737115742426e-05   2.8500426774843643e-06   -7.844256901498353e-05
-3.9760737115742426e-05   2.8500426774843643e-06   -7.844256901498353e-05
-3.921359872675808e-05   9.80789041688749e-06   -0.00010307514088157051
-3.921359872675808e-05   9.80789041688749e-06   -0.00010307514088157051
-3.921359872675808e-05   9.80789041688749e-06   -0.00010307514088157051
-3.921359872675808e-05   9.80789041688749e-06   -0.00010307514088157051
-5.515352364237984e-05   6.0227217798594634e-06   -7.423749817331673e-05
-5.515352364237984e-05   6.0227217798594634e-06   -7.423749817331673e-05
-5.515352364237984e-05   6.0227217798594634e-06   -7.423749817331673e-05
-5.515352364237984e-05   6.0227217798594634e-06   -7.423749817331673e-05
-4.706449091759432e-05   6.849942759316972e-06   -8.821555196896944e-05
-4.706449091759432e-05   6.849942759316972e-06   -8.821555196896944e-05
-4.706449091759432e-05   6.849942759316972e-06   -8.821555196896944e-05
-4.706449091759432e-05   6.849942759316972e-06   -8.821555196896944e-05
-5.5153523642379625e-05   9.80789041688749e-06   -0.00010080403969935287
-5.5153523642379625e-05   9.80789041688749e-06   -0.00010080403969935287
-5.5153523642379625e-05   9.80789041688749e-06   -0.00010080403969935287
-5.5153523642379625e-05   9.80789041688749e-06   -0.00010080403969935287
-3.921359872675808e-05   6.0227217798594634e-06   -7.650859935553372e-05
-3.921359872675808e-05   6.0227217798594634e-06   -7.650859935553372e-05
-3.921359872675808e-05   6.0227217798594634e-06   -7.650859935553372e-05
-3.921359872675808e-05   6.0227217798594634e-06   -7.650859935553372e-05
-3.860989480888703e-05   1.299495688702676e-05   -0.00010140936794393596
-3.860989480888703e-05   1.299495688702676e-05   -0.00010140936794393596
-3.860989480888703e-05   1.299495688702676e-05   -0.00010140936794393596
-3.860989480888703e-05   1.299495688702676e-05   -0.00010140936794393596
-5.397165799772216e-05   8.970018024089671e-06   -7.339146597811429e-05
-5.397165799772216e-05   8.970018024089671e-06   -7.339146597811429e-05
-5.397165799772216e-05   8.970018024089671e-06   -7.339146597811429e-05
-5.397165799772216e-05   8.970018024089671e-06   -7.339146597811429e-05
-4.634714568227863e-05   9.412084716598195e-06   -8.636422651935797e-05
-4.634714568227863e-05   9.412084716598195e-06   -8.636422651935797e-05
-4.634714568227863e-05   9.412084716598195e-06   -8.636422651935797e-05
-4.634714568227863e-05   9.412084716598195e-06   -8.636422651935797e-05
-5.3971657997721944e-05   1.2994956887027193e-05   -9.899440462617288e-05
-5.3971657997721944e-05   1.2994956887027193e-05   -9.899440462617288e-05
-5.3971657997721944e-05   1.2994956887027193e-05   -9.899440462617288e-05
-5.3971657997721944e-05   1.2994956887027193e-05   -9.899440462617288e-05
-3.8609894808886976e-05   8.970018024089671e-06   -7.58064292958765e-05
-3.8609894808886976e-05   8.970018024089671e-06   -7.58064292958765e-05
-3.8609894808886976e-05   8.970018024089671e-06   -7.58064292958765e-05
-3.8609894808886976e-05   8.970018024089671e-06   -7.58064292958765e-05
-3.80714132955661e-05   1.645388380058354e-05   -0.00010239222852672899
-3.80714132955661e-05   1.645388380058354e-05   -0.00010239222852672899
-3.80714132955661e-05   1.645388380058354e-05   -0.00010239222852672899
-3.80714132955661e-05   1.645388380058354e-05   -0.00010239222852672899
-5.3161665404508865e-05   1.2242232992417008e-05   -7.471481786025644e-05
-5.3161665404508865e-05   1.2242232992417008e-05   -7.471481786025644e-05
-5.3161665404508865e-05   1.2242232992417008e-05   -7.471481786025644e-05
-5.3161665404508865e-05   1.2242232992417008e-05   -7.471481786025644e-05
-4.6061590183590765e-05   1.2004163029304387e-05   -8.640543458392051e-05
-4.6061590183590765e-05   1.2004163029304387e-05   -8.640543458392051e-05
-4.6061590183590765e-05   1.2004163029304387e-05   -8.640543458392051e-05
-4.6061590183590765e-05   1.2004163029304387e-05   -8.640543458392051e-05
-3.976073711574232e-05   1.076366555432303e-06   -0.00011689585818974398
-3.976073711574232e-05   1.076366555432303e-06   -0.00011689585818974398
-3.976073711574232e-05   1.076366555432303e-06   -0.00011689585818974398
-3.976073711574232e-05   1.076366555432303e-06   -0.00011689585818974398
-2.3964170867183242e-05   1.621506435766848e-06   -9.024116384727843e-05
-2.3964170867183242e-05   1.621506435766848e-06   -9.024116384727843e-05
-2.3964170867183242e-05   1.621506435766848e-06   -9.024116384727843e-05
-2.3964170867183242e-05   1.621506435766848e-06   -9.024116384727843e-05
-2.3429965898719503e-05   4.5980696645143634e-06   -0.00011543531607004806
-2.3429965898719503e-05   4.5980696645143634e-06   -0.00011543531607004806
-2.3429965898719503e-05   4.5980696645143634e-06   -0.00011543531607004806
-2.3429965898719503e-05   4.5980696645143634e-06   -0.00011543531607004806
-3.921359872675808e-05   4.8497984993720045e-06   -8.928029865756364e-05
-3.921359872675808e-05   4.8497984993720045e-06   -8.928029865756364e-05
-3.921359872675808e-05   4.8497984993720045e-06   -8.928029865756364e-05
-3.921359872675808e-05   4.8497984993720045e-06   -8.928029865756364e-05
-3.139005149796431e-05   3.4840587395329817e-06   -0.00010150010018298569
-3.139005149796431e-05   3.4840587395329817e-06   -0.00010150010018298569
-3.139005149796431e-05   3.4840587395329817e-06   -0.00010150010018298569
-3.139005149796431e-05   3.4840587395329817e-06   -0.00010150010018298569
-3.9213598726758024e-05   4.5980696645143634e-06   -0.00011558635337096182
-3.9213598726758024e-05   4.5980696645143634e-06   -0.00011558635337096182
-3.9213598726758024e-05   4.5980696645143634e-06   -0.00011558635337096182
-3.9213598726758024e-05   4.5980696645143634e-06   -0.00011558635337096182
-2.3429965898719503e-05   4.8497984993720045e-06   -8.912926135664994e-05
-2.3429965898719503e-05   4.8497984993720045e-06   -8.912926135664994e-05
-2.3429965898719503e-05   4.8497984993720045e-06   -8.912926135664994e-05
-2.3429965898719503e-05   4.8497984993720045e-06   -8.912926135664994e-05
-2.2830704506162812e-05   8.130984254667208e-06   -0.00011573978584794717
-2.2830704506162812e-05   8.130984254667208e-06   -0.00011573978584794717
-2.2830704506162812e-05   8.130984254667208e-06   -0.00011573978584794717
-2.2830704506162812e-05   8.130984254667208e-06   -0.00011573978584794717
-3.8609894808886976e-05   8.106515600298046e-06   -8.942645415078472e-05
-3.8609894808886976e-05   8.106515600298046e-06   -8.942645415078472e-05
-3.8609894808886976e-05   8.106515600298046e-06   -8.942645415078472e-05
-3.8609894808886976e-05   8.106515600298046e-06   -8.942645415078472e-05
-3.102894533970531e-05   6.255538015561071e-06   -0.00010095078338191244
-3.102894533970531e-05   6.255538015561071e-06   -0.00010095078338191244
-3.102894533970531e-05   6.255538015561071e-06   -0.00010095078338191244
-3.102894533970531e-05   6.255538015561071e-06   -0.00010095078338191244
-3.860989480888692e-05   8.130984254667208e-06   -0.00011572510465532532
-3.860989480888692e-05   8.130984254667208e-06   -0.00011572510465532532
-3.860989480888692e-05   8.130984254667208e-06   -0.00011572510465532532
-3.860989480888692e-05   8.130984254667208e-06   -0.00011572510465532532
-2.2830704506162853e-05   8.106515600298046e-06   -8.944113534340662e-05
-2.2830704506162853e-05   8.106515600298046e-06   -8.944113534340662e-05
-2.2830704506162853e-05   8.106515600298046e-06   -8.944113534340662e-05
-2.2830704506162853e-05   8.106515600298046e-06   -8.944113534340662e-05
-2.2291806754837198e-05   1.1725670038473246e-05   -0.00011768855628866847
-2.2291806754837198e-05   1.1725670038473246e-05   -0.00011768855628866847
-2.2291806754837198e-05   1.1725670038473246e-05   -0.00011768855628866847
-2.2291806754837198e-05   1.1725670038473246e-05   -0.00011768855628866847
-3.807141329556613e-05   1.1412215077869717e-05   -9.120113907775751e-05
-3.807141329556613e-05   1.1412215077869717e-05   -9.120113907775751e-05
-3.807141329556613e-05   1.1412215077869717e-05   -9.120113907775751e-05
-3.807141329556613e-05   1.1412215077869717e-05   -9.120113907775751e-05
-3.072866074106507e-05   9.063811783237112e-06   -0.00010203001802514683
-3.072866074106507e-05   9.063811783237112e-06   -0.00010203001802514683
-3.072866074106507e-05   9.063811783237112e-06   -0.00010203001802514683
-3.072866074106507e-05   9.063811783237112e-06   -0.00010203001802514683
-2.396417086718316e-05   -3.705348516757235e-06   -0.00010248110659297465
-2.396417086718316e-05   -3.705348516757235e-06   -0.00010248110659297465
-2.396417086718316e-05   -3.705348516757235e-06   -0.00010248110659297465
-2.396417086718316e-05   -3.705348516757235e-06   -0.00010248110659297465
-8.62297352268533e-06   6.717102301150024e-07   -7.428620910402209e-05
-8.62297352268533e-06   6.717102301150024e-07   -7.428620910402209e-05
-8.62297352268533e-06   6.717102301150024e-07   -7.428620910402209e-05
-8.62297352268533e-06   6.717102301150024e-07   -7.428620910402209e-05
-7.829011395375958e-06   -3.912738340381035e-07   -9.919956147864083e-05
-7.829011395375958e-06   -3.912738340381035e-07   -9.919956147864083e-05
-7.829011395375958e-06   -3.912738340381035e-07   -9.919956147864083e-05
-7.829011395375958e-06   -3.912738340381035e-07   -9.919956147864083e-05
-2.342996589871946e-05   3.7964110159889597e-06   -7.571058154975039e-05
-2.342996589871946e-05   3.7964110159889597e-06   -7.571058154975039e-05
-2.342996589871946e-05   3.7964110159889597e-06   -7.571058154975039e-05
-2.342996589871946e-05   3.7964110159889597e-06   -7.571058154975039e-05
-1.5800648318166335e-05   4.198019390084552e-07   -8.640014540448564e-05
-1.5800648318166335e-05   4.198019390084552e-07   -8.640014540448564e-05
-1.5800648318166335e-05   4.198019390084552e-07   -8.640014540448564e-05
-1.5800648318166335e-05   4.198019390084552e-07   -8.640014540448564e-05
-2.342996589871942e-05   -3.912738340381035e-07   -0.00010171217238865706
-2.342996589871942e-05   -3.912738340381035e-07   -0.00010171217238865706
-2.342996589871942e-05   -3.912738340381035e-07   -0.00010171217238865706
-2.342996589871942e-05   -3.912738340381035e-07   -0.00010171217238865706
-7.829011395375958e-06   3.7964110159889597e-06   -7.319797063973471e-05
-7.829011395375958e-06   3.7964110159889597e-06   -7.319797063973471e-05
-7.829011395375958e-06   3.7964110159889597e-06   -7.319797063973471e-05
-7.829011395375958e-06   3.7964110159889597e-06   -7.319797063973471e-05
-6.65704451900689e-06   2.799775434413239e-06   -0.00010054466591815953
-6.65704451900689e-06   2.799775434413239e-06   -0.00010054466591815953
-6.65704451900689e-06   2.799775434413239e-06   -0.00010054466591815953
-6.65704451900689e-06   2.799775434413239e-06   -0.00010054466591815953
-2.2830704506162812e-05   6.743383015550292e-06   -7.595473048824816e-05
-2.2830704506162812e-05   6.743383015550292e-06   -7.595473048824816e-05
-2.2830704506162812e-05   6.743383015550292e-06   -7.595473048824816e-05
-2.2830704506162812e-05   6.743383015550292e-06   -7.595473048824816e-05
-1.531855542219356e-05   2.94120122929821e-06   -8.619366988977902e-05
-1.531855542219356e-05   2.94120122929821e-06   -8.619366988977902e-05
-1.531855542219356e-05   2.94120122929821e-06   -8.619366988977902e-05
-1.531855542219356e-05   2.94120122929821e-06   -8.619366988977902e-05
-2.2830704506162755e-05   2.799775434413239e-06   -0.00010291083046684124
-2.2830704506162755e-05   2.799775434413239e-06   -0.00010291083046684124
-2.2830704506162755e-05   2.799775434413239e-06   -0.00010291083046684124
-2.2830704506162755e-05   2.799775434413239e-06   -0.00010291083046684124
-6.657044519006944e-06   6.743383015550292e-06   -7.358856593956613e-05
-6.657044519006944e-06   6.743383015550292e-06   -7.358856593956613e-05
-6.657044519006944e-06   6.743383015550292e-06   -7.358856593956613e-05
-6.657044519006944e-06   6.743383015550292e-06   -7.358856593956613e-05
-5.837618000043465e-06   6.460289995614127e-06   -0.00010335748482427154
-5.837618000043465e-06   6.460289995614127e-06   -0.00010335748482427154
-5.837618000043465e-06   6.460289995614127e-06   -0.00010335748482427154
-5.837618000043465e-06   6.460289995614127e-06   -0.00010335748482427154
-2.2291806754837198e-05   1.0078696261532107e-05   -7.810488065916581e-05
-2.2291806754837198e-05   1.0078696261532107e-05   -7.810488065916581e-05
-2.2291806754837198e-05   1.0078696261532107e-05   -7.810488065916581e-05
-2.2291806754837198e-05   1.0078696261532107e-05   -7.810488065916581e-05
-1.4812649515184099e-05   5.586954811823922e-06   -8.787509785542923e-05
-1.4812649515184099e-05   5.586954811823922e-06   -8.787509785542923e-05
-1.4812649515184099e-05   5.586954811823922e-06   -8.787509785542923e-05
-1.4812649515184099e-05   5.586954811823922e-06   -8.787509785542923e-05
-8.622973522685276e-06   -6.826095045547095e-06   -5.5653971640858826e-05
-8.622973522685276e-06   -6.826095045547095e-06   -5.5653971640858826e-05
-8.622973522685276e-06   -6.826095045547095e-06   -5.5653971640858826e-05
-8.622973522685276e-06   -6.826095045547095e-06   -5.5653971640858826e-05
2.812048745663904e-06   9.075484022477362e-07   -3.1955415124933304e-05
2.812048745663904e-06   9.075484022477362e-07   -3.1955415124933304e-05
2.812048745663904e-06   9.075484022477362e-07   -3.1955415124933304e-05
2.812048745663904e-06   9.075484022477362e-07   -3.1955415124933304e-05
6.9570319614586885e-06   -4.585306124219816e-06   -5.321022499760002e-05
6.9570319614586885e-06   -4.585306124219816e-06   -5.321022499760002e-05
6.9570319614586885e-06   -4.585306124219816e-06   -5.321022499760002e-05
6.9570319614586885e-06   -4.585306124219816e-06   -5.321022499760002e-05
-7.829011395375958e-06   3.3742406335421707e-06   -3.334254745753217e-05
-7.829011395375958e-06   3.3742406335421707e-06   -3.334254745753217e-05
-7.829011395375958e-06   3.3742406335421707e-06   -3.334254745753217e-05
-7.829011395375958e-06   3.3742406335421707e-06   -3.334254745753217e-05
-1.633215350782931e-06   -1.4463434650320225e-06   -4.077652373937735e-05
-1.633215350782931e-06   -1.4463434650320225e-06   -4.077652373937735e-05
-1.633215350782931e-06   -1.4463434650320225e-06   -4.077652373937735e-05
-1.633215350782931e-06   -1.4463434650320225e-06   -4.077652373937735e-05
-7.829011395375958e-06   -4.585306124219816e-06   -5.7985953052256886e-05
-7.829011395375958e-06   -4.585306124219816e-06   -5.7985953052256886e-05
-7.829011395375958e-06   -4.585306124219816e-06   -5.7985953052256886e-05
-7.829011395375958e-06   -4.585306124219816e-06   -5.7985953052256886e-05
6.9570319614586885e-06   3.3742406335421707e-06   -2.8566819402875247e-05
6.9570319614586885e-06   3.3742406335421707e-06   -2.8566819402875247e-05
6.9570319614586885e-06   3.3742406335421707e-06   -2.8566819402875247e-05
6.9570319614586885e-06   3.3742406335421707e-06   -2.8566819402875247e-05
1.0228870246244354e-05   -3.034856112671923e-06   -5.613580860742366e-05
1.0228870246244354e-05   -3.034856112671923e-06   -5.613580860742366e-05
1.0228870246244354e-05   -3.034856112671923e-06   -5.613580860742366e-05
1.0228870246244354e-05   -3.034856112671923e-06   -5.613580860742366e-05
-6.65704451900689e-06   4.763092122112532e-06   -3.267138627287497e-05
-6.65704451900689e-06   4.763092122112532e-06   -3.267138627287497e-05
-6.65704451900689e-06   4.763092122112532e-06   -3.267138627287497e-05
-6.65704451900689e-06   4.763092122112532e-06   -3.267138627287497e-05
4.798231951482304e-07   -2.6799899695718193e-07   -4.154751112502486e-05
4.798231951482304e-07   -2.6799899695718193e-07   -4.154751112502486e-05
4.798231951482304e-07   -2.6799899695718193e-07   -4.154751112502486e-05
4.798231951482304e-07   -2.6799899695718193e-07   -4.154751112502486e-05
-6.65704451900689e-06   -3.034856112671923e-06   -6.081457754829409e-05
-6.65704451900689e-06   -3.034856112671923e-06   -6.081457754829409e-05
-6.65704451900689e-06   -3.034856112671923e-06   -6.081457754829409e-05
-6.65704451900689e-06   -3.034856112671923e-06   -6.081457754829409e-05
1.0228870246244354e-05   4.763092122112098e-06   -2.7992617332004647e-05
1.0228870246244354e-05   4.763092122112098e-06   -2.7992617332004647e-05
1.0228870246244354e-05   4.763092122112098e-06   -2.7992617332004647e-05
1.0228870246244354e-05   4.763092122112098e-06   -2.7992617332004647e-05
1.4350987897563988e-05   1.9693130726399638e-08   -6.291371463718856e-05
1.4350987897563988e-05   1.9693130726399638e-08   -6.291371463718856e-05
1.4350987897563988e-05   1.9693130726399638e-08   -6.291371463718856e-05
1.4350987897563988e-05   1.9693130726399638e-08   -6.291371463718856e-05
-5.837618000043465e-06   7.233461427373026e-06   -3.3594299119163375e-05
-5.837618000043465e-06   7.233461427373026e-06   -3.3594299119163375e-05
-5.837618000043465e-06   7.233461427373026e-06   -3.3594299119163375e-05
-5.837618000043465e-06   7.233461427373026e-06   -3.3594299119163375e-05
2.2841096789666404e-06   1.0844209635918305e-06   -4.344108763924587e-05
2.2841096789666404e-06   1.0844209635918305e-06   -4.344108763924587e-05
2.2841096789666404e-06   1.0844209635918305e-06   -4.344108763924587e-05
2.2841096789666404e-06   1.0844209635918305e-06   -4.344108763924587e-05
-2.666213986187555e-05   4.995513248688601e-06   -4.7519677434524916e-05
-2.666213986187555e-05   4.995513248688601e-06   -4.7519677434524916e-05
-2.666213986187555e-05   4.995513248688601e-06   -4.7519677434524916e-05
-2.666213986187555e-05   4.995513248688601e-06   -4.7519677434524916e-05
-2.6830135423100616e-05   -2.2944074346571003e-06   -5.217362244657462e-05
-2.6830135423100616e-05   -2.2944074346571003e-06   -5.217362244657462e-05
-2.6830135423100616e-05   -2.2944074346571003e-06   -5.217362244657462e-05
-2.6830135423100616e-05   -2.2944074346571003e-06   -5.217362244657462e-05
-2.547517637388713e-05   7.763998161001377e-06   -4.464351830040609e-05
-2.547517637388713e-05   7.763998161001377e-06   -4.464351830040609e-05
-2.547517637388713e-05   7.763998161001377e-06   -4.464351830040609e-05
-2.547517637388713e-05   7.763998161001377e-06   -4.464351830040609e-05
-2.203786729440408e-05   -5.1068512197695315e-08   -4.5683326762290975e-05
-2.203786729440408e-05   -5.1068512197695315e-08   -4.5683326762290975e-05
-2.203786729440408e-05   -5.1068512197695315e-08   -4.5683326762290975e-05
-2.203786729440408e-05   -5.1068512197695315e-08   -4.5683326762290975e-05
-2.4146797307365918e-05   3.4380527318446374e-06   -4.426191615378183e-05
-2.4146797307365918e-05   3.4380527318446374e-06   -4.426191615378183e-05
-2.4146797307365918e-05   3.4380527318446374e-06   -4.426191615378183e-05
-2.4146797307365918e-05   3.4380527318446374e-06   -4.426191615378183e-05
-2.203786729440408e-05   7.763998161001377e-06   -3.9954478296486e-05
-2.203786729440408e-05   7.763998161001377e-06   -3.9954478296486e-05
-2.203786729440408e-05   7.763998161001377e-06   -3.9954478296486e-05
-2.203786729440408e-05   7.763998161001377e-06   -3.9954478296486e-05
-2.547517637388724e-05   -5.1068512197695315e-08   -5.0372366766211394e-05
-2.547517637388724e-05   -5.1068512197695315e-08   -5.0372366766211394e-05
-2.547517637388724e-05   -5.1068512197695315e-08   -5.0372366766211394e-05
-2.547517637388724e-05   -5.1068512197695315e-08   -5.0372366766211394e-05
-2.37682723654972e-05   9.159445955251797e-06   -4.14312573102653e-05
-2.37682723654972e-05   9.159445955251797e-06   -4.14312573102653e-05
-2.37682723654972e-05   9.159445955251797e-06   -4.14312573102653e-05
-2.37682723654972e-05   9.159445955251797e-06   -4.14312573102653e-05
-1.82073946530803e-05   1.214119005453311e-06   -4.593219066108094e-05
-1.82073946530803e-05   1.214119005453311e-06   -4.593219066108094e-05
-1.82073946530803e-05   1.214119005453311e-06   -4.593219066108094e-05
-1.82073946530803e-05   1.214119005453311e-06   -4.593219066108094e-05
-2.1951447779659577e-05   4.587678295833904e-06   -4.171623769101251e-05
-2.1951447779659577e-05   4.587678295833904e-06   -4.171623769101251e-05
-2.1951447779659577e-05   4.587678295833904e-06   -4.171623769101251e-05
-2.1951447779659577e-05   4.587678295833904e-06   -4.171623769101251e-05
-1.820739465308019e-05   9.159445955251797e-06   -3.666406114038621e-05
-1.820739465308019e-05   9.159445955251797e-06   -3.666406114038621e-05
-1.820739465308019e-05   9.159445955251797e-06   -3.666406114038621e-05
-1.820739465308019e-05   9.159445955251797e-06   -3.666406114038621e-05
-2.37682723654972e-05   1.214119005453311e-06   -5.069938683096003e-05
-2.37682723654972e-05   1.214119005453311e-06   -5.069938683096003e-05
-2.37682723654972e-05   1.214119005453311e-06   -5.069938683096003e-05
-2.37682723654972e-05   1.214119005453311e-06   -5.069938683096003e-05
-2.2431614383831952e-05   1.1368261046610425e-05   -3.843681514284882e-05
-2.2431614383831952e-05   1.1368261046610425e-05   -3.843681514284882e-05
-2.2431614383831952e-05   1.1368261046610425e-05   -3.843681514284882e-05
-2.2431614383831952e-05   1.1368261046610425e-05   -3.843681514284882e-05
-1.3477999846668045e-05   3.738783929258839e-06   -4.8781819767711307e-05
-1.3477999846668045e-05   3.738783929258839e-06   -4.8781819767711307e-05
-1.3477999846668045e-05   3.738783929258839e-06   -4.8781819767711307e-05
-1.3477999846668045e-05   3.738783929258839e-06   -4.8781819767711307e-05
-1.920277941857212e-05   5.684544332534066e-06   -4.0407976723169474e-05
-1.920277941857212e-05   5.684544332534066e-06   -4.0407976723169474e-05
-1.920277941857212e-05   5.684544332534066e-06   -4.0407976723169474e-05
-1.920277941857212e-05   5.684544332534066e-06   -4.0407976723169474e-05
-2.6830135423100508e-05   2.8500426774843643e-06   -8.617017620425713e-05
-2.6830135423100508e-05   2.8500426774843643e-06   -8.617017620425713e-05
-2.6830135423100508e-05   2.8500426774843643e-06   -8.617017620425713e-05
-2.6830135423100508e-05   2.8500426774843643e-06   -8.617017620425713e-05
-3.076632833806669e-05   -5.095645738677906e-07   -9.474626208001193e-05
-3.076632833806669e-05   -5.095645738677906e-07   -9.474626208001193e-05
-3.076632833806669e-05   -5.095645738677906e-07   -9.474626208001193e-05
-3.076632833806669e-05   -5.095645738677906e-07   -9.474626208001193e-05
-2.966733543355158e-05   6.0227217798594634e-06   -8.624002600273817e-05
-2.966733543355158e-05   6.0227217798594634e-06   -8.624002600273817e-05
-2.966733543355158e-05   6.0227217798594634e-06   -8.624002600273817e-05
-2.966733543355158e-05   6.0227217798594634e-06   -8.624002600273817e-05
-2.547517637388724e-05   2.3184603702283355e-06   -9.100440092306634e-05
-2.547517637388724e-05   2.3184603702283355e-06   -9.100440092306634e-05
-2.547517637388724e-05   2.3184603702283355e-06   -9.100440092306634e-05
-2.547517637388724e-05   2.3184603702283355e-06   -9.100440092306634e-05
-2.7856095966859363e-05   3.2875088925286323e-06   -8.761763071482814e-05
-2.7856095966859363e-05   3.2875088925286323e-06   -8.761763071482814e-05
-2.7856095966859363e-05   3.2875088925286323e-06   -8.761763071482814e-05
-2.7856095966859363e-05   3.2875088925286323e-06   -8.761763071482814e-05
-2.547517637388713e-05   6.0227217798594634e-06   -8.401746915695876e-05
-2.547517637388713e-05   6.0227217798594634e-06   -8.401746915695876e-05
-2.547517637388713e-05   6.0227217798594634e-06   -8.401746915695876e-05
-2.547517637388713e-05   6.0227217798594634e-06   -8.401746915695876e-05
-2.9667335433551526e-05   2.3184603702283355e-06   -9.322695776884564e-05
-2.9667335433551526e-05   2.3184603702283355e-06   -9.322695776884564e-05
-2.9667335433551526e-05   2.3184603702283355e-06   -9.322695776884564e-05
-2.9667335433551526e-05   2.3184603702283355e-06   -9.322695776884564e-05
-2.852470484892162e-05   8.970018024089237e-06   -8.551780612731357e-05
-2.852470484892162e-05   8.970018024089237e-06   -8.551780612731357e-05
-2.852470484892162e-05   8.970018024089237e-06   -8.551780612731357e-05
-2.852470484892162e-05   8.970018024089237e-06   -8.551780612731357e-05
-2.37682723654972e-05   5.038684591764098e-06   -9.10863935402917e-05
-2.37682723654972e-05   5.038684591764098e-06   -9.10863935402917e-05
-2.37682723654972e-05   5.038684591764098e-06   -9.10863935402917e-05
-2.37682723654972e-05   5.038684591764098e-06   -9.10863935402917e-05
-2.6754457931442882e-05   5.564192760118634e-06   -8.642472249806212e-05
-2.6754457931442882e-05   5.564192760118634e-06   -8.642472249806212e-05
-2.6754457931442882e-05   5.564192760118634e-06   -8.642472249806212e-05
-2.6754457931442882e-05   5.564192760118634e-06   -8.642472249806212e-05
-2.37682723654972e-05   8.970018024089237e-06   -8.315900606791762e-05
-2.37682723654972e-05   8.970018024089237e-06   -8.315900606791762e-05
-2.37682723654972e-05   8.970018024089237e-06   -8.315900606791762e-05
-2.37682723654972e-05   8.970018024089237e-06   -8.315900606791762e-05
-2.852470484892151e-05   5.038684591764098e-06   -9.344519359968679e-05
-2.852470484892151e-05   5.038684591764098e-06   -9.344519359968679e-05
-2.852470484892151e-05   5.038684591764098e-06   -9.344519359968679e-05
-2.852470484892151e-05   5.038684591764098e-06   -9.344519359968679e-05
-2.7447081346496918e-05   1.2242232992416575e-05   -8.693298367160561e-05
-2.7447081346496918e-05   1.2242232992416575e-05   -8.693298367160561e-05
-2.7447081346496918e-05   1.2242232992416575e-05   -8.693298367160561e-05
-2.7447081346496918e-05   1.2242232992416575e-05   -8.693298367160561e-05
-2.2431614383831952e-05   8.142284356004066e-06   -9.283212609419948e-05
-2.2431614383831952e-05   8.142284356004066e-06   -9.283212609419948e-05
-2.2431614383831952e-05   8.142284356004066e-06   -9.283212609419948e-05
-2.2431614383831952e-05   8.142284356004066e-06   -9.283212609419948e-05
-2.5783486932889985e-05   7.949505496549283e-06   -8.713000453009683e-05
-2.5783486932889985e-05   7.949505496549283e-06   -8.713000453009683e-05
-2.5783486932889985e-05   7.949505496549283e-06   -8.713000453009683e-05
-2.5783486932889985e-05   7.949505496549283e-06   -8.713000453009683e-05
-3.076632833806653e-05   1.621506435766848e-06   -0.00010031161931556374
-3.076632833806653e-05   1.621506435766848e-06   -0.00010031161931556374
-3.076632833806653e-05   1.621506435766848e-06   -0.00010031161931556374
-3.076632833806653e-05   1.621506435766848e-06   -0.00010031161931556374
-3.4931249593312755e-05   2.3278140977274833e-06   -0.00010682937014379768
-3.4931249593312755e-05   2.3278140977274833e-06   -0.00010682937014379768
-3.4931249593312755e-05   2.3278140977274833e-06   -0.00010682937014379768
-3.4931249593312755e-05   2.3278140977274833e-06   -0.00010682937014379768
-3.385020762853482e-05   4.8497984993720045e-06   -9.877307842755083e-05
-3.385020762853482e-05   4.8497984993720045e-06   -9.877307842755083e-05
-3.385020762853482e-05   4.8497984993720045e-06   -9.877307842755083e-05
-3.385020762853482e-05   4.8497984993720045e-06   -9.877307842755083e-05
-2.966733543355158e-05   5.247543294734612e-06   -0.00010598317896307334
-2.966733543355158e-05   5.247543294734612e-06   -0.00010598317896307334
-2.966733543355158e-05   5.247543294734612e-06   -0.00010598317896307334
-2.966733543355158e-05   5.247543294734612e-06   -0.00010598317896307334
-3.210943468429435e-05   3.965455154783092e-06   -0.00010114376066119933
-3.210943468429435e-05   3.965455154783092e-06   -0.00010114376066119933
-3.210943468429435e-05   3.965455154783092e-06   -0.00010114376066119933
-3.210943468429435e-05   3.965455154783092e-06   -0.00010114376066119933
-2.966733543355147e-05   4.8497984993720045e-06   -9.901172530476826e-05
-2.966733543355147e-05   4.8497984993720045e-06   -9.901172530476826e-05
-2.966733543355147e-05   4.8497984993720045e-06   -9.901172530476826e-05
-2.966733543355147e-05   4.8497984993720045e-06   -9.901172530476826e-05
-3.385020762853487e-05   5.247543294734612e-06   -0.00010574453208585634
-3.385020762853487e-05   5.247543294734612e-06   -0.00010574453208585634
-3.385020762853487e-05   5.247543294734612e-06   -0.00010574453208585634
-3.385020762853487e-05   5.247543294734612e-06   -0.00010574453208585634
-3.271469046719777e-05   8.106515600298046e-06   -9.906255497945477e-05
-3.271469046719777e-05   8.106515600298046e-06   -9.906255497945477e-05
-3.271469046719777e-05   8.106515600298046e-06   -9.906255497945477e-05
-3.271469046719777e-05   8.106515600298046e-06   -9.906255497945477e-05
-2.852470484892162e-05   8.231975604909396e-06   -0.00010612114034601512
-2.852470484892162e-05   8.231975604909396e-06   -0.00010612114034601512
-2.852470484892162e-05   8.231975604909396e-06   -0.00010612114034601512
-2.852470484892162e-05   8.231975604909396e-06   -0.00010612114034601512
-3.1200027936276765e-05   6.460840615100764e-06   -0.00010059958753987232
-3.1200027936276765e-05   6.460840615100764e-06   -0.00010059958753987232
-3.1200027936276765e-05   6.460840615100764e-06   -0.00010059958753987232
-3.1200027936276765e-05   6.460840615100764e-06   -0.00010059958753987232
-2.852470484892151e-05   8.106515600298046e-06   -9.913783098222141e-05
-2.852470484892151e-05   8.106515600298046e-06   -9.913783098222141e-05
-2.852470484892151e-05   8.106515600298046e-06   -9.913783098222141e-05
-2.852470484892151e-05   8.106515600298046e-06   -9.913783098222141e-05
-3.271469046719777e-05   8.231975604909396e-06   -0.00010604586434324794
-3.271469046719777e-05   8.231975604909396e-06   -0.00010604586434324794
-3.271469046719777e-05   8.231975604909396e-06   -0.00010604586434324794
-3.271469046719777e-05   8.231975604909396e-06   -0.00010604586434324794
-3.164335360804188e-05   1.1412215077870151e-05   -0.00010098516766011284
-3.164335360804188e-05   1.1412215077870151e-05   -0.00010098516766011284
-3.164335360804188e-05   1.1412215077870151e-05   -0.00010098516766011284
-3.164335360804188e-05   1.1412215077870151e-05   -0.00010098516766011284
-2.7447081346496972e-05   1.1257459651360137e-05   -0.00010788610150678124
-2.7447081346496972e-05   1.1257459651360137e-05   -0.00010788610150678124
-2.7447081346496972e-05   1.1257459651360137e-05   -0.00010788610150678124
-2.7447081346496972e-05   1.1257459651360137e-05   -0.00010788610150678124
-3.0361631068682387e-05   8.991034330287605e-06   -0.00010166866344382935
-3.0361631068682387e-05   8.991034330287605e-06   -0.00010166866344382935
-3.0361631068682387e-05   8.991034330287605e-06   -0.00010166866344382935
-3.0361631068682387e-05   8.991034330287605e-06   -0.00010166866344382935
-3.493124959331263e-05   6.717102301145687e-07   -8.655911522325427e-05
-3.493124959331263e-05   6.717102301145687e-07   -8.655911522325427e-05
-3.493124959331263e-05   6.717102301145687e-07   -8.655911522325427e-05
-3.493124959331263e-05   6.717102301145687e-07   -8.655911522325427e-05
-3.931504601980933e-05   5.180838522381333e-06   -9.115996562538906e-05
-3.931504601980933e-05   5.180838522381333e-06   -9.115996562538906e-05
-3.931504601980933e-05   5.180838522381333e-06   -9.115996562538906e-05
-3.931504601980933e-05   5.180838522381333e-06   -9.115996562538906e-05
-3.8009929990206326e-05   3.7964110159893934e-06   -8.276702773986106e-05
-3.8009929990206326e-05   3.7964110159893934e-06   -8.276702773986106e-05
-3.8009929990206326e-05   3.7964110159893934e-06   -8.276702773986106e-05
-3.8009929990206326e-05   3.7964110159893934e-06   -8.276702773986106e-05
-3.385020762853482e-05   8.108695817307145e-06   -9.22872692234376e-05
-3.385020762853482e-05   8.108695817307145e-06   -9.22872692234376e-05
-3.385020762853482e-05   8.108695817307145e-06   -9.22872692234376e-05
-3.385020762853482e-05   8.108695817307145e-06   -9.22872692234376e-05
-3.624476839922348e-05   4.766851879944422e-06   -8.629122824320686e-05
-3.624476839922348e-05   4.766851879944422e-06   -8.629122824320686e-05
-3.624476839922348e-05   4.766851879944422e-06   -8.629122824320686e-05
-3.624476839922348e-05   4.766851879944422e-06   -8.629122824320686e-05
-3.3850207628534757e-05   3.7964110159889597e-06   -8.535439862065184e-05
-3.3850207628534757e-05   3.7964110159889597e-06   -8.535439862065184e-05
-3.3850207628534757e-05   3.7964110159889597e-06   -8.535439862065184e-05
-3.3850207628534757e-05   3.7964110159889597e-06   -8.535439862065184e-05
-3.8009929990206326e-05   8.108695817307145e-06   -8.969989834264717e-05
-3.8009929990206326e-05   8.108695817307145e-06   -8.969989834264717e-05
-3.8009929990206326e-05   8.108695817307145e-06   -8.969989834264717e-05
-3.8009929990206326e-05   8.108695817307145e-06   -8.969989834264717e-05
-3.63300212643921e-05   6.743383015550726e-06   -8.31351063266799e-05
-3.63300212643921e-05   6.743383015550726e-06   -8.31351063266799e-05
-3.63300212643921e-05   6.743383015550726e-06   -8.31351063266799e-05
-3.63300212643921e-05   6.743383015550726e-06   -8.31351063266799e-05
-3.271469046719771e-05   1.0811789344910942e-05   -9.160170145295307e-05
-3.271469046719771e-05   1.0811789344910942e-05   -9.160170145295307e-05
-3.271469046719771e-05   1.0811789344910942e-05   -9.160170145295307e-05
-3.271469046719771e-05   1.0811789344910942e-05   -9.160170145295307e-05
-3.5078811917887637e-05   7.0879113480346034e-06   -8.542717223701199e-05
-3.5078811917887637e-05   7.0879113480346034e-06   -8.542717223701199e-05
-3.5078811917887637e-05   7.0879113480346034e-06   -8.542717223701199e-05
-3.5078811917887637e-05   7.0879113480346034e-06   -8.542717223701199e-05
-3.271469046719763e-05   6.743383015550726e-06   -8.557615012429534e-05
-3.271469046719763e-05   6.743383015550726e-06   -8.557615012429534e-05
-3.271469046719763e-05   6.743383015550726e-06   -8.557615012429534e-05
-3.271469046719763e-05   6.743383015550726e-06   -8.557615012429534e-05
-3.6330021264392156e-05   1.081178934491181e-05   -8.916065765533646e-05
-3.6330021264392156e-05   1.081178934491181e-05   -8.916065765533646e-05
-3.6330021264392156e-05   1.081178934491181e-05   -8.916065765533646e-05
-3.6330021264392156e-05   1.081178934491181e-05   -8.916065765533646e-05
-3.5008597829083954e-05   1.0078696261532107e-05   -8.544139672594367e-05
-3.5008597829083954e-05   1.0078696261532107e-05   -8.544139672594367e-05
-3.5008597829083954e-05   1.0078696261532107e-05   -8.544139672594367e-05
-3.5008597829083954e-05   1.0078696261532107e-05   -8.544139672594367e-05
-3.164335360804188e-05   1.38444288268905e-05   -9.330957663356204e-05
-3.164335360804188e-05   1.38444288268905e-05   -9.330957663356204e-05
-3.164335360804188e-05   1.38444288268905e-05   -9.330957663356204e-05
-3.164335360804188e-05   1.38444288268905e-05   -9.330957663356204e-05
-3.419986802640287e-05   9.462844910118878e-06   -8.641976891956248e-05
-3.419986802640287e-05   9.462844910118878e-06   -8.641976891956248e-05
-3.419986802640287e-05   9.462844910118878e-06   -8.641976891956248e-05
-3.419986802640287e-05   9.462844910118878e-06   -8.641976891956248e-05
-3.9315046019809246e-05   9.075484022477362e-07   -4.616303033748263e-05
-3.9315046019809246e-05   9.075484022477362e-07   -4.616303033748263e-05
-3.9315046019809246e-05   9.075484022477362e-07   -4.616303033748263e-05
-3.9315046019809246e-05   9.075484022477362e-07   -4.616303033748263e-05
-4.7489650671389116e-05   8.693106963341551e-06   -5.5116036286793034e-05
-4.7489650671389116e-05   8.693106963341551e-06   -5.5116036286793034e-05
-4.7489650671389116e-05   8.693106963341551e-06   -5.5116036286793034e-05
-4.7489650671389116e-05   8.693106963341551e-06   -5.5116036286793034e-05
-4.289726534588531e-05   3.3742406335421707e-06   -3.812939914017428e-05
-4.289726534588531e-05   3.3742406335421707e-06   -3.812939914017428e-05
-4.289726534588531e-05   3.3742406335421707e-06   -3.812939914017428e-05
-4.289726534588531e-05   3.3742406335421707e-06   -3.812939914017428e-05
-3.8009929990206245e-05   1.1344582996016851e-05   -5.105716348379022e-05
-3.8009929990206245e-05   1.1344582996016851e-05   -5.105716348379022e-05
-3.8009929990206245e-05   1.1344582996016851e-05   -5.105716348379022e-05
-3.8009929990206245e-05   1.1344582996016851e-05   -5.105716348379022e-05
-4.023088970877418e-05   6.404292809891136e-06   -4.439138984116951e-05
-4.023088970877418e-05   6.404292809891136e-06   -4.439138984116951e-05
-4.023088970877418e-05   6.404292809891136e-06   -4.439138984116951e-05
-4.023088970877418e-05   6.404292809891136e-06   -4.439138984116951e-05
-3.8009929990206136e-05   3.3742406335426044e-06   -4.2911604557658786e-05
-3.8009929990206136e-05   3.3742406335426044e-06   -4.2911604557658786e-05
-3.8009929990206136e-05   3.3742406335426044e-06   -4.2911604557658786e-05
-3.8009929990206136e-05   3.3742406335426044e-06   -4.2911604557658786e-05
-4.2897265345885204e-05   1.1344582996016851e-05   -4.6274958066306205e-05
-4.2897265345885204e-05   1.1344582996016851e-05   -4.6274958066306205e-05
-4.2897265345885204e-05   1.1344582996016851e-05   -4.6274958066306205e-05
-4.2897265345885204e-05   1.1344582996016851e-05   -4.6274958066306205e-05
-3.9161997672029205e-05   4.763092122112098e-06   -3.754045275097362e-05
-3.9161997672029205e-05   4.763092122112098e-06   -3.754045275097362e-05
-3.9161997672029205e-05   4.763092122112098e-06   -3.754045275097362e-05
-3.9161997672029205e-05   4.763092122112098e-06   -3.754045275097362e-05
-3.63300212643921e-05   1.255888197047167e-05   -4.693788733938387e-05
-3.63300212643921e-05   1.255888197047167e-05   -4.693788733938387e-05
-3.63300212643921e-05   1.255888197047167e-05   -4.693788733938387e-05
-3.63300212643921e-05   1.255888197047167e-05   -4.693788733938387e-05
-3.825613435719545e-05   7.628433233611721e-06   -4.076942960926295e-05
-3.825613435719545e-05   7.628433233611721e-06   -4.076942960926295e-05
-3.825613435719545e-05   7.628433233611721e-06   -4.076942960926295e-05
-3.825613435719545e-05   7.628433233611721e-06   -4.076942960926295e-05
-3.633002126439205e-05   4.763092122112098e-06   -4.2217926659988535e-05
-3.633002126439205e-05   4.763092122112098e-06   -4.2217926659988535e-05
-3.633002126439205e-05   4.763092122112098e-06   -4.2217926659988535e-05
-3.633002126439205e-05   4.763092122112098e-06   -4.2217926659988535e-05
-3.9161997672029205e-05   1.2558881970470802e-05   -4.2260413430368626e-05
-3.9161997672029205e-05   1.2558881970470802e-05   -4.2260413430368626e-05
-3.9161997672029205e-05   1.2558881970470802e-05   -4.2260413430368626e-05
-3.9161997672029205e-05   1.2558881970470802e-05   -4.2260413430368626e-05
-3.46008129650067e-05   7.233461427372592e-06   -3.877281962268099e-05
-3.46008129650067e-05   7.233461427372592e-06   -3.877281962268099e-05
-3.46008129650067e-05   7.233461427372592e-06   -3.877281962268099e-05
-3.46008129650067e-05   7.233461427372592e-06   -3.877281962268099e-05
-3.50085978290839e-05   1.4448526965390833e-05   -4.2422217505362647e-05
-3.50085978290839e-05   1.4448526965390833e-05   -4.2422217505362647e-05
-3.50085978290839e-05   1.4448526965390833e-05   -4.2422217505362647e-05
-3.50085978290839e-05   1.4448526965390833e-05   -4.2422217505362647e-05
-3.5376933558833206e-05   8.623411650649036e-06   -3.8313255433602e-05
-3.5376933558833206e-05   8.623411650649036e-06   -3.8313255433602e-05
-3.5376933558833206e-05   8.623411650649036e-06   -3.8313255433602e-05
-3.5376933558833206e-05   8.623411650649036e-06   -3.8313255433602e-05
2.3152494484994426e-05   -2.2944074346571003e-06   -2.4237487293182237e-05
2.3152494484994426e-05   -2.2944074346571003e-06   -2.4237487293182237e-05
2.3152494484994426e-05   -2.2944074346571003e-06   -2.4237487293182237e-05
2.3152494484994426e-05   -2.2944074346571003e-06   -2.4237487293182237e-05
2.340445430212986e-06   -9.731827423310226e-06   -6.338668771100958e-05
2.340445430212986e-06   -9.731827423310226e-06   -6.338668771100958e-05
2.340445430212986e-06   -9.731827423310226e-06   -6.338668771100958e-05
2.340445430212986e-06   -9.731827423310226e-06   -6.338668771100958e-05
4.200695870287276e-06   -5.1068512198562677e-08   -2.673561083254986e-05
4.200695870287276e-06   -5.1068512198562677e-08   -2.673561083254986e-05
4.200695870287276e-06   -5.1068512198562677e-08   -2.673561083254986e-05
4.200695870287276e-06   -5.1068512198562677e-08   -2.673561083254986e-05
2.8313048915146644e-05   -7.992775732820062e-06   -6.21578415749423e-05
2.8313048915146644e-05   -7.992775732820062e-06   -6.21578415749423e-05
2.8313048915146644e-05   -7.992775732820062e-06   -6.21578415749423e-05
2.8313048915146644e-05   -7.992775732820062e-06   -6.21578415749423e-05
1.3963799229027172e-05   -4.052296621196404e-06   -4.060671289838431e-05
1.3963799229027172e-05   -4.052296621196404e-06   -4.060671289838431e-05
1.3963799229027172e-05   -4.052296621196404e-06   -4.060671289838431e-05
1.3963799229027172e-05   -4.052296621196404e-06   -4.060671289838431e-05
2.8313048915146644e-05   -5.1068512198562677e-08   -2.1970586500177046e-05
2.8313048915146644e-05   -5.1068512198562677e-08   -2.1970586500177046e-05
2.8313048915146644e-05   -5.1068512198562677e-08   -2.1970586500177046e-05
2.8313048915146644e-05   -5.1068512198562677e-08   -2.1970586500177046e-05
4.200695870287276e-06   -7.992775732820062e-06   -6.692286590731554e-05
4.200695870287276e-06   -7.992775732820062e-06   -6.692286590731554e-05
4.200695870287276e-06   -7.992775732820062e-06   -6.692286590731554e-05
4.200695870287276e-06   -7.992775732820062e-06   -6.692286590731554e-05
6.391596113448006e-06   1.214119005453311e-06   -2.6926587933760737e-05
6.391596113448006e-06   1.214119005453311e-06   -2.6926587933760737e-05
6.391596113448006e-06   1.214119005453311e-06   -2.6926587933760737e-05
6.391596113448006e-06   1.214119005453311e-06   -2.6926587933760737e-05
3.268180667488196e-05   -6.837863981272799e-06   -6.591241574411492e-05
3.268180667488196e-05   -6.837863981272799e-06   -6.591241574411492e-05
3.268180667488196e-05   -6.837863981272799e-06   -6.591241574411492e-05
3.268180667488196e-05   -6.837863981272799e-06   -6.591241574411492e-05
1.7242160248121517e-05   -3.242469653094715e-06   -4.233690829642269e-05
1.7242160248121517e-05   -3.242469653094715e-06   -4.233690829642269e-05
1.7242160248121517e-05   -3.242469653094715e-06   -4.233690829642269e-05
1.7242160248121517e-05   -3.242469653094715e-06   -4.233690829642269e-05
3.2681806674882065e-05   1.214119005453311e-06   -2.2095398141724638e-05
3.2681806674882065e-05   1.214119005453311e-06   -2.2095398141724638e-05
3.2681806674882065e-05   1.214119005453311e-06   -2.2095398141724638e-05
3.2681806674882065e-05   1.214119005453311e-06   -2.2095398141724638e-05
6.391596113448006e-06   -6.837863981272799e-06   -7.074360553615037e-05
6.391596113448006e-06   -6.837863981272799e-06   -7.074360553615037e-05
6.391596113448006e-06   -6.837863981272799e-06   -7.074360553615037e-05
6.391596113448006e-06   -6.837863981272799e-06   -7.074360553615037e-05
8.200331113533492e-06   3.738783929258839e-06   -2.946790080665153e-05
8.200331113533492e-06   3.738783929258839e-06   -2.946790080665153e-05
8.200331113533492e-06   3.738783929258839e-06   -2.946790080665153e-05
8.200331113533492e-06   3.738783929258839e-06   -2.946790080665153e-05
3.7929199510196364e-05   -3.92339866902517e-06   -7.441870524211897e-05
3.7929199510196364e-05   -3.92339866902517e-06   -7.441870524211897e-05
3.7929199510196364e-05   -3.92339866902517e-06   -7.441870524211897e-05
3.7929199510196364e-05   -3.92339866902517e-06   -7.441870524211897e-05
1.9861425581718173e-05   -2.05718044094666e-06   -4.5425479631503764e-05
1.9861425581718173e-05   -2.05718044094666e-06   -4.5425479631503764e-05
1.9861425581718173e-05   -2.05718044094666e-06   -4.5425479631503764e-05
1.9861425581718173e-05   -2.05718044094666e-06   -4.5425479631503764e-05
2.3404454302130943e-06   -5.095645738677906e-07   -6.925681456900054e-05
2.3404454302130943e-06   -5.095645738677906e-07   -6.925681456900054e-05
2.3404454302130943e-06   -5.095645738677906e-07   -6.925681456900054e-05
2.3404454302130943e-06   -5.095645738677906e-07   -6.925681456900054e-05
-2.2030311214675535e-05   -3.867858607466655e-06   -0.00011188971873064076
-2.2030311214675535e-05   -3.867858607466655e-06   -0.00011188971873064076
-2.2030311214675535e-05   -3.867858607466655e-06   -0.00011188971873064076
-2.2030311214675535e-05   -3.867858607466655e-06   -0.00011188971873064076
-2.0394657511509833e-05   2.3184603702283355e-06   -6.965180163643562e-05
-2.0394657511509833e-05   2.3184603702283355e-06   -6.965180163643562e-05
-2.0394657511509833e-05   2.3184603702283355e-06   -6.965180163643562e-05
-2.0394657511509833e-05   2.3184603702283355e-06   -6.965180163643562e-05
4.200695870287276e-06   -1.488467374822014e-06   -0.00010835990062573375
4.200695870287276e-06   -1.488467374822014e-06   -0.00010835990062573375
4.200695870287276e-06   -1.488467374822014e-06   -0.00010835990062573375
4.200695870287276e-06   -1.488467374822014e-06   -0.00010835990062573375
-8.762449651530767e-06   -1.598646277864782e-07   -8.755181973759145e-05
-8.762449651530767e-06   -1.598646277864782e-07   -8.755181973759145e-05
-8.762449651530767e-06   -1.598646277864782e-07   -8.755181973759145e-05
-8.762449651530767e-06   -1.598646277864782e-07   -8.755181973759145e-05
4.200695870287276e-06   2.3184603702283355e-06   -6.736764498940524e-05
4.200695870287276e-06   2.3184603702283355e-06   -6.736764498940524e-05
4.200695870287276e-06   2.3184603702283355e-06   -6.736764498940524e-05
4.200695870287276e-06   2.3184603702283355e-06   -6.736764498940524e-05
-2.0394657511509833e-05   -1.488467374822014e-06   -0.00011064405727276468
-2.0394657511509833e-05   -1.488467374822014e-06   -0.00011064405727276468
-2.0394657511509833e-05   -1.488467374822014e-06   -0.00011064405727276468
-2.0394657511509833e-05   -1.488467374822014e-06   -0.00011064405727276468
-1.8749838321880806e-05   5.03868459176323e-06   -6.97546251699952e-05
-1.8749838321880806e-05   5.03868459176323e-06   -6.97546251699952e-05
-1.8749838321880806e-05   5.03868459176323e-06   -6.97546251699952e-05
-1.8749838321880806e-05   5.03868459176323e-06   -6.97546251699952e-05
6.391596113448006e-06   9.703003802583043e-07   -0.0001092159853686407
6.391596113448006e-06   9.703003802583043e-07   -0.0001092159853686407
6.391596113448006e-06   9.703003802583043e-07   -0.0001092159853686407
6.391596113448006e-06   9.703003802583043e-07   -0.0001092159853686407
-7.3112252577152296e-06   1.791239085831113e-06   -8.687051297337901e-05
-7.3112252577152296e-06   1.791239085831113e-06   -8.687051297337901e-05
-7.3112252577152296e-06   1.791239085831113e-06   -8.687051297337901e-05
-7.3112252577152296e-06   1.791239085831113e-06   -8.687051297337901e-05
6.391596113448006e-06   5.038684591764098e-06   -6.731359464309241e-05
6.391596113448006e-06   5.038684591764098e-06   -6.731359464309241e-05
6.391596113448006e-06   5.038684591764098e-06   -6.731359464309241e-05
6.391596113448006e-06   5.038684591764098e-06   -6.731359464309241e-05
-1.8749838321880806e-05   9.703003802583043e-07   -0.00011165701589554381
-1.8749838321880806e-05   9.703003802583043e-07   -0.00011165701589554381
-1.8749838321880806e-05   9.703003802583043e-07   -0.00011165701589554381
-1.8749838321880806e-05   9.703003802583043e-07   -0.00011165701589554381
-1.71768883469143e-05   8.142284356004066e-06   -7.149808084543855e-05
-1.71768883469143e-05   8.142284356004066e-06   -7.149808084543855e-05
-1.71768883469143e-05   8.142284356004066e-06   -7.149808084543855e-05
-1.71768883469143e-05   8.142284356004066e-06   -7.149808084543855e-05
8.200331113533492e-06   3.879684384820552e-06   -0.0001112358866301417
8.200331113533492e-06   3.879684384820552e-06   -0.0001112358866301417
8.200331113533492e-06   3.879684384820552e-06   -0.0001112358866301417
8.200331113533492e-06   3.879684384820552e-06   -0.0001112358866301417
-5.697973433246373e-06   3.951544073351777e-06   -8.811516153196222e-05
-5.697973433246373e-06   3.951544073351777e-06   -8.811516153196222e-05
-5.697973433246373e-06   3.951544073351777e-06   -8.811516153196222e-05
-5.697973433246373e-06   3.951544073351777e-06   -8.811516153196222e-05
-2.203031121467559e-05   2.3278140977274833e-06   -8.377868365012225e-05
-2.203031121467559e-05   2.3278140977274833e-06   -8.377868365012225e-05
-2.203031121467559e-05   2.3278140977274833e-06   -8.377868365012225e-05
-2.203031121467559e-05   2.3278140977274833e-06   -8.377868365012225e-05
-4.6196611868048825e-05   2.9355148507617668e-06   -0.00012369123095392395
-4.6196611868048825e-05   2.9355148507617668e-06   -0.00012369123095392395
-4.6196611868048825e-05   2.9355148507617668e-06   -0.00012369123095392395
-4.6196611868048825e-05   2.9355148507617668e-06   -0.00012369123095392395
-4.4548467352788394e-05   5.247543294734612e-06   -8.228666195626757e-05
-4.4548467352788394e-05   5.247543294734612e-06   -8.228666195626757e-05
-4.4548467352788394e-05   5.247543294734612e-06   -8.228666195626757e-05
-4.4548467352788394e-05   5.247543294734612e-06   -8.228666195626757e-05
-2.0394657511509887e-05   5.449811418728467e-06   -0.00012266437256612864
-2.0394657511509887e-05   5.449811418728467e-06   -0.00012266437256612864
-2.0394657511509887e-05   5.449811418728467e-06   -0.00012266437256612864
-2.0394657511509887e-05   5.449811418728467e-06   -0.00012266437256612864
-3.309953145459427e-05   4.503647249059356e-06   -0.00010092188415918686
-3.309953145459427e-05   4.503647249059356e-06   -0.00010092188415918686
-3.309953145459427e-05   4.503647249059356e-06   -0.00010092188415918686
-3.309953145459427e-05   4.503647249059356e-06   -0.00010092188415918686
-2.0394657511509887e-05   5.247543294734612e-06   -8.24080228306644e-05
-2.0394657511509887e-05   5.247543294734612e-06   -8.24080228306644e-05
-2.0394657511509887e-05   5.247543294734612e-06   -8.24080228306644e-05
-2.0394657511509887e-05   5.247543294734612e-06   -8.24080228306644e-05
-4.4548467352788394e-05   5.449811418728467e-06   -0.00012254301169173192
-4.4548467352788394e-05   5.449811418728467e-06   -0.00012254301169173192
-4.4548467352788394e-05   5.449811418728467e-06   -0.00012254301169173192
-4.4548467352788394e-05   5.449811418728467e-06   -0.00012254301169173192
-4.287507412957311e-05   8.231975604909396e-06   -8.250184164412594e-05
-4.287507412957311e-05   8.231975604909396e-06   -8.250184164412594e-05
-4.287507412957311e-05   8.231975604909396e-06   -8.250184164412594e-05
-4.287507412957311e-05   8.231975604909396e-06   -8.250184164412594e-05
-1.8749838321880806e-05   8.113192725239977e-06   -0.00012263929826247723
-1.8749838321880806e-05   8.113192725239977e-06   -0.00012263929826247723
-1.8749838321880806e-05   8.113192725239977e-06   -0.00012263929826247723
-1.8749838321880806e-05   8.113192725239977e-06   -0.00012263929826247723
-3.164743751809002e-05   6.696498487349101e-06   -0.00010029328305939531
-3.164743751809002e-05   6.696498487349101e-06   -0.00010029328305939531
-3.164743751809002e-05   6.696498487349101e-06   -0.00010029328305939531
-3.164743751809002e-05   6.696498487349101e-06   -0.00010029328305939531
-1.8749838321880806e-05   8.231975604909396e-06   -8.243057191632385e-05
-1.8749838321880806e-05   8.231975604909396e-06   -8.243057191632385e-05
-1.8749838321880806e-05   8.231975604909396e-06   -8.243057191632385e-05
-1.8749838321880806e-05   8.231975604909396e-06   -8.243057191632385e-05
-4.287507412957304e-05   8.113192725239977e-06   -0.00012271056799027964
-4.287507412957304e-05   8.113192725239977e-06   -0.00012271056799027964
-4.287507412957304e-05   8.113192725239977e-06   -0.00012271056799027964
-4.287507412957304e-05   8.113192725239977e-06   -0.00012271056799027964
-4.127915920532193e-05   1.1257459651360137e-05   -8.435309376201476e-05
-4.127915920532193e-05   1.1257459651360137e-05   -8.435309376201476e-05
-4.127915920532193e-05   1.1257459651360137e-05   -8.435309376201476e-05
-4.127915920532193e-05   1.1257459651360137e-05   -8.435309376201476e-05
-1.71768883469143e-05   1.0822448508289277e-05   -0.0001242625385068514
-1.71768883469143e-05   1.0822448508289277e-05   -0.0001242625385068514
-1.71768883469143e-05   1.0822448508289277e-05   -0.0001242625385068514
-1.71768883469143e-05   1.0822448508289277e-05   -0.0001242625385068514
-3.0295243925436382e-05   8.922463761820362e-06   -0.0001012586216947686
-3.0295243925436382e-05   8.922463761820362e-06   -0.0001012586216947686
-3.0295243925436382e-05   8.922463761820362e-06   -0.0001012586216947686
-3.0295243925436382e-05   8.922463761820362e-06   -0.0001012586216947686
-4.619661186804891e-05   5.180838522381333e-06   -7.045013565525277e-05
-4.619661186804891e-05   5.180838522381333e-06   -7.045013565525277e-05
-4.619661186804891e-05   5.180838522381333e-06   -7.045013565525277e-05
-4.619661186804891e-05   5.180838522381333e-06   -7.045013565525277e-05
-7.004772650436416e-05   9.530808447730417e-06   -0.00010759201142723513
-7.004772650436416e-05   9.530808447730417e-06   -0.00010759201142723513
-7.004772650436416e-05   9.530808447730417e-06   -0.00010759201142723513
-7.004772650436416e-05   9.530808447730417e-06   -0.00010759201142723513
-6.8166719964744e-05   8.108695817307145e-06   -6.636602185004867e-05
-6.8166719964744e-05   8.108695817307145e-06   -6.636602185004867e-05
-6.8166719964744e-05   8.108695817307145e-06   -6.636602185004867e-05
-6.8166719964744e-05   8.108695817307145e-06   -6.636602185004867e-05
-4.4548467352788394e-05   1.2214324556975888e-05   -0.0001081931534471084
-4.4548467352788394e-05   1.2214324556975888e-05   -0.0001081931534471084
-4.4548467352788394e-05   1.2214324556975888e-05   -0.0001081931534471084
-4.4548467352788394e-05   1.2214324556975888e-05   -0.0001081931534471084
-5.684380749144779e-05   9.10969971599021e-06   -8.583814497808534e-05
-5.684380749144779e-05   9.10969971599021e-06   -8.583814497808534e-05
-5.684380749144779e-05   9.10969971599021e-06   -8.583814497808534e-05
-5.684380749144779e-05   9.10969971599021e-06   -8.583814497808534e-05
-4.4548467352788476e-05   8.108695817308012e-06   -6.88293990938494e-05
-4.4548467352788476e-05   8.108695817308012e-06   -6.88293990938494e-05
-4.4548467352788476e-05   8.108695817308012e-06   -6.88293990938494e-05
-4.4548467352788476e-05   8.108695817308012e-06   -6.88293990938494e-05
-6.816671996474411e-05   1.2214324556975888e-05   -0.00010572977620330838
-6.816671996474411e-05   1.2214324556975888e-05   -0.00010572977620330838
-6.816671996474411e-05   1.2214324556975888e-05   -0.00010572977620330838
-6.816671996474411e-05   1.2214324556975888e-05   -0.00010572977620330838
-6.592063267471404e-05   1.081178934491181e-05   -6.576482720803238e-05
-6.592063267471404e-05   1.081178934491181e-05   -6.576482720803238e-05
-6.592063267471404e-05   1.081178934491181e-05   -6.576482720803238e-05
-6.592063267471404e-05   1.081178934491181e-05   -6.576482720803238e-05
-4.287507412957311e-05   1.4633208587909105e-05   -0.00010646694299573249
-4.287507412957311e-05   1.4633208587909105e-05   -0.00010646694299573249
-4.287507412957311e-05   1.4633208587909105e-05   -0.00010646694299573249
-4.287507412957311e-05   1.4633208587909105e-05   -0.00010646694299573249
-5.4951051702936904e-05   1.1226557178138294e-05   -8.429632286093138e-05
-5.4951051702936904e-05   1.1226557178138294e-05   -8.429632286093138e-05
-5.4951051702936904e-05   1.1226557178138294e-05   -8.429632286093138e-05
-5.4951051702936904e-05   1.1226557178138294e-05   -8.429632286093138e-05
-4.287507412957308e-05   1.081178934491181e-05   -6.805767875383032e-05
-4.287507412957308e-05   1.081178934491181e-05   -6.805767875383032e-05
-4.287507412957308e-05   1.081178934491181e-05   -6.805767875383032e-05
-4.287507412957308e-05   1.081178934491181e-05   -6.805767875383032e-05
-6.592063267471404e-05   1.4633208587909105e-05   -0.00010417409144993471
-6.592063267471404e-05   1.4633208587909105e-05   -0.00010417409144993471
-6.592063267471404e-05   1.4633208587909105e-05   -0.00010417409144993471
-6.592063267471404e-05   1.4633208587909105e-05   -0.00010417409144993471
-6.404779960071091e-05   1.38444288268905e-05   -6.758442120973754e-05
-6.404779960071091e-05   1.38444288268905e-05   -6.758442120973754e-05
-6.404779960071091e-05   1.38444288268905e-05   -6.758442120973754e-05
-6.404779960071091e-05   1.38444288268905e-05   -6.758442120973754e-05
-4.127915920532193e-05   1.7343252865477214e-05   -0.00010763144962520422
-4.127915920532193e-05   1.7343252865477214e-05   -0.00010763144962520422
-4.127915920532193e-05   1.7343252865477214e-05   -0.00010763144962520422
-4.127915920532193e-05   1.7343252865477214e-05   -0.00010763144962520422
-5.367461745532779e-05   1.331465867871525e-05   -8.455519602980393e-05
-5.367461745532779e-05   1.331465867871525e-05   -8.455519602980393e-05
-5.367461745532779e-05   1.331465867871525e-05   -8.455519602980393e-05
-5.367461745532779e-05   1.331465867871525e-05   -8.455519602980393e-05
-7.004772650436416e-05   8.693106963342419e-06   -3.646755949810376e-05
-7.004772650436416e-05   8.693106963342419e-06   -3.646755949810376e-05
-7.004772650436416e-05   8.693106963342419e-06   -3.646755949810376e-05
-7.004772650436416e-05   8.693106963342419e-06   -3.646755949810376e-05
-9.720071994687732e-05   1.6380533803664332e-05   -7.71100924647659e-05
-9.720071994687732e-05   1.6380533803664332e-05   -7.71100924647659e-05
-9.720071994687732e-05   1.6380533803664332e-05   -7.71100924647659e-05
-9.720071994687732e-05   1.6380533803664332e-05   -7.71100924647659e-05
-9.20692256675393e-05   1.1344582996016851e-05   -2.3031879947271478e-05
-9.20692256675393e-05   1.1344582996016851e-05   -2.3031879947271478e-05
-9.20692256675393e-05   1.1344582996016851e-05   -2.3031879947271478e-05
-9.20692256675393e-05   1.1344582996016851e-05   -2.3031879947271478e-05
-6.8166719964744e-05   1.9163594735885532e-05   -6.756079649585092e-05
-6.8166719964744e-05   1.9163594735885532e-05   -6.756079649585092e-05
-6.8166719964744e-05   1.9163594735885532e-05   -6.756079649585092e-05
-6.8166719964744e-05   1.9163594735885532e-05   -6.756079649585092e-05
-7.853957546392818e-05   1.4218298433085405e-05   -4.730552621553131e-05
-7.853957546392818e-05   1.4218298433085405e-05   -4.730552621553131e-05
-7.853957546392818e-05   1.4218298433085405e-05   -4.730552621553131e-05
-7.853957546392818e-05   1.4218298433085405e-05   -4.730552621553131e-05
-6.816671996474406e-05   1.1344582996016851e-05   -2.7723286991191993e-05
-6.816671996474406e-05   1.1344582996016851e-05   -2.7723286991191993e-05
-6.816671996474406e-05   1.1344582996016851e-05   -2.7723286991191993e-05
-6.816671996474406e-05   1.1344582996016851e-05   -2.7723286991191993e-05
-9.206922566753898e-05   1.9163594735885532e-05   -6.286938945192959e-05
-9.206922566753898e-05   1.9163594735885532e-05   -6.286938945192959e-05
-9.206922566753898e-05   1.9163594735885532e-05   -6.286938945192959e-05
-9.206922566753898e-05   1.9163594735885532e-05   -6.286938945192959e-05
-8.78277512432575e-05   1.255888197047167e-05   -1.8981499290404106e-05
-8.78277512432575e-05   1.255888197047167e-05   -1.8981499290404106e-05
-8.78277512432575e-05   1.255888197047167e-05   -1.8981499290404106e-05
-8.78277512432575e-05   1.255888197047167e-05   -1.8981499290404106e-05
-6.592063267471393e-05   2.0159811306597053e-05   -6.005392117298502e-05
-6.592063267471393e-05   2.0159811306597053e-05   -6.005392117298502e-05
-6.592063267471393e-05   2.0159811306597053e-05   -6.005392117298502e-05
-6.592063267471393e-05   2.0159811306597053e-05   -6.005392117298502e-05
-7.663972665605747e-05   1.5465697378499663e-05   -3.9372296180554774e-05
-7.663972665605747e-05   1.5465697378499663e-05   -3.9372296180554774e-05
-7.663972665605747e-05   1.5465697378499663e-05   -3.9372296180554774e-05
-7.663972665605747e-05   1.5465697378499663e-05   -3.9372296180554774e-05
-6.592063267471404e-05   1.2558881970470802e-05   -2.3542056892079683e-05
-6.592063267471404e-05   1.2558881970470802e-05   -2.3542056892079683e-05
-6.592063267471404e-05   1.2558881970470802e-05   -2.3542056892079683e-05
-6.592063267471404e-05   1.2558881970470802e-05   -2.3542056892079683e-05
-8.782775124325734e-05   2.0159811306597053e-05   -5.5493363571309986e-05
-8.782775124325734e-05   2.0159811306597053e-05   -5.5493363571309986e-05
-8.782775124325734e-05   2.0159811306597053e-05   -5.5493363571309986e-05
-8.782775124325734e-05   2.0159811306597053e-05   -5.5493363571309986e-05
-8.28196432046648e-05   1.4448526965390833e-05   -1.4766455763478431e-05
-8.28196432046648e-05   1.4448526965390833e-05   -1.4766455763478431e-05
-8.28196432046648e-05   1.4448526965390833e-05   -1.4766455763478431e-05
-8.28196432046648e-05   1.4448526965390833e-05   -1.4766455763478431e-05
-6.404779960071091e-05   2.143193672751731e-05   -5.0242907627343764e-05
-6.404779960071091e-05   2.143193672751731e-05   -5.0242907627343764e-05
-6.404779960071091e-05   2.143193672751731e-05   -5.0242907627343764e-05
-6.404779960071091e-05   2.143193672751731e-05   -5.0242907627343764e-05
-7.266177374796591e-05   1.6071249320309504e-05   -3.266987160426189e-05
-7.266177374796591e-05   1.6071249320309504e-05   -3.266987160426189e-05
-7.266177374796591e-05   1.6071249320309504e-05   -3.266987160426189e-05
-7.266177374796591e-05   1.6071249320309504e-05   -3.266987160426189e-05
7.409275099612639e-05   -9.731827423310226e-06   -8.68495980868144e-07
7.409275099612639e-05   -9.731827423310226e-06   -8.68495980868144e-07
7.409275099612639e-05   -9.731827423310226e-06   -8.68495980868144e-07
7.409275099612639e-05   -9.731827423310226e-06   -8.68495980868144e-07
3.16309462985669e-05   -1.7596003137502342e-05   -7.635667590531617e-05
3.16309462985669e-05   -1.7596003137502342e-05   -7.635667590531617e-05
3.16309462985669e-05   -1.7596003137502342e-05   -7.635667590531617e-05
3.16309462985669e-05   -1.7596003137502342e-05   -7.635667590531617e-05
3.390183459428759e-05   -7.992775732820062e-06   -8.677410333641535e-06
3.390183459428759e-05   -7.992775732820062e-06   -8.677410333641535e-06
3.390183459428759e-05   -7.992775732820062e-06   -8.677410333641535e-06
3.390183459428759e-05   -7.992775732820062e-06   -8.677410333641535e-06
7.97480184965265e-05   -1.6359638254393426e-05   -8.006759932442848e-05
7.97480184965265e-05   -1.6359638254393426e-05   -8.006759932442848e-05
7.97480184965265e-05   -1.6359638254393426e-05   -8.006759932442848e-05
7.97480184965265e-05   -1.6359638254393426e-05   -8.006759932442848e-05
5.263434485155424e-05   -1.1583763695229357e-05   -3.774366798497291e-05
5.263434485155424e-05   -1.1583763695229357e-05   -3.774366798497291e-05
5.263434485155424e-05   -1.1583763695229357e-05   -3.774366798497291e-05
5.263434485155424e-05   -1.1583763695229357e-05   -3.774366798497291e-05
7.974801849652672e-05   -7.992775732820062e-06   -3.6572928206971694e-06
7.974801849652672e-05   -7.992775732820062e-06   -3.6572928206971694e-06
7.974801849652672e-05   -7.992775732820062e-06   -3.6572928206971694e-06
7.974801849652672e-05   -7.992775732820062e-06   -3.6572928206971694e-06
3.390183459428748e-05   -1.6359638254393426e-05   -8.508771683737263e-05
3.390183459428748e-05   -1.6359638254393426e-05   -8.508771683737263e-05
3.390183459428748e-05   -1.6359638254393426e-05   -8.508771683737263e-05
3.390183459428748e-05   -1.6359638254393426e-05   -8.508771683737263e-05
3.641589036262969e-05   -6.837863981273666e-06   -1.2092516028363275e-05
3.641589036262969e-05   -6.837863981273666e-06   -1.2092516028363275e-05
3.641589036262969e-05   -6.837863981273666e-06   -1.2092516028363275e-05
3.641589036262969e-05   -6.837863981273666e-06   -1.2092516028363275e-05
8.450523521197513e-05   -1.5303088014922105e-05   -8.716228969041684e-05
8.450523521197513e-05   -1.5303088014922105e-05   -8.716228969041684e-05
8.450523521197513e-05   -1.5303088014922105e-05   -8.716228969041684e-05
8.450523521197513e-05   -1.5303088014922105e-05   -8.716228969041684e-05
5.6882863405115e-05   -1.111386412881634e-05   -4.363853767731362e-05
5.6882863405115e-05   -1.111386412881634e-05   -4.363853767731362e-05
5.6882863405115e-05   -1.111386412881634e-05   -4.363853767731362e-05
5.6882863405115e-05   -1.111386412881634e-05   -4.363853767731362e-05
8.450523521197524e-05   -6.837863981273666e-06   -7.013381608174472e-06
8.450523521197524e-05   -6.837863981273666e-06   -7.013381608174472e-06
8.450523521197524e-05   -6.837863981273666e-06   -7.013381608174472e-06
8.450523521197524e-05   -6.837863981273666e-06   -7.013381608174472e-06
3.641589036262969e-05   -1.5303088014922105e-05   -9.224142411060716e-05
3.641589036262969e-05   -1.5303088014922105e-05   -9.224142411060716e-05
3.641589036262969e-05   -1.5303088014922105e-05   -9.224142411060716e-05
3.641589036262969e-05   -1.5303088014922105e-05   -9.224142411060716e-05
3.8499107996602436e-05   -3.92339866902517e-06   -1.9994173622557045e-05
3.8499107996602436e-05   -3.92339866902517e-06   -1.9994173622557045e-05
3.8499107996602436e-05   -3.92339866902517e-06   -1.9994173622557045e-05
3.8499107996602436e-05   -3.92339866902517e-06   -1.9994173622557045e-05
9.002797539783781e-05   -1.195510578397025e-05   -0.00010105659502231568
9.002797539783781e-05   -1.195510578397025e-05   -0.00010105659502231568
9.002797539783781e-05   -1.195510578397025e-05   -0.00010105659502231568
9.002797539783781e-05   -1.195510578397025e-05   -0.00010105659502231568
5.920319937418477e-05   -9.811924031292649e-06   -5.0967877367836655e-05
5.920319937418477e-05   -9.811924031292649e-06   -5.0967877367836655e-05
5.920319937418477e-05   -9.811924031292649e-06   -5.0967877367836655e-05
5.920319937418477e-05   -9.811924031292649e-06   -5.0967877367836655e-05
3.1630946298567006e-05   -3.867858607466655e-06   -5.207505600885549e-05
3.1630946298567006e-05   -3.867858607466655e-06   -5.207505600885549e-05
3.1630946298567006e-05   -3.867858607466655e-06   -5.207505600885549e-05
3.1630946298567006e-05   -3.867858607466655e-06   -5.207505600885549e-05
-1.337475831427636e-05   -8.271504248766673e-06   -0.0001297267510817074
-1.337475831427636e-05   -8.271504248766673e-06   -0.0001297267510817074
-1.337475831427636e-05   -8.271504248766673e-06   -0.0001297267510817074
-1.337475831427636e-05   -8.271504248766673e-06   -0.0001297267510817074
-1.1258248578332878e-05   -1.4884673748228813e-06   -5.3159651958433526e-05
-1.1258248578332878e-05   -1.4884673748228813e-06   -5.3159651958433526e-05
-1.1258248578332878e-05   -1.4884673748228813e-06   -5.3159651958433526e-05
-1.1258248578332878e-05   -1.4884673748228813e-06   -5.3159651958433526e-05
3.390183459428748e-05   -6.563812218779441e-06   -0.00012538125033976003
3.390183459428748e-05   -6.563812218779441e-06   -0.00012538125033976003
3.390183459428748e-05   -6.563812218779441e-06   -0.00012538125033976003
3.390183459428748e-05   -6.563812218779441e-06   -0.00012538125033976003
1.0338706880780372e-05   -4.005209673191637e-06   -8.76445323446008e-05
1.0338706880780372e-05   -4.005209673191637e-06   -8.76445323446008e-05
1.0338706880780372e-05   -4.005209673191637e-06   -8.76445323446008e-05
1.0338706880780372e-05   -4.005209673191637e-06   -8.76445323446008e-05
3.390183459428748e-05   -1.4884673748228813e-06   -5.011444505205898e-05
3.390183459428748e-05   -1.4884673748228813e-06   -5.011444505205898e-05
3.390183459428748e-05   -1.4884673748228813e-06   -5.011444505205898e-05
3.390183459428748e-05   -1.4884673748228813e-06   -5.011444505205898e-05
-1.1258248578332878e-05   -6.563812218779441e-06   -0.00012842645724613425
-1.1258248578332878e-05   -6.563812218779441e-06   -0.00012842645724613425
-1.1258248578332878e-05   -6.563812218779441e-06   -0.00012842645724613425
-1.1258248578332878e-05   -6.563812218779441e-06   -0.00012842645724613425
-9.237287221305326e-06   9.70300380257437e-07   -5.383237692681633e-05
-9.237287221305326e-06   9.70300380257437e-07   -5.383237692681633e-05
-9.237287221305326e-06   9.70300380257437e-07   -5.383237692681633e-05
-9.237287221305326e-06   9.70300380257437e-07   -5.383237692681633e-05
3.641589036262969e-05   -4.475501396346629e-06   -0.00012665352516741195
3.641589036262969e-05   -4.475501396346629e-06   -0.00012665352516741195
3.641589036262969e-05   -4.475501396346629e-06   -0.00012665352516741195
3.641589036262969e-05   -4.475501396346629e-06   -0.00012665352516741195
1.2022579127806733e-05   -2.497097396567116e-06   -8.718504884257304e-05
1.2022579127806733e-05   -2.497097396567116e-06   -8.718504884257304e-05
1.2022579127806733e-05   -2.497097396567116e-06   -8.718504884257304e-05
1.2022579127806733e-05   -2.497097396567116e-06   -8.718504884257304e-05
3.641589036262969e-05   9.703003802583043e-07   -5.056489586085372e-05
3.641589036262969e-05   9.703003802583043e-07   -5.056489586085372e-05
3.641589036262969e-05   9.703003802583043e-07   -5.056489586085372e-05
3.641589036262969e-05   9.703003802583043e-07   -5.056489586085372e-05
-9.237287221305326e-06   -4.475501396346629e-06   -0.00012992100623337522
-9.237287221305326e-06   -4.475501396346629e-06   -0.00012992100623337522
-9.237287221305326e-06   -4.475501396346629e-06   -0.00012992100623337522
-9.237287221305326e-06   -4.475501396346629e-06   -0.00012992100623337522
-7.3376790106576516e-06   3.879684384821419e-06   -5.565184474362172e-05
-7.3376790106576516e-06   3.879684384821419e-06   -5.565184474362172e-05
-7.3376790106576516e-06   3.879684384821419e-06   -5.565184474362172e-05
-7.3376790106576516e-06   3.879684384821419e-06   -5.565184474362172e-05
3.849910799660233e-05   -1.8499811018672305e-06   -0.000128608690463709
3.849910799660233e-05   -1.8499811018672305e-06   -0.000128608690463709
3.849910799660233e-05   -1.8499811018672305e-06   -0.000128608690463709
3.849910799660233e-05   -1.8499811018672305e-06   -0.000128608690463709
1.4115885846913276e-05   -6.38521050123908e-07   -8.869686291194229e-05
1.4115885846913276e-05   -6.38521050123908e-07   -8.869686291194229e-05
1.4115885846913276e-05   -6.38521050123908e-07   -8.869686291194229e-05
1.4115885846913276e-05   -6.38521050123908e-07   -8.869686291194229e-05
-1.337475831427636e-05   2.9355148507608994e-06   -6.688337606873887e-05
-1.337475831427636e-05   2.9355148507608994e-06   -6.688337606873887e-05
-1.337475831427636e-05   2.9355148507608994e-06   -6.688337606873887e-05
-1.337475831427636e-05   2.9355148507608994e-06   -6.688337606873887e-05
-5.758798132316047e-05   1.4439634397405907e-06   -0.00014146701193015797
-5.758798132316047e-05   1.4439634397405907e-06   -0.00014146701193015797
-5.758798132316047e-05   1.4439634397405907e-06   -0.00014146701193015797
-5.758798132316047e-05   1.4439634397405907e-06   -0.00014146701193015797
-5.5309405020850254e-05   5.449811418728467e-06   -6.643404432934335e-05
-5.5309405020850254e-05   5.449811418728467e-06   -6.643404432934335e-05
-5.5309405020850254e-05   5.449811418728467e-06   -6.643404432934335e-05
-5.5309405020850254e-05   5.449811418728467e-06   -6.643404432934335e-05
-1.1258248578332878e-05   3.35968295615309e-06   -0.00013859856132265966
-1.1258248578332878e-05   3.35968295615309e-06   -0.00013859856132265966
-1.1258248578332878e-05   3.35968295615309e-06   -0.00013859856132265966
-1.1258248578332878e-05   3.35968295615309e-06   -0.00013859856132265966
-3.414597843237818e-05   4.022375042060135e-06   -0.00010084996015079575
-3.414597843237818e-05   4.022375042060135e-06   -0.00010084996015079575
-3.414597843237818e-05   4.022375042060135e-06   -0.00010084996015079575
-3.414597843237818e-05   4.022375042060135e-06   -0.00010084996015079575
-1.1258248578332878e-05   5.449811418728467e-06   -6.51799672517976e-05
-1.1258248578332878e-05   5.449811418728467e-06   -6.51799672517976e-05
-1.1258248578332878e-05   5.449811418728467e-06   -6.51799672517976e-05
-1.1258248578332878e-05   5.449811418728467e-06   -6.51799672517976e-05
-5.5309405020850254e-05   3.35968295615309e-06   -0.0001398526384002053
-5.5309405020850254e-05   3.35968295615309e-06   -0.0001398526384002053
-5.5309405020850254e-05   3.35968295615309e-06   -0.0001398526384002053
-5.5309405020850254e-05   3.35968295615309e-06   -0.0001398526384002053
-5.3112485550423696e-05   8.113192725239977e-06   -6.633370360924684e-05
-5.3112485550423696e-05   8.113192725239977e-06   -6.633370360924684e-05
-5.3112485550423696e-05   8.113192725239977e-06   -6.633370360924684e-05
-5.3112485550423696e-05   8.113192725239977e-06   -6.633370360924684e-05
-9.23728722130538e-06   5.581452199413493e-06   -0.00013793998984228052
-9.23728722130538e-06   5.581452199413493e-06   -0.00013793998984228052
-9.23728722130538e-06   5.581452199413493e-06   -0.00013793998984228052
-9.23728722130538e-06   5.581452199413493e-06   -0.00013793998984228052
-3.2183651745133644e-05   5.815290331764866e-06   -9.983635184864436e-05
-3.2183651745133644e-05   5.815290331764866e-06   -9.983635184864436e-05
-3.2183651745133644e-05   5.815290331764866e-06   -9.983635184864436e-05
-3.2183651745133644e-05   5.815290331764866e-06   -9.983635184864436e-05
-9.23728722130538e-06   8.113192725239977e-06   -6.481465929374965e-05
-9.23728722130538e-06   8.113192725239977e-06   -6.481465929374965e-05
-9.23728722130538e-06   8.113192725239977e-06   -6.481465929374965e-05
-9.23728722130538e-06   8.113192725239977e-06   -6.481465929374965e-05
-5.3112485550423696e-05   5.581452199412626e-06   -0.0001394590341577775
-5.3112485550423696e-05   5.581452199412626e-06   -0.0001394590341577775
-5.3112485550423696e-05   5.581452199412626e-06   -0.0001394590341577775
-5.3112485550423696e-05   5.581452199412626e-06   -0.0001394590341577775
-5.108227503194082e-05   1.082244850828841e-05   -6.78874814363929e-05
-5.108227503194082e-05   1.082244850828841e-05   -6.78874814363929e-05
-5.108227503194082e-05   1.082244850828841e-05   -6.78874814363929e-05
-5.108227503194082e-05   1.082244850828841e-05   -6.78874814363929e-05
-7.337679010657706e-06   7.878207177004076e-06   -0.00013902859667309485
-7.337679010657706e-06   7.878207177004076e-06   -0.00013902859667309485
-7.337679010657706e-06   7.878207177004076e-06   -0.00013902859667309485
-7.337679010657706e-06   7.878207177004076e-06   -0.00013902859667309485
-3.042904381381575e-05   7.655087406761157e-06   -0.0001004091168056869
-3.042904381381575e-05   7.655087406761157e-06   -0.0001004091168056869
-3.042904381381575e-05   7.655087406761157e-06   -0.0001004091168056869
-3.042904381381575e-05   7.655087406761157e-06   -0.0001004091168056869
-5.758798132316058e-05   9.530808447730417e-06   -5.428906934387169e-05
-5.758798132316058e-05   9.530808447730417e-06   -5.428906934387169e-05
-5.758798132316058e-05   9.530808447730417e-06   -5.428906934387169e-05
-5.758798132316058e-05   9.530808447730417e-06   -5.428906934387169e-05
-0.00010094692052211856   1.1505833796250989e-05   -0.0001253689527996901
-0.00010094692052211856   1.1505833796250989e-05   -0.0001253689527996901
-0.00010094692052211856   1.1505833796250989e-05   -0.0001253689527996901
-0.00010094692052211856   1.1505833796250989e-05   -0.0001253689527996901
-9.820274883516692e-05   1.2214324556975888e-05   -5.104712810455065e-05
-9.820274883516692e-05   1.2214324556975888e-05   -5.104712810455065e-05
-9.820274883516692e-05   1.2214324556975888e-05   -5.104712810455065e-05
-9.820274883516692e-05   1.2214324556975888e-05   -5.104712810455065e-05
-5.530940502085035e-05   1.3942754523924537e-05   -0.00012357309244191434
-5.530940502085035e-05   1.3942754523924537e-05   -0.00012357309244191434
-5.530940502085035e-05   1.3942754523924537e-05   -0.00012357309244191434
-5.530940502085035e-05   1.3942754523924537e-05   -0.00012357309244191434
-7.744107564203542e-05   1.2312269098653517e-05   -8.570868348477698e-05
-7.744107564203542e-05   1.2312269098653517e-05   -8.570868348477698e-05
-7.744107564203542e-05   1.2312269098653517e-05   -8.570868348477698e-05
-7.744107564203542e-05   1.2312269098653517e-05   -8.570868348477698e-05
-5.530940502085035e-05   1.2214324556976755e-05   -5.2084186084719666e-05
-5.530940502085035e-05   1.2214324556976755e-05   -5.2084186084719666e-05
-5.530940502085035e-05   1.2214324556976755e-05   -5.2084186084719666e-05
-5.530940502085035e-05   1.2214324556976755e-05   -5.2084186084719666e-05
-9.82027488351671e-05   1.3942754523924537e-05   -0.00012253603446174587
-9.82027488351671e-05   1.3942754523924537e-05   -0.00012253603446174587
-9.82027488351671e-05   1.3942754523924537e-05   -0.00012253603446174587
-9.82027488351671e-05   1.3942754523924537e-05   -0.00012253603446174587
-9.517110364369222e-05   1.4633208587909105e-05   -4.924476725387886e-05
-9.517110364369222e-05   1.4633208587909105e-05   -4.924476725387886e-05
-9.517110364369222e-05   1.4633208587909105e-05   -4.924476725387886e-05
-9.517110364369222e-05   1.4633208587909105e-05   -4.924476725387886e-05
-5.3112485550423804e-05   1.6042060855942647e-05   -0.0001201877754368134
-5.3112485550423804e-05   1.6042060855942647e-05   -0.0001201877754368134
-5.3112485550423804e-05   1.6042060855942647e-05   -0.0001201877754368134
-5.3112485550423804e-05   1.6042060855942647e-05   -0.0001201877754368134
-7.467040898804958e-05   1.4207045197526733e-05   -8.315689364572108e-05
-7.467040898804958e-05   1.4207045197526733e-05   -8.315689364572108e-05
-7.467040898804958e-05   1.4207045197526733e-05   -8.315689364572108e-05
-7.467040898804958e-05   1.4207045197526733e-05   -8.315689364572108e-05
-5.311248555042375e-05   1.4633208587909105e-05   -5.0090078614699416e-05
-5.311248555042375e-05   1.4633208587909105e-05   -5.0090078614699416e-05
-5.311248555042375e-05   1.4633208587909105e-05   -5.0090078614699416e-05
-5.311248555042375e-05   1.4633208587909105e-05   -5.0090078614699416e-05
-9.517110364369222e-05   1.6042060855943514e-05   -0.00011934246407599306
-9.517110364369222e-05   1.6042060855943514e-05   -0.00011934246407599306
-9.517110364369222e-05   1.6042060855943514e-05   -0.00011934246407599306
-9.517110364369222e-05   1.6042060855943514e-05   -0.00011934246407599306
-9.260807829026384e-05   1.7343252865477214e-05   -5.038067031639445e-05
-9.260807829026384e-05   1.7343252865477214e-05   -5.038067031639445e-05
-9.260807829026384e-05   1.7343252865477214e-05   -5.038067031639445e-05
-9.260807829026384e-05   1.7343252865477214e-05   -5.038067031639445e-05
-5.10822750319409e-05   1.8367778786326262e-05   -0.00012020505796610906
-5.10822750319409e-05   1.8367778786326262e-05   -0.00012020505796610906
-5.10822750319409e-05   1.8367778786326262e-05   -0.00012020505796610906
-5.10822750319409e-05   1.8367778786326262e-05   -0.00012020505796610906
-7.293500343565369e-05   1.5953630740027022e-05   -8.233535513214185e-05
-7.293500343565369e-05   1.5953630740027022e-05   -8.233535513214185e-05
-7.293500343565369e-05   1.5953630740027022e-05   -8.233535513214185e-05
-7.293500343565369e-05   1.5953630740027022e-05   -8.233535513214185e-05
-0.00010094692052211856   1.6380533803664332e-05   -2.723459127648405e-05
-0.00010094692052211856   1.6380533803664332e-05   -2.723459127648405e-05
-0.00010094692052211856   1.6380533803664332e-05   -2.723459127648405e-05
-0.00010094692052211856   1.6380533803664332e-05   -2.723459127648405e-05
-0.0001465693711328161   2.2662934990645353e-05   -9.950256824879178e-05
-0.0001465693711328161   2.2662934990645353e-05   -9.950256824879178e-05
-0.0001465693711328161   2.2662934990645353e-05   -9.950256824879178e-05
-0.0001465693711328161   2.2662934990645353e-05   -9.950256824879178e-05
-0.0001403005925152355   1.9163594735885532e-05   -8.836186752905154e-06
-0.0001403005925152355   1.9163594735885532e-05   -8.836186752905154e-06
-0.0001403005925152355   1.9163594735885532e-05   -8.836186752905154e-06
-0.0001403005925152355   1.9163594735885532e-05   -8.836186752905154e-06
-9.820274883516692e-05   2.590019747620003e-05   -8.304122119720847e-05
-9.820274883516692e-05   2.590019747620003e-05   -8.304122119720847e-05
-9.820274883516692e-05   2.590019747620003e-05   -8.304122119720847e-05
-9.820274883516692e-05   2.590019747620003e-05   -8.304122119720847e-05
-0.00011647961202679424   2.159255556197226e-05   -4.999519739595928e-05
-0.00011647961202679424   2.159255556197226e-05   -4.999519739595928e-05
-0.00011647961202679424   2.159255556197226e-05   -4.999519739595928e-05
-0.00011647961202679424   2.159255556197226e-05   -4.999519739595928e-05
-9.8202748835167e-05   1.9163594735884665e-05   -1.287814839709368e-05
-9.8202748835167e-05   1.9163594735884665e-05   -1.287814839709368e-05
-9.8202748835167e-05   1.9163594735884665e-05   -1.287814839709368e-05
-9.8202748835167e-05   1.9163594735884665e-05   -1.287814839709368e-05
-0.00014030059251523528   2.590019747620003e-05   -7.899925955301987e-05
-0.00014030059251523528   2.590019747620003e-05   -7.899925955301987e-05
-0.00014030059251523528   2.590019747620003e-05   -7.899925955301987e-05
-0.00014030059251523528   2.590019747620003e-05   -7.899925955301987e-05
-0.00013514138166190523   2.0159811306597053e-05   -1.1705951350033349e-06
-0.00013514138166190523   2.0159811306597053e-05   -1.1705951350033349e-06
-0.00013514138166190523   2.0159811306597053e-05   -1.1705951350033349e-06
-0.00013514138166190523   2.0159811306597053e-05   -1.1705951350033349e-06
-9.517110364369222e-05   2.6749814376476368e-05   -7.174172700728531e-05
-9.517110364369222e-05   2.6749814376476368e-05   -7.174172700728531e-05
-9.517110364369222e-05   2.6749814376476368e-05   -7.174172700728531e-05
-9.517110364369222e-05   2.6749814376476368e-05   -7.174172700728531e-05
-0.00011431686273346702   2.2875768197790428e-05   -3.750770081711516e-05
-0.00011431686273346702   2.2875768197790428e-05   -3.750770081711516e-05
-0.00011431686273346702   2.2875768197790428e-05   -3.750770081711516e-05
-0.00011431686273346702   2.2875768197790428e-05   -3.750770081711516e-05
-9.517110364369222e-05   2.0159811306597053e-05   -5.124596976930577e-06
-9.517110364369222e-05   2.0159811306597053e-05   -5.124596976930577e-06
-9.517110364369222e-05   2.0159811306597053e-05   -5.124596976930577e-06
-9.517110364369222e-05   2.0159811306597053e-05   -5.124596976930577e-06
-0.0001351413816619048   2.6749814376476368e-05   -6.778772516535803e-05
-0.0001351413816619048   2.6749814376476368e-05   -6.778772516535803e-05
-0.0001351413816619048   2.6749814376476368e-05   -6.778772516535803e-05
-0.0001351413816619048   2.6749814376476368e-05   -6.778772516535803e-05
-0.00012958408993240584   2.143193672751731e-05   8.54448853267447e-06
-0.00012958408993240584   2.143193672751731e-05   8.54448853267447e-06
-0.00012958408993240584   2.143193672751731e-05   8.54448853267447e-06
-0.00012958408993240584   2.143193672751731e-05   8.54448853267447e-06
-9.260807829026384e-05   2.7491788851450455e-05   -5.671810881192221e-05
-9.260807829026384e-05   2.7491788851450455e-05   -5.671810881192221e-05
-9.260807829026384e-05   2.7491788851450455e-05   -5.671810881192221e-05
-9.260807829026384e-05   2.7491788851450455e-05   -5.671810881192221e-05
-0.0001091015951140306   2.308677395834128e-05   -2.6585905169779656e-05
-0.0001091015951140306   2.308677395834128e-05   -2.6585905169779656e-05
-0.0001091015951140306   2.308677395834128e-05   -2.6585905169779656e-05
-0.0001091015951140306   2.308677395834128e-05   -2.6585905169779656e-05
0.00012605905480141024   -1.7596003137502342e-05   2.4681354363889716e-05
0.00012605905480141024   -1.7596003137502342e-05   2.4681354363889716e-05
0.00012605905480141024   -1.7596003137502342e-05   2.4681354363889716e-05
0.00012605905480141024   -1.7596003137502342e-05   2.4681354363889716e-05
6.08193108559594e-05   -2.61015583611357e-05   -8.915488534604098e-05
6.08193108559594e-05   -2.61015583611357e-05   -8.915488534604098e-05
6.08193108559594e-05   -2.61015583611357e-05   -8.915488534604098e-05
6.08193108559594e-05   -2.61015583611357e-05   -8.915488534604098e-05
6.333796268596773e-05   -1.635963825439256e-05   1.1738822986414113e-05
6.333796268596773e-05   -1.635963825439256e-05   1.1738822986414113e-05
6.333796268596773e-05   -1.635963825439256e-05   1.1738822986414113e-05
6.333796268596773e-05   -1.635963825439256e-05   1.1738822986414113e-05
0.00013187863699803243   -2.54864478653671e-05   -9.701954843377653e-05
0.00013187863699803243   -2.54864478653671e-05   -9.701954843377653e-05
0.00013187863699803243   -2.54864478653671e-05   -9.701954843377653e-05
0.00013187863699803243   -2.54864478653671e-05   -9.701954843377653e-05
9.164337119769636e-05   -1.9276770327198225e-05   -3.368657862278402e-05
9.164337119769636e-05   -1.9276770327198225e-05   -3.368657862278402e-05
9.164337119769636e-05   -1.9276770327198225e-05   -3.368657862278402e-05
9.164337119769636e-05   -1.9276770327198225e-05   -3.368657862278402e-05
0.00013187863699803265   -1.635963825439256e-05   1.7214908752998838e-05
0.00013187863699803265   -1.635963825439256e-05   1.7214908752998838e-05
0.00013187863699803265   -1.635963825439256e-05   1.7214908752998838e-05
0.00013187863699803265   -1.635963825439256e-05   1.7214908752998838e-05
6.333796268596762e-05   -2.54864478653671e-05   -0.00010249563420036039
6.333796268596762e-05   -2.54864478653671e-05   -0.00010249563420036039
6.333796268596762e-05   -2.54864478653671e-05   -0.00010249563420036039
6.333796268596762e-05   -2.54864478653671e-05   -0.00010249563420036039
6.584272424974415e-05   -1.5303088014922105e-05   5.419802308452744e-06
6.584272424974415e-05   -1.5303088014922105e-05   5.419802308452744e-06
6.584272424974415e-05   -1.5303088014922105e-05   5.419802308452744e-06
6.584272424974415e-05   -1.5303088014922105e-05   5.419802308452744e-06
0.00013634984998806953   -2.4603498235616604e-05   -0.00010651182778967328
0.00013634984998806953   -2.4603498235616604e-05   -0.00010651182778967328
0.00013634984998806953   -2.4603498235616604e-05   -0.00010651182778967328
0.00013634984998806953   -2.4603498235616604e-05   -0.00010651182778967328
9.654000912587209e-05   -1.9214308788401135e-05   -4.339560668767341e-05
9.654000912587209e-05   -1.9214308788401135e-05   -4.339560668767341e-05
9.654000912587209e-05   -1.9214308788401135e-05   -4.339560668767341e-05
9.654000912587209e-05   -1.9214308788401135e-05   -4.339560668767341e-05
0.00013634984998806953   -1.5303088014922105e-05   1.1000048440869097e-05
0.00013634984998806953   -1.5303088014922105e-05   1.1000048440869097e-05
0.00013634984998806953   -1.5303088014922105e-05   1.1000048440869097e-05
0.00013634984998806953   -1.5303088014922105e-05   1.1000048440869097e-05
6.584272424974415e-05   -2.4603498235616604e-05   -0.00011209207392208964
6.584272424974415e-05   -2.4603498235616604e-05   -0.00011209207392208964
6.584272424974415e-05   -2.4603498235616604e-05   -0.00011209207392208964
6.584272424974415e-05   -2.4603498235616604e-05   -0.00011209207392208964
6.754872436684847e-05   -1.195510578397025e-05   -7.330091941939142e-06
6.754872436684847e-05   -1.195510578397025e-05   -7.330091941939142e-06
6.754872436684847e-05   -1.195510578397025e-05   -7.330091941939142e-06
6.754872436684847e-05   -1.195510578397025e-05   -7.330091941939142e-06
0.00014107629929659712   -2.1152803231641766e-05   -0.0001243574316895841
0.00014107629929659712   -2.1152803231641766e-05   -0.0001243574316895841
0.00014107629929659712   -2.1152803231641766e-05   -0.0001243574316895841
0.00014107629929659712   -2.1152803231641766e-05   -0.0001243574316895841
9.793055367141021e-05   -1.774106525720843e-05   -5.449489843226737e-05
9.793055367141021e-05   -1.774106525720843e-05   -5.449489843226737e-05
9.793055367141021e-05   -1.774106525720843e-05   -5.449489843226737e-05
9.793055367141021e-05   -1.774106525720843e-05   -5.449489843226737e-05
6.081931085595956e-05   -8.27150424876754e-06   -3.114986656190151e-05
6.081931085595956e-05   -8.27150424876754e-06   -3.114986656190151e-05
6.081931085595956e-05   -8.27150424876754e-06   -3.114986656190151e-05
6.081931085595956e-05   -8.27150424876754e-06   -3.114986656190151e-05
-3.554327460548654e-06   -1.6991687098181357e-05   -0.00014367137346572986
-3.554327460548654e-06   -1.6991687098181357e-05   -0.00014367137346572986
-3.554327460548654e-06   -1.6991687098181357e-05   -0.00014367137346572986
-3.554327460548654e-06   -1.6991687098181357e-05   -0.00014367137346572986
-9.661816708154665e-07   -6.563812218779441e-06   -3.432977909660108e-05
-9.661816708154665e-07   -6.563812218779441e-06   -3.432977909660108e-05
-9.661816708154665e-07   -6.563812218779441e-06   -3.432977909660108e-05
-9.661816708154665e-07   -6.563812218779441e-06   -3.432977909660108e-05
6.333796268596773e-05   -1.6188926519826452e-05   -0.00013572828444394474
6.333796268596773e-05   -1.6188926519826452e-05   -0.00013572828444394474
6.333796268596773e-05   -1.6188926519826452e-05   -0.00013572828444394474
6.333796268596773e-05   -1.6188926519826452e-05   -0.00013572828444394474
3.000173333334686e-05   -1.0276387403731525e-05   -8.371542565923404e-05
3.000173333334686e-05   -1.0276387403731525e-05   -8.371542565923404e-05
3.000173333334686e-05   -1.0276387403731525e-05   -8.371542565923404e-05
3.000173333334686e-05   -1.0276387403731525e-05   -8.371542565923404e-05
6.333796268596762e-05   -6.563812218779441e-06   -2.855471051597296e-05
6.333796268596762e-05   -6.563812218779441e-06   -2.855471051597296e-05
6.333796268596762e-05   -6.563812218779441e-06   -2.855471051597296e-05
6.333796268596762e-05   -6.563812218779441e-06   -2.855471051597296e-05
-9.661816708154665e-07   -1.6188926519826452e-05   -0.00014150335302457297
-9.661816708154665e-07   -1.6188926519826452e-05   -0.00014150335302457297
-9.661816708154665e-07   -1.6188926519826452e-05   -0.00014150335302457297
-9.661816708154665e-07   -1.6188926519826452e-05   -0.00014150335302457297
1.3148659573471513e-06   -4.475501396346629e-06   -3.511890259859547e-05
1.3148659573471513e-06   -4.475501396346629e-06   -3.511890259859547e-05
1.3148659573471513e-06   -4.475501396346629e-06   -3.511890259859547e-05
1.3148659573471513e-06   -4.475501396346629e-06   -3.511890259859547e-05
6.584272424974415e-05   -1.468650781341705e-05   -0.00013653872923568135
6.584272424974415e-05   -1.468650781341705e-05   -0.00013653872923568135
6.584272424974415e-05   -1.468650781341705e-05   -0.00013653872923568135
6.584272424974415e-05   -1.468650781341705e-05   -0.00013653872923568135
3.1770172557315797e-05   -9.444700864354345e-06   -8.289622725107001e-05
3.1770172557315797e-05   -9.444700864354345e-06   -8.289622725107001e-05
3.1770172557315797e-05   -9.444700864354345e-06   -8.289622725107001e-05
3.1770172557315797e-05   -9.444700864354345e-06   -8.289622725107001e-05
6.584272424974415e-05   -4.475501396346629e-06   -2.8992298748353133e-05
6.584272424974415e-05   -4.475501396346629e-06   -2.8992298748353133e-05
6.584272424974415e-05   -4.475501396346629e-06   -2.8992298748353133e-05
6.584272424974415e-05   -4.475501396346629e-06   -2.8992298748353133e-05
1.3148659573472055e-06   -1.468650781341705e-05   -0.00014266533308592445
1.3148659573472055e-06   -1.468650781341705e-05   -0.00014266533308592445
1.3148659573472055e-06   -1.468650781341705e-05   -0.00014266533308592445
1.3148659573472055e-06   -1.468650781341705e-05   -0.00014266533308592445
2.941406336320722e-06   -1.8499811018672305e-06   -3.64828842875772e-05
2.941406336320722e-06   -1.8499811018672305e-06   -3.64828842875772e-05
2.941406336320722e-06   -1.8499811018672305e-06   -3.64828842875772e-05
2.941406336320722e-06   -1.8499811018672305e-06   -3.64828842875772e-05
6.754872436684869e-05   -1.2549516390552434e-05   -0.00013774202649857997
6.754872436684869e-05   -1.2549516390552434e-05   -0.00013774202649857997
6.754872436684869e-05   -1.2549516390552434e-05   -0.00013774202649857997
6.754872436684869e-05   -1.2549516390552434e-05   -0.00013774202649857997
3.387704075229721e-05   -7.974272140864533e-06   -8.436770035747472e-05
3.387704075229721e-05   -7.974272140864533e-06   -8.436770035747472e-05
3.387704075229721e-05   -7.974272140864533e-06   -8.436770035747472e-05
3.387704075229721e-05   -7.974272140864533e-06   -8.436770035747472e-05
-3.554327460548654e-06   1.443963439741458e-06   -4.7227306273387674e-05
-3.554327460548654e-06   1.443963439741458e-06   -4.7227306273387674e-05
-3.554327460548654e-06   1.443963439741458e-06   -4.7227306273387674e-05
-3.554327460548654e-06   1.443963439741458e-06   -4.7227306273387674e-05
-6.697664718789741e-05   -9.041786615171e-06   -0.00015922262251858279
-6.697664718789741e-05   -9.041786615171e-06   -0.00015922262251858279
-6.697664718789741e-05   -9.041786615171e-06   -0.00015922262251858279
-6.697664718789741e-05   -9.041786615171e-06   -0.00015922262251858279
-6.387239095577687e-05   3.35968295615309e-06   -5.1377266200853915e-05
-6.387239095577687e-05   3.35968295615309e-06   -5.1377266200853915e-05
-6.387239095577687e-05   3.35968295615309e-06   -5.1377266200853915e-05
-6.387239095577687e-05   3.35968295615309e-06   -5.1377266200853915e-05
-9.661816708154665e-07   -8.099288756726122e-06   -0.0001493455653147289
-9.661816708154665e-07   -8.099288756726122e-06   -0.0001493455653147289
-9.661816708154665e-07   -8.099288756726122e-06   -0.0001493455653147289
-9.661816708154665e-07   -8.099288756726122e-06   -0.0001493455653147289
-3.3436222689794213e-05   -1.8263004037434583e-06   -9.899262329488728e-05
-3.3436222689794213e-05   -1.8263004037434583e-06   -9.899262329488728e-05
-3.3436222689794213e-05   -1.8263004037434583e-06   -9.899262329488728e-05
-3.3436222689794213e-05   -1.8263004037434583e-06   -9.899262329488728e-05
-9.661816708154665e-07   3.3596829561522226e-06   -4.450188317312682e-05
-9.661816708154665e-07   3.3596829561522226e-06   -4.450188317312682e-05
-9.661816708154665e-07   3.3596829561522226e-06   -4.450188317312682e-05
-9.661816708154665e-07   3.3596829561522226e-06   -4.450188317312682e-05
-6.387239095577687e-05   -8.099288756726122e-06   -0.00015622094834245653
-6.387239095577687e-05   -8.099288756726122e-06   -0.00015622094834245653
-6.387239095577687e-05   -8.099288756726122e-06   -0.00015622094834245653
-6.387239095577687e-05   -8.099288756726122e-06   -0.00015622094834245653
-6.1024269363288636e-05   5.581452199412626e-06   -5.04591968052805e-05
-6.1024269363288636e-05   5.581452199412626e-06   -5.04591968052805e-05
-6.1024269363288636e-05   5.581452199412626e-06   -5.04591968052805e-05
-6.1024269363288636e-05   5.581452199412626e-06   -5.04591968052805e-05
1.3148659573472055e-06   -6.620732130218146e-06   -0.0001470364450752282
1.3148659573472055e-06   -6.620732130218146e-06   -0.0001470364450752282
1.3148659573472055e-06   -6.620732130218146e-06   -0.0001470364450752282
1.3148659573472055e-06   -6.620732130218146e-06   -0.0001470364450752282
-3.0905531141107905e-05   -7.430114933012003e-07   -9.686241562661973e-05
-3.0905531141107905e-05   -7.430114933012003e-07   -9.686241562661973e-05
-3.0905531141107905e-05   -7.430114933012003e-07   -9.686241562661973e-05
-3.0905531141107905e-05   -7.430114933012003e-07   -9.686241562661973e-05
1.3148659573472055e-06   5.581452199412626e-06   -4.313788620750143e-05
1.3148659573472055e-06   5.581452199412626e-06   -4.313788620750143e-05
1.3148659573472055e-06   5.581452199412626e-06   -4.313788620750143e-05
1.3148659573472055e-06   5.581452199412626e-06   -4.313788620750143e-05
-6.1024269363288744e-05   -6.620732130218146e-06   -0.00015435775567300717
-6.1024269363288744e-05   -6.620732130218146e-06   -0.00015435775567300717
-6.1024269363288744e-05   -6.620732130218146e-06   -0.00015435775567300717
-6.1024269363288744e-05   -6.620732130218146e-06   -0.00015435775567300717
-5.910295211906361e-05   7.878207177004076e-06   -5.1324052031538094e-05
-5.910295211906361e-05   7.878207177004076e-06   -5.1324052031538094e-05
-5.910295211906361e-05   7.878207177004076e-06   -5.1324052031538094e-05
-5.910295211906361e-05   7.878207177004076e-06   -5.1324052031538094e-05
2.941406336320776e-06   -5.2202275339753926e-06   -0.00014687225529725733
2.941406336320776e-06   -5.2202275339753926e-06   -0.00014687225529725733
2.941406336320776e-06   -5.2202275339753926e-06   -0.00014687225529725733
2.941406336320776e-06   -5.2202275339753926e-06   -0.00014687225529725733
-2.909800461413328e-05   4.745846494957906e-07   -9.689012435658479e-05
-2.909800461413328e-05   4.745846494957906e-07   -9.689012435658479e-05
-2.909800461413328e-05   4.745846494957906e-07   -9.689012435658479e-05
-2.909800461413328e-05   4.745846494957906e-07   -9.689012435658479e-05
-6.69766471878973e-05   1.1505833796250989e-05   -3.8605712384978414e-05
-6.69766471878973e-05   1.1505833796250989e-05   -3.8605712384978414e-05
-6.69766471878973e-05   1.1505833796250989e-05   -3.8605712384978414e-05
-6.69766471878973e-05   1.1505833796250989e-05   -3.8605712384978414e-05
-0.00013126745579410132   2.0386375960308734e-06   -0.00015143737778211715
-0.00013126745579410132   2.0386375960308734e-06   -0.00015143737778211715
-0.00013126745579410132   2.0386375960308734e-06   -0.00015143737778211715
-0.00013126745579410132   2.0386375960308734e-06   -0.00015143737778211715
-0.00012684946590982898   1.3942754523924537e-05   -4.118495244242754e-05
-0.00012684946590982898   1.3942754523924537e-05   -4.118495244242754e-05
-0.00012684946590982898   1.3942754523924537e-05   -4.118495244242754e-05
-0.00012684946590982898   1.3942754523924537e-05   -4.118495244242754e-05
-6.387239095577676e-05   3.7973675241498306e-06   -0.0001400595118326496
-6.387239095577676e-05   3.7973675241498306e-06   -0.0001400595118326496
-6.387239095577676e-05   3.7973675241498306e-06   -0.0001400595118326496
-6.387239095577676e-05   3.7973675241498306e-06   -0.0001400595118326496
-9.622596941941408e-05   8.66635208596634e-06   -8.905827179701058e-05
-9.622596941941408e-05   8.66635208596634e-06   -8.905827179701058e-05
-9.622596941941408e-05   8.66635208596634e-06   -8.905827179701058e-05
-9.622596941941408e-05   8.66635208596634e-06   -8.905827179701058e-05
-6.387239095577676e-05   1.3942754523924537e-05   -3.509772024256263e-05
-6.387239095577676e-05   1.3942754523924537e-05   -3.509772024256263e-05
-6.387239095577676e-05   1.3942754523924537e-05   -3.509772024256263e-05
-6.387239095577676e-05   1.3942754523924537e-05   -3.509772024256263e-05
-0.0001268494659098292   3.7973675241498306e-06   -0.00014614674403251463
-0.0001268494659098292   3.7973675241498306e-06   -0.00014614674403251463
-0.0001268494659098292   3.7973675241498306e-06   -0.00014614674403251463
-0.0001268494659098292   3.7973675241498306e-06   -0.00014614674403251463
-0.0001225839660844254   1.6042060855942647e-05   -3.7562339625164896e-05
-0.0001225839660844254   1.6042060855942647e-05   -3.7562339625164896e-05
-0.0001225839660844254   1.6042060855942647e-05   -3.7562339625164896e-05
-0.0001225839660844254   1.6042060855942647e-05   -3.7562339625164896e-05
-6.1024269363288744e-05   5.418058287862473e-06   -0.00013378743261954502
-6.1024269363288744e-05   5.418058287862473e-06   -0.00013378743261954502
-6.1024269363288744e-05   5.418058287862473e-06   -0.00013378743261954502
-6.1024269363288744e-05   5.418058287862473e-06   -0.00013378743261954502
-9.224097031535522e-05   1.0196313191249487e-05   -8.46265506414655e-05
-9.224097031535522e-05   1.0196313191249487e-05   -8.46265506414655e-05
-9.224097031535522e-05   1.0196313191249487e-05   -8.46265506414655e-05
-9.224097031535522e-05   1.0196313191249487e-05   -8.46265506414655e-05
-6.1024269363288555e-05   1.6042060855942647e-05   -3.1187938084316184e-05
-6.1024269363288555e-05   1.6042060855942647e-05   -3.1187938084316184e-05
-6.1024269363288555e-05   1.6042060855942647e-05   -3.1187938084316184e-05
-6.1024269363288555e-05   1.6042060855942647e-05   -3.1187938084316184e-05
-0.00012258396608442562   5.418058287862473e-06   -0.00014016183416039373
-0.00012258396608442562   5.418058287862473e-06   -0.00014016183416039373
-0.00012258396608442562   5.418058287862473e-06   -0.00014016183416039373
-0.00012258396608442562   5.418058287862473e-06   -0.00014016183416039373
-0.00011934051542436956   1.8367778786326262e-05   -3.7679095230944756e-05
-0.00011934051542436956   1.8367778786326262e-05   -3.7679095230944756e-05
-0.00011934051542436956   1.8367778786326262e-05   -3.7679095230944756e-05
-0.00011934051542436956   1.8367778786326262e-05   -3.7679095230944756e-05
-5.910295211906372e-05   6.792567611053034e-06   -0.00013112990736795758
-5.910295211906372e-05   6.792567611053034e-06   -0.00013112990736795758
-5.910295211906372e-05   6.792567611053034e-06   -0.00013112990736795758
-5.910295211906372e-05   6.792567611053034e-06   -0.00013112990736795758
-8.999070649166616e-05   1.1263161359600232e-05   -8.233267299608148e-05
-8.999070649166616e-05   1.1263161359600232e-05   -8.233267299608148e-05
-8.999070649166616e-05   1.1263161359600232e-05   -8.233267299608148e-05
-8.999070649166616e-05   1.1263161359600232e-05   -8.233267299608148e-05
-0.00013126745579410132   2.2662934990645353e-05   -2.218908626640129e-05
-0.00013126745579410132   2.2662934990645353e-05   -2.218908626640129e-05
-0.00013126745579410132   2.2662934990645353e-05   -2.218908626640129e-05
-0.00013126745579410132   2.2662934990645353e-05   -2.218908626640129e-05
-0.00019839165350383407   2.1345883980139826e-05   -0.0001348529797222599
-0.00019839165350383407   2.1345883980139826e-05   -0.0001348529797222599
-0.00019839165350383407   2.1345883980139826e-05   -0.0001348529797222599
-0.00019839165350383407   2.1345883980139826e-05   -0.0001348529797222599
-0.00018971869993086456   2.590019747620003e-05   -9.762300592522193e-07
-0.00018971869993086456   2.590019747620003e-05   -9.762300592522193e-07
-0.00018971869993086456   2.590019747620003e-05   -9.762300592522193e-07
-0.00018971869993086456   2.590019747620003e-05   -9.762300592522193e-07
-0.00012684946590982873   2.709004600726355e-05   -0.00010647219587961673
-0.00012684946590982873   2.709004600726355e-05   -0.00010647219587961673
-0.00012684946590982873   2.709004600726355e-05   -0.00010647219587961673
-0.00012684946590982873   2.709004600726355e-05   -0.00010647219587961673
-0.0001545866299052856   2.5552146524943087e-05   -5.9320849531130414e-05
-0.0001545866299052856   2.5552146524943087e-05   -5.9320849531130414e-05
-0.0001545866299052856   2.5552146524943087e-05   -5.9320849531130414e-05
-0.0001545866299052856   2.5552146524943087e-05   -5.9320849531130414e-05
-0.00012684946590982906   2.590019747620003e-05   -1.690139177890071e-06
-0.00012684946590982906   2.590019747620003e-05   -1.690139177890071e-06
-0.00012684946590982906   2.590019747620003e-05   -1.690139177890071e-06
-0.00012684946590982906   2.590019747620003e-05   -1.690139177890071e-06
-0.00018971869993086456   2.709004600726355e-05   -0.00010575828676097831
-0.00018971869993086456   2.709004600726355e-05   -0.00010575828676097831
-0.00018971869993086456   2.709004600726355e-05   -0.00010575828676097831
-0.00018971869993086456   2.709004600726355e-05   -0.00010575828676097831
-0.0001825189684184128   2.6749814376476368e-05   1.1015260953571755e-05
-0.0001825189684184128   2.6749814376476368e-05   1.1015260953571755e-05
-0.0001825189684184128   2.6749814376476368e-05   1.1015260953571755e-05
-0.0001825189684184128   2.6749814376476368e-05   1.1015260953571755e-05
-0.0001225839660844254   2.8377920226524758e-05   -8.985327311310289e-05
-0.0001225839660844254   2.8377920226524758e-05   -8.985327311310289e-05
-0.0001225839660844254   2.8377920226524758e-05   -8.985327311310289e-05
-0.0001225839660844254   2.8377920226524758e-05   -8.985327311310289e-05
-0.00015126523181812387   2.741565785256521e-05   -4.14738061325613e-05
-0.00015126523181812387   2.741565785256521e-05   -4.14738061325613e-05
-0.00015126523181812387   2.741565785256521e-05   -4.14738061325613e-05
-0.00015126523181812387   2.741565785256521e-05   -4.14738061325613e-05
-0.00012258396608442562   2.6749814376476368e-05   1.003839744354246e-05
-0.00012258396608442562   2.6749814376476368e-05   1.003839744354246e-05
-0.00012258396608442562   2.6749814376476368e-05   1.003839744354246e-05
-0.00012258396608442562   2.6749814376476368e-05   1.003839744354246e-05
-0.00018251896841841247   2.8377920226525626e-05   -8.887640960307443e-05
-0.00018251896841841247   2.8377920226525626e-05   -8.887640960307443e-05
-0.00018251896841841247   2.8377920226525626e-05   -8.887640960307443e-05
-0.00018251896841841247   2.8377920226525626e-05   -8.887640960307443e-05
-0.00017499591654524796   2.7491788851450455e-05   2.7064083752320004e-05
-0.00017499591654524796   2.7491788851450455e-05   2.7064083752320004e-05
-0.00017499591654524796   2.7491788851450455e-05   2.7064083752320004e-05
-0.00017499591654524796   2.7491788851450455e-05   2.7064083752320004e-05
-0.00011934051542436956   3.0610031154096155e-05   -6.756586349739863e-05
-0.00011934051542436956   3.0610031154096155e-05   -6.756586349739863e-05
-0.00011934051542436956   3.0610031154096155e-05   -6.756586349739863e-05
-0.00011934051542436956   3.0610031154096155e-05   -6.756586349739863e-05
-0.00014401680645278306   2.8050165587793427e-05   -2.490279244359532e-05
-0.00014401680645278306   2.8050165587793427e-05   -2.490279244359532e-05
-0.00014401680645278306   2.8050165587793427e-05   -2.490279244359532e-05
-0.00014401680645278306   2.8050165587793427e-05   -2.490279244359532e-05
0.00017355211539695278   -2.61015583611357e-05   5.896149325811204e-05
0.00017355211539695278   -2.61015583611357e-05   5.896149325811204e-05
0.00017355211539695278   -2.61015583611357e-05   5.896149325811204e-05
0.00017355211539695278   -2.61015583611357e-05   5.896149325811204e-05
8.73127354124527e-05   -3.3046445808803185e-05   -8.89377391846552e-05
8.73127354124527e-05   -3.3046445808803185e-05   -8.89377391846552e-05
8.73127354124527e-05   -3.3046445808803185e-05   -8.89377391846552e-05
8.73127354124527e-05   -3.3046445808803185e-05   -8.89377391846552e-05
8.94710129685315e-05   -2.5486447865366232e-05   4.22329125379043e-05
8.94710129685315e-05   -2.5486447865366232e-05   4.22329125379043e-05
8.94710129685315e-05   -2.5486447865366232e-05   4.22329125379043e-05
8.94710129685315e-05   -2.5486447865366232e-05   4.22329125379043e-05
0.00017790920507892576   -3.387288307002065e-05   -0.00010013221318996119
0.00017790920507892576   -3.387288307002065e-05   -0.00010013221318996119
0.00017790920507892576   -3.387288307002065e-05   -0.00010013221318996119
0.00017790920507892576   -3.387288307002065e-05   -0.00010013221318996119
0.00012680596145344257   -2.6663368354259108e-05   -1.928584931027886e-05
0.00012680596145344257   -2.6663368354259108e-05   -1.928584931027886e-05
0.00012680596145344257   -2.6663368354259108e-05   -1.928584931027886e-05
0.00012680596145344257   -2.6663368354259108e-05   -1.928584931027886e-05
0.00017790920507892576   -2.5486447865366232e-05   4.726477366069626e-05
0.00017790920507892576   -2.5486447865366232e-05   4.726477366069626e-05
0.00017790920507892576   -2.5486447865366232e-05   4.726477366069626e-05
0.00017790920507892576   -2.5486447865366232e-05   4.726477366069626e-05
8.94710129685315e-05   -3.387288307002065e-05   -0.0001051640743127526
8.94710129685315e-05   -3.387288307002065e-05   -0.0001051640743127526
8.94710129685315e-05   -3.387288307002065e-05   -0.0001051640743127526
8.94710129685315e-05   -3.387288307002065e-05   -0.0001051640743127526
9.129587605390127e-05   -2.4603498235616604e-05   3.329190306111413e-05
9.129587605390127e-05   -2.4603498235616604e-05   3.329190306111413e-05
9.129587605390127e-05   -2.4603498235616604e-05   3.329190306111413e-05
9.129587605390127e-05   -2.4603498235616604e-05   3.329190306111413e-05
0.0001806271289461541   -3.3570886966204604e-05   -0.00011021308518762134
0.0001806271289461541   -3.3570886966204604e-05   -0.00011021308518762134
0.0001806271289461541   -3.3570886966204604e-05   -0.00011021308518762134
0.0001806271289461541   -3.3570886966204604e-05   -0.00011021308518762134
0.00013129864335526697   -2.751153963029187e-05   -3.163455093769022e-05
0.00013129864335526697   -2.751153963029187e-05   -3.163455093769022e-05
0.00013129864335526697   -2.751153963029187e-05   -3.163455093769022e-05
0.00013129864335526697   -2.751153963029187e-05   -3.163455093769022e-05
0.0001806271289461541   -2.4603498235616604e-05   3.867233629946702e-05
0.0001806271289461541   -2.4603498235616604e-05   3.867233629946702e-05
0.0001806271289461541   -2.4603498235616604e-05   3.867233629946702e-05
0.0001806271289461541   -2.4603498235616604e-05   3.867233629946702e-05
9.129587605390127e-05   -3.3570886966204604e-05   -0.00011559351842597423
9.129587605390127e-05   -3.3570886966204604e-05   -0.00011559351842597423
9.129587605390127e-05   -3.3570886966204604e-05   -0.00011559351842597423
9.129587605390127e-05   -3.3570886966204604e-05   -0.00011559351842597423
9.32061085437986e-05   -2.1152803231642633e-05   1.59146239956387e-05
9.32061085437986e-05   -2.1152803231642633e-05   1.59146239956387e-05
9.32061085437986e-05   -2.1152803231642633e-05   1.59146239956387e-05
9.32061085437986e-05   -2.1152803231642633e-05   1.59146239956387e-05
0.00018330304917365652   -3.171746890049364e-05   -0.00012790814431948034
0.00018330304917365652   -3.171746890049364e-05   -0.00012790814431948034
0.00018330304917365652   -3.171746890049364e-05   -0.00012790814431948034
0.00018330304917365652   -3.171746890049364e-05   -0.00012790814431948034
0.00013138766064321568   -2.648469403748483e-05   -4.4522161686551915e-05
0.00013138766064321568   -2.648469403748483e-05   -4.4522161686551915e-05
0.00013138766064321568   -2.648469403748483e-05   -4.4522161686551915e-05
0.00013138766064321568   -2.648469403748483e-05   -4.4522161686551915e-05
8.73127354124527e-05   -1.6991687098181357e-05   5.510182379470704e-06
8.73127354124527e-05   -1.6991687098181357e-05   5.510182379470704e-06
8.73127354124527e-05   -1.6991687098181357e-05   5.510182379470704e-06
8.73127354124527e-05   -1.6991687098181357e-05   5.510182379470704e-06
1.0561513301831727e-05   -3.333936657164832e-05   -0.00013221712882231177
1.0561513301831727e-05   -3.333936657164832e-05   -0.00013221712882231177
1.0561513301831727e-05   -3.333936657164832e-05   -0.00013221712882231177
1.0561513301831727e-05   -3.333936657164832e-05   -0.00013221712882231177
1.307936801705459e-05   -1.6188926519826452e-05   -1.192963232341665e-06
1.307936801705459e-05   -1.6188926519826452e-05   -1.192963232341665e-06
1.307936801705459e-05   -1.6188926519826452e-05   -1.192963232341665e-06
1.307936801705459e-05   -1.6188926519826452e-05   -1.192963232341665e-06
8.947101296853167e-05   -3.317763573092852e-05   -0.00011831914595814225
8.947101296853167e-05   -3.317763573092852e-05   -0.00011831914595814225
8.947101296853167e-05   -3.317763573092852e-05   -0.00011831914595814225
8.947101296853167e-05   -3.317763573092852e-05   -0.00011831914595814225
5.0305967435390966e-05   -2.2481582931728472e-05   -5.946170174909462e-05
5.0305967435390966e-05   -2.2481582931728472e-05   -5.946170174909462e-05
5.0305967435390966e-05   -2.2481582931728472e-05   -5.946170174909462e-05
5.0305967435390966e-05   -2.2481582931728472e-05   -5.946170174909462e-05
8.94710129685314e-05   -1.6188926519826452e-05   9.000262294320271e-06
8.94710129685314e-05   -1.6188926519826452e-05   9.000262294320271e-06
8.94710129685314e-05   -1.6188926519826452e-05   9.000262294320271e-06
8.94710129685314e-05   -1.6188926519826452e-05   9.000262294320271e-06
1.307936801705459e-05   -3.3177635730927656e-05   -0.00012851237148480375
1.307936801705459e-05   -3.3177635730927656e-05   -0.00012851237148480375
1.307936801705459e-05   -3.3177635730927656e-05   -0.00012851237148480375
1.307936801705459e-05   -3.3177635730927656e-05   -0.00012851237148480375
1.535244764942767e-05   -1.468650781341705e-05   -1.9897391871611173e-06
1.535244764942767e-05   -1.468650781341705e-05   -1.9897391871611173e-06
1.535244764942767e-05   -1.468650781341705e-05   -1.9897391871611173e-06
1.535244764942767e-05   -1.468650781341705e-05   -1.9897391871611173e-06
9.129587605390127e-05   -3.2744819371224e-05   -0.00011772713292660015
9.129587605390127e-05   -3.2744819371224e-05   -0.00011772713292660015
9.129587605390127e-05   -3.2744819371224e-05   -0.00011772713292660015
9.129587605390127e-05   -3.2744819371224e-05   -0.00011772713292660015
5.1743631576831126e-05   -2.2740221922999335e-05   -5.780948393375009e-05
5.1743631576831126e-05   -2.2740221922999335e-05   -5.780948393375009e-05
5.1743631576831126e-05   -2.2740221922999335e-05   -5.780948393375009e-05
5.1743631576831126e-05   -2.2740221922999335e-05   -5.780948393375009e-05
9.129587605390127e-05   -1.468650781341705e-05   8.845247747522097e-06
9.129587605390127e-05   -1.468650781341705e-05   8.845247747522097e-06
9.129587605390127e-05   -1.468650781341705e-05   8.845247747522097e-06
9.129587605390127e-05   -1.468650781341705e-05   8.845247747522097e-06
1.535244764942767e-05   -3.2744819371224e-05   -0.00012856211986128413
1.535244764942767e-05   -3.2744819371224e-05   -0.00012856211986128413
1.535244764942767e-05   -3.2744819371224e-05   -0.00012856211986128413
1.535244764942767e-05   -3.2744819371224e-05   -0.00012856211986128413
1.8742941957789036e-05   -1.2549516390552434e-05   -3.5448411909964894e-06
1.8742941957789036e-05   -1.2549516390552434e-05   -3.5448411909964894e-06
1.8742941957789036e-05   -1.2549516390552434e-05   -3.5448411909964894e-06
1.8742941957789036e-05   -1.2549516390552434e-05   -3.5448411909964894e-06
9.320610854379849e-05   -3.18719978009566e-05   -0.00011605662998810282
9.320610854379849e-05   -3.18719978009566e-05   -0.00011605662998810282
9.320610854379849e-05   -3.18719978009566e-05   -0.00011605662998810282
9.320610854379849e-05   -3.18719978009566e-05   -0.00011605662998810282
5.446465459604452e-05   -2.240210174574847e-05   -5.7169477708304915e-05
5.446465459604452e-05   -2.240210174574847e-05   -5.7169477708304915e-05
5.446465459604452e-05   -2.240210174574847e-05   -5.7169477708304915e-05
5.446465459604452e-05   -2.240210174574847e-05   -5.7169477708304915e-05
1.0561513301831727e-05   -9.041786615170133e-06   -1.3558224324515446e-05
1.0561513301831727e-05   -9.041786615170133e-06   -1.3558224324515446e-05
1.0561513301831727e-05   -9.041786615170133e-06   -1.3558224324515446e-05
1.0561513301831727e-05   -9.041786615170133e-06   -1.3558224324515446e-05
-6.540452688247247e-05   -4.041677039607738e-05   -0.00015899328156690007
-6.540452688247247e-05   -4.041677039607738e-05   -0.00015899328156690007
-6.540452688247247e-05   -4.041677039607738e-05   -0.00015899328156690007
-6.540452688247247e-05   -4.041677039607738e-05   -0.00015899328156690007
-6.148467917582566e-05   -8.099288756726122e-06   -2.8970642315842565e-05
-6.148467917582566e-05   -8.099288756726122e-06   -2.8970642315842565e-05
-6.148467917582566e-05   -8.099288756726122e-06   -2.8970642315842565e-05
-6.148467917582566e-05   -8.099288756726122e-06   -2.8970642315842565e-05
1.307936801705459e-05   -4.13250667456325e-05   -0.00013330858751063135
1.307936801705459e-05   -4.13250667456325e-05   -0.00013330858751063135
1.307936801705459e-05   -4.13250667456325e-05   -0.00013330858751063135
1.307936801705459e-05   -4.13250667456325e-05   -0.00013330858751063135
-2.4926391197434796e-05   -2.2900863066392836e-05   -8.102017769402638e-05
-2.4926391197434796e-05   -2.2900863066392836e-05   -8.102017769402638e-05
-2.4926391197434796e-05   -2.2900863066392836e-05   -8.102017769402638e-05
-2.4926391197434796e-05   -2.2900863066392836e-05   -8.102017769402638e-05
1.307936801705459e-05   -8.099288756726122e-06   -9.035175522498131e-06
1.307936801705459e-05   -8.099288756726122e-06   -9.035175522498131e-06
1.307936801705459e-05   -8.099288756726122e-06   -9.035175522498131e-06
1.307936801705459e-05   -8.099288756726122e-06   -9.035175522498131e-06
-6.148467917582576e-05   -4.13250667456325e-05   -0.00015324405430397568
-6.148467917582576e-05   -4.13250667456325e-05   -0.00015324405430397568
-6.148467917582576e-05   -4.13250667456325e-05   -0.00015324405430397568
-6.148467917582576e-05   -4.13250667456325e-05   -0.00015324405430397568
-5.810937359526633e-05   -6.620732130219013e-06   -2.707792828335158e-05
-5.810937359526633e-05   -6.620732130219013e-06   -2.707792828335158e-05
-5.810937359526633e-05   -6.620732130219013e-06   -2.707792828335158e-05
-5.810937359526633e-05   -6.620732130219013e-06   -2.707792828335158e-05
1.535244764942767e-05   -4.114919397502862e-05   -0.00012879721991762257
1.535244764942767e-05   -4.114919397502862e-05   -0.00012879721991762257
1.535244764942767e-05   -4.114919397502862e-05   -0.00012879721991762257
1.535244764942767e-05   -4.114919397502862e-05   -0.00012879721991762257
-2.2141771430999067e-05   -2.343239151670392e-05   -7.693693625857305e-05
-2.2141771430999067e-05   -2.343239151670392e-05   -7.693693625857305e-05
-2.2141771430999067e-05   -2.343239151670392e-05   -7.693693625857305e-05
-2.2141771430999067e-05   -2.343239151670392e-05   -7.693693625857305e-05
1.535244764942767e-05   -6.620732130218146e-06   -6.360851176465641e-06
1.535244764942767e-05   -6.620732130218146e-06   -6.360851176465641e-06
1.535244764942767e-05   -6.620732130218146e-06   -6.360851176465641e-06
1.535244764942767e-05   -6.620732130218146e-06   -6.360851176465641e-06
-5.810937359526652e-05   -4.114919397502949e-05   -0.00014951429702450905
-5.810937359526652e-05   -4.114919397502949e-05   -0.00014951429702450905
-5.810937359526652e-05   -4.114919397502949e-05   -0.00014951429702450905
-5.810937359526652e-05   -4.114919397502949e-05   -0.00014951429702450905
-5.228730757079797e-05   -5.22022753397626e-06   -2.6959249631914976e-05
-5.228730757079797e-05   -5.22022753397626e-06   -2.6959249631914976e-05
-5.228730757079797e-05   -5.22022753397626e-06   -2.6959249631914976e-05
-5.228730757079797e-05   -5.22022753397626e-06   -2.6959249631914976e-05
1.8742941957789036e-05   -3.9726728893064306e-05   -0.00012463909803077486
1.8742941957789036e-05   -3.9726728893064306e-05   -0.00012463909803077486
1.8742941957789036e-05   -3.9726728893064306e-05   -0.00012463909803077486
1.8742941957789036e-05   -3.9726728893064306e-05   -0.00012463909803077486
-1.8524003061334512e-05   -2.292866437650018e-05   -7.260636170883911e-05
-1.8524003061334512e-05   -2.292866437650018e-05   -7.260636170883911e-05
-1.8524003061334512e-05   -2.292866437650018e-05   -7.260636170883911e-05
-1.8524003061334512e-05   -2.292866437650018e-05   -7.260636170883911e-05
-6.540452688247233e-05   2.0386375960308734e-06   -1.8917652136462258e-05
-6.540452688247233e-05   2.0386375960308734e-06   -1.8917652136462258e-05
-6.540452688247233e-05   2.0386375960308734e-06   -1.8917652136462258e-05
-6.540452688247233e-05   2.0386375960308734e-06   -1.8917652136462258e-05
-0.0001502375659856323   -5.05867595405711e-05   -0.0001918812889236906
-0.0001502375659856323   -5.05867595405711e-05   -0.0001918812889236906
-0.0001502375659856323   -5.05867595405711e-05   -0.0001918812889236906
-0.0001502375659856323   -5.05867595405711e-05   -0.0001918812889236906
-0.00014557146844852053   3.7973675241498306e-06   -4.893142508801112e-05
-0.00014557146844852053   3.7973675241498306e-06   -4.893142508801112e-05
-0.00014557146844852053   3.7973675241498306e-06   -4.893142508801112e-05
-0.00014557146844852053   3.7973675241498306e-06   -4.893142508801112e-05
-6.148467917582566e-05   -5.640633127914317e-05   -0.00015295385459385987
-6.148467917582566e-05   -5.640633127914317e-05   -0.00015295385459385987
-6.148467917582566e-05   -5.640633127914317e-05   -0.00015295385459385987
-6.148467917582566e-05   -5.640633127914317e-05   -0.00015295385459385987
-0.00010414404370997147   -2.58266803315468e-05   -0.00010020270427217408
-0.00010414404370997147   -2.58266803315468e-05   -0.00010020270427217408
-0.00010414404370997147   -2.58266803315468e-05   -0.00010020270427217408
-0.00010414404370997147   -2.58266803315468e-05   -0.00010020270427217408
-6.148467917582566e-05   3.7973675241498306e-06   -1.2809205806035319e-05
-6.148467917582566e-05   3.7973675241498306e-06   -1.2809205806035319e-05
-6.148467917582566e-05   3.7973675241498306e-06   -1.2809205806035319e-05
-6.148467917582566e-05   3.7973675241498306e-06   -1.2809205806035319e-05
-0.00014557146844852053   -5.6406331279142304e-05   -0.00018907607387583583
-0.00014557146844852053   -5.6406331279142304e-05   -0.00018907607387583583
-0.00014557146844852053   -5.6406331279142304e-05   -0.00018907607387583583
-0.00014557146844852053   -5.6406331279142304e-05   -0.00018907607387583583
-0.00014109689502808236   5.418058287862473e-06   -4.380167210923155e-05
-0.00014109689502808236   5.418058287862473e-06   -4.380167210923155e-05
-0.00014109689502808236   5.418058287862473e-06   -4.380167210923155e-05
-0.00014109689502808236   5.418058287862473e-06   -4.380167210923155e-05
-5.810937359526647e-05   -5.67387198443731e-05   -0.00014482014095124968
-5.810937359526647e-05   -5.67387198443731e-05   -0.00014482014095124968
-5.810937359526647e-05   -5.67387198443731e-05   -0.00014482014095124968
-5.810937359526647e-05   -5.67387198443731e-05   -0.00014482014095124968
-9.959488978075043e-05   -2.593016823889023e-05   -9.41627449387336e-05
-9.959488978075043e-05   -2.593016823889023e-05   -9.41627449387336e-05
-9.959488978075043e-05   -2.593016823889023e-05   -9.41627449387336e-05
-9.959488978075043e-05   -2.593016823889023e-05   -9.41627449387336e-05
-5.8109373595266386e-05   5.418058287862473e-06   -6.507605229889857e-06
-5.8109373595266386e-05   5.418058287862473e-06   -6.507605229889857e-06
-5.8109373595266386e-05   5.418058287862473e-06   -6.507605229889857e-06
-5.8109373595266386e-05   5.418058287862473e-06   -6.507605229889857e-06
-0.00014109689502808263   -5.673871984437223e-05   -0.00018211420783059143
-0.00014109689502808263   -5.673871984437223e-05   -0.00018211420783059143
-0.00014109689502808263   -5.673871984437223e-05   -0.00018211420783059143
-0.00014109689502808263   -5.673871984437223e-05   -0.00018211420783059143
-0.0001337743459205197   6.792567611053901e-06   -3.8564828872219604e-05
-0.0001337743459205197   6.792567611053901e-06   -3.8564828872219604e-05
-0.0001337743459205197   6.792567611053901e-06   -3.8564828872219604e-05
-0.0001337743459205197   6.792567611053901e-06   -3.8564828872219604e-05
-5.228730757079813e-05   -5.188574571593149e-05   -0.00013916957145889688
-5.228730757079813e-05   -5.188574571593149e-05   -0.00013916957145889688
-5.228730757079813e-05   -5.188574571593149e-05   -0.00013916957145889688
-5.228730757079813e-05   -5.188574571593149e-05   -0.00013916957145889688
-9.508910714781469e-05   -2.297779733603355e-05   -8.517800785847314e-05
-9.508910714781469e-05   -2.297779733603355e-05   -8.517800785847314e-05
-9.508910714781469e-05   -2.297779733603355e-05   -8.517800785847314e-05
-9.508910714781469e-05   -2.297779733603355e-05   -8.517800785847314e-05
-0.0001502375659856323   2.1345883980140694e-05   -3.3118261752264344e-05
-0.0001502375659856323   2.1345883980140694e-05   -3.3118261752264344e-05
-0.0001502375659856323   2.1345883980140694e-05   -3.3118261752264344e-05
-0.0001502375659856323   2.1345883980140694e-05   -3.3118261752264344e-05
-0.00025908884025374363   0.0   -0.00022734458258720155
-0.00025908884025374363   0.0   -0.00022734458258720155
-0.00025908884025374363   0.0   -0.00022734458258720155
-0.00025908884025374363   0.0   -0.00022734458258720155
-0.000252247806724584   2.709004600726355e-05   -2.5510904539471826e-05
-0.000252247806724584   2.709004600726355e-05   -2.5510904539471826e-05
-0.000252247806724584   2.709004600726355e-05   -2.5510904539471826e-05
-0.000252247806724584   2.709004600726355e-05   -2.5510904539471826e-05
-0.00014557146844852028   0.0   -0.00018705077406188639
-0.00014557146844852028   0.0   -0.00018705077406188639
-0.00014557146844852028   0.0   -0.00018705077406188639
-0.00014557146844852028   0.0   -0.00018705077406188639
-0.00019320875655356193   8.24095766673548e-06   -0.0001125998684868578
-0.00019320875655356193   8.24095766673548e-06   -0.0001125998684868578
-0.00019320875655356193   8.24095766673548e-06   -0.0001125998684868578
-0.00019320875655356193   8.24095766673548e-06   -0.0001125998684868578
-0.00014557146844852042   2.7090046007264418e-05   -9.256876935113522e-06
-0.00014557146844852042   2.7090046007264418e-05   -9.256876935113522e-06
-0.00014557146844852042   2.7090046007264418e-05   -9.256876935113522e-06
-0.00014557146844852042   2.7090046007264418e-05   -9.256876935113522e-06
-0.00025224780672458355   0.0   -0.00020330480166624474
-0.00025224780672458355   0.0   -0.00020330480166624474
-0.00025224780672458355   0.0   -0.00020330480166624474
-0.00025224780672458355   0.0   -0.00020330480166624474
-0.00024646935446699084   2.8377920226524758e-05   -1.0519863197856576e-05
-0.00024646935446699084   2.8377920226524758e-05   -1.0519863197856576e-05
-0.00024646935446699084   2.8377920226524758e-05   -1.0519863197856576e-05
-0.00024646935446699084   2.8377920226524758e-05   -1.0519863197856576e-05
-0.00014109689502808263   0.0   -0.00016911387679345612
-0.00014109689502808263   0.0   -0.00016911387679345612
-0.00014109689502808263   0.0   -0.00016911387679345612
-0.00014109689502808263   0.0   -0.00016911387679345612
-0.00019113431026823418   1.3108991260382327e-05   -9.35835794827638e-05
-0.00019113431026823418   1.3108991260382327e-05   -9.35835794827638e-05
-0.00019113431026823418   1.3108991260382327e-05   -9.35835794827638e-05
-0.00019113431026823418   1.3108991260382327e-05   -9.35835794827638e-05
-0.00014109689502808263   2.8377920226524758e-05   6.506888938058453e-06
-0.00014109689502808263   2.8377920226524758e-05   6.506888938058453e-06
-0.00014109689502808263   2.8377920226524758e-05   6.506888938058453e-06
-0.00014109689502808263   2.8377920226524758e-05   6.506888938058453e-06
-0.00024646935446699046   0.0   -0.00018614062892937083
-0.00024646935446699046   0.0   -0.00018614062892937083
-0.00024646935446699046   0.0   -0.00018614062892937083
-0.00024646935446699046   0.0   -0.00018614062892937083
-0.00023494906859721924   3.0610031154096155e-05   1.3578323011045196e-05
-0.00023494906859721924   3.0610031154096155e-05   1.3578323011045196e-05
-0.00023494906859721924   3.0610031154096155e-05   1.3578323011045196e-05
-0.00023494906859721924   3.0610031154096155e-05   1.3578323011045196e-05
-0.00013377434592051993   0.0   -0.00013668019609099628
-0.00013377434592051993   0.0   -0.00013668019609099628
-0.00013377434592051993   0.0   -0.00013668019609099628
-0.00013377434592051993   0.0   -0.00013668019609099628
-0.0001811100463440427   1.6184238893888862e-05   -6.749790538812414e-05
-0.0001811100463440427   1.6184238893888862e-05   -6.749790538812414e-05
-0.0001811100463440427   1.6184238893888862e-05   -6.749790538812414e-05
-0.0001811100463440427   1.6184238893888862e-05   -6.749790538812414e-05
0.0001920137740792093   -3.3046445808803185e-05   0.0001147547369401594
0.0001920137740792093   -3.3046445808803185e-05   0.0001147547369401594
0.0001920137740792093   -3.3046445808803185e-05   0.0001147547369401594
0.0001920137740792093   -3.3046445808803185e-05   0.0001147547369401594
9.971380072039881e-05   -2.539525271509982e-05   -3.4487836134969134e-05
9.971380072039881e-05   -2.539525271509982e-05   -3.4487836134969134e-05
9.971380072039881e-05   -2.539525271509982e-05   -3.4487836134969134e-05
9.971380072039881e-05   -2.539525271509982e-05   -3.4487836134969134e-05
9.71867819008837e-05   -3.387288307002065e-05   0.00010143096657880529
9.71867819008837e-05   -3.387288307002065e-05   0.00010143096657880529
9.71867819008837e-05   -3.387288307002065e-05   0.00010143096657880529
9.71867819008837e-05   -3.387288307002065e-05   0.00010143096657880529
0.00018993454484242161   -2.7934168672601352e-05   -5.671186696220952e-05
0.00018993454484242161   -2.7934168672601352e-05   -5.671186696220952e-05
0.00018993454484242161   -2.7934168672601352e-05   -5.671186696220952e-05
0.00018993454484242161   -2.7934168672601352e-05   -5.671186696220952e-05
0.00013879526919779984   -2.843778198430031e-05   2.8822427099179336e-05
0.00013879526919779984   -2.843778198430031e-05   2.8822427099179336e-05
0.00013879526919779984   -2.843778198430031e-05   2.8822427099179336e-05
0.00013879526919779984   -2.843778198430031e-05   2.8822427099179336e-05
0.00018993454484242161   -3.387288307002065e-05   9.786773794035397e-05
0.00018993454484242161   -3.387288307002065e-05   9.786773794035397e-05
0.00018993454484242161   -3.387288307002065e-05   9.786773794035397e-05
0.00018993454484242161   -3.387288307002065e-05   9.786773794035397e-05
9.71867819008837e-05   -2.7934168672601352e-05   -5.314863832375826e-05
9.71867819008837e-05   -2.7934168672601352e-05   -5.314863832375826e-05
9.71867819008837e-05   -2.7934168672601352e-05   -5.314863832375826e-05
9.71867819008837e-05   -2.7934168672601352e-05   -5.314863832375826e-05
9.490250416199168e-05   -3.3570886966204604e-05   9.110896241583573e-05
9.490250416199168e-05   -3.3570886966204604e-05   9.110896241583573e-05
9.490250416199168e-05   -3.3570886966204604e-05   9.110896241583573e-05
9.490250416199168e-05   -3.3570886966204604e-05   9.110896241583573e-05
0.0001875364843749067   -2.8173006605515007e-05   -6.651973282210369e-05
0.0001875364843749067   -2.8173006605515007e-05   -6.651973282210369e-05
0.0001875364843749067   -2.8173006605515007e-05   -6.651973282210369e-05
0.0001875364843749067   -2.8173006605515007e-05   -6.651973282210369e-05
0.00013866809690013082   -2.8936343505000725e-05   1.538558177554747e-05
0.00013866809690013082   -2.8936343505000725e-05   1.538558177554747e-05
0.00013866809690013082   -2.8936343505000725e-05   1.538558177554747e-05
0.00013866809690013082   -2.8936343505000725e-05   1.538558177554747e-05
0.00018753648437490702   -3.3570886966204604e-05   8.787023419942145e-05
0.00018753648437490702   -3.3570886966204604e-05   8.787023419942145e-05
0.00018753648437490702   -3.3570886966204604e-05   8.787023419942145e-05
0.00018753648437490702   -3.3570886966204604e-05   8.787023419942145e-05
9.490250416199168e-05   -2.8173006605515007e-05   -6.328100460568963e-05
9.490250416199168e-05   -2.8173006605515007e-05   -6.328100460568963e-05
9.490250416199168e-05   -2.8173006605515007e-05   -6.328100460568963e-05
9.490250416199168e-05   -2.8173006605515007e-05   -6.328100460568963e-05
9.211655525913825e-05   -3.171746890049364e-05   7.431619650832052e-05
9.211655525913825e-05   -3.171746890049364e-05   7.431619650832052e-05
9.211655525913825e-05   -3.171746890049364e-05   7.431619650832052e-05
9.211655525913825e-05   -3.171746890049364e-05   7.431619650832052e-05
0.00018377975591122862   -2.760288918464502e-05   -8.092455240800645e-05
0.00018377975591122862   -2.760288918464502e-05   -8.092455240800645e-05
0.00018377975591122862   -2.760288918464502e-05   -8.092455240800645e-05
0.00018377975591122862   -2.760288918464502e-05   -8.092455240800645e-05
0.00013391471784645934   -2.7517537202146822e-05   2.132633177110094e-06
0.00013391471784645934   -2.7517537202146822e-05   2.132633177110094e-06
0.00013391471784645934   -2.7517537202146822e-05   2.132633177110094e-06
0.00013391471784645934   -2.7517537202146822e-05   2.132633177110094e-06
9.971380072039881e-05   -3.333936657164832e-05   8.587467084280632e-05
9.971380072039881e-05   -3.333936657164832e-05   8.587467084280632e-05
9.971380072039881e-05   -3.333936657164832e-05   8.587467084280632e-05
9.971380072039881e-05   -3.333936657164832e-05   8.587467084280632e-05
2.14951371221556e-05   -1.5782271322866727e-05   -3.3955511338330194e-05
2.14951371221556e-05   -1.5782271322866727e-05   -3.3955511338330194e-05
2.14951371221556e-05   -1.5782271322866727e-05   -3.3955511338330194e-05
2.14951371221556e-05   -1.5782271322866727e-05   -3.3955511338330194e-05
1.7495375937576934e-05   -3.3177635730927656e-05   9.813555111810174e-05
1.7495375937576934e-05   -3.3177635730927656e-05   9.813555111810174e-05
1.7495375937576934e-05   -3.3177635730927656e-05   9.813555111810174e-05
1.7495375937576934e-05   -3.3177635730927656e-05   9.813555111810174e-05
9.71867819008837e-05   -1.6744875423119372e-05   -4.454311500542849e-05
9.71867819008837e-05   -1.6744875423119372e-05   -4.454311500542849e-05
9.71867819008837e-05   -1.6744875423119372e-05   -4.454311500542849e-05
9.71867819008837e-05   -1.6744875423119372e-05   -4.454311500542849e-05
5.889429262919722e-05   -2.384583508912349e-05   2.3538276246984954e-05
5.889429262919722e-05   -2.384583508912349e-05   2.3538276246984954e-05
5.889429262919722e-05   -2.384583508912349e-05   2.3538276246984954e-05
5.889429262919722e-05   -2.384583508912349e-05   2.3538276246984954e-05
9.718678190088375e-05   -3.317763573092852e-05   8.827589493341607e-05
9.718678190088375e-05   -3.317763573092852e-05   8.827589493341607e-05
9.718678190088375e-05   -3.317763573092852e-05   8.827589493341607e-05
9.718678190088375e-05   -3.317763573092852e-05   8.827589493341607e-05
1.7495375937576934e-05   -1.6744875423119372e-05   -3.468345882074288e-05
1.7495375937576934e-05   -1.6744875423119372e-05   -3.468345882074288e-05
1.7495375937576934e-05   -1.6744875423119372e-05   -3.468345882074288e-05
1.7495375937576934e-05   -1.6744875423119372e-05   -3.468345882074288e-05
1.4645911789439123e-05   -3.2744819371224e-05   9.83143485321315e-05
1.4645911789439123e-05   -3.2744819371224e-05   9.83143485321315e-05
1.4645911789439123e-05   -3.2744819371224e-05   9.83143485321315e-05
1.4645911789439123e-05   -3.2744819371224e-05   9.83143485321315e-05
9.490250416199168e-05   -1.7179818343020063e-05   -4.478563937237854e-05
9.490250416199168e-05   -1.7179818343020063e-05   -4.478563937237854e-05
9.490250416199168e-05   -1.7179818343020063e-05   -4.478563937237854e-05
9.490250416199168e-05   -1.7179818343020063e-05   -4.478563937237854e-05
5.54723563865145e-05   -2.3362542722571607e-05   2.464090821448304e-05
5.54723563865145e-05   -2.3362542722571607e-05   2.464090821448304e-05
5.54723563865145e-05   -2.3362542722571607e-05   2.464090821448304e-05
5.54723563865145e-05   -2.3362542722571607e-05   2.464090821448304e-05
9.490250416199184e-05   -3.2744819371224e-05   8.897534791520905e-05
9.490250416199184e-05   -3.2744819371224e-05   8.897534791520905e-05
9.490250416199184e-05   -3.2744819371224e-05   8.897534791520905e-05
9.490250416199184e-05   -3.2744819371224e-05   8.897534791520905e-05
1.4645911789439123e-05   -1.7179818343020063e-05   -3.544663875545582e-05
1.4645911789439123e-05   -1.7179818343020063e-05   -3.544663875545582e-05
1.4645911789439123e-05   -1.7179818343020063e-05   -3.544663875545582e-05
1.4645911789439123e-05   -1.7179818343020063e-05   -3.544663875545582e-05
1.147499993560386e-05   -3.18719978009566e-05   0.00010154687142585953
1.147499993560386e-05   -3.18719978009566e-05   0.00010154687142585953
1.147499993560386e-05   -3.18719978009566e-05   0.00010154687142585953
1.147499993560386e-05   -3.18719978009566e-05   0.00010154687142585953
9.211655525913814e-05   -1.6804729159537908e-05   -4.1896081964881964e-05
9.211655525913814e-05   -1.6804729159537908e-05   -4.1896081964881964e-05
9.211655525913814e-05   -1.6804729159537908e-05   -4.1896081964881964e-05
9.211655525913814e-05   -1.6804729159537908e-05   -4.1896081964881964e-05
5.3374128548229184e-05   -2.234707371452302e-05   2.6000035952957823e-05
5.3374128548229184e-05   -2.234707371452302e-05   2.6000035952957823e-05
5.3374128548229184e-05   -2.234707371452302e-05   2.6000035952957823e-05
5.3374128548229184e-05   -2.234707371452302e-05   2.6000035952957823e-05
2.1495137122155654e-05   -4.041677039607738e-05   8.845776551603089e-05
2.1495137122155654e-05   -4.041677039607738e-05   8.845776551603089e-05
2.1495137122155654e-05   -4.041677039607738e-05   8.845776551603089e-05
2.1495137122155654e-05   -4.041677039607738e-05   8.845776551603089e-05
-5.3625455203831134e-05   -6.759673839049074e-06   -1.654896375973035e-05
-5.3625455203831134e-05   -6.759673839049074e-06   -1.654896375973035e-05
-5.3625455203831134e-05   -6.759673839049074e-06   -1.654896375973035e-05
-5.3625455203831134e-05   -6.759673839049074e-06   -1.654896375973035e-05
-5.9849659936183936e-05   -4.13250667456325e-05   0.00011384931871742145
-5.9849659936183936e-05   -4.13250667456325e-05   0.00011384931871742145
-5.9849659936183936e-05   -4.13250667456325e-05   0.00011384931871742145
-5.9849659936183936e-05   -4.13250667456325e-05   0.00011384931871742145
1.749537593757699e-05   -7.141760703720072e-06   -3.556905803066138e-05
1.749537593757699e-05   -7.141760703720072e-06   -3.556905803066138e-05
1.749537593757699e-05   -7.141760703720072e-06   -3.556905803066138e-05
1.749537593757699e-05   -7.141760703720072e-06   -3.556905803066138e-05
-1.794107317174004e-05   -2.3145147112124155e-05   3.309372232990996e-05
-1.794107317174004e-05   -2.3145147112124155e-05   3.309372232990996e-05
-1.794107317174004e-05   -2.3145147112124155e-05   3.309372232990996e-05
-1.794107317174004e-05   -2.3145147112124155e-05   3.309372232990996e-05
1.7495375937576934e-05   -4.13250667456325e-05   9.333933509227382e-05
1.7495375937576934e-05   -4.13250667456325e-05   9.333933509227382e-05
1.7495375937576934e-05   -4.13250667456325e-05   9.333933509227382e-05
1.7495375937576934e-05   -4.13250667456325e-05   9.333933509227382e-05
-5.984965993618383e-05   -7.141760703719205e-06   -1.5059074405513427e-05
-5.984965993618383e-05   -7.141760703719205e-06   -1.5059074405513427e-05
-5.984965993618383e-05   -7.141760703719205e-06   -1.5059074405513427e-05
-5.984965993618383e-05   -7.141760703719205e-06   -1.5059074405513427e-05
-6.364928612428159e-05   -4.114919397502949e-05   0.00011820403535541413
-6.364928612428159e-05   -4.114919397502949e-05   0.00011820403535541413
-6.364928612428159e-05   -4.114919397502949e-05   0.00011820403535541413
-6.364928612428159e-05   -4.114919397502949e-05   0.00011820403535541413
1.4645911789439123e-05   -7.607882508993587e-06   -3.241274804707448e-05
1.4645911789439123e-05   -7.607882508993587e-06   -3.241274804707448e-05
1.4645911789439123e-05   -7.607882508993587e-06   -3.241274804707448e-05
1.4645911789439123e-05   -7.607882508993587e-06   -3.241274804707448e-05
-2.215261076115232e-05   -2.3084169952712966e-05   3.8203895336809466e-05
-2.215261076115232e-05   -2.3084169952712966e-05   3.8203895336809466e-05
-2.215261076115232e-05   -2.3084169952712966e-05   3.8203895336809466e-05
-2.215261076115232e-05   -2.3084169952712966e-05   3.8203895336809466e-05
1.4645911789439069e-05   -4.114919397502949e-05   9.807924847579337e-05
1.4645911789439069e-05   -4.114919397502949e-05   9.807924847579337e-05
1.4645911789439069e-05   -4.114919397502949e-05   9.807924847579337e-05
1.4645911789439069e-05   -4.114919397502949e-05   9.807924847579337e-05
-6.364928612428143e-05   -7.607882508993587e-06   -1.228796116745437e-05
-6.364928612428143e-05   -7.607882508993587e-06   -1.228796116745437e-05
-6.364928612428143e-05   -7.607882508993587e-06   -1.228796116745437e-05
-6.364928612428143e-05   -7.607882508993587e-06   -1.228796116745437e-05
-6.812370195595447e-05   -3.9726728893064306e-05   0.00012385017109298267
-6.812370195595447e-05   -3.9726728893064306e-05   0.00012385017109298267
-6.812370195595447e-05   -3.9726728893064306e-05   0.00012385017109298267
-6.812370195595447e-05   -3.9726728893064306e-05   0.00012385017109298267
1.147499993560386e-05   -7.572930787146104e-06   -2.810661092316586e-05
1.147499993560386e-05   -7.572930787146104e-06   -2.810661092316586e-05
1.147499993560386e-05   -7.572930787146104e-06   -2.810661092316586e-05
1.147499993560386e-05   -7.572930787146104e-06   -2.810661092316586e-05
-2.5579682325853418e-05   -2.2182228023621617e-05   4.241677118781606e-05
-2.5579682325853418e-05   -2.2182228023621617e-05   4.241677118781606e-05
-2.5579682325853418e-05   -2.2182228023621617e-05   4.241677118781606e-05
-2.5579682325853418e-05   -2.2182228023621617e-05   4.241677118781606e-05
-5.362545520383119e-05   -5.05867595405711e-05   0.0001073392543754193
-5.362545520383119e-05   -5.05867595405711e-05   0.0001073392543754193
-5.362545520383119e-05   -5.05867595405711e-05   0.0001073392543754193
-5.362545520383119e-05   -5.05867595405711e-05   0.0001073392543754193
-0.00013930573762280972   6.917143643536683e-06   -9.588744124123909e-07
-0.00013930573762280972   6.917143643536683e-06   -9.588744124123909e-07
-0.00013930573762280972   6.917143643536683e-06   -9.588744124123909e-07
-0.00013930573762280972   6.917143643536683e-06   -9.588744124123909e-07
-0.00014676799997127564   -5.6406331279142304e-05   0.00015186661994109896
-0.00014676799997127564   -5.6406331279142304e-05   0.00015186661994109896
-0.00014676799997127564   -5.6406331279142304e-05   0.00015186661994109896
-0.00014676799997127564   -5.6406331279142304e-05   0.00015186661994109896
-5.984965993618383e-05   6.472171243459071e-06   -3.072438163094916e-05
-5.984965993618383e-05   6.472171243459071e-06   -3.072438163094916e-05
-5.984965993618383e-05   6.472171243459071e-06   -3.072438163094916e-05
-5.984965993618383e-05   6.472171243459071e-06   -3.072438163094916e-05
-9.847964871679605e-05   -2.1160070968339814e-05   5.023827833048407e-05
-9.847964871679605e-05   -2.1160070968339814e-05   5.023827833048407e-05
-9.847964871679605e-05   -2.1160070968339814e-05   5.023827833048407e-05
-9.847964871679605e-05   -2.1160070968339814e-05   5.023827833048407e-05
-5.9849659936183936e-05   -5.6406331279142304e-05   0.00011413951842753666
-5.9849659936183936e-05   -5.6406331279142304e-05   0.00011413951842753666
-5.9849659936183936e-05   -5.6406331279142304e-05   0.00011413951842753666
-5.9849659936183936e-05   -5.6406331279142304e-05   0.00011413951842753666
-0.00014676799997127564   6.472171243459071e-06   7.002719882612599e-06
-0.00014676799997127564   6.472171243459071e-06   7.002719882612599e-06
-0.00014676799997127564   6.472171243459071e-06   7.002719882612599e-06
-0.00014676799997127564   6.472171243459071e-06   7.002719882612599e-06
-0.00015131976827150917   -5.673871984437223e-05   0.00016034589907921483
-0.00015131976827150917   -5.673871984437223e-05   0.00016034589907921483
-0.00015131976827150917   -5.673871984437223e-05   0.00016034589907921483
-0.00015131976827150917   -5.673871984437223e-05   0.00016034589907921483
-6.364928612428143e-05   5.674126239863832e-06   -2.321927881670659e-05
-6.364928612428143e-05   5.674126239863832e-06   -2.321927881670659e-05
-6.364928612428143e-05   5.674126239863832e-06   -2.321927881670659e-05
-6.364928612428143e-05   5.674126239863832e-06   -2.321927881670659e-05
-0.00010333918286270342   -2.430479513297959e-05   6.091790190436907e-05
-0.00010333918286270342   -2.430479513297959e-05   6.091790190436907e-05
-0.00010333918286270342   -2.430479513297959e-05   6.091790190436907e-05
-0.00010333918286270342   -2.430479513297959e-05   6.091790190436907e-05
-6.364928612428143e-05   -5.67387198443731e-05   0.00012289819142867258
-6.364928612428143e-05   -5.67387198443731e-05   0.00012289819142867258
-6.364928612428143e-05   -5.67387198443731e-05   0.00012289819142867258
-6.364928612428143e-05   -5.67387198443731e-05   0.00012289819142867258
-0.0001513197682715089   5.674126239863832e-06   1.4228428833836307e-05
-0.0001513197682715089   5.674126239863832e-06   1.4228428833836307e-05
-0.0001513197682715089   5.674126239863832e-06   1.4228428833836307e-05
-0.0001513197682715089   5.674126239863832e-06   1.4228428833836307e-05
-0.00015622012589002344   -5.188574571593149e-05   0.0001640191130039192
-0.00015622012589002344   -5.188574571593149e-05   0.0001640191130039192
-0.00015622012589002344   -5.188574571593149e-05   0.0001640191130039192
-0.00015622012589002344   -5.188574571593149e-05   0.0001640191130039192
-6.81237019559542e-05   4.773445156746985e-06   -1.6803774743136962e-05
-6.81237019559542e-05   4.773445156746985e-06   -1.6803774743136962e-05
-6.81237019559542e-05   4.773445156746985e-06   -1.6803774743136962e-05
-6.81237019559542e-05   4.773445156746985e-06   -1.6803774743136962e-05
-0.00010833171185552669   -2.449755966640703e-05   6.77721779833787e-05
-0.00010833171185552669   -2.449755966640703e-05   6.77721779833787e-05
-0.00010833171185552669   -2.449755966640703e-05   6.77721779833787e-05
-0.00010833171185552669   -2.449755966640703e-05   6.77721779833787e-05
-0.00013930573762280924   0.0   0.00011918583301045744
-0.00013930573762280924   0.0   0.00011918583301045744
-0.00013930573762280924   0.0   0.00011918583301045744
-0.00013930573762280924   0.0   0.00011918583301045744
-0.00024575823245210184   3.217665814342005e-05   -3.892899681897863e-05
-0.00024575823245210184   3.217665814342005e-05   -3.892899681897863e-05
-0.00024575823245210184   3.217665814342005e-05   -3.892899681897863e-05
-0.00024575823245210184   3.217665814342005e-05   -3.892899681897863e-05
-0.00025608209884414156   0.0   0.0001725019966989181
-0.00025608209884414156   0.0   0.0001725019966989181
-0.00025608209884414156   0.0   0.0001725019966989181
-0.00025608209884414156   0.0   0.0001725019966989181
-0.0001467679999712754   3.101679490645319e-05   -2.8298245033064537e-05
-0.0001467679999712754   3.101679490645319e-05   -2.8298245033064537e-05
-0.0001467679999712754   3.101679490645319e-05   -2.8298245033064537e-05
-0.0001467679999712754   3.101679490645319e-05   -2.8298245033064537e-05
-0.0001885725204359055   1.9092920302689158e-05   4.8530280503577476e-05
-0.0001885725204359055   1.9092920302689158e-05   4.8530280503577476e-05
-0.0001885725204359055   1.9092920302689158e-05   4.8530280503577476e-05
-0.0001885725204359055   1.9092920302689158e-05   4.8530280503577476e-05
-0.00014676799997127526   0.0   0.00015389191975504661
-0.00014676799997127526   0.0   0.00015389191975504661
-0.00014676799997127526   0.0   0.00015389191975504661
-0.00014676799997127526   0.0   0.00015389191975504661
-0.000256082098844142   3.101679490645319e-05   -9.688168089192623e-06
-0.000256082098844142   3.101679490645319e-05   -9.688168089192623e-06
-0.000256082098844142   3.101679490645319e-05   -9.688168089192623e-06
-0.000256082098844142   3.101679490645319e-05   -9.688168089192623e-06
-0.00026128553844731364   0.0   0.000191470402593083
-0.00026128553844731364   0.0   0.000191470402593083
-0.00026128553844731364   0.0   0.000191470402593083
-0.00026128553844731364   0.0   0.000191470402593083
-0.0001513197682715089   3.0206954127886577e-05   -9.930053509990934e-06
-0.0001513197682715089   3.0206954127886577e-05   -9.930053509990934e-06
-0.0001513197682715089   3.0206954127886577e-05   -9.930053509990934e-06
-0.0001513197682715089   3.0206954127886577e-05   -9.930053509990934e-06
-0.0001984887286011956   1.593195623142158e-05   7.724987911070106e-05
-0.0001984887286011956   1.593195623142158e-05   7.724987911070106e-05
-0.0001984887286011956   1.593195623142158e-05   7.724987911070106e-05
-0.0001984887286011956   1.593195623142158e-05   7.724987911070106e-05
-0.0001513197682715089   0.0   0.0001733462301163509
-0.0001513197682715089   0.0   0.0001733462301163509
-0.0001513197682715089   0.0   0.0001733462301163509
-0.0001513197682715089   0.0   0.0001733462301163509
-0.00026128553844731456   3.0206954127887445e-05   8.194118966741402e-06
-0.00026128553844731456   3.0206954127887445e-05   8.194118966741402e-06
-0.00026128553844731456   3.0206954127887445e-05   8.194118966741402e-06
-0.00026128553844731456   3.0206954127887445e-05   8.194118966741402e-06
-0.0002670952489235147   0.0   0.0002167724818757672
-0.0002670952489235147   0.0   0.0002167724818757672
-0.0002670952489235147   0.0   0.0002167724818757672
-0.0002670952489235147   0.0   0.0002167724818757672
-0.00015622012589002344   2.5095009179593e-05   1.6923604645525665e-05
-0.00015622012589002344   2.5095009179593e-05   1.6923604645525665e-05
-0.00015622012589002344   2.5095009179593e-05   1.6923604645525665e-05
-0.00015622012589002344   2.5095009179593e-05   1.6923604645525665e-05
-0.0002001957047477995   1.115575466142417e-05   9.857978878605422e-05
-0.0002001957047477995   1.115575466142417e-05   9.857978878605422e-05
-0.0002001957047477995   1.115575466142417e-05   9.857978878605422e-05
-0.0002001957047477995   1.115575466142417e-05   9.857978878605422e-05
0.00016858256685707557   -2.5395252715100687e-05   0.00011995277206478059
0.00016858256685707557   -2.5395252715100687e-05   0.00011995277206478059
0.00016858256685707557   -2.5395252715100687e-05   0.00011995277206478059
0.00016858256685707557   -2.5395252715100687e-05   0.00011995277206478059
8.532549379347806e-05   -1.9095980468653538e-05   -1.5029453026681443e-05
8.532549379347806e-05   -1.9095980468653538e-05   -1.5029453026681443e-05
8.532549379347806e-05   -1.9095980468653538e-05   -1.5029453026681443e-05
8.532549379347806e-05   -1.9095980468653538e-05   -1.5029453026681443e-05
8.305603605492421e-05   -2.7934168672601352e-05   0.00010476252351068922
8.305603605492421e-05   -2.7934168672601352e-05   0.00010476252351068922
8.305603605492421e-05   -2.7934168672601352e-05   0.00010476252351068922
8.305603605492421e-05   -2.7934168672601352e-05   0.00010476252351068922
0.00016452300390120978   -2.1658392402590376e-05   -3.478122199512617e-05
0.00016452300390120978   -2.1658392402590376e-05   -3.478122199512617e-05
0.00016452300390120978   -2.1658392402590376e-05   -3.478122199512617e-05
0.00016452300390120978   -2.1658392402590376e-05   -3.478122199512617e-05
0.00011979039787238958   -2.2576296756675503e-05   4.0323863998691805e-05
0.00011979039787238958   -2.2576296756675503e-05   4.0323863998691805e-05
0.00011979039787238958   -2.2576296756675503e-05   4.0323863998691805e-05
0.00011979039787238958   -2.2576296756675503e-05   4.0323863998691805e-05
0.0001645230039012095   -2.7934168672601352e-05   0.00010099705774868281
0.0001645230039012095   -2.7934168672601352e-05   0.00010099705774868281
0.0001645230039012095   -2.7934168672601352e-05   0.00010099705774868281
0.0001645230039012095   -2.7934168672601352e-05   0.00010099705774868281
8.305603605492434e-05   -2.1658392402590376e-05   -3.101575623311965e-05
8.305603605492434e-05   -2.1658392402590376e-05   -3.101575623311965e-05
8.305603605492434e-05   -2.1658392402590376e-05   -3.101575623311965e-05
8.305603605492434e-05   -2.1658392402590376e-05   -3.101575623311965e-05
8.013135596629485e-05   -2.8173006605515874e-05   9.407072447175247e-05
8.013135596629485e-05   -2.8173006605515874e-05   9.407072447175247e-05
8.013135596629485e-05   -2.8173006605515874e-05   9.407072447175247e-05
8.013135596629485e-05   -2.8173006605515874e-05   9.407072447175247e-05
0.00016042092635713958   -2.204297950307056e-05   -4.3423242441122226e-05
0.00016042092635713958   -2.204297950307056e-05   -4.3423242441122226e-05
0.00016042092635713958   -2.204297950307056e-05   -4.3423242441122226e-05
0.00016042092635713958   -2.204297950307056e-05   -4.3423242441122226e-05
0.00011863364369598773   -2.3565709153820433e-05   2.7135866451247952e-05
0.00011863364369598773   -2.3565709153820433e-05   2.7135866451247952e-05
0.00011863364369598773   -2.3565709153820433e-05   2.7135866451247952e-05
0.00011863364369598773   -2.3565709153820433e-05   2.7135866451247952e-05
0.00016042092635713958   -2.8173006605515007e-05   9.039270821028589e-05
0.00016042092635713958   -2.8173006605515007e-05   9.039270821028589e-05
0.00016042092635713958   -2.8173006605515007e-05   9.039270821028589e-05
0.00016042092635713958   -2.8173006605515007e-05   9.039270821028589e-05
8.013135596629485e-05   -2.204297950307056e-05   -3.974522617965562e-05
8.013135596629485e-05   -2.204297950307056e-05   -3.974522617965562e-05
8.013135596629485e-05   -2.204297950307056e-05   -3.974522617965562e-05
8.013135596629485e-05   -2.204297950307056e-05   -3.974522617965562e-05
7.706419117540554e-05   -2.760288918464502e-05   7.822501307394678e-05
7.706419117540554e-05   -2.760288918464502e-05   7.822501307394678e-05
7.706419117540554e-05   -2.760288918464502e-05   7.822501307394678e-05
7.706419117540554e-05   -2.760288918464502e-05   7.822501307394678e-05
0.00015528711916128638   -2.192003669494475e-05   -5.5556245063007696e-05
0.00015528711916128638   -2.192003669494475e-05   -5.5556245063007696e-05
0.00015528711916128638   -2.192003669494475e-05   -5.5556245063007696e-05
0.00015528711916128638   -2.192003669494475e-05   -5.5556245063007696e-05
0.00011331614657612196   -2.2954326647164555e-05   1.5015949883598974e-05
0.00011331614657612196   -2.2954326647164555e-05   1.5015949883598974e-05
0.00011331614657612196   -2.2954326647164555e-05   1.5015949883598974e-05
0.00011331614657612196   -2.2954326647164555e-05   1.5015949883598974e-05
8.53254937934782e-05   -1.5782271322866727e-05   0.00011373040306001791
8.53254937934782e-05   -1.5782271322866727e-05   0.00011373040306001791
8.53254937934782e-05   -1.5782271322866727e-05   0.00011373040306001791
8.53254937934782e-05   -1.5782271322866727e-05   0.00011373040306001791
9.508056727911083e-06   -6.75781505671616e-06   -7.217318289569081e-06
9.508056727911083e-06   -6.75781505671616e-06   -7.217318289569081e-06
9.508056727911083e-06   -6.75781505671616e-06   -7.217318289569081e-06
9.508056727911083e-06   -6.75781505671616e-06   -7.217318289569081e-06
7.255410017209323e-06   -1.6744875423119372e-05   0.00011853195253343565
7.255410017209323e-06   -1.6744875423119372e-05   0.00011853195253343565
7.255410017209323e-06   -1.6744875423119372e-05   0.00011853195253343565
7.255410017209323e-06   -1.6744875423119372e-05   0.00011853195253343565
8.305603605492434e-05   -8.138365915759047e-06   -1.296632990050562e-05
8.305603605492434e-05   -8.138365915759047e-06   -1.296632990050562e-05
8.305603605492434e-05   -8.138365915759047e-06   -1.296632990050562e-05
8.305603605492434e-05   -8.138365915759047e-06   -1.296632990050562e-05
4.584378502302121e-05   -1.102154080536051e-05   5.0783993419760073e-05
4.584378502302121e-05   -1.102154080536051e-05   5.0783993419760073e-05
4.584378502302121e-05   -1.102154080536051e-05   5.0783993419760073e-05
4.584378502302121e-05   -1.102154080536051e-05   5.0783993419760073e-05
8.305603605492424e-05   -1.6744875423119372e-05   0.00011336804682901894
8.305603605492424e-05   -1.6744875423119372e-05   0.00011336804682901894
8.305603605492424e-05   -1.6744875423119372e-05   0.00011336804682901894
8.305603605492424e-05   -1.6744875423119372e-05   0.00011336804682901894
7.255410017209323e-06   -8.138365915759047e-06   -7.802424196089609e-06
7.255410017209323e-06   -8.138365915759047e-06   -7.802424196089609e-06
7.255410017209323e-06   -8.138365915759047e-06   -7.802424196089609e-06
7.255410017209323e-06   -8.138365915759047e-06   -7.802424196089609e-06
4.377899559836738e-06   -1.7179818343019196e-05   0.00011744483914805353
4.377899559836738e-06   -1.7179818343019196e-05   0.00011744483914805353
4.377899559836738e-06   -1.7179818343019196e-05   0.00011744483914805353
4.377899559836738e-06   -1.7179818343019196e-05   0.00011744483914805353
8.013135596629485e-05   -9.048569271369843e-06   -1.3689670972366261e-05
8.013135596629485e-05   -9.048569271369843e-06   -1.3689670972366261e-05
8.013135596629485e-05   -9.048569271369843e-06   -1.3689670972366261e-05
8.013135596629485e-05   -9.048569271369843e-06   -1.3689670972366261e-05
4.299038414411076e-05   -1.1546731997012782e-05   4.9710846366661716e-05
4.299038414411076e-05   -1.1546731997012782e-05   4.9710846366661716e-05
4.299038414411076e-05   -1.1546731997012782e-05   4.9710846366661716e-05
4.299038414411076e-05   -1.1546731997012782e-05   4.9710846366661716e-05
8.013135596629471e-05   -1.7179818343020063e-05   0.0001125660897050634
8.013135596629471e-05   -1.7179818343020063e-05   0.0001125660897050634
8.013135596629471e-05   -1.7179818343020063e-05   0.0001125660897050634
8.013135596629471e-05   -1.7179818343020063e-05   0.0001125660897050634
4.377899559836738e-06   -9.048569271369843e-06   -8.8109215293764e-06
4.377899559836738e-06   -9.048569271369843e-06   -8.8109215293764e-06
4.377899559836738e-06   -9.048569271369843e-06   -8.8109215293764e-06
4.377899559836738e-06   -9.048569271369843e-06   -8.8109215293764e-06
1.1989316229495182e-06   -1.6804729159537908e-05   0.00011920016708909329
1.1989316229495182e-06   -1.6804729159537908e-05   0.00011920016708909329
1.1989316229495182e-06   -1.6804729159537908e-05   0.00011920016708909329
1.1989316229495182e-06   -1.6804729159537908e-05   0.00011920016708909329
7.706419117540543e-05   -9.445676823653833e-06   -1.1657363566531089e-05
7.706419117540543e-05   -9.445676823653833e-06   -1.1657363566531089e-05
7.706419117540543e-05   -9.445676823653833e-06   -1.1657363566531089e-05
7.706419117540543e-05   -9.445676823653833e-06   -1.1657363566531089e-05
4.0658038818562666e-05   -1.1444139886642411e-05   5.021863486600177e-05
4.0658038818562666e-05   -1.1444139886642411e-05   5.021863486600177e-05
4.0658038818562666e-05   -1.1444139886642411e-05   5.021863486600177e-05
4.0658038818562666e-05   -1.1444139886642411e-05   5.021863486600177e-05
9.508056727911083e-06   -6.759673839049074e-06   0.00011635736646409267
9.508056727911083e-06   -6.759673839049074e-06   0.00011635736646409267
9.508056727911083e-06   -6.759673839049074e-06   0.00011635736646409267
9.508056727911083e-06   -6.759673839049074e-06   0.00011635736646409267
-6.392766735066054e-05   5.962856267101475e-06   1.5980110634966974e-06
-6.392766735066054e-05   5.962856267101475e-06   1.5980110634966974e-06
-6.392766735066054e-05   5.962856267101475e-06   1.5980110634966974e-06
-6.392766735066054e-05   5.962856267101475e-06   1.5980110634966974e-06
-6.646503169003908e-05   -7.141760703719205e-06   0.00012487132896781342
-6.646503169003908e-05   -7.141760703719205e-06   0.00012487132896781342
-6.646503169003908e-05   -7.141760703719205e-06   0.00012487132896781342
-6.646503169003908e-05   -7.141760703719205e-06   0.00012487132896781342
7.255410017209323e-06   4.899865370107219e-06   -5.221049521896915e-06
7.255410017209323e-06   4.899865370107219e-06   -5.221049521896915e-06
7.255410017209323e-06   4.899865370107219e-06   -5.221049521896915e-06
7.255410017209323e-06   4.899865370107219e-06   -5.221049521896915e-06
-2.8354521019676885e-05   -2.0009979991367222e-07   5.7188814641593016e-05
-2.8354521019676885e-05   -2.0009979991367222e-07   5.7188814641593016e-05
-2.8354521019676885e-05   -2.0009979991367222e-07   5.7188814641593016e-05
-2.8354521019676885e-05   -2.0009979991367222e-07   5.7188814641593016e-05
7.255410017209323e-06   -7.141760703719205e-06   0.00011764635332351704
7.255410017209323e-06   -7.141760703719205e-06   0.00011764635332351704
7.255410017209323e-06   -7.141760703719205e-06   0.00011764635332351704
7.255410017209323e-06   -7.141760703719205e-06   0.00011764635332351704
-6.646503169003908e-05   4.899865370107219e-06   2.003926122399677e-06
-6.646503169003908e-05   4.899865370107219e-06   2.003926122399677e-06
-6.646503169003908e-05   4.899865370107219e-06   2.003926122399677e-06
-6.646503169003908e-05   4.899865370107219e-06   2.003926122399677e-06
-6.987108375700382e-05   -7.607882508993587e-06   0.00012738963387404038
-6.987108375700382e-05   -7.607882508993587e-06   0.00012738963387404038
-6.987108375700382e-05   -7.607882508993587e-06   0.00012738963387404038
-6.987108375700382e-05   -7.607882508993587e-06   0.00012738963387404038
4.377899559836738e-06   3.910290853679013e-06   -3.269575671632297e-06
4.377899559836738e-06   3.910290853679013e-06   -3.269575671632297e-06
4.377899559836738e-06   3.910290853679013e-06   -3.269575671632297e-06
4.377899559836738e-06   3.910290853679013e-06   -3.269575671632297e-06
-3.0858573557677164e-05   -5.033747926446244e-07   5.810607891201835e-05
-3.0858573557677164e-05   -5.033747926446244e-07   5.810607891201835e-05
-3.0858573557677164e-05   -5.033747926446244e-07   5.810607891201835e-05
-3.0858573557677164e-05   -5.033747926446244e-07   5.810607891201835e-05
4.377899559836738e-06   -7.607882508993587e-06   0.00012047872985643509
4.377899559836738e-06   -7.607882508993587e-06   0.00012047872985643509
4.377899559836738e-06   -7.607882508993587e-06   0.00012047872985643509
4.377899559836738e-06   -7.607882508993587e-06   0.00012047872985643509
-6.987108375700372e-05   3.910290853679013e-06   3.6413283459723472e-06
-6.987108375700372e-05   3.910290853679013e-06   3.6413283459723472e-06
-6.987108375700372e-05   3.910290853679013e-06   3.6413283459723472e-06
-6.987108375700372e-05   3.910290853679013e-06   3.6413283459723472e-06
-7.350009640233333e-05   -7.5729307871452364e-06   0.00013041059459177433
-7.350009640233333e-05   -7.5729307871452364e-06   0.00013041059459177433
-7.350009640233333e-05   -7.5729307871452364e-06   0.00013041059459177433
-7.350009640233333e-05   -7.5729307871452364e-06   0.00013041059459177433
1.1989316229495182e-06   3.1959319558832328e-06   -5.491030961805431e-07
1.1989316229495182e-06   3.1959319558832328e-06   -5.491030961805431e-07
1.1989316229495182e-06   3.1959319558832328e-06   -5.491030961805431e-07
1.1989316229495182e-06   3.1959319558832328e-06   -5.491030961805431e-07
-3.405363765276285e-05   -7.234659477441466e-07   6.055681777218495e-05
-3.405363765276285e-05   -7.234659477441466e-07   6.055681777218495e-05
-3.405363765276285e-05   -7.234659477441466e-07   6.055681777218495e-05
-3.405363765276285e-05   -7.234659477441466e-07   6.055681777218495e-05
-6.392766735066033e-05   6.917143643536683e-06   0.00010507863196463404
-6.392766735066033e-05   6.917143643536683e-06   0.00010507863196463404
-6.392766735066033e-05   6.917143643536683e-06   0.00010507863196463404
-6.392766735066033e-05   6.917143643536683e-06   0.00010507863196463404
-0.00013582061443983553   1.9481269190452927e-05   -7.204471189175589e-06
-0.00013582061443983553   1.9481269190452927e-05   -7.204471189175589e-06
-0.00013582061443983553   1.9481269190452927e-05   -7.204471189175589e-06
-0.00013582061443983553   1.9481269190452927e-05   -7.204471189175589e-06
-0.0001395252803250286   6.472171243459071e-06   0.00011636996612103979
-0.0001395252803250286   6.472171243459071e-06   0.00011636996612103979
-0.0001395252803250286   6.472171243459071e-06   0.00011636996612103979
-0.0001395252803250286   6.472171243459071e-06   0.00011636996612103979
-6.646503169003887e-05   1.8412078541229712e-05   -1.2561059315937921e-05
-6.646503169003887e-05   1.8412078541229712e-05   -1.2561059315937921e-05
-6.646503169003887e-05   1.8412078541229712e-05   -1.2561059315937921e-05
-6.646503169003887e-05   1.8412078541229712e-05   -1.2561059315937921e-05
-0.00010062842377514357   1.3053963510777956e-05   4.759279651084074e-05
-0.00010062842377514357   1.3053963510777956e-05   4.759279651084074e-05
-0.00010062842377514357   1.3053963510777956e-05   4.759279651084074e-05
-0.00010062842377514357   1.3053963510777956e-05   4.759279651084074e-05
-6.646503169003897e-05   6.472171243459071e-06   0.00010920602174237758
-6.646503169003897e-05   6.472171243459071e-06   0.00010920602174237758
-6.646503169003897e-05   6.472171243459071e-06   0.00010920602174237758
-6.646503169003897e-05   6.472171243459071e-06   0.00010920602174237758
-0.00013952528032502826   1.8412078541229712e-05   -5.397114937275276e-06
-0.00013952528032502826   1.8412078541229712e-05   -5.397114937275276e-06
-0.00013952528032502826   1.8412078541229712e-05   -5.397114937275276e-06
-0.00013952528032502826   1.8412078541229712e-05   -5.397114937275276e-06
-0.0001440622187000228   5.674126239863832e-06   0.00012350972916376664
-0.0001440622187000228   5.674126239863832e-06   0.00012350972916376664
-0.0001440622187000228   5.674126239863832e-06   0.00012350972916376664
-0.0001440622187000228   5.674126239863832e-06   0.00012350972916376664
-6.987108375700372e-05   1.7426481138164106e-05   -7.193575346910912e-06
-6.987108375700372e-05   1.7426481138164106e-05   -7.193575346910912e-06
-6.987108375700372e-05   1.7426481138164106e-05   -7.193575346910912e-06
-6.987108375700372e-05   1.7426481138164106e-05   -7.193575346910912e-06
-0.00010339416500995596   1.2799959967611449e-05   5.145413944367388e-05
-0.00010339416500995596   1.2799959967611449e-05   5.145413944367388e-05
-0.00010339416500995596   1.2799959967611449e-05   5.145413944367388e-05
-0.00010339416500995596   1.2799959967611449e-05   5.145413944367388e-05
-6.987108375700366e-05   5.674126239863832e-06   0.00011645831622478665
-6.987108375700366e-05   5.674126239863832e-06   0.00011645831622478665
-6.987108375700366e-05   5.674126239863832e-06   0.00011645831622478665
-6.987108375700366e-05   5.674126239863832e-06   0.00011645831622478665
-0.0001440622187000228   1.7426481138164106e-05   -1.421624079315717e-07
-0.0001440622187000228   1.7426481138164106e-05   -1.421624079315717e-07
-0.0001440622187000228   1.7426481138164106e-05   -1.421624079315717e-07
-0.0001440622187000228   1.7426481138164106e-05   -1.421624079315717e-07
-0.0001488662171991236   4.773445156746985e-06   0.00012922022501458096
-0.0001488662171991236   4.773445156746985e-06   0.00012922022501458096
-0.0001488662171991236   4.773445156746985e-06   0.00012922022501458096
-0.0001488662171991236   4.773445156746985e-06   0.00012922022501458096
-7.350009640233311e-05   1.6105233667291878e-05   -3.1890494197293895e-06
-7.350009640233311e-05   1.6105233667291878e-05   -3.1890494197293895e-06
-7.350009640233311e-05   1.6105233667291878e-05   -3.1890494197293895e-06
-7.350009640233311e-05   1.6105233667291878e-05   -3.1890494197293895e-06
-0.00010797862721985871   1.1997533972568121e-05   5.67397884263176e-05
-0.00010797862721985871   1.1997533972568121e-05   5.67397884263176e-05
-0.00010797862721985871   1.1997533972568121e-05   5.67397884263176e-05
-0.00010797862721985871   1.1997533972568121e-05   5.67397884263176e-05
-0.00013582061443983553   3.217665814342005e-05   5.5340990000165256e-05
-0.00013582061443983553   3.217665814342005e-05   5.5340990000165256e-05
-0.00013582061443983553   3.217665814342005e-05   5.5340990000165256e-05
-0.00013582061443983553   3.217665814342005e-05   5.5340990000165256e-05
-0.00020461138120393403   3.1682707477010894e-05   -5.960665833984382e-05
-0.00020461138120393403   3.1682707477010894e-05   -5.960665833984382e-05
-0.00020461138120393403   3.1682707477010894e-05   -5.960665833984382e-05
-0.00020461138120393403   3.1682707477010894e-05   -5.960665833984382e-05
-0.00021125640833709975   3.101679490645232e-05   8.182338436614305e-05
-0.00021125640833709975   3.101679490645232e-05   8.182338436614305e-05
-0.00021125640833709975   3.101679490645232e-05   8.182338436614305e-05
-0.00021125640833709975   3.101679490645232e-05   8.182338436614305e-05
-0.00013952528032502826   3.227410017441878e-05   -3.8482878814755615e-05
-0.00013952528032502826   3.227410017441878e-05   -3.8482878814755615e-05
-0.00013952528032502826   3.227410017441878e-05   -3.8482878814755615e-05
-0.00013952528032502826   3.227410017441878e-05   -3.8482878814755615e-05
-0.00016584791561268457   3.2302622452741805e-05   5.371066631010605e-06
-0.00016584791561268457   3.2302622452741805e-05   5.371066631010605e-06
-0.00016584791561268457   3.2302622452741805e-05   5.371066631010605e-06
-0.00016584791561268457   3.2302622452741805e-05   5.371066631010605e-06
-0.00013952528032502815   3.101679490645319e-05   8.106900120536395e-05
-0.00013952528032502815   3.101679490645319e-05   8.106900120536395e-05
-0.00013952528032502815   3.101679490645319e-05   8.106900120536395e-05
-0.00013952528032502815   3.101679490645319e-05   8.106900120536395e-05
-0.00021125640833709975   3.227410017441878e-05   -3.772849565397696e-05
-0.00021125640833709975   3.227410017441878e-05   -3.772849565397696e-05
-0.00021125640833709975   3.227410017441878e-05   -3.772849565397696e-05
-0.00021125640833709975   3.227410017441878e-05   -3.772849565397696e-05
-0.00021777322735236295   3.0206954127886577e-05   0.00010044880127836175
-0.00021777322735236295   3.0206954127886577e-05   0.00010044880127836175
-0.00021777322735236295   3.0206954127886577e-05   0.00010044880127836175
-0.00021777322735236295   3.0206954127886577e-05   0.00010044880127836175
-0.0001440622187000226   3.203621155859187e-05   -2.3500434267295168e-05
-0.0001440622187000226   3.203621155859187e-05   -2.3500434267295168e-05
-0.0001440622187000226   3.203621155859187e-05   -2.3500434267295168e-05
-0.0001440622187000226   3.203621155859187e-05   -2.3500434267295168e-05
-0.00017343704888206582   3.228336080958634e-05   2.5309326485515758e-05
-0.00017343704888206582   3.228336080958634e-05   2.5309326485515758e-05
-0.00017343704888206582   3.228336080958634e-05   2.5309326485515758e-05
-0.00017343704888206582   3.228336080958634e-05   2.5309326485515758e-05
-0.0001440622187000226   3.0206954127886577e-05   9.935124681993961e-05
-0.0001440622187000226   3.0206954127886577e-05   9.935124681993961e-05
-0.0001440622187000226   3.0206954127886577e-05   9.935124681993961e-05
-0.0001440622187000226   3.0206954127886577e-05   9.935124681993961e-05
-0.00021777322735236295   3.203621155859187e-05   -2.240287980887195e-05
-0.00021777322735236295   3.203621155859187e-05   -2.240287980887195e-05
-0.00021777322735236295   3.203621155859187e-05   -2.240287980887195e-05
-0.00021777322735236295   3.203621155859187e-05   -2.240287980887195e-05
-0.00022545610157589902   2.5095009179593e-05   0.00013158017261736318
-0.00022545610157589902   2.5095009179593e-05   0.00013158017261736318
-0.00022545610157589902   2.5095009179593e-05   0.00013158017261736318
-0.00022545610157589902   2.5095009179593e-05   0.00013158017261736318
-0.0001488662171991231   2.947514707580829e-05   1.3022825850074861e-06
-0.0001488662171991231   2.947514707580829e-05   1.3022825850074861e-06
-0.0001488662171991231   2.947514707580829e-05   1.3022825850074861e-06
-0.0001488662171991231   2.947514707580829e-05   1.3022825850074861e-06
-0.0001762020327170918   3.073862142695914e-05   4.610389050426649e-05
-0.0001762020327170918   3.073862142695914e-05   4.610389050426649e-05
-0.0001762020327170918   3.073862142695914e-05   4.610389050426649e-05
-0.0001762020327170918   3.073862142695914e-05   4.610389050426649e-05
0.00013638960852862113   -1.9095980468653538e-05   0.00010552058755428735
0.00013638960852862113   -1.9095980468653538e-05   0.00010552058755428735
0.00013638960852862113   -1.9095980468653538e-05   0.00010552058755428735
0.00013638960852862113   -1.9095980468653538e-05   0.00010552058755428735
6.757737889419914e-05   -1.3956203291136393e-05   -6.082595529905473e-06
6.757737889419914e-05   -1.3956203291136393e-05   -6.082595529905473e-06
6.757737889419914e-05   -1.3956203291136393e-05   -6.082595529905473e-06
6.757737889419914e-05   -1.3956203291136393e-05   -6.082595529905473e-06
6.496411787738874e-05   -2.1658392402590376e-05   9.180163935989345e-05
6.496411787738874e-05   -2.1658392402590376e-05   9.180163935989345e-05
6.496411787738874e-05   -2.1658392402590376e-05   9.180163935989345e-05
6.496411787738874e-05   -2.1658392402590376e-05   9.180163935989345e-05
0.0001315810486393195   -1.6206910189544774e-05   -2.2497467904485067e-05
0.0001315810486393195   -1.6206910189544774e-05   -2.2497467904485067e-05
0.0001315810486393195   -1.6206910189544774e-05   -2.2497467904485067e-05
0.0001315810486393195   -1.6206910189544774e-05   -2.2497467904485067e-05
9.554301222805054e-05   -1.7548946111632657e-05   3.837114766754916e-05
9.554301222805054e-05   -1.7548946111632657e-05   3.837114766754916e-05
9.554301222805054e-05   -1.7548946111632657e-05   3.837114766754916e-05
9.554301222805054e-05   -1.7548946111632657e-05   3.837114766754916e-05
0.00013158104863931927   -2.1658392402590376e-05   8.85307500320654e-05
0.00013158104863931927   -2.1658392402590376e-05   8.85307500320654e-05
0.00013158104863931927   -2.1658392402590376e-05   8.85307500320654e-05
0.00013158104863931927   -2.1658392402590376e-05   8.85307500320654e-05
6.496411787738899e-05   -1.6206910189544774e-05   -1.9226578576657296e-05
6.496411787738899e-05   -1.6206910189544774e-05   -1.9226578576657296e-05
6.496411787738899e-05   -1.6206910189544774e-05   -1.9226578576657296e-05
6.496411787738899e-05   -1.6206910189544774e-05   -1.9226578576657296e-05
6.206180575347092e-05   -2.204297950307056e-05   8.229807817444756e-05
6.206180575347092e-05   -2.204297950307056e-05   8.229807817444756e-05
6.206180575347092e-05   -2.204297950307056e-05   8.229807817444756e-05
6.206180575347092e-05   -2.204297950307056e-05   8.229807817444756e-05
0.00012722991798025705   -1.666161902416207e-05   -2.9544258490874376e-05
0.00012722991798025705   -1.666161902416207e-05   -2.9544258490874376e-05
0.00012722991798025705   -1.666161902416207e-05   -2.9544258490874376e-05
0.00012722991798025705   -1.666161902416207e-05   -2.9544258490874376e-05
9.371658968635107e-05   -1.8420030528501496e-05   2.7366335568239044e-05
9.371658968635107e-05   -1.8420030528501496e-05   2.7366335568239044e-05
9.371658968635107e-05   -1.8420030528501496e-05   2.7366335568239044e-05
9.371658968635107e-05   -1.8420030528501496e-05   2.7366335568239044e-05
0.0001272299179802566   -2.2042979503069694e-05   7.906926188710247e-05
0.0001272299179802566   -2.2042979503069694e-05   7.906926188710247e-05
0.0001272299179802566   -2.2042979503069694e-05   7.906926188710247e-05
0.0001272299179802566   -2.2042979503069694e-05   7.906926188710247e-05
6.206180575347103e-05   -1.666161902416207e-05   -2.631544220352928e-05
6.206180575347103e-05   -1.666161902416207e-05   -2.631544220352928e-05
6.206180575347103e-05   -1.666161902416207e-05   -2.631544220352928e-05
6.206180575347103e-05   -1.666161902416207e-05   -2.631544220352928e-05
5.927178061879376e-05   -2.192003669494475e-05   6.906658596953462e-05
5.927178061879376e-05   -2.192003669494475e-05   6.906658596953462e-05
5.927178061879376e-05   -2.192003669494475e-05   6.906658596953462e-05
5.927178061879376e-05   -2.192003669494475e-05   6.906658596953462e-05
0.0001223048910793219   -1.6858422665423298e-05   -3.902556654905799e-05
0.0001223048910793219   -1.6858422665423298e-05   -3.902556654905799e-05
0.0001223048910793219   -1.6858422665423298e-05   -3.902556654905799e-05
0.0001223048910793219   -1.6858422665423298e-05   -3.902556654905799e-05
8.885775831185657e-05   -1.8114040842341292e-05   1.7473025636203718e-05
8.885775831185657e-05   -1.8114040842341292e-05   1.7473025636203718e-05
8.885775831185657e-05   -1.8114040842341292e-05   1.7473025636203718e-05
8.885775831185657e-05   -1.8114040842341292e-05   1.7473025636203718e-05
6.757737889419914e-05   -6.75781505671616e-06   0.00011100191483821853
6.757737889419914e-05   -6.75781505671616e-06   0.00011100191483821853
6.757737889419914e-05   -6.75781505671616e-06   0.00011100191483821853
6.757737889419914e-05   -6.75781505671616e-06   0.00011100191483821853
2.9892796513645735e-06   -2.664254754231911e-06   5.811218948317907e-06
2.9892796513645735e-06   -2.664254754231911e-06   5.811218948317907e-06
2.9892796513645735e-06   -2.664254754231911e-06   5.811218948317907e-06
2.9892796513645735e-06   -2.664254754231911e-06   5.811218948317907e-06
4.822302309291562e-07   -8.138365915759047e-06   0.00011217600411277465
4.822302309291562e-07   -8.138365915759047e-06   0.00011217600411277465
4.822302309291562e-07   -8.138365915759047e-06   0.00011217600411277465
4.822302309291562e-07   -8.138365915759047e-06   0.00011217600411277465
6.496411787738899e-05   -4.26346854864694e-06   2.381252948407557e-06
6.496411787738899e-05   -4.26346854864694e-06   2.381252948407557e-06
6.496411787738899e-05   -4.26346854864694e-06   2.381252948407557e-06
6.496411787738899e-05   -4.26346854864694e-06   2.381252948407557e-06
3.359154319416765e-05   -5.2522900674508224e-06   5.526217033172511e-05
3.359154319416765e-05   -5.2522900674508224e-06   5.526217033172511e-05
3.359154319416765e-05   -5.2522900674508224e-06   5.526217033172511e-05
3.359154319416765e-05   -5.2522900674508224e-06   5.526217033172511e-05
6.496411787738893e-05   -8.138365915759047e-06   0.00010985106569250721
6.496411787738893e-05   -8.138365915759047e-06   0.00010985106569250721
6.496411787738893e-05   -8.138365915759047e-06   0.00010985106569250721
6.496411787738893e-05   -8.138365915759047e-06   0.00010985106569250721
4.822302309292104e-07   -4.26346854864694e-06   4.7061913686749675e-06
4.822302309292104e-07   -4.26346854864694e-06   4.7061913686749675e-06
4.822302309292104e-07   -4.26346854864694e-06   4.7061913686749675e-06
4.822302309292104e-07   -4.26346854864694e-06   4.7061913686749675e-06
-2.123569153936525e-06   -9.048569271369843e-06   0.0001105094421708936
-2.123569153936525e-06   -9.048569271369843e-06   0.0001105094421708936
-2.123569153936525e-06   -9.048569271369843e-06   0.0001105094421708936
-2.123569153936525e-06   -9.048569271369843e-06   0.0001105094421708936
6.206180575347103e-05   -5.455554622774486e-06   1.378008536057399e-06
6.206180575347103e-05   -5.455554622774486e-06   1.378008536057399e-06
6.206180575347103e-05   -5.455554622774486e-06   1.378008536057399e-06
6.206180575347103e-05   -5.455554622774486e-06   1.378008536057399e-06
3.071727551408484e-05   -6.092045951460595e-06   5.40007870655808e-05
3.071727551408484e-05   -6.092045951460595e-06   5.40007870655808e-05
3.071727551408484e-05   -6.092045951460595e-06   5.40007870655808e-05
3.071727551408484e-05   -6.092045951460595e-06   5.40007870655808e-05
6.206180575347092e-05   -9.04856927137071e-06   0.00010835363338173622
6.206180575347092e-05   -9.04856927137071e-06   0.00010835363338173622
6.206180575347092e-05   -9.04856927137071e-06   0.00010835363338173622
6.206180575347092e-05   -9.04856927137071e-06   0.00010835363338173622
-2.123569153936525e-06   -5.455554622773619e-06   3.533817325214895e-06
-2.123569153936525e-06   -5.455554622773619e-06   3.533817325214895e-06
-2.123569153936525e-06   -5.455554622773619e-06   3.533817325214895e-06
-2.123569153936525e-06   -5.455554622773619e-06   3.533817325214895e-06
-4.83634356699856e-06   -9.445676823653833e-06   0.00011138263351560037
-4.83634356699856e-06   -9.445676823653833e-06   0.00011138263351560037
-4.83634356699856e-06   -9.445676823653833e-06   0.00011138263351560037
-4.83634356699856e-06   -9.445676823653833e-06   0.00011138263351560037
5.9271780618793925e-05   -6.400880917972404e-06   2.708882329203598e-06
5.9271780618793925e-05   -6.400880917972404e-06   2.708882329203598e-06
5.9271780618793925e-05   -6.400880917972404e-06   2.708882329203598e-06
5.9271780618793925e-05   -6.400880917972404e-06   2.708882329203598e-06
2.8549724544177612e-05   -6.547938077459438e-06   5.4000543415925605e-05
2.8549724544177612e-05   -6.547938077459438e-06   5.4000543415925605e-05
2.8549724544177612e-05   -6.547938077459438e-06   5.4000543415925605e-05
2.8549724544177612e-05   -6.547938077459438e-06   5.4000543415925605e-05
2.9892796513645735e-06   5.962856267100608e-06   0.0001146398623090841
2.9892796513645735e-06   5.962856267100608e-06   0.0001146398623090841
2.9892796513645735e-06   5.962856267100608e-06   0.0001146398623090841
2.9892796513645735e-06   5.962856267100608e-06   0.0001146398623090841
-5.9701193045485416e-05   8.688328802648922e-06   1.1791024668996591e-05
-5.9701193045485416e-05   8.688328802648922e-06   1.1791024668996591e-05
-5.9701193045485416e-05   8.688328802648922e-06   1.1791024668996591e-05
-5.9701193045485416e-05   8.688328802648922e-06   1.1791024668996591e-05
-6.231973078172964e-05   4.899865370107219e-06   0.00011622916487560777
-6.231973078172964e-05   4.899865370107219e-06   0.00011622916487560777
-6.231973078172964e-05   4.899865370107219e-06   0.00011622916487560777
-6.231973078172964e-05   4.899865370107219e-06   0.00011622916487560777
4.822302309292104e-07   7.352842184506561e-06   1.0087443765869415e-05
4.822302309292104e-07   7.352842184506561e-06   1.0087443765869415e-05
4.822302309292104e-07   7.352842184506561e-06   1.0087443765869415e-05
4.822302309292104e-07   7.352842184506561e-06   1.0087443765869415e-05
-2.9683617918133863e-05   6.8068694933486745e-06   6.069144096233574e-05
-2.9683617918133863e-05   6.8068694933486745e-06   6.069144096233574e-05
-2.9683617918133863e-05   6.8068694933486745e-06   6.069144096233574e-05
-2.9683617918133863e-05   6.8068694933486745e-06   6.069144096233574e-05
4.822302309291562e-07   4.899865370107219e-06   0.00011475737878696712
4.822302309291562e-07   4.899865370107219e-06   0.00011475737878696712
4.822302309291562e-07   4.899865370107219e-06   0.00011475737878696712
4.822302309291562e-07   4.899865370107219e-06   0.00011475737878696712
-6.231973078172964e-05   7.3528421845074285e-06   1.1559229854509086e-05
-6.231973078172964e-05   7.3528421845074285e-06   1.1559229854509086e-05
-6.231973078172964e-05   7.3528421845074285e-06   1.1559229854509086e-05
-6.231973078172964e-05   7.3528421845074285e-06   1.1559229854509086e-05
-6.508608910284636e-05   3.910290853679013e-06   0.0001173381363130388
-6.508608910284636e-05   3.910290853679013e-06   0.0001173381363130388
-6.508608910284636e-05   3.910290853679013e-06   0.0001173381363130388
-6.508608910284636e-05   3.910290853679013e-06   0.0001173381363130388
-2.1235691539365793e-06   6.0558713276814835e-06   1.1113254780455183e-05
-2.1235691539365793e-06   6.0558713276814835e-06   1.1113254780455183e-05
-2.1235691539365793e-06   6.0558713276814835e-06   1.1113254780455183e-05
-2.1235691539365793e-06   6.0558713276814835e-06   1.1113254780455183e-05
-3.211693692853465e-05   6.041841307442147e-06   6.111061908359576e-05
-3.211693692853465e-05   6.041841307442147e-06   6.111061908359576e-05
-3.211693692853465e-05   6.041841307442147e-06   6.111061908359576e-05
-3.211693692853465e-05   6.041841307442147e-06   6.111061908359576e-05
-2.123569153936525e-06   3.9102908536798806e-06   0.00011605078802863792
-2.123569153936525e-06   3.9102908536798806e-06   0.00011605078802863792
-2.123569153936525e-06   3.9102908536798806e-06   0.00011605078802863792
-2.123569153936525e-06   3.9102908536798806e-06   0.00011605078802863792
-6.508608910284647e-05   6.0558713276814835e-06   1.2400603064856384e-05
-6.508608910284647e-05   6.0558713276814835e-06   1.2400603064856384e-05
-6.508608910284647e-05   6.0558713276814835e-06   1.2400603064856384e-05
-6.508608910284647e-05   6.0558713276814835e-06   1.2400603064856384e-05
-6.794145139937135e-05   3.1959319558832328e-06   0.00011909857202610421
-6.794145139937135e-05   3.1959319558832328e-06   0.00011909857202610421
-6.794145139937135e-05   3.1959319558832328e-06   0.00011909857202610421
-6.794145139937135e-05   3.1959319558832328e-06   0.00011909857202610421
-4.836343566998506e-06   4.901114358689916e-06   1.2900282863799375e-05
-4.836343566998506e-06   4.901114358689916e-06   1.2900282863799375e-05
-4.836343566998506e-06   4.901114358689916e-06   1.2900282863799375e-05
-4.836343566998506e-06   4.901114358689916e-06   1.2900282863799375e-05
-3.475007186238977e-05   5.308380251939186e-06   6.251213715350386e-05
-3.475007186238977e-05   5.308380251939186e-06   6.251213715350386e-05
-3.475007186238977e-05   5.308380251939186e-06   6.251213715350386e-05
-3.475007186238977e-05   5.308380251939186e-06   6.251213715350386e-05
-5.970119304548563e-05   1.948126919045206e-05   9.993418824959244e-05
-5.970119304548563e-05   1.948126919045206e-05   9.993418824959244e-05
-5.970119304548563e-05   1.948126919045206e-05   9.993418824959244e-05
-5.970119304548563e-05   1.948126919045206e-05   9.993418824959244e-05
-0.00012036874987336862   1.9726705169656467e-05   -1.0311448760229325e-06
-0.00012036874987336862   1.9726705169656467e-05   -1.0311448760229325e-06
-0.00012036874987336862   1.9726705169656467e-05   -1.0311448760229325e-06
-0.00012036874987336862   1.9726705169656467e-05   -1.0311448760229325e-06
-0.00012340931416108137   1.8412078541229712e-05   0.00010168523432364882
-0.00012340931416108137   1.8412078541229712e-05   0.00010168523432364882
-0.00012340931416108137   1.8412078541229712e-05   0.00010168523432364882
-0.00012340931416108137   1.8412078541229712e-05   0.00010168523432364882
-6.231973078172975e-05   1.844717001852833e-05   -1.5179286164948222e-07
-6.231973078172975e-05   1.844717001852833e-05   -1.5179286164948222e-07
-6.231973078172975e-05   1.844717001852833e-05   -1.5179286164948222e-07
-6.231973078172975e-05   1.844717001852833e-05   -1.5179286164948222e-07
-9.104085431348955e-05   1.8976992011461233e-05   4.739885316219078e-05
-9.104085431348955e-05   1.8976992011461233e-05   4.739885316219078e-05
-9.104085431348955e-05   1.8976992011461233e-05   4.739885316219078e-05
-9.104085431348955e-05   1.8976992011461233e-05   4.739885316219078e-05
-6.231973078172975e-05   1.8412078541229712e-05   0.00010166417943726974
-6.231973078172975e-05   1.8412078541229712e-05   0.00010166417943726974
-6.231973078172975e-05   1.8412078541229712e-05   0.00010166417943726974
-6.231973078172975e-05   1.8412078541229712e-05   0.00010166417943726974
-0.00012340931416108115   1.8447170018527463e-05   -1.3073797527083167e-07
-0.00012340931416108115   1.8447170018527463e-05   -1.3073797527083167e-07
-0.00012340931416108115   1.8447170018527463e-05   -1.3073797527083167e-07
-0.00012340931416108115   1.8447170018527463e-05   -1.3073797527083167e-07
-0.00012678155601781487   1.7426481138164106e-05   0.00010641008521896159
-0.00012678155601781487   1.7426481138164106e-05   0.00010641008521896159
-0.00012678155601781487   1.7426481138164106e-05   0.00010641008521896159
-0.00012678155601781487   1.7426481138164106e-05   0.00010641008521896159
-6.508608910284647e-05   1.7271235469507734e-05   3.6774544285427544e-06
-6.508608910284647e-05   1.7271235469507734e-05   3.6774544285427544e-06
-6.508608910284647e-05   1.7271235469507734e-05   3.6774544285427544e-06
-6.508608910284647e-05   1.7271235469507734e-05   3.6774544285427544e-06
-9.324662636871206e-05   1.8251931793718083e-05   5.002326541045875e-05
-9.324662636871206e-05   1.8251931793718083e-05   5.002326541045875e-05
-9.324662636871206e-05   1.8251931793718083e-05   5.002326541045875e-05
-9.324662636871206e-05   1.8251931793718083e-05   5.002326541045875e-05
-6.508608910284642e-05   1.742648113816324e-05   0.00010650323262015662
-6.508608910284642e-05   1.742648113816324e-05   0.00010650323262015662
-6.508608910284642e-05   1.742648113816324e-05   0.00010650323262015662
-6.508608910284642e-05   1.742648113816324e-05   0.00010650323262015662
-0.00012678155601781465   1.7271235469506867e-05   3.584307027348476e-06
-0.00012678155601781465   1.7271235469506867e-05   3.584307027348476e-06
-0.00012678155601781465   1.7271235469506867e-05   3.584307027348476e-06
-0.00012678155601781465   1.7271235469506867e-05   3.584307027348476e-06
-0.0001299968448008514   1.6105233667292745e-05   0.00010983724444844477
-0.0001299968448008514   1.6105233667292745e-05   0.00010983724444844477
-0.0001299968448008514   1.6105233667292745e-05   0.00010983724444844477
-0.0001299968448008514   1.6105233667292745e-05   0.00010983724444844477
-6.794145139937162e-05   1.5838460986804075e-05   6.571652387605664e-06
-6.794145139937162e-05   1.5838460986804075e-05   6.571652387605664e-06
-6.794145139937162e-05   1.5838460986804075e-05   6.571652387605664e-06
-6.794145139937162e-05   1.5838460986804075e-05   6.571652387605664e-06
-9.673893662052947e-05   1.7314949672640918e-05   5.368156787803765e-05
-9.673893662052947e-05   1.7314949672640918e-05   5.368156787803765e-05
-9.673893662052947e-05   1.7314949672640918e-05   5.368156787803765e-05
-9.673893662052947e-05   1.7314949672640918e-05   5.368156787803765e-05
-0.00012036874987336841   3.168270747701176e-05   4.797563308629174e-05
-0.00012036874987336841   3.168270747701176e-05   4.797563308629174e-05
-0.00012036874987336841   3.168270747701176e-05   4.797563308629174e-05
-0.00012036874987336841   3.168270747701176e-05   4.797563308629174e-05
-0.0001779293610999703   2.8359736673879386e-05   -4.995250143992455e-05
-0.0001779293610999703   2.8359736673879386e-05   -4.995250143992455e-05
-0.0001779293610999703   2.8359736673879386e-05   -4.995250143992455e-05
-0.0001779293610999703   2.8359736673879386e-05   -4.995250143992455e-05
-0.0001827165458799532   3.227410017441791e-05   6.642319219261894e-05
-0.0001827165458799532   3.227410017441791e-05   6.642319219261894e-05
-0.0001827165458799532   3.227410017441791e-05   6.642319219261894e-05
-0.0001827165458799532   3.227410017441791e-05   6.642319219261894e-05
-0.00012340931416108137   2.864696975183722e-05   -3.024591575195271e-05
-0.00012340931416108137   2.864696975183722e-05   -3.024591575195271e-05
-0.00012340931416108137   2.864696975183722e-05   -3.024591575195271e-05
-0.00012340931416108137   2.864696975183722e-05   -3.024591575195271e-05
-0.00014532223272486426   3.00724387704409e-05   5.420333776523468e-06
-0.00014532223272486426   3.00724387704409e-05   5.420333776523468e-06
-0.00014532223272486426   3.00724387704409e-05   5.420333776523468e-06
-0.00014532223272486426   3.00724387704409e-05   5.420333776523468e-06
-0.00012340931416108104   3.227410017441878e-05   6.859947044616762e-05
-0.00012340931416108104   3.227410017441878e-05   6.859947044616762e-05
-0.00012340931416108104   3.227410017441878e-05   6.859947044616762e-05
-0.00012340931416108104   3.227410017441878e-05   6.859947044616762e-05
-0.00018271654587995385   2.864696975183722e-05   -3.24221940055016e-05
-0.00018271654587995385   2.864696975183722e-05   -3.24221940055016e-05
-0.00018271654587995385   2.864696975183722e-05   -3.24221940055016e-05
-0.00018271654587995385   2.864696975183722e-05   -3.24221940055016e-05
-0.00018739446043358667   3.203621155859187e-05   8.082680940739266e-05
-0.00018739446043358667   3.203621155859187e-05   8.082680940739266e-05
-0.00018739446043358667   3.203621155859187e-05   8.082680940739266e-05
-0.00018739446043358667   3.203621155859187e-05   8.082680940739266e-05
-0.00012678155601781487   2.8327871638248424e-05   -1.796969400002222e-05
-0.00012678155601781487   2.8327871638248424e-05   -1.796969400002222e-05
-0.00012678155601781487   2.8327871638248424e-05   -1.796969400002222e-05
-0.00012678155601781487   2.8327871638248424e-05   -1.796969400002222e-05
-0.0001511796226608385   3.06160921217059e-05   2.1320818114946034e-05
-0.0001511796226608385   3.06160921217059e-05   2.1320818114946034e-05
-0.0001511796226608385   3.06160921217059e-05   2.1320818114946034e-05
-0.0001511796226608385   3.06160921217059e-05   2.1320818114946034e-05
-0.00012678155601781487   3.203621155859187e-05   8.305181335959864e-05
-0.00012678155601781487   3.203621155859187e-05   8.305181335959864e-05
-0.00012678155601781487   3.203621155859187e-05   8.305181335959864e-05
-0.00012678155601781487   3.203621155859187e-05   8.305181335959864e-05
-0.00018739446043358732   2.8327871638248424e-05   -2.019469795222755e-05
-0.00018739446043358732   2.8327871638248424e-05   -2.019469795222755e-05
-0.00018739446043358732   2.8327871638248424e-05   -2.019469795222755e-05
-0.00018739446043358732   2.8327871638248424e-05   -2.019469795222755e-05
-0.00019286119847831658   2.947514707580829e-05   0.00010552475537422504
-0.00019286119847831658   2.947514707580829e-05   0.00010552475537422504
-0.00019286119847831658   2.947514707580829e-05   0.00010552475537422504
-0.00019286119847831658   2.947514707580829e-05   0.00010552475537422504
-0.0001299968448008514   2.6133900454757865e-05   2.7555805510795506e-06
-0.0001299968448008514   2.6133900454757865e-05   2.7555805510795506e-06
-0.0001299968448008514   2.6133900454757865e-05   2.7555805510795506e-06
-0.0001299968448008514   2.6133900454757865e-05   2.7555805510795506e-06
-0.00015270368768941428   2.9711771110914678e-05   3.8453596304991854e-05
-0.00015270368768941428   2.9711771110914678e-05   3.8453596304991854e-05
-0.00015270368768941428   2.9711771110914678e-05   3.8453596304991854e-05
-0.00015270368768941428   2.9711771110914678e-05   3.8453596304991854e-05
0.00010321390308821   -1.3956203291136393e-05   8.786778777993172e-05
0.00010321390308821   -1.3956203291136393e-05   8.786778777993172e-05
0.00010321390308821   -1.3956203291136393e-05   8.786778777993172e-05
0.00010321390308821   -1.3956203291136393e-05   8.786778777993172e-05
4.8619772747801325e-05   -9.183181906636737e-06   -2.5861662338250505e-07
4.8619772747801325e-05   -9.183181906636737e-06   -2.5861662338250505e-07
4.8619772747801325e-05   -9.183181906636737e-06   -2.5861662338250505e-07
4.8619772747801325e-05   -9.183181906636737e-06   -2.5861662338250505e-07
4.628855475112401e-05   -1.6206910189544774e-05   7.724069124491733e-05
4.628855475112401e-05   -1.6206910189544774e-05   7.724069124491733e-05
4.628855475112401e-05   -1.6206910189544774e-05   7.724069124491733e-05
4.628855475112401e-05   -1.6206910189544774e-05   7.724069124491733e-05
9.870578143076444e-05   -1.1160694356203253e-05   -1.314908272115434e-05
9.870578143076444e-05   -1.1160694356203253e-05   -1.314908272115434e-05
9.870578143076444e-05   -1.1160694356203253e-05   -1.314908272115434e-05
9.870578143076444e-05   -1.1160694356203253e-05   -1.314908272115434e-05
7.071502738095841e-05   -1.272579957866185e-05   3.4441237161997415e-05
7.071502738095841e-05   -1.272579957866185e-05   3.4441237161997415e-05
7.071502738095841e-05   -1.272579957866185e-05   3.4441237161997415e-05
7.071502738095841e-05   -1.272579957866185e-05   3.4441237161997415e-05
9.870578143076444e-05   -1.6206910189543906e-05   7.421296174491346e-05
9.870578143076444e-05   -1.6206910189543906e-05   7.421296174491346e-05
9.870578143076444e-05   -1.6206910189543906e-05   7.421296174491346e-05
9.870578143076444e-05   -1.6206910189543906e-05   7.421296174491346e-05
4.628855475112408e-05   -1.1160694356203253e-05   -1.01213532211499e-05
4.628855475112408e-05   -1.1160694356203253e-05   -1.01213532211499e-05
4.628855475112408e-05   -1.1160694356203253e-05   -1.01213532211499e-05
4.628855475112408e-05   -1.1160694356203253e-05   -1.01213532211499e-05
4.371772288733791e-05   -1.666161902416207e-05   6.976705242350226e-05
4.371772288733791e-05   -1.666161902416207e-05   6.976705242350226e-05
4.371772288733791e-05   -1.666161902416207e-05   6.976705242350226e-05
4.371772288733791e-05   -1.666161902416207e-05   6.976705242350226e-05
9.475776434291031e-05   -1.1691196181959004e-05   -1.828193704110615e-05
9.475776434291031e-05   -1.1691196181959004e-05   -1.828193704110615e-05
9.475776434291031e-05   -1.1691196181959004e-05   -1.828193704110615e-05
9.475776434291031e-05   -1.1691196181959004e-05   -1.828193704110615e-05
6.883132391657931e-05   -1.3526888367826166e-05   2.603021231430067e-05
6.883132391657931e-05   -1.3526888367826166e-05   2.603021231430067e-05
6.883132391657931e-05   -1.3526888367826166e-05   2.603021231430067e-05
6.883132391657931e-05   -1.3526888367826166e-05   2.603021231430067e-05
9.475776434291013e-05   -1.666161902416207e-05   6.678479871818129e-05
9.475776434291013e-05   -1.666161902416207e-05   6.678479871818129e-05
9.475776434291013e-05   -1.666161902416207e-05   6.678479871818129e-05
9.475776434291013e-05   -1.666161902416207e-05   6.678479871818129e-05
4.371772288733799e-05   -1.1691196181959004e-05   -1.5299683335784527e-05
4.371772288733799e-05   -1.1691196181959004e-05   -1.5299683335784527e-05
4.371772288733799e-05   -1.1691196181959004e-05   -1.5299683335784527e-05
4.371772288733799e-05   -1.1691196181959004e-05   -1.5299683335784527e-05
4.1345182825361205e-05   -1.6858422665423298e-05   5.966587402500513e-05
4.1345182825361205e-05   -1.6858422665423298e-05   5.966587402500513e-05
4.1345182825361205e-05   -1.6858422665423298e-05   5.966587402500513e-05
4.1345182825361205e-05   -1.6858422665423298e-05   5.966587402500513e-05
9.035086531475789e-05   -1.2197240064041812e-05   -2.4806973018151422e-05
9.035086531475789e-05   -1.2197240064041812e-05   -2.4806973018151422e-05
9.035086531475789e-05   -1.2197240064041812e-05   -2.4806973018151422e-05
9.035086531475789e-05   -1.2197240064041812e-05   -2.4806973018151422e-05
6.472588347959592e-05   -1.3454707798715021e-05   1.8655810681257208e-05
6.472588347959592e-05   -1.3454707798715021e-05   1.8655810681257208e-05
6.472588347959592e-05   -1.3454707798715021e-05   1.8655810681257208e-05
6.472588347959592e-05   -1.3454707798715021e-05   1.8655810681257208e-05
4.8619772747801176e-05   -2.664254754231911e-06   0.00010016927890736443
4.8619772747801176e-05   -2.664254754231911e-06   0.00010016927890736443
4.8619772747801176e-05   -2.664254754231911e-06   0.00010016927890736443
4.8619772747801176e-05   -2.664254754231911e-06   0.00010016927890736443
-3.071193071501818e-06   -2.5880332332056666e-08   1.5600693861666202e-05
-3.071193071501818e-06   -2.5880332332056666e-08   1.5600693861666202e-05
-3.071193071501818e-06   -2.5880332332056666e-08   1.5600693861666202e-05
-3.071193071501818e-06   -2.5880332332056666e-08   1.5600693861666202e-05
-5.261596377936458e-06   -4.26346854864694e-06   0.00010035668507233763
-5.261596377936458e-06   -4.26346854864694e-06   0.00010035668507233763
-5.261596377936458e-06   -4.26346854864694e-06   0.00010035668507233763
-5.261596377936458e-06   -4.26346854864694e-06   0.00010035668507233763
4.628855475112408e-05   -1.749864711388105e-06   1.293160422154773e-05
4.628855475112408e-05   -1.749864711388105e-06   1.293160422154773e-05
4.628855475112408e-05   -1.749864711388105e-06   1.293160422154773e-05
4.628855475112408e-05   -1.749864711388105e-06   1.293160422154773e-05
2.129393261472333e-05   -2.237813263381537e-06   5.4882076913411804e-05
2.129393261472333e-05   -2.237813263381537e-06   5.4882076913411804e-05
2.129393261472333e-05   -2.237813263381537e-06   5.4882076913411804e-05
2.129393261472333e-05   -2.237813263381537e-06   5.4882076913411804e-05
4.628855475112396e-05   -4.26346854864694e-06   9.884852276998216e-05
4.628855475112396e-05   -4.26346854864694e-06   9.884852276998216e-05
4.628855475112396e-05   -4.26346854864694e-06   9.884852276998216e-05
4.628855475112396e-05   -4.26346854864694e-06   9.884852276998216e-05
-5.261596377936458e-06   -1.749864711388105e-06   1.4439766523903583e-05
-5.261596377936458e-06   -1.749864711388105e-06   1.4439766523903583e-05
-5.261596377936458e-06   -1.749864711388105e-06   1.4439766523903583e-05
-5.261596377936458e-06   -1.749864711388105e-06   1.4439766523903583e-05
-7.4980848129034875e-06   -5.455554622773619e-06   9.886630280043097e-05
-7.4980848129034875e-06   -5.455554622773619e-06   9.886630280043097e-05
-7.4980848129034875e-06   -5.455554622773619e-06   9.886630280043097e-05
-7.4980848129034875e-06   -5.455554622773619e-06   9.886630280043097e-05
4.371772288733799e-05   -3.11255522720405e-06   1.2100823662686418e-05
4.371772288733799e-05   -3.11255522720405e-06   1.2100823662686418e-05
4.371772288733799e-05   -3.11255522720405e-06   1.2100823662686418e-05
4.371772288733799e-05   -3.11255522720405e-06   1.2100823662686418e-05
1.8840492490995064e-05   -3.3037435655698666e-06   5.3677587326280026e-05
1.8840492490995064e-05   -3.3037435655698666e-06   5.3677587326280026e-05
1.8840492490995064e-05   -3.3037435655698666e-06   5.3677587326280026e-05
1.8840492490995064e-05   -3.3037435655698666e-06   5.3677587326280026e-05
4.371772288733791e-05   -5.455554622773619e-06   9.746050316308905e-05
4.371772288733791e-05   -5.455554622773619e-06   9.746050316308905e-05
4.371772288733791e-05   -5.455554622773619e-06   9.746050316308905e-05
4.371772288733791e-05   -5.455554622773619e-06   9.746050316308905e-05
-7.4980848129034875e-06   -3.11255522720405e-06   1.3506623300028279e-05
-7.4980848129034875e-06   -3.11255522720405e-06   1.3506623300028279e-05
-7.4980848129034875e-06   -3.11255522720405e-06   1.3506623300028279e-05
-7.4980848129034875e-06   -3.11255522720405e-06   1.3506623300028279e-05
-9.74638924531847e-06   -6.400880917972404e-06   9.957632573992948e-05
-9.74638924531847e-06   -6.400880917972404e-06   9.957632573992948e-05
-9.74638924531847e-06   -6.400880917972404e-06   9.957632573992948e-05
-9.74638924531847e-06   -6.400880917972404e-06   9.957632573992948e-05
4.134518282536123e-05   -4.379262160679118e-06   1.3210734367754314e-05
4.134518282536123e-05   -4.379262160679118e-06   1.3210734367754314e-05
4.134518282536123e-05   -4.379262160679118e-06   1.3210734367754314e-05
4.134518282536123e-05   -4.379262160679118e-06   1.3210734367754314e-05
1.6961285632758672e-05   -4.097306766750672e-06   5.3681389785736704e-05
1.6961285632758672e-05   -4.097306766750672e-06   5.3681389785736704e-05
1.6961285632758672e-05   -4.097306766750672e-06   5.3681389785736704e-05
1.6961285632758672e-05   -4.097306766750672e-06   5.3681389785736704e-05
-3.071193071501818e-06   8.688328802649789e-06   0.00010609682575985456
-3.071193071501818e-06   8.688328802649789e-06   0.00010609682575985456
-3.071193071501818e-06   8.688328802649789e-06   0.00010609682575985456
-3.071193071501818e-06   8.688328802649789e-06   0.00010609682575985456
-5.367817606505672e-05   8.934466164909997e-06   2.189953652128587e-05
-5.367817606505672e-05   8.934466164909997e-06   2.189953652128587e-05
-5.367817606505672e-05   8.934466164909997e-06   2.189953652128587e-05
-5.367817606505672e-05   8.934466164909997e-06   2.189953652128587e-05
-5.58790982934051e-05   7.3528421845074285e-06   0.00010577547952727098
-5.58790982934051e-05   7.3528421845074285e-06   0.00010577547952727098
-5.58790982934051e-05   7.3528421845074285e-06   0.00010577547952727098
-5.58790982934051e-05   7.3528421845074285e-06   0.00010577547952727098
-5.261596377936512e-06   7.415412280737527e-06   2.1375434277084797e-05
-5.261596377936512e-06   7.415412280737527e-06   2.1375434277084797e-05
-5.261596377936512e-06   7.415412280737527e-06   2.1375434277084797e-05
-5.261596377936512e-06   7.415412280737527e-06   2.1375434277084797e-05
-2.9549282193309137e-05   7.958731718802486e-06   6.152891897320063e-05
-2.9549282193309137e-05   7.958731718802486e-06   6.152891897320063e-05
-2.9549282193309137e-05   7.958731718802486e-06   6.152891897320063e-05
-2.9549282193309137e-05   7.958731718802486e-06   6.152891897320063e-05
-5.261596377936512e-06   7.352842184506561e-06   0.00010573793746953284
-5.261596377936512e-06   7.352842184506561e-06   0.00010573793746953284
-5.261596377936512e-06   7.352842184506561e-06   0.00010573793746953284
-5.261596377936512e-06   7.352842184506561e-06   0.00010573793746953284
-5.58790982934051e-05   7.415412280737527e-06   2.141297633482305e-05
-5.58790982934051e-05   7.415412280737527e-06   2.141297633482305e-05
-5.58790982934051e-05   7.415412280737527e-06   2.141297633482305e-05
-5.58790982934051e-05   7.415412280737527e-06   2.141297633482305e-05
-5.8135673748812395e-05   6.0558713276814835e-06   0.00010636437983310622
-5.8135673748812395e-05   6.0558713276814835e-06   0.00010636437983310622
-5.8135673748812395e-05   6.0558713276814835e-06   0.00010636437983310622
-5.8135673748812395e-05   6.0558713276814835e-06   0.00010636437983310622
-7.4980848129034875e-06   5.920270623406901e-06   2.204975869582297e-05
-7.4980848129034875e-06   5.920270623406901e-06   2.204975869582297e-05
-7.4980848129034875e-06   5.920270623406901e-06   2.204975869582297e-05
-7.4980848129034875e-06   5.920270623406901e-06   2.204975869582297e-05
-3.159392202407599e-05   6.93552250546816e-06   6.16003362518755e-05
-3.159392202407599e-05   6.93552250546816e-06   6.16003362518755e-05
-3.159392202407599e-05   6.93552250546816e-06   6.16003362518755e-05
-3.159392202407599e-05   6.93552250546816e-06   6.16003362518755e-05
-7.4980848129034875e-06   6.0558713276814835e-06   0.00010644574025567115
-7.4980848129034875e-06   6.0558713276814835e-06   0.00010644574025567115
-7.4980848129034875e-06   6.0558713276814835e-06   0.00010644574025567115
-7.4980848129034875e-06   6.0558713276814835e-06   0.00010644574025567115
-5.8135673748812395e-05   5.920270623406901e-06   2.1968398273257937e-05
-5.8135673748812395e-05   5.920270623406901e-06   2.1968398273257937e-05
-5.8135673748812395e-05   5.920270623406901e-06   2.1968398273257937e-05
-5.8135673748812395e-05   5.920270623406901e-06   2.1968398273257937e-05
-6.0391983788498336e-05   4.901114358689916e-06   0.00010770088824408252
-6.0391983788498336e-05   4.901114358689916e-06   0.00010770088824408252
-6.0391983788498336e-05   4.901114358689916e-06   0.00010770088824408252
-6.0391983788498336e-05   4.901114358689916e-06   0.00010770088824408252
-9.746389245318524e-06   4.501180213634451e-06   2.3531524492482352e-05
-9.746389245318524e-06   4.501180213634451e-06   2.3531524492482352e-05
-9.746389245318524e-06   4.501180213634451e-06   2.3531524492482352e-05
-9.746389245318524e-06   4.501180213634451e-06   2.3531524492482352e-05
-3.3733889828168326e-05   5.9379370764955225e-06   6.264863801285023e-05
-3.3733889828168326e-05   5.9379370764955225e-06   6.264863801285023e-05
-3.3733889828168326e-05   5.9379370764955225e-06   6.264863801285023e-05
-3.3733889828168326e-05   5.9379370764955225e-06   6.264863801285023e-05
-5.367817606505656e-05   1.9726705169656467e-05   9.327507704466869e-05
-5.367817606505656e-05   1.9726705169656467e-05   9.327507704466869e-05
-5.367817606505656e-05   1.9726705169656467e-05   9.327507704466869e-05
-5.367817606505656e-05   1.9726705169656467e-05   9.327507704466869e-05
-0.00010313132348222995   1.755127692986986e-05   9.547907738840199e-06
-0.00010313132348222995   1.755127692986986e-05   9.547907738840199e-06
-0.00010313132348222995   1.755127692986986e-05   9.547907738840199e-06
-0.00010313132348222995   1.755127692986986e-05   9.547907738840199e-06
-0.00010549848270921688   1.844717001852833e-05   9.265184034975248e-05
-0.00010549848270921688   1.844717001852833e-05   9.265184034975248e-05
-0.00010549848270921688   1.844717001852833e-05   9.265184034975248e-05
-0.00010549848270921688   1.844717001852833e-05   9.265184034975248e-05
-5.587909829340526e-05   1.6092809249594088e-05   1.1365482784759162e-05
-5.587909829340526e-05   1.6092809249594088e-05   1.1365482784759162e-05
-5.587909829340526e-05   1.6092809249594088e-05   1.1365482784759162e-05
-5.587909829340526e-05   1.6092809249594088e-05   1.1365482784759162e-05
-7.928494337307719e-05   1.7724834753718617e-05   4.939600928173852e-05
-7.928494337307719e-05   1.7724834753718617e-05   4.939600928173852e-05
-7.928494337307719e-05   1.7724834753718617e-05   4.939600928173852e-05
-7.928494337307719e-05   1.7724834753718617e-05   4.939600928173852e-05
-5.58790982934051e-05   1.8447170018527463e-05   9.406445681111241e-05
-5.58790982934051e-05   1.8447170018527463e-05   9.406445681111241e-05
-5.58790982934051e-05   1.8447170018527463e-05   9.406445681111241e-05
-5.58790982934051e-05   1.8447170018527463e-05   9.406445681111241e-05
-0.00010549848270921688   1.6092809249594088e-05   9.952866323399874e-06
-0.00010549848270921688   1.6092809249594088e-05   9.952866323399874e-06
-0.00010549848270921688   1.6092809249594088e-05   9.952866323399874e-06
-0.00010549848270921688   1.6092809249594088e-05   9.952866323399874e-06
-0.0001081061034283598   1.7271235469507734e-05   9.612088520740813e-05
-0.0001081061034283598   1.7271235469507734e-05   9.612088520740813e-05
-0.0001081061034283598   1.7271235469507734e-05   9.612088520740813e-05
-0.0001081061034283598   1.7271235469507734e-05   9.612088520740813e-05
-5.813567374881256e-05   1.4737325487198735e-05   1.4357181730880451e-05
-5.813567374881256e-05   1.4737325487198735e-05   1.4357181730880451e-05
-5.813567374881256e-05   1.4737325487198735e-05   1.4357181730880451e-05
-5.813567374881256e-05   1.4737325487198735e-05   1.4357181730880451e-05
-8.099152559763053e-05   1.6792128454122188e-05   5.1217386365425325e-05
-8.099152559763053e-05   1.6792128454122188e-05   5.1217386365425325e-05
-8.099152559763053e-05   1.6792128454122188e-05   5.1217386365425325e-05
-8.099152559763053e-05   1.6792128454122188e-05   5.1217386365425325e-05
-5.8135673748812395e-05   1.7271235469507734e-05   9.764123119679205e-05
-5.8135673748812395e-05   1.7271235469507734e-05   9.764123119679205e-05
-5.8135673748812395e-05   1.7271235469507734e-05   9.764123119679205e-05
-5.8135673748812395e-05   1.7271235469507734e-05   9.764123119679205e-05
-0.0001081061034283598   1.4737325487198735e-05   1.283683574149555e-05
-0.0001081061034283598   1.4737325487198735e-05   1.283683574149555e-05
-0.0001081061034283598   1.4737325487198735e-05   1.283683574149555e-05
-0.0001081061034283598   1.4737325487198735e-05   1.283683574149555e-05
-0.0001104924669078248   1.5838460986804075e-05   9.874328456877836e-05
-0.0001104924669078248   1.5838460986804075e-05   9.874328456877836e-05
-0.0001104924669078248   1.5838460986804075e-05   9.874328456877836e-05
-0.0001104924669078248   1.5838460986804075e-05   9.874328456877836e-05
-6.03919837884985e-05   1.316202139109348e-05   1.6848343127327087e-05
-6.03919837884985e-05   1.316202139109348e-05   1.6848343127327087e-05
-6.03919837884985e-05   1.316202139109348e-05   1.6848343127327087e-05
-6.03919837884985e-05   1.316202139109348e-05   1.6848343127327087e-05
-8.369150324025472e-05   1.5743873015746854e-05   5.4131764572132725e-05
-8.369150324025472e-05   1.5743873015746854e-05   5.4131764572132725e-05
-8.369150324025472e-05   1.5743873015746854e-05   5.4131764572132725e-05
-8.369150324025472e-05   1.5743873015746854e-05   5.4131764572132725e-05
-0.00010313132348222995   2.8359736673879386e-05   4.5042246018774275e-05
-0.00010313132348222995   2.8359736673879386e-05   4.5042246018774275e-05
-0.00010313132348222995   2.8359736673879386e-05   4.5042246018774275e-05
-0.00010313132348222995   2.8359736673879386e-05   4.5042246018774275e-05
-0.0001500087697327826   2.4143019855834766e-05   -3.561686115630624e-05
-0.0001500087697327826   2.4143019855834766e-05   -3.561686115630624e-05
-0.0001500087697327826   2.4143019855834766e-05   -3.561686115630624e-05
-0.0001500087697327826   2.4143019855834766e-05   -3.561686115630624e-05
-0.00015425884476372696   2.864696975183635e-05   5.9753818723109337e-05
-0.00015425884476372696   2.864696975183635e-05   5.9753818723109337e-05
-0.00015425884476372696   2.864696975183635e-05   5.9753818723109337e-05
-0.00015425884476372696   2.864696975183635e-05   5.9753818723109337e-05
-0.00010549848270921688   2.4008896668570832e-05   -1.873060751778088e-05
-0.00010549848270921688   2.4008896668570832e-05   -1.873060751778088e-05
-0.00010549848270921688   2.4008896668570832e-05   -1.873060751778088e-05
-0.00010549848270921688   2.4008896668570832e-05   -1.873060751778088e-05
-0.00012334797921731715   2.5909927950745065e-05   9.877934559748749e-06
-0.00012334797921731715   2.5909927950745065e-05   9.877934559748749e-06
-0.00012334797921731715   2.5909927950745065e-05   9.877934559748749e-06
-0.00012334797921731715   2.5909927950745065e-05   9.877934559748749e-06
-0.00010549848270921688   2.864696975183722e-05   6.253666257306995e-05
-0.00010549848270921688   2.864696975183722e-05   6.253666257306995e-05
-0.00010549848270921688   2.864696975183722e-05   6.253666257306995e-05
-0.00010549848270921688   2.864696975183722e-05   6.253666257306995e-05
-0.00015425884476372729   2.4008896668570832e-05   -2.151345136774084e-05
-0.00015425884476372729   2.4008896668570832e-05   -2.151345136774084e-05
-0.00015425884476372729   2.4008896668570832e-05   -2.151345136774084e-05
-0.00015425884476372729   2.4008896668570832e-05   -2.151345136774084e-05
-0.0001580680139087366   2.832787163824929e-05   7.167927168660881e-05
-0.0001580680139087366   2.832787163824929e-05   7.167927168660881e-05
-0.0001580680139087366   2.832787163824929e-05   7.167927168660881e-05
-0.0001580680139087366   2.832787163824929e-05   7.167927168660881e-05
-0.0001081061034283598   2.3515184149203693e-05   -8.702966620591484e-06
-0.0001081061034283598   2.3515184149203693e-05   -8.702966620591484e-06
-0.0001081061034283598   2.3515184149203693e-05   -8.702966620591484e-06
-0.0001081061034283598   2.3515184149203693e-05   -8.702966620591484e-06
-0.00012821382002093116   2.6191183045092166e-05   2.3204295029498855e-05
-0.00012821382002093116   2.6191183045092166e-05   2.3204295029498855e-05
-0.00012821382002093116   2.6191183045092166e-05   2.3204295029498855e-05
-0.00012821382002093116   2.6191183045092166e-05   2.3204295029498855e-05
-0.0001081061034283598   2.8327871638248424e-05   7.456688418003765e-05
-0.0001081061034283598   2.8327871638248424e-05   7.456688418003765e-05
-0.0001081061034283598   2.8327871638248424e-05   7.456688418003765e-05
-0.0001081061034283598   2.8327871638248424e-05   7.456688418003765e-05
-0.00015806801390873682   2.3515184149202825e-05   -1.1590579114019233e-05
-0.00015806801390873682   2.3515184149202825e-05   -1.1590579114019233e-05
-0.00015806801390873682   2.3515184149202825e-05   -1.1590579114019233e-05
-0.00015806801390873682   2.3515184149202825e-05   -1.1590579114019233e-05
-0.0001624486334305124   2.6133900454756998e-05   9.221575761687254e-05
-0.0001624486334305124   2.6133900454756998e-05   9.221575761687254e-05
-0.0001624486334305124   2.6133900454756998e-05   9.221575761687254e-05
-0.0001624486334305124   2.6133900454756998e-05   9.221575761687254e-05
-0.0001104924669078248   2.1348035915303744e-05   8.493665469398596e-06
-0.0001104924669078248   2.1348035915303744e-05   8.493665469398596e-06
-0.0001104924669078248   2.1348035915303744e-05   8.493665469398596e-06
-0.0001104924669078248   2.1348035915303744e-05   8.493665469398596e-06
-0.00012928540350163145   2.5293933555521966e-05   3.7447687874947455e-05
-0.00012928540350163145   2.5293933555521966e-05   3.7447687874947455e-05
-0.00012928540350163145   2.5293933555521966e-05   3.7447687874947455e-05
-0.00012928540350163145   2.5293933555521966e-05   3.7447687874947455e-05
7.080166615822673e-05   -9.183181906636737e-06   7.13193811105353e-05
7.080166615822673e-05   -9.183181906636737e-06   7.13193811105353e-05
7.080166615822673e-05   -9.183181906636737e-06   7.13193811105353e-05
7.080166615822673e-05   -9.183181906636737e-06   7.13193811105353e-05
2.93589316908967e-05   -4.469728361055497e-06   5.07622912566735e-06
2.93589316908967e-05   -4.469728361055497e-06   5.07622912566735e-06
2.93589316908967e-05   -4.469728361055497e-06   5.07622912566735e-06
2.93589316908967e-05   -4.469728361055497e-06   5.07622912566735e-06
2.748793299870224e-05   -1.1160694356203253e-05   6.415840003663091e-05
2.748793299870224e-05   -1.1160694356203253e-05   6.415840003663091e-05
2.748793299870224e-05   -1.1160694356203253e-05   6.415840003663091e-05
2.748793299870224e-05   -1.1160694356203253e-05   6.415840003663091e-05
6.682416870687293e-05   -6.233495205185471e-06   -4.358312300931902e-06
6.682416870687293e-05   -6.233495205185471e-06   -4.358312300931902e-06
6.682416870687293e-05   -6.233495205185471e-06   -4.358312300931902e-06
6.682416870687293e-05   -6.233495205185471e-06   -4.358312300931902e-06
4.619704987014007e-05   -7.951228725436993e-06   3.105085920577556e-05
4.619704987014007e-05   -7.951228725436993e-06   3.105085920577556e-05
4.619704987014007e-05   -7.951228725436993e-06   3.105085920577556e-05
4.619704987014007e-05   -7.951228725436993e-06   3.105085920577556e-05
6.682416870687307e-05   -1.116069435620412e-05   6.120208054601972e-05
6.682416870687307e-05   -1.116069435620412e-05   6.120208054601972e-05
6.682416870687307e-05   -1.116069435620412e-05   6.120208054601972e-05
6.682416870687307e-05   -1.116069435620412e-05   6.120208054601972e-05
2.7487932998702144e-05   -6.233495205185471e-06   -1.4019928103203329e-06
2.7487932998702144e-05   -6.233495205185471e-06   -1.4019928103203329e-06
2.7487932998702144e-05   -6.233495205185471e-06   -1.4019928103203329e-06
2.7487932998702144e-05   -6.233495205185471e-06   -1.4019928103203329e-06
2.5389108002423272e-05   -1.1691196181959004e-05   5.8835707207354013e-05
2.5389108002423272e-05   -1.1691196181959004e-05   5.8835707207354013e-05
2.5389108002423272e-05   -1.1691196181959004e-05   5.8835707207354013e-05
2.5389108002423272e-05   -1.1691196181959004e-05   5.8835707207354013e-05
6.341240453658156e-05   -6.843411898049823e-06   -7.445124253254896e-06
6.341240453658156e-05   -6.843411898049823e-06   -7.445124253254896e-06
6.341240453658156e-05   -6.843411898049823e-06   -7.445124253254896e-06
6.341240453658156e-05   -6.843411898049823e-06   -7.445124253254896e-06
4.4414802724210404e-05   -8.698379633417276e-06   2.53305260752524e-05
4.4414802724210404e-05   -8.698379633417276e-06   2.53305260752524e-05
4.4414802724210404e-05   -8.698379633417276e-06   2.53305260752524e-05
4.4414802724210404e-05   -8.698379633417276e-06   2.53305260752524e-05
6.341240453658166e-05   -1.1691196181959004e-05   5.5927036637007984e-05
6.341240453658166e-05   -1.1691196181959004e-05   5.5927036637007984e-05
6.341240453658166e-05   -1.1691196181959004e-05   5.5927036637007984e-05
6.341240453658166e-05   -1.1691196181959004e-05   5.5927036637007984e-05
2.538910800242323e-05   -6.843411898049823e-06   -4.536453682909246e-06
2.538910800242323e-05   -6.843411898049823e-06   -4.536453682909246e-06
2.538910800242323e-05   -6.843411898049823e-06   -4.536453682909246e-06
2.538910800242323e-05   -6.843411898049823e-06   -4.536453682909246e-06
2.3508819540539537e-05   -1.2197240064041812e-05   5.194440076534881e-05
2.3508819540539537e-05   -1.2197240064041812e-05   5.194440076534881e-05
2.3508819540539537e-05   -1.2197240064041812e-05   5.194440076534881e-05
2.3508819540539537e-05   -1.2197240064041812e-05   5.194440076534881e-05
5.954724065078079e-05   -7.65848472788263e-06   -1.0842887620082797e-05
5.954724065078079e-05   -7.65848472788263e-06   -1.0842887620082797e-05
5.954724065078079e-05   -7.65848472788263e-06   -1.0842887620082797e-05
5.954724065078079e-05   -7.65848472788263e-06   -1.0842887620082797e-05
4.115220141710868e-05   -8.850829623129226e-06   2.0530918039851734e-05
4.115220141710868e-05   -8.850829623129226e-06   2.0530918039851734e-05
4.115220141710868e-05   -8.850829623129226e-06   2.0530918039851734e-05
4.115220141710868e-05   -8.850829623129226e-06   2.0530918039851734e-05
2.9358931690896795e-05   -2.5880332332056666e-08   8.842373906979301e-05
2.9358931690896795e-05   -2.5880332332056666e-08   8.842373906979301e-05
2.9358931690896795e-05   -2.5880332332056666e-08   8.842373906979301e-05
2.9358931690896795e-05   -2.5880332332056666e-08   8.842373906979301e-05
-9.554366898649317e-06   2.3595074366009397e-06   2.4999474081909088e-05
-9.554366898649317e-06   2.3595074366009397e-06   2.4999474081909088e-05
-9.554366898649317e-06   2.3595074366009397e-06   2.4999474081909088e-05
-9.554366898649317e-06   2.3595074366009397e-06   2.4999474081909088e-05
-1.127242697230034e-05   -1.749864711388105e-06   8.860272667075191e-05
-1.127242697230034e-05   -1.749864711388105e-06   8.860272667075191e-05
-1.127242697230034e-05   -1.749864711388105e-06   8.860272667075191e-05
-1.127242697230034e-05   -1.749864711388105e-06   8.860272667075191e-05
2.7487932998702144e-05   5.690839409849824e-07   2.2610757527658266e-05
2.7487932998702144e-05   5.690839409849824e-07   2.2610757527658266e-05
2.7487932998702144e-05   5.690839409849824e-07   2.2610757527658266e-05
2.7487932998702144e-05   5.690839409849824e-07   2.2610757527658266e-05
8.72850413421044e-06   1.3558443751927884e-07   5.413657200389145e-05
8.72850413421044e-06   1.3558443751927884e-07   5.413657200389145e-05
8.72850413421044e-06   1.3558443751927884e-07   5.413657200389145e-05
8.72850413421044e-06   1.3558443751927884e-07   5.413657200389145e-05
2.7487932998702198e-05   -1.749864711388105e-06   8.721135747932892e-05
2.7487932998702198e-05   -1.749864711388105e-06   8.721135747932892e-05
2.7487932998702198e-05   -1.749864711388105e-06   8.721135747932892e-05
2.7487932998702198e-05   -1.749864711388105e-06   8.721135747932892e-05
-1.127242697230034e-05   5.690839409849824e-07   2.4002126719081807e-05
-1.127242697230034e-05   5.690839409849824e-07   2.4002126719081807e-05
-1.127242697230034e-05   5.690839409849824e-07   2.4002126719081807e-05
-1.127242697230034e-05   5.690839409849824e-07   2.4002126719081807e-05
-1.3028435245677171e-05   -3.11255522720405e-06   8.756400344988625e-05
-1.3028435245677171e-05   -3.11255522720405e-06   8.756400344988625e-05
-1.3028435245677171e-05   -3.11255522720405e-06   8.756400344988625e-05
-1.3028435245677171e-05   -3.11255522720405e-06   8.756400344988625e-05
2.538910800242323e-05   -8.995731537696228e-07   2.22069754589916e-05
2.538910800242323e-05   -8.995731537696228e-07   2.22069754589916e-05
2.538910800242323e-05   -8.995731537696228e-07   2.22069754589916e-05
2.538910800242323e-05   -8.995731537696228e-07   2.22069754589916e-05
6.842178112806872e-06   -1.0607528724230347e-06   5.3215233106214464e-05
6.842178112806872e-06   -1.0607528724230347e-06   5.3215233106214464e-05
6.842178112806872e-06   -1.0607528724230347e-06   5.3215233106214464e-05
6.842178112806872e-06   -1.0607528724230347e-06   5.3215233106214464e-05
2.5389108002423313e-05   -3.11255522720405e-06   8.623621420582577e-05
2.5389108002423313e-05   -3.11255522720405e-06   8.623621420582577e-05
2.5389108002423313e-05   -3.11255522720405e-06   8.623621420582577e-05
2.5389108002423313e-05   -3.11255522720405e-06   8.623621420582577e-05
-1.3028435245677171e-05   -8.995731537687554e-07   2.3534764703053018e-05
-1.3028435245677171e-05   -8.995731537687554e-07   2.3534764703053018e-05
-1.3028435245677171e-05   -8.995731537687554e-07   2.3534764703053018e-05
-1.3028435245677171e-05   -8.995731537687554e-07   2.3534764703053018e-05
-1.4769246624458303e-05   -4.379262160679118e-06   8.838208549206451e-05
-1.4769246624458303e-05   -4.379262160679118e-06   8.838208549206451e-05
-1.4769246624458303e-05   -4.379262160679118e-06   8.838208549206451e-05
-1.4769246624458303e-05   -4.379262160679118e-06   8.838208549206451e-05
2.3508819540539428e-05   -2.351450657946119e-06   2.3368621648762127e-05
2.3508819540539428e-05   -2.351450657946119e-06   2.3368621648762127e-05
2.3508819540539428e-05   -2.351450657946119e-06   2.3368621648762127e-05
2.3508819540539428e-05   -2.351450657946119e-06   2.3368621648762127e-05
5.3476673155122506e-06   -2.062506584658494e-06   5.34638422465014e-05
5.3476673155122506e-06   -2.062506584658494e-06   5.34638422465014e-05
5.3476673155122506e-06   -2.062506584658494e-06   5.34638422465014e-05
5.3476673155122506e-06   -2.062506584658494e-06   5.34638422465014e-05
-9.554366898649317e-06   8.934466164909997e-06   9.600613197341618e-05
-9.554366898649317e-06   8.934466164909997e-06   9.600613197341618e-05
-9.554366898649317e-06   8.934466164909997e-06   9.600613197341618e-05
-9.554366898649317e-06   8.934466164909997e-06   9.600613197341618e-05
-4.78357277085246e-05   8.779975483053266e-06   3.211116954784368e-05
-4.78357277085246e-05   8.779975483053266e-06   3.211116954784368e-05
-4.78357277085246e-05   8.779975483053266e-06   3.211116954784368e-05
-4.78357277085246e-05   8.779975483053266e-06   3.211116954784368e-05
-4.952946002599308e-05   7.415412280737527e-06   9.537854760700588e-05
-4.952946002599308e-05   7.415412280737527e-06   9.537854760700588e-05
-4.952946002599308e-05   7.415412280737527e-06   9.537854760700588e-05
-4.952946002599308e-05   7.415412280737527e-06   9.537854760700588e-05
-1.1272426972300286e-05   7.149000919192371e-06   3.177667266777897e-05
-1.1272426972300286e-05   7.149000919192371e-06   3.177667266777897e-05
-1.1272426972300286e-05   7.149000919192371e-06   3.177667266777897e-05
-1.1272426972300286e-05   7.149000919192371e-06   3.177667266777897e-05
-2.9621309434133827e-05   7.872496616963612e-06   6.192404601884031e-05
-2.9621309434133827e-05   7.872496616963612e-06   6.192404601884031e-05
-2.9621309434133827e-05   7.872496616963612e-06   6.192404601884031e-05
-2.9621309434133827e-05   7.872496616963612e-06   6.192404601884031e-05
-1.127242697230034e-05   7.415412280738394e-06   9.553839442393323e-05
-1.127242697230034e-05   7.415412280738394e-06   9.553839442393323e-05
-1.127242697230034e-05   7.415412280738394e-06   9.553839442393323e-05
-1.127242697230034e-05   7.415412280738394e-06   9.553839442393323e-05
-4.952946002599308e-05   7.149000919192371e-06   3.161682585085205e-05
-4.952946002599308e-05   7.149000919192371e-06   3.161682585085205e-05
-4.952946002599308e-05   7.149000919192371e-06   3.161682585085205e-05
-4.952946002599308e-05   7.149000919192371e-06   3.161682585085205e-05
-5.1264448997986986e-05   5.920270623406901e-06   9.587694118414706e-05
-5.1264448997986986e-05   5.920270623406901e-06   9.587694118414706e-05
-5.1264448997986986e-05   5.920270623406901e-06   9.587694118414706e-05
-5.1264448997986986e-05   5.920270623406901e-06   9.587694118414706e-05
-1.3028435245677117e-05   5.536607854183216e-06   3.2380449258498606e-05
-1.3028435245677117e-05   5.536607854183216e-06   3.2380449258498606e-05
-1.3028435245677117e-05   5.536607854183216e-06   3.2380449258498606e-05
-1.3028435245677117e-05   5.536607854183216e-06   3.2380449258498606e-05
-3.117376845606536e-05   6.686992838147304e-06   6.19324402854355e-05
-3.117376845606536e-05   6.686992838147304e-06   6.19324402854355e-05
-3.117376845606536e-05   6.686992838147304e-06   6.19324402854355e-05
-3.117376845606536e-05   6.686992838147304e-06   6.19324402854355e-05
-1.3028435245677171e-05   5.920270623406901e-06   9.61071388456817e-05
-1.3028435245677171e-05   5.920270623406901e-06   9.61071388456817e-05
-1.3028435245677171e-05   5.920270623406901e-06   9.61071388456817e-05
-1.3028435245677171e-05   5.920270623406901e-06   9.61071388456817e-05
-5.1264448997986986e-05   5.536607854183216e-06   3.21502515969645e-05
-5.1264448997986986e-05   5.536607854183216e-06   3.21502515969645e-05
-5.1264448997986986e-05   5.536607854183216e-06   3.21502515969645e-05
-5.1264448997986986e-05   5.536607854183216e-06   3.21502515969645e-05
-5.297976049773595e-05   4.501180213634451e-06   9.717943139626178e-05
-5.297976049773595e-05   4.501180213634451e-06   9.717943139626178e-05
-5.297976049773595e-05   4.501180213634451e-06   9.717943139626178e-05
-5.297976049773595e-05   4.501180213634451e-06   9.717943139626178e-05
-1.4769246624458249e-05   3.983725270041878e-06   3.380571457362112e-05
-1.4769246624458249e-05   3.983725270041878e-06   3.380571457362112e-05
-1.4769246624458249e-05   3.983725270041878e-06   3.380571457362112e-05
-1.4769246624458249e-05   3.983725270041878e-06   3.380571457362112e-05
-3.2796956202809345e-05   5.5289090192906995e-06   6.292478695465726e-05
-3.2796956202809345e-05   5.5289090192906995e-06   6.292478695465726e-05
-3.2796956202809345e-05   5.5289090192906995e-06   6.292478695465726e-05
-3.2796956202809345e-05   5.5289090192906995e-06   6.292478695465726e-05
-4.78357277085246e-05   1.755127692986986e-05   8.486706572572887e-05
-4.78357277085246e-05   1.755127692986986e-05   8.486706572572887e-05
-4.78357277085246e-05   1.755127692986986e-05   8.486706572572887e-05
-4.78357277085246e-05   1.755127692986986e-05   8.486706572572887e-05
-8.544658699445032e-05   1.5022942806789188e-05   2.066529977533759e-05
-8.544658699445032e-05   1.5022942806789188e-05   2.066529977533759e-05
-8.544658699445032e-05   1.5022942806789188e-05   2.066529977533759e-05
-8.544658699445032e-05   1.5022942806789188e-05   2.066529977533759e-05
-8.726188173162406e-05   1.6092809249594088e-05   8.373145121572893e-05
-8.726188173162406e-05   1.6092809249594088e-05   8.373145121572893e-05
-8.726188173162406e-05   1.6092809249594088e-05   8.373145121572893e-05
-8.726188173162406e-05   1.6092809249594088e-05   8.373145121572893e-05
-4.952946002599297e-05   1.342680451423689e-05   2.2443684547557882e-05
-4.952946002599297e-05   1.342680451423689e-05   2.2443684547557882e-05
-4.952946002599297e-05   1.342680451423689e-05   2.2443684547557882e-05
-4.952946002599297e-05   1.342680451423689e-05   2.2443684547557882e-05
-6.732853720533394e-05   1.526384345712159e-05   5.1006589814063617e-05
-6.732853720533394e-05   1.526384345712159e-05   5.1006589814063617e-05
-6.732853720533394e-05   1.526384345712159e-05   5.1006589814063617e-05
-6.732853720533394e-05   1.526384345712159e-05   5.1006589814063617e-05
-4.952946002599308e-05   1.6092809249594088e-05   8.533105405694307e-05
-4.952946002599308e-05   1.6092809249594088e-05   8.533105405694307e-05
-4.952946002599308e-05   1.6092809249594088e-05   8.533105405694307e-05
-4.952946002599308e-05   1.6092809249594088e-05   8.533105405694307e-05
-8.726188173162396e-05   1.3426804514237757e-05   2.084408170634341e-05
-8.726188173162396e-05   1.3426804514237757e-05   2.084408170634341e-05
-8.726188173162396e-05   1.3426804514237757e-05   2.084408170634341e-05
-8.726188173162396e-05   1.3426804514237757e-05   2.084408170634341e-05
-8.93062859245973e-05   1.4737325487198735e-05   8.659510127800255e-05
-8.93062859245973e-05   1.4737325487198735e-05   8.659510127800255e-05
-8.93062859245973e-05   1.4737325487198735e-05   8.659510127800255e-05
-8.93062859245973e-05   1.4737325487198735e-05   8.659510127800255e-05
-5.126444899798677e-05   1.1952953214254894e-05   2.4862663097419374e-05
-5.126444899798677e-05   1.1952953214254894e-05   2.4862663097419374e-05
-5.126444899798677e-05   1.1952953214254894e-05   2.4862663097419374e-05
-5.126444899798677e-05   1.1952953214254894e-05   2.4862663097419374e-05
-6.859232034391109e-05   1.417523829877216e-05   5.240907762325158e-05
-6.859232034391109e-05   1.417523829877216e-05   5.240907762325158e-05
-6.859232034391109e-05   1.417523829877216e-05   5.240907762325158e-05
-6.859232034391109e-05   1.417523829877216e-05   5.240907762325158e-05
-5.1264448997986986e-05   1.4737325487198735e-05   8.826572464176946e-05
-5.1264448997986986e-05   1.4737325487198735e-05   8.826572464176946e-05
-5.1264448997986986e-05   1.4737325487198735e-05   8.826572464176946e-05
-5.1264448997986986e-05   1.4737325487198735e-05   8.826572464176946e-05
-8.930628592459719e-05   1.1952953214254894e-05   2.319203973365322e-05
-8.930628592459719e-05   1.1952953214254894e-05   2.319203973365322e-05
-8.930628592459719e-05   1.1952953214254894e-05   2.319203973365322e-05
-8.930628592459719e-05   1.1952953214254894e-05   2.319203973365322e-05
-9.112621486217023e-05   1.316202139109348e-05   8.902403017782643e-05
-9.112621486217023e-05   1.316202139109348e-05   8.902403017782643e-05
-9.112621486217023e-05   1.316202139109348e-05   8.902403017782643e-05
-9.112621486217023e-05   1.316202139109348e-05   8.902403017782643e-05
-5.297976049773573e-05   1.0308387490570552e-05   2.7158786577416807e-05
-5.297976049773573e-05   1.0308387490570552e-05   2.7158786577416807e-05
-5.297976049773573e-05   1.0308387490570552e-05   2.7158786577416807e-05
-5.297976049773573e-05   1.0308387490570552e-05   2.7158786577416807e-05
-7.063779156190426e-05   1.3032871474265642e-05   5.495414796081468e-05
-7.063779156190426e-05   1.3032871474265642e-05   5.495414796081468e-05
-7.063779156190426e-05   1.3032871474265642e-05   5.495414796081468e-05
-7.063779156190426e-05   1.3032871474265642e-05   5.495414796081468e-05
-8.544658699445032e-05   2.4143019855834766e-05   4.071532644755972e-05
-8.544658699445032e-05   2.4143019855834766e-05   4.071532644755972e-05
-8.544658699445032e-05   2.4143019855834766e-05   4.071532644755972e-05
-8.544658699445032e-05   2.4143019855834766e-05   4.071532644755972e-05
-0.00012063080924665714   1.966085894759221e-05   -2.0614340517730945e-05
-0.00012063080924665714   1.966085894759221e-05   -2.0614340517730945e-05
-0.00012063080924665714   1.966085894759221e-05   -2.0614340517730945e-05
-0.00012063080924665714   1.966085894759221e-05   -2.0614340517730945e-05
-0.00012442041507220998   2.4008896668569965e-05   5.212720570292942e-05
-0.00012442041507220998   2.4008896668569965e-05   5.212720570292942e-05
-0.00012442041507220998   2.4008896668569965e-05   5.212720570292942e-05
-0.00012442041507220998   2.4008896668569965e-05   5.212720570292942e-05
-8.726188173162374e-05   1.9140943882539792e-05   -6.882911526428712e-06
-8.726188173162374e-05   1.9140943882539792e-05   -6.882911526428712e-06
-8.726188173162374e-05   1.9140943882539792e-05   -6.882911526428712e-06
-8.726188173162374e-05   1.9140943882539792e-05   -6.882911526428712e-06
-0.00010052785402964772   2.1347949298118098e-05   1.3902839054266269e-05
-0.00010052785402964772   2.1347949298118098e-05   1.3902839054266269e-05
-0.00010052785402964772   2.1347949298118098e-05   1.3902839054266269e-05
-0.00010052785402964772   2.1347949298118098e-05   1.3902839054266269e-05
-8.726188173162396e-05   2.4008896668569965e-05   5.504797737454839e-05
-8.726188173162396e-05   2.4008896668569965e-05   5.504797737454839e-05
-8.726188173162396e-05   2.4008896668569965e-05   5.504797737454839e-05
-8.726188173162396e-05   2.4008896668569965e-05   5.504797737454839e-05
-0.0001244204150722102   1.9140943882539792e-05   -9.803683198047032e-06
-0.0001244204150722102   1.9140943882539792e-05   -9.803683198047032e-06
-0.0001244204150722102   1.9140943882539792e-05   -9.803683198047032e-06
-0.0001244204150722102   1.9140943882539792e-05   -9.803683198047032e-06
-0.0001277307237841312   2.3515184149203693e-05   6.205627539371955e-05
-0.0001277307237841312   2.3515184149203693e-05   6.205627539371955e-05
-0.0001277307237841312   2.3515184149203693e-05   6.205627539371955e-05
-0.0001277307237841312   2.3515184149203693e-05   6.205627539371955e-05
-8.930628592459698e-05   1.851681161221027e-05   1.0145691500249888e-06
-8.930628592459698e-05   1.851681161221027e-05   1.0145691500249888e-06
-8.930628592459698e-05   1.851681161221027e-05   1.0145691500249888e-06
-8.930628592459698e-05   1.851681161221027e-05   1.0145691500249888e-06
-0.00010452764868276542   2.1356027438443163e-05   2.467997758456939e-05
-0.00010452764868276542   2.1356027438443163e-05   2.467997758456939e-05
-0.00010452764868276542   2.1356027438443163e-05   2.467997758456939e-05
-0.00010452764868276542   2.1356027438443163e-05   2.467997758456939e-05
-8.93062859245973e-05   2.3515184149203693e-05   6.505529891591552e-05
-8.93062859245973e-05   2.3515184149203693e-05   6.505529891591552e-05
-8.93062859245973e-05   2.3515184149203693e-05   6.505529891591552e-05
-8.93062859245973e-05   2.3515184149203693e-05   6.505529891591552e-05
-0.0001277307237841312   1.851681161221027e-05   -1.984454372170978e-06
-0.0001277307237841312   1.851681161221027e-05   -1.984454372170978e-06
-0.0001277307237841312   1.851681161221027e-05   -1.984454372170978e-06
-0.0001277307237841312   1.851681161221027e-05   -1.984454372170978e-06
-0.00013157411542422744   2.1348035915303744e-05   7.932514178466982e-05
-0.00013157411542422744   2.1348035915303744e-05   7.932514178466982e-05
-0.00013157411542422744   2.1348035915303744e-05   7.932514178466982e-05
-0.00013157411542422744   2.1348035915303744e-05   7.932514178466982e-05
-9.112621486217002e-05   1.64312450942148e-05   1.4862048673895028e-05
-9.112621486217002e-05   1.64312450942148e-05   1.4862048673895028e-05
-9.112621486217002e-05   1.64312450942148e-05   1.4862048673895028e-05
-9.112621486217002e-05   1.64312450942148e-05   1.4862048673895028e-05
-0.00010544536376776311   2.04485987933007e-05   3.6316884630431404e-05
-0.00010544536376776311   2.04485987933007e-05   3.6316884630431404e-05
-0.00010544536376776311   2.04485987933007e-05   3.6316884630431404e-05
-0.00010544536376776311   2.04485987933007e-05   3.6316884630431404e-05
3.897985221410069e-05   -4.469728361055497e-06   5.592283123517479e-05
3.897985221410069e-05   -4.469728361055497e-06   5.592283123517479e-05
3.897985221410069e-05   -4.469728361055497e-06   5.592283123517479e-05
3.897985221410069e-05   -4.469728361055497e-06   5.592283123517479e-05
1.0060635397069929e-05   1.8009163948616222e-07   1.0514028540448746e-05
1.0060635397069929e-05   1.8009163948616222e-07   1.0514028540448746e-05
1.0060635397069929e-05   1.8009163948616222e-07   1.0514028540448746e-05
1.0060635397069929e-05   1.8009163948616222e-07   1.0514028540448746e-05
8.666609822804912e-06   -6.233495205184604e-06   5.218568828884275e-05
8.666609822804912e-06   -6.233495205184604e-06   5.218568828884275e-05
8.666609822804912e-06   -6.233495205184604e-06   5.218568828884275e-05
8.666609822804912e-06   -6.233495205184604e-06   5.218568828884275e-05
3.55379960594984e-05   -1.3970882759028504e-06   4.498200403452103e-06
3.55379960594984e-05   -1.3970882759028504e-06   4.498200403452103e-06
3.55379960594984e-05   -1.3970882759028504e-06   4.498200403452103e-06
3.55379960594984e-05   -1.3970882759028504e-06   4.498200403452103e-06
2.192873068970799e-05   -3.20339665854652e-06   2.8264094382690342e-05
2.192873068970799e-05   -3.20339665854652e-06   2.8264094382690342e-05
2.192873068970799e-05   -3.20339665854652e-06   2.8264094382690342e-05
2.192873068970799e-05   -3.20339665854652e-06   2.8264094382690342e-05
3.553799605949848e-05   -6.233495205185471e-06   4.928384413127422e-05
3.553799605949848e-05   -6.233495205185471e-06   4.928384413127422e-05
3.553799605949848e-05   -6.233495205185471e-06   4.928384413127422e-05
3.553799605949848e-05   -6.233495205185471e-06   4.928384413127422e-05
8.666609822804899e-06   -1.3970882759028504e-06   7.400044561021394e-06
8.666609822804899e-06   -1.3970882759028504e-06   7.400044561021394e-06
8.666609822804899e-06   -1.3970882759028504e-06   7.400044561021394e-06
8.666609822804899e-06   -1.3970882759028504e-06   7.400044561021394e-06
7.044512942672152e-06   -6.843411898049823e-06   4.9009021373233076e-05
7.044512942672152e-06   -6.843411898049823e-06   4.9009021373233076e-05
7.044512942672152e-06   -6.843411898049823e-06   4.9009021373233076e-05
7.044512942672152e-06   -6.843411898049823e-06   4.9009021373233076e-05
3.262673371987122e-05   -2.081029960072315e-06   3.514557581782321e-06
3.262673371987122e-05   -2.081029960072315e-06   3.514557581782321e-06
3.262673371987122e-05   -2.081029960072315e-06   3.514557581782321e-06
3.262673371987122e-05   -2.081029960072315e-06   3.514557581782321e-06
2.0255888457653796e-05   -3.891455729342075e-06   2.52188884803728e-05
2.0255888457653796e-05   -3.891455729342075e-06   2.52188884803728e-05
2.0255888457653796e-05   -3.891455729342075e-06   2.52188884803728e-05
2.0255888457653796e-05   -3.891455729342075e-06   2.52188884803728e-05
3.262673371987127e-05   -6.843411898049823e-06   4.615159221044683e-05
3.262673371987127e-05   -6.843411898049823e-06   4.615159221044683e-05
3.262673371987127e-05   -6.843411898049823e-06   4.615159221044683e-05
3.262673371987127e-05   -6.843411898049823e-06   4.615159221044683e-05
7.044512942672138e-06   -2.081029960072315e-06   6.371986744569107e-06
7.044512942672138e-06   -2.081029960072315e-06   6.371986744569107e-06
7.044512942672138e-06   -2.081029960072315e-06   6.371986744569107e-06
7.044512942672138e-06   -2.081029960072315e-06   6.371986744569107e-06
5.640422351994002e-06   -7.658484727881762e-06   4.5361851051241905e-05
5.640422351994002e-06   -7.658484727881762e-06   4.5361851051241905e-05
5.640422351994002e-06   -7.658484727881762e-06   4.5361851051241905e-05
5.640422351994002e-06   -7.658484727881762e-06   4.5361851051241905e-05
2.9221836058658513e-05   -3.227710960666385e-06   3.401030613138696e-06
2.9221836058658513e-05   -3.227710960666385e-06   3.401030613138696e-06
2.9221836058658513e-05   -3.227710960666385e-06   3.401030613138696e-06
2.9221836058658513e-05   -3.227710960666385e-06   3.401030613138696e-06
1.7817605126439234e-05   -4.253585641486764e-06   2.3023606975330457e-05
1.7817605126439234e-05   -4.253585641486764e-06   2.3023606975330457e-05
1.7817605126439234e-05   -4.253585641486764e-06   2.3023606975330457e-05
1.7817605126439234e-05   -4.253585641486764e-06   2.3023606975330457e-05
1.0060635397069949e-05   2.3595074366009397e-06   7.720473553038268e-05
1.0060635397069949e-05   2.3595074366009397e-06   7.720473553038268e-05
1.0060635397069949e-05   2.3595074366009397e-06   7.720473553038268e-05
1.0060635397069949e-05   2.3595074366009397e-06   7.720473553038268e-05
-1.630827681150214e-05   4.456902771916588e-06   3.451498571728495e-05
-1.630827681150214e-05   4.456902771916588e-06   3.451498571728495e-05
-1.630827681150214e-05   4.456902771916588e-06   3.451498571728495e-05
-1.630827681150214e-05   4.456902771916588e-06   3.451498571728495e-05
-1.7531501541724484e-05   5.690839409849824e-07   7.745866208746762e-05
-1.7531501541724484e-05   5.690839409849824e-07   7.745866208746762e-05
-1.7531501541724484e-05   5.690839409849824e-07   7.745866208746762e-05
-1.7531501541724484e-05   5.690839409849824e-07   7.745866208746762e-05
8.666609822804899e-06   2.669456375395656e-06   3.2534919685939855e-05
8.666609822804899e-06   2.669456375395656e-06   3.2534919685939855e-05
8.666609822804899e-06   2.669456375395656e-06   3.2534919685939855e-05
8.666609822804899e-06   2.669456375395656e-06   3.2534919685939855e-05
-3.973711988143235e-06   2.337787030301866e-06   5.38011243112454e-05
-3.973711988143235e-06   2.337787030301866e-06   5.38011243112454e-05
-3.973711988143235e-06   2.337787030301866e-06   5.38011243112454e-05
-3.973711988143235e-06   2.337787030301866e-06   5.38011243112454e-05
8.666609822804912e-06   5.690839409849824e-07   7.619843862682191e-05
8.666609822804912e-06   5.690839409849824e-07   7.619843862682191e-05
8.666609822804912e-06   5.690839409849824e-07   7.619843862682191e-05
8.666609822804912e-06   5.690839409849824e-07   7.619843862682191e-05
-1.7531501541724484e-05   2.6694563753952225e-06   3.379514314658626e-05
-1.7531501541724484e-05   2.6694563753952225e-06   3.379514314658626e-05
-1.7531501541724484e-05   2.6694563753952225e-06   3.379514314658626e-05
-1.7531501541724484e-05   2.6694563753952225e-06   3.379514314658626e-05
-1.878986082686873e-05   -8.995731537696228e-07   7.698263720981808e-05
-1.878986082686873e-05   -8.995731537696228e-07   7.698263720981808e-05
-1.878986082686873e-05   -8.995731537696228e-07   7.698263720981808e-05
-1.878986082686873e-05   -8.995731537696228e-07   7.698263720981808e-05
7.044512942672138e-06   1.1507380040360303e-06   3.269516089923344e-05
7.044512942672138e-06   1.1507380040360303e-06   3.269516089923344e-05
7.044512942672138e-06   1.1507380040360303e-06   3.269516089923344e-05
7.044512942672138e-06   1.1507380040360303e-06   3.269516089923344e-05
-5.27778790428653e-06   1.0887053301456354e-06   5.326954858183349e-05
-5.27778790428653e-06   1.0887053301456354e-06   5.326954858183349e-05
-5.27778790428653e-06   1.0887053301456354e-06   5.326954858183349e-05
-5.27778790428653e-06   1.0887053301456354e-06   5.326954858183349e-05
7.044512942672152e-06   -8.995731537696228e-07   7.575245051513442e-05
7.044512942672152e-06   -8.995731537696228e-07   7.575245051513442e-05
7.044512942672152e-06   -8.995731537696228e-07   7.575245051513442e-05
7.044512942672152e-06   -8.995731537696228e-07   7.575245051513442e-05
-1.8789860826868784e-05   1.150738004036464e-06   3.3925347593916945e-05
-1.8789860826868784e-05   1.150738004036464e-06   3.3925347593916945e-05
-1.8789860826868784e-05   1.150738004036464e-06   3.3925347593916945e-05
-1.8789860826868784e-05   1.150738004036464e-06   3.3925347593916945e-05
-2.002877818554384e-05   -2.351450657946119e-06   7.801737910738014e-05
-2.002877818554384e-05   -2.351450657946119e-06   7.801737910738014e-05
-2.002877818554384e-05   -2.351450657946119e-06   7.801737910738014e-05
-2.002877818554384e-05   -2.351450657946119e-06   7.801737910738014e-05
5.640422351993989e-06   -4.059973429653557e-07   3.406810622249571e-05
5.640422351993989e-06   -4.059973429653557e-07   3.406810622249571e-05
5.640422351993989e-06   -4.059973429653557e-07   3.406810622249571e-05
5.640422351993989e-06   -4.059973429653557e-07   3.406810622249571e-05
-6.384657453354784e-06   -3.6613545877431375e-08   5.388827561982409e-05
-6.384657453354784e-06   -3.6613545877431375e-08   5.388827561982409e-05
-6.384657453354784e-06   -3.6613545877431375e-08   5.388827561982409e-05
-6.384657453354784e-06   -3.6613545877431375e-08   5.388827561982409e-05
-1.630827681150214e-05   8.779975483053266e-06   8.566756260662035e-05
-1.630827681150214e-05   8.779975483053266e-06   8.566756260662035e-05
-1.630827681150214e-05   8.779975483053266e-06   8.566756260662035e-05
-1.630827681150214e-05   8.779975483053266e-06   8.566756260662035e-05
-4.22455442758902e-05   8.264351058542927e-06   4.2129408844601094e-05
-4.22455442758902e-05   8.264351058542927e-06   4.2129408844601094e-05
-4.22455442758902e-05   8.264351058542927e-06   4.2129408844601094e-05
-4.22455442758902e-05   8.264351058542927e-06   4.2129408844601094e-05
-4.34179679071685e-05   7.149000919192371e-06   8.491131187828797e-05
-4.34179679071685e-05   7.149000919192371e-06   8.491131187828797e-05
-4.34179679071685e-05   7.149000919192371e-06   8.491131187828797e-05
-4.34179679071685e-05   7.149000919192371e-06   8.491131187828797e-05
-1.753150154172443e-05   6.6125073227302905e-06   4.20890974270928e-05
-1.753150154172443e-05   6.6125073227302905e-06   4.20890974270928e-05
-1.753150154172443e-05   6.6125073227302905e-06   4.20890974270928e-05
-1.753150154172443e-05   6.6125073227302905e-06   4.20890974270928e-05
-2.993035445305662e-05   7.521035076742642e-06   6.220873562690825e-05
-2.993035445305662e-05   7.521035076742642e-06   6.220873562690825e-05
-2.993035445305662e-05   7.521035076742642e-06   6.220873562690825e-05
-2.993035445305662e-05   7.521035076742642e-06   6.220873562690825e-05
-1.7531501541724484e-05   7.149000919191503e-06   8.523320803616565e-05
-1.7531501541724484e-05   7.149000919191503e-06   8.523320803616565e-05
-1.7531501541724484e-05   7.149000919191503e-06   8.523320803616565e-05
-1.7531501541724484e-05   7.149000919191503e-06   8.523320803616565e-05
-4.341796790716839e-05   6.6125073227302905e-06   4.176720126921533e-05
-4.341796790716839e-05   6.6125073227302905e-06   4.176720126921533e-05
-4.341796790716839e-05   6.6125073227302905e-06   4.176720126921533e-05
-4.341796790716839e-05   6.6125073227302905e-06   4.176720126921533e-05
-4.462931477776421e-05   5.536607854183216e-06   8.548776024100034e-05
-4.462931477776421e-05   5.536607854183216e-06   8.548776024100034e-05
-4.462931477776421e-05   5.536607854183216e-06   8.548776024100034e-05
-4.462931477776421e-05   5.536607854183216e-06   8.548776024100034e-05
-1.878986082686873e-05   4.969005313744737e-06   4.2762565180438374e-05
-1.878986082686873e-05   4.969005313744737e-06   4.2762565180438374e-05
-1.878986082686873e-05   4.969005313744737e-06   4.2762565180438374e-05
-1.878986082686873e-05   4.969005313744737e-06   4.2762565180438374e-05
-3.09752289799745e-05   6.262766835800522e-06   6.229525518904727e-05
-3.09752289799745e-05   6.262766835800522e-06   6.229525518904727e-05
-3.09752289799745e-05   6.262766835800522e-06   6.229525518904727e-05
-3.09752289799745e-05   6.262766835800522e-06   6.229525518904727e-05
-1.8789860826868784e-05   5.536607854183216e-06   8.582832176526377e-05
-1.8789860826868784e-05   5.536607854183216e-06   8.582832176526377e-05
-1.8789860826868784e-05   5.536607854183216e-06   8.582832176526377e-05
-1.8789860826868784e-05   5.536607854183216e-06   8.582832176526377e-05
-4.46293147777641e-05   4.969005313744303e-06   4.242200365617505e-05
-4.46293147777641e-05   4.969005313744303e-06   4.242200365617505e-05
-4.46293147777641e-05   4.969005313744303e-06   4.242200365617505e-05
-4.46293147777641e-05   4.969005313744303e-06   4.242200365617505e-05
-4.582207154509932e-05   3.983725270041878e-06   8.68841117532505e-05
-4.582207154509932e-05   3.983725270041878e-06   8.68841117532505e-05
-4.582207154509932e-05   3.983725270041878e-06   8.68841117532505e-05
-4.582207154509932e-05   3.983725270041878e-06   8.68841117532505e-05
-2.0028778185543787e-05   3.3942696411270144e-06   4.424896286467448e-05
-2.0028778185543787e-05   3.3942696411270144e-06   4.424896286467448e-05
-2.0028778185543787e-05   3.3942696411270144e-06   4.424896286467448e-05
-2.0028778185543787e-05   3.3942696411270144e-06   4.424896286467448e-05
-3.208607457757067e-05   5.029181528734029e-06   6.336350971882323e-05
-3.208607457757067e-05   5.029181528734029e-06   6.336350971882323e-05
-3.208607457757067e-05   5.029181528734029e-06   6.336350971882323e-05
-3.208607457757067e-05   5.029181528734029e-06   6.336350971882323e-05
-4.22455442758902e-05   1.5022942806789188e-05   7.542931865325711e-05
-4.22455442758902e-05   1.5022942806789188e-05   7.542931865325711e-05
-4.22455442758902e-05   1.5022942806789188e-05   7.542931865325711e-05
-4.22455442758902e-05   1.5022942806789188e-05   7.542931865325711e-05
-6.768941772040092e-05   1.2248653556547282e-05   3.135828936226049e-05
-6.768941772040092e-05   1.2248653556547282e-05   3.135828936226049e-05
-6.768941772040092e-05   1.2248653556547282e-05   3.135828936226049e-05
-6.768941772040092e-05   1.2248653556547282e-05   3.135828936226049e-05
-6.896594613540563e-05   1.3426804514237757e-05   7.403066404121231e-05
-6.896594613540563e-05   1.3426804514237757e-05   7.403066404121231e-05
-6.896594613540563e-05   1.3426804514237757e-05   7.403066404121231e-05
-6.896594613540563e-05   1.3426804514237757e-05   7.403066404121231e-05
-4.341796790716839e-05   1.0580960291267563e-05   3.315820686126654e-05
-4.341796790716839e-05   1.0580960291267563e-05   3.315820686126654e-05
-4.341796790716839e-05   1.0580960291267563e-05   3.315820686126654e-05
-4.341796790716839e-05   1.0580960291267563e-05   3.315820686126654e-05
-5.544625890076011e-05   1.2616310636903369e-05   5.198414830987451e-05
-5.544625890076011e-05   1.2616310636903369e-05   5.198414830987451e-05
-5.544625890076011e-05   1.2616310636903369e-05   5.198414830987451e-05
-5.544625890076011e-05   1.2616310636903369e-05   5.198414830987451e-05
-4.34179679071685e-05   1.3426804514237757e-05   7.573817057499477e-05
-4.34179679071685e-05   1.3426804514237757e-05   7.573817057499477e-05
-4.34179679071685e-05   1.3426804514237757e-05   7.573817057499477e-05
-4.34179679071685e-05   1.3426804514237757e-05   7.573817057499477e-05
-6.896594613540552e-05   1.0580960291267563e-05   3.1450700327485164e-05
-6.896594613540552e-05   1.0580960291267563e-05   3.1450700327485164e-05
-6.896594613540552e-05   1.0580960291267563e-05   3.1450700327485164e-05
-6.896594613540552e-05   1.0580960291267563e-05   3.1450700327485164e-05
-7.047938355212314e-05   1.1952953214254894e-05   7.646885046958766e-05
-7.047938355212314e-05   1.1952953214254894e-05   7.646885046958766e-05
-7.047938355212314e-05   1.1952953214254894e-05   7.646885046958766e-05
-7.047938355212314e-05   1.1952953214254894e-05   7.646885046958766e-05
-4.46293147777641e-05   9.067417761142709e-06   3.511672378419032e-05
-4.46293147777641e-05   9.067417761142709e-06   3.511672378419032e-05
-4.46293147777641e-05   9.067417761142709e-06   3.511672378419032e-05
-4.46293147777641e-05   9.067417761142709e-06   3.511672378419032e-05
-5.627783070875133e-05   1.1435320385034219e-05   5.311017542816796e-05
-5.627783070875133e-05   1.1435320385034219e-05   5.311017542816796e-05
-5.627783070875133e-05   1.1435320385034219e-05   5.311017542816796e-05
-5.627783070875133e-05   1.1435320385034219e-05   5.311017542816796e-05
-4.462931477776421e-05   1.1952953214254894e-05   7.820017174145488e-05
-4.462931477776421e-05   1.1952953214254894e-05   7.820017174145488e-05
-4.462931477776421e-05   1.1952953214254894e-05   7.820017174145488e-05
-4.462931477776421e-05   1.1952953214254894e-05   7.820017174145488e-05
-7.047938355212292e-05   9.067417761142709e-06   3.338540251232353e-05
-7.047938355212292e-05   9.067417761142709e-06   3.338540251232353e-05
-7.047938355212292e-05   9.067417761142709e-06   3.338540251232353e-05
-7.047938355212292e-05   9.067417761142709e-06   3.338540251232353e-05
-7.178020545997241e-05   1.0308387490571419e-05   7.883428982837469e-05
-7.178020545997241e-05   1.0308387490571419e-05   7.883428982837469e-05
-7.178020545997241e-05   1.0308387490571419e-05   7.883428982837469e-05
-7.178020545997241e-05   1.0308387490571419e-05   7.883428982837469e-05
-4.5822071545099214e-05   7.452775999193962e-06   3.728410019841256e-05
-4.5822071545099214e-05   7.452775999193962e-06   3.728410019841256e-05
-4.5822071545099214e-05   7.452775999193962e-06   3.728410019841256e-05
-4.5822071545099214e-05   7.452775999193962e-06   3.728410019841256e-05
-5.7699528469605835e-05   1.0255680843565367e-05   5.5398118832637646e-05
-5.7699528469605835e-05   1.0255680843565367e-05   5.5398118832637646e-05
-5.7699528469605835e-05   1.0255680843565367e-05   5.5398118832637646e-05
-5.7699528469605835e-05   1.0255680843565367e-05   5.5398118832637646e-05
-6.768941772040114e-05   1.966085894759221e-05   3.5174401354989403e-05
-6.768941772040114e-05   1.966085894759221e-05   3.5174401354989403e-05
-6.768941772040114e-05   1.966085894759221e-05   3.5174401354989403e-05
-6.768941772040114e-05   1.966085894759221e-05   3.5174401354989403e-05
-9.055024700172268e-05   1.5025713831928137e-05   -5.708067849945382e-06
-9.055024700172268e-05   1.5025713831928137e-05   -5.708067849945382e-06
-9.055024700172268e-05   1.5025713831928137e-05   -5.708067849945382e-06
-9.055024700172268e-05   1.5025713831928137e-05   -5.708067849945382e-06
-9.381901233385115e-05   1.9140943882539792e-05   4.33189227304542e-05
-9.381901233385115e-05   1.9140943882539792e-05   4.33189227304542e-05
-9.381901233385115e-05   1.9140943882539792e-05   4.33189227304542e-05
-9.381901233385115e-05   1.9140943882539792e-05   4.33189227304542e-05
-6.896594613540552e-05   1.4166363752564012e-05   4.881893811031464e-06
-6.896594613540552e-05   1.4166363752564012e-05   4.881893811031464e-06
-6.896594613540552e-05   1.4166363752564012e-05   4.881893811031464e-06
-6.896594613540552e-05   1.4166363752564012e-05   4.881893811031464e-06
-7.73357235676331e-05   1.6692192951587442e-05   1.7316025345332896e-05
-7.73357235676331e-05   1.6692192951587442e-05   1.7316025345332896e-05
-7.73357235676331e-05   1.6692192951587442e-05   1.7316025345332896e-05
-7.73357235676331e-05   1.6692192951587442e-05   1.7316025345332896e-05
-6.896594613540552e-05   1.9140943882538924e-05   4.630367080844019e-05
-6.896594613540552e-05   1.9140943882538924e-05   4.630367080844019e-05
-6.896594613540552e-05   1.9140943882538924e-05   4.630367080844019e-05
-6.896594613540552e-05   1.9140943882538924e-05   4.630367080844019e-05
-9.381901233385115e-05   1.4166363752564012e-05   1.8971457330463435e-06
-9.381901233385115e-05   1.4166363752564012e-05   1.8971457330463435e-06
-9.381901233385115e-05   1.4166363752564012e-05   1.8971457330463435e-06
-9.381901233385115e-05   1.4166363752564012e-05   1.8971457330463435e-06
-9.663715146807084e-05   1.8516811612209402e-05   5.1253604359481966e-05
-9.663715146807084e-05   1.8516811612209402e-05   5.1253604359481966e-05
-9.663715146807084e-05   1.8516811612209402e-05   5.1253604359481966e-05
-9.663715146807084e-05   1.8516811612209402e-05   5.1253604359481966e-05
-7.047938355212292e-05   1.3453852401412551e-05   1.0695100026048227e-05
-7.047938355212292e-05   1.3453852401412551e-05   1.0695100026048227e-05
-7.047938355212292e-05   1.3453852401412551e-05   1.0695100026048227e-05
-7.047938355212292e-05   1.3453852401412551e-05   1.0695100026048227e-05
-8.04658469860998e-05   1.6465761774248945e-05   2.553206012564273e-05
-8.04658469860998e-05   1.6465761774248945e-05   2.553206012564273e-05
-8.04658469860998e-05   1.6465761774248945e-05   2.553206012564273e-05
-8.04658469860998e-05   1.6465761774248945e-05   2.553206012564273e-05
-7.047938355212303e-05   1.851681161221027e-05   5.429137988596008e-05
-7.047938355212303e-05   1.851681161221027e-05   5.429137988596008e-05
-7.047938355212303e-05   1.851681161221027e-05   5.429137988596008e-05
-7.047938355212303e-05   1.851681161221027e-05   5.429137988596008e-05
-9.663715146807084e-05   1.3453852401412551e-05   7.657324499569683e-06
-9.663715146807084e-05   1.3453852401412551e-05   7.657324499569683e-06
-9.663715146807084e-05   1.3453852401412551e-05   7.657324499569683e-06
-9.663715146807084e-05   1.3453852401412551e-05   7.657324499569683e-06
-0.00010001420837495363   1.6431245094213932e-05   6.530588965335347e-05
-0.00010001420837495363   1.6431245094213932e-05   6.530588965335347e-05
-0.00010001420837495363   1.6431245094213932e-05   6.530588965335347e-05
-0.00010001420837495363   1.6431245094213932e-05   6.530588965335347e-05
-7.178020545997208e-05   1.1524840741192113e-05   2.1193060740198107e-05
-7.178020545997208e-05   1.1524840741192113e-05   2.1193060740198107e-05
-7.178020545997208e-05   1.1524840741192113e-05   2.1193060740198107e-05
-7.178020545997208e-05   1.1524840741192113e-05   2.1193060740198107e-05
-8.126369040815072e-05   1.558860439440906e-05   3.4560610795233504e-05
-8.126369040815072e-05   1.558860439440906e-05   3.4560610795233504e-05
-8.126369040815072e-05   1.558860439440906e-05   3.4560610795233504e-05
-8.126369040815072e-05   1.558860439440906e-05   3.4560610795233504e-05
7.27802443939584e-06   1.8009163948616222e-07   4.154611595684216e-05
7.27802443939584e-06   1.8009163948616222e-07   4.154611595684216e-05
7.27802443939584e-06   1.8009163948616222e-07   4.154611595684216e-05
7.27802443939584e-06   1.8009163948616222e-07   4.154611595684216e-05
-9.110500621974505e-06   4.631045043794815e-06   1.6902479563809733e-05
-9.110500621974505e-06   4.631045043794815e-06   1.6902479563809733e-05
-9.110500621974505e-06   4.631045043794815e-06   1.6902479563809733e-05
-9.110500621974505e-06   4.631045043794815e-06   1.6902479563809733e-05
-1.0089626435116946e-05   -1.3970882759024167e-06   4.104690934651203e-05
-1.0089626435116946e-05   -1.3970882759024167e-06   4.104690934651203e-05
-1.0089626435116946e-05   -1.3970882759024167e-06   4.104690934651203e-05
-1.0089626435116946e-05   -1.3970882759024167e-06   4.104690934651203e-05
4.291458154923549e-06   3.160293465823572e-06   1.4344005984741955e-05
4.291458154923549e-06   3.160293465823572e-06   1.4344005984741955e-05
4.291458154923549e-06   3.160293465823572e-06   1.4344005984741955e-05
4.291458154923549e-06   3.160293465823572e-06   1.4344005984741955e-05
-2.276386036436778e-06   1.393787947006394e-06   2.6350316281632954e-05
-2.276386036436778e-06   1.393787947006394e-06   2.6350316281632954e-05
-2.276386036436778e-06   1.393787947006394e-06   2.6350316281632954e-05
-2.276386036436778e-06   1.393787947006394e-06   2.6350316281632954e-05
4.291458154923549e-06   -1.3970882759024167e-06   3.831248030147609e-05
4.291458154923549e-06   -1.3970882759024167e-06   3.831248030147609e-05
4.291458154923549e-06   -1.3970882759024167e-06   3.831248030147609e-05
4.291458154923549e-06   -1.3970882759024167e-06   3.831248030147609e-05
-1.0089626435116946e-05   3.160293465823572e-06   1.7078435029777624e-05
-1.0089626435116946e-05   3.160293465823572e-06   1.7078435029777624e-05
-1.0089626435116946e-05   3.160293465823572e-06   1.7078435029777624e-05
-1.0089626435116946e-05   3.160293465823572e-06   1.7078435029777624e-05
-1.1297789735661764e-05   -2.0810299600727486e-06   4.00167438072451e-05
-1.1297789735661764e-05   -2.0810299600727486e-06   4.00167438072451e-05
-1.1297789735661764e-05   -2.0810299600727486e-06   4.00167438072451e-05
-1.1297789735661764e-05   -2.0810299600727486e-06   4.00167438072451e-05
1.70346252810133e-06   2.3450990829917626e-06   1.5692312608467905e-05
1.70346252810133e-06   2.3450990829917626e-06   1.5692312608467905e-05
1.70346252810133e-06   2.3450990829917626e-06   1.5692312608467905e-05
1.70346252810133e-06   2.3450990829917626e-06   1.5692312608467905e-05
-3.893949104053397e-06   7.666696748313481e-07   2.5968389640288587e-05
-3.893949104053397e-06   7.666696748313481e-07   2.5968389640288587e-05
-3.893949104053397e-06   7.666696748313481e-07   2.5968389640288587e-05
-3.893949104053397e-06   7.666696748313481e-07   2.5968389640288587e-05
1.70346252810133e-06   -2.0810299600727486e-06   3.736106638140566e-05
1.70346252810133e-06   -2.0810299600727486e-06   3.736106638140566e-05
1.70346252810133e-06   -2.0810299600727486e-06   3.736106638140566e-05
1.70346252810133e-06   -2.0810299600727486e-06   3.736106638140566e-05
-1.129778973566175e-05   2.3450990829917626e-06   1.8347990034306427e-05
-1.129778973566175e-05   2.3450990829917626e-06   1.8347990034306427e-05
-1.129778973566175e-05   2.3450990829917626e-06   1.8347990034306427e-05
-1.129778973566175e-05   2.3450990829917626e-06   1.8347990034306427e-05
-1.2305206666118489e-05   -3.227710960666385e-06   3.971474735288069e-05
-1.2305206666118489e-05   -3.227710960666385e-06   3.971474735288069e-05
-1.2305206666118489e-05   -3.227710960666385e-06   3.971474735288069e-05
-1.2305206666118489e-05   -3.227710960666385e-06   3.971474735288069e-05
-1.5405229712780338e-06   6.106849670009344e-07   1.947057030488009e-05
-1.5405229712780338e-06   6.106849670009344e-07   1.947057030488009e-05
-1.5405229712780338e-06   6.106849670009344e-07   1.947057030488009e-05
-1.5405229712780338e-06   6.106849670009344e-07   1.947057030488009e-05
-5.616441443234697e-06   1.8361194426518013e-07   2.6520011571782442e-05
-5.616441443234697e-06   1.8361194426518013e-07   2.6520011571782442e-05
-5.616441443234697e-06   1.8361194426518013e-07   2.6520011571782442e-05
-5.616441443234697e-06   1.8361194426518013e-07   2.6520011571782442e-05
-9.110500621974505e-06   4.456902771916588e-06   6.695920797507391e-05
-9.110500621974505e-06   4.456902771916588e-06   6.695920797507391e-05
-9.110500621974505e-06   4.456902771916588e-06   6.695920797507391e-05
-9.110500621974505e-06   4.456902771916588e-06   6.695920797507391e-05
-2.283898686603915e-05   5.32439013363516e-06   4.459888998533095e-05
-2.283898686603915e-05   5.32439013363516e-06   4.459888998533095e-05
-2.283898686603915e-05   5.32439013363516e-06   4.459888998533095e-05
-2.283898686603915e-05   5.32439013363516e-06   4.459888998533095e-05
-2.357452139380308e-05   2.6694563753952225e-06   6.678746034580098e-05
-2.357452139380308e-05   2.6694563753952225e-06   6.678746034580098e-05
-2.357452139380308e-05   2.6694563753952225e-06   6.678746034580098e-05
-2.357452139380308e-05   2.6694563753952225e-06   6.678746034580098e-05
-1.0089626435116946e-05   3.678916166011993e-06   4.370695954028714e-05
-1.0089626435116946e-05   3.678916166011993e-06   4.370695954028714e-05
-1.0089626435116946e-05   3.678916166011993e-06   4.370695954028714e-05
-1.0089626435116946e-05   3.678916166011993e-06   4.370695954028714e-05
-1.6495389501683386e-05   3.8447190320242686e-06   5.4283749598290634e-05
-1.6495389501683386e-05   3.8447190320242686e-06   5.4283749598290634e-05
-1.6495389501683386e-05   3.8447190320242686e-06   5.4283749598290634e-05
-1.6495389501683386e-05   3.8447190320242686e-06   5.4283749598290634e-05
-1.008962643511696e-05   2.6694563753952225e-06   6.618178447143032e-05
-1.008962643511696e-05   2.6694563753952225e-06   6.618178447143032e-05
-1.008962643511696e-05   2.6694563753952225e-06   6.618178447143032e-05
-1.008962643511696e-05   2.6694563753952225e-06   6.618178447143032e-05
-2.3574521393803026e-05   3.678916166011993e-06   4.4312635414657216e-05
-2.3574521393803026e-05   3.678916166011993e-06   4.4312635414657216e-05
-2.3574521393803026e-05   3.678916166011993e-06   4.4312635414657216e-05
-2.3574521393803026e-05   3.678916166011993e-06   4.4312635414657216e-05
-2.4332770806459415e-05   1.150738004036464e-06   6.69424227756287e-05
-2.4332770806459415e-05   1.150738004036464e-06   6.69424227756287e-05
-2.4332770806459415e-05   1.150738004036464e-06   6.69424227756287e-05
-2.4332770806459415e-05   1.150738004036464e-06   6.69424227756287e-05
-1.129778973566175e-05   2.154912693568163e-06   4.461494951058019e-05
-1.129778973566175e-05   2.154912693568163e-06   4.461494951058019e-05
-1.129778973566175e-05   2.154912693568163e-06   4.461494951058019e-05
-1.129778973566175e-05   2.154912693568163e-06   4.461494951058019e-05
-1.7245492225548544e-05   2.639222456437846e-06   5.423720113600396e-05
-1.7245492225548544e-05   2.639222456437846e-06   5.423720113600396e-05
-1.7245492225548544e-05   2.639222456437846e-06   5.423720113600396e-05
-1.7245492225548544e-05   2.639222456437846e-06   5.423720113600396e-05
-1.1297789735661764e-05   1.150738004036464e-06   6.63399179619095e-05
-1.1297789735661764e-05   1.150738004036464e-06   6.63399179619095e-05
-1.1297789735661764e-05   1.150738004036464e-06   6.63399179619095e-05
-1.1297789735661764e-05   1.150738004036464e-06   6.63399179619095e-05
-2.4332770806459415e-05   2.154912693568163e-06   4.5217454324299276e-05
-2.4332770806459415e-05   2.154912693568163e-06   4.5217454324299276e-05
-2.4332770806459415e-05   2.154912693568163e-06   4.5217454324299276e-05
-2.4332770806459415e-05   2.154912693568163e-06   4.5217454324299276e-05
-2.5075482636953026e-05   -4.0599734296492204e-07   6.826602111272093e-05
-2.5075482636953026e-05   -4.0599734296492204e-07   6.826602111272093e-05
-2.5075482636953026e-05   -4.0599734296492204e-07   6.826602111272093e-05
-2.5075482636953026e-05   -4.0599734296492204e-07   6.826602111272093e-05
-1.2305206666118475e-05   4.984400083889173e-07   4.6439565417184055e-05
-1.2305206666118475e-05   4.984400083889173e-07   4.6439565417184055e-05
-1.2305206666118475e-05   4.984400083889173e-07   4.6439565417184055e-05
-1.2305206666118475e-05   4.984400083889173e-07   4.6439565417184055e-05
-1.799657440222478e-05   1.4495068893153988e-06   5.535453818213858e-05
-1.799657440222478e-05   1.4495068893153988e-06   5.535453818213858e-05
-1.799657440222478e-05   1.4495068893153988e-06   5.535453818213858e-05
-1.799657440222478e-05   1.4495068893153988e-06   5.535453818213858e-05
-2.283898686603915e-05   8.264351058542927e-06   7.540349817412688e-05
-2.283898686603915e-05   8.264351058542927e-06   7.540349817412688e-05
-2.283898686603915e-05   8.264351058542927e-06   7.540349817412688e-05
-2.283898686603915e-05   8.264351058542927e-06   7.540349817412688e-05
-3.6548792722944324e-05   6.351429813068309e-06   5.1406068998666524e-05
-3.6548792722944324e-05   6.351429813068309e-06   5.1406068998666524e-05
-3.6548792722944324e-05   6.351429813068309e-06   5.1406068998666524e-05
-3.6548792722944324e-05   6.351429813068309e-06   5.1406068998666524e-05
-3.7169409340073755e-05   6.612507322730724e-06   7.400743891983154e-05
-3.7169409340073755e-05   6.612507322730724e-06   7.400743891983154e-05
-3.7169409340073755e-05   6.612507322730724e-06   7.400743891983154e-05
-3.7169409340073755e-05   6.612507322730724e-06   7.400743891983154e-05
-2.3574521393803026e-05   4.822547811937552e-06   5.242326804918908e-05
-2.3574521393803026e-05   4.822547811937552e-06   5.242326804918908e-05
-2.3574521393803026e-05   4.822547811937552e-06   5.242326804918908e-05
-2.3574521393803026e-05   4.822547811937552e-06   5.242326804918908e-05
-3.004602964730576e-05   6.3912452127495335e-06   6.226789669787315e-05
-3.004602964730576e-05   6.3912452127495335e-06   6.226789669787315e-05
-3.004602964730576e-05   6.3912452127495335e-06   6.226789669787315e-05
-3.004602964730576e-05   6.3912452127495335e-06   6.226789669787315e-05
-2.3574521393803026e-05   6.612507322730724e-06   7.508141462630666e-05
-2.3574521393803026e-05   6.612507322730724e-06   7.508141462630666e-05
-2.3574521393803026e-05   6.612507322730724e-06   7.508141462630666e-05
-2.3574521393803026e-05   6.612507322730724e-06   7.508141462630666e-05
-3.7169409340073755e-05   4.822547811937552e-06   5.134929234271342e-05
-3.7169409340073755e-05   4.822547811937552e-06   5.134929234271342e-05
-3.7169409340073755e-05   4.822547811937552e-06   5.134929234271342e-05
-3.7169409340073755e-05   4.822547811937552e-06   5.134929234271342e-05
-3.7835178071935296e-05   4.969005313744303e-06   7.475918869576364e-05
-3.7835178071935296e-05   4.969005313744303e-06   7.475918869576364e-05
-3.7835178071935296e-05   4.969005313744303e-06   7.475918869576364e-05
-3.7835178071935296e-05   4.969005313744303e-06   7.475918869576364e-05
-2.4332770806459415e-05   3.2682525364334525e-06   5.327562825302359e-05
-2.4332770806459415e-05   3.2682525364334525e-06   5.327562825302359e-05
-2.4332770806459415e-05   3.2682525364334525e-06   5.327562825302359e-05
-2.4332770806459415e-05   3.2682525364334525e-06   5.327562825302359e-05
-3.05761643458251e-05   5.164775300995489e-06   6.25433704932295e-05
-3.05761643458251e-05   5.164775300995489e-06   6.25433704932295e-05
-3.05761643458251e-05   5.164775300995489e-06   6.25433704932295e-05
-3.05761643458251e-05   5.164775300995489e-06   6.25433704932295e-05
-2.4332770806459415e-05   4.969005313744303e-06   7.57796403621498e-05
-2.4332770806459415e-05   4.969005313744303e-06   7.57796403621498e-05
-2.4332770806459415e-05   4.969005313744303e-06   7.57796403621498e-05
-2.4332770806459415e-05   4.969005313744303e-06   7.57796403621498e-05
-3.7835178071935296e-05   3.268252536433886e-06   5.225517658663699e-05
-3.7835178071935296e-05   3.268252536433886e-06   5.225517658663699e-05
-3.7835178071935296e-05   3.268252536433886e-06   5.225517658663699e-05
-3.7835178071935296e-05   3.268252536433886e-06   5.225517658663699e-05
-3.848715447801916e-05   3.3942696411270144e-06   7.631870794453082e-05
-3.848715447801916e-05   3.3942696411270144e-06   7.631870794453082e-05
-3.848715447801916e-05   3.3942696411270144e-06   7.631870794453082e-05
-3.848715447801916e-05   3.3942696411270144e-06   7.631870794453082e-05
-2.5075482636952972e-05   1.7927732721590046e-06   5.492681936413487e-05
-2.5075482636952972e-05   1.7927732721590046e-06   5.492681936413487e-05
-2.5075482636952972e-05   1.7927732721590046e-06   5.492681936413487e-05
-2.5075482636952972e-05   1.7927732721590046e-06   5.492681936413487e-05
-3.1166990738155936e-05   3.955938506965649e-06   6.37814337252551e-05
-3.1166990738155936e-05   3.955938506965649e-06   6.37814337252551e-05
-3.1166990738155936e-05   3.955938506965649e-06   6.37814337252551e-05
-3.1166990738155936e-05   3.955938506965649e-06   6.37814337252551e-05
-3.654879272294443e-05   1.2248653556547282e-05   6.514919949464695e-05
-3.654879272294443e-05   1.2248653556547282e-05   6.514919949464695e-05
-3.654879272294443e-05   1.2248653556547282e-05   6.514919949464695e-05
-3.654879272294443e-05   1.2248653556547282e-05   6.514919949464695e-05
-5.001949169207334e-05   8.564750844437807e-06   4.0487692918833064e-05
-5.001949169207334e-05   8.564750844437807e-06   4.0487692918833064e-05
-5.001949169207334e-05   8.564750844437807e-06   4.0487692918833064e-05
-5.001949169207334e-05   8.564750844437807e-06   4.0487692918833064e-05
-5.070076197658934e-05   1.0580960291267563e-05   6.322331722964907e-05
-5.070076197658934e-05   1.0580960291267563e-05   6.322331722964907e-05
-5.070076197658934e-05   1.0580960291267563e-05   6.322331722964907e-05
-5.070076197658934e-05   1.0580960291267563e-05   6.322331722964907e-05
-3.7169409340073755e-05   6.955748154212089e-06   4.284619011768985e-05
-3.7169409340073755e-05   6.955748154212089e-06   4.284619011768985e-05
-3.7169409340073755e-05   6.955748154212089e-06   4.284619011768985e-05
-3.7169409340073755e-05   6.955748154212089e-06   4.284619011768985e-05
-4.3517343436742285e-05   9.511477500229702e-06   5.1892642671193387e-05
-4.3517343436742285e-05   9.511477500229702e-06   5.1892642671193387e-05
-4.3517343436742285e-05   9.511477500229702e-06   5.1892642671193387e-05
-4.3517343436742285e-05   9.511477500229702e-06   5.1892642671193387e-05
-3.7169409340073755e-05   1.0580960291267563e-05   6.53984445118821e-05
-3.7169409340073755e-05   1.0580960291267563e-05   6.53984445118821e-05
-3.7169409340073755e-05   1.0580960291267563e-05   6.53984445118821e-05
-3.7169409340073755e-05   1.0580960291267563e-05   6.53984445118821e-05
-5.0700761976589124e-05   6.955748154211655e-06   4.067106283545661e-05
-5.0700761976589124e-05   6.955748154211655e-06   4.067106283545661e-05
-5.0700761976589124e-05   6.955748154211655e-06   4.067106283545661e-05
-5.0700761976589124e-05   6.955748154211655e-06   4.067106283545661e-05
-5.164611679398467e-05   9.067417761143143e-06   6.532929173066766e-05
-5.164611679398467e-05   9.067417761143143e-06   6.532929173066766e-05
-5.164611679398467e-05   9.067417761143143e-06   6.532929173066766e-05
-5.164611679398467e-05   9.067417761143143e-06   6.532929173066766e-05
-3.7835178071935296e-05   5.526389272622872e-06   4.4435677620363904e-05
-3.7835178071935296e-05   5.526389272622872e-06   4.4435677620363904e-05
-3.7835178071935296e-05   5.526389272622872e-06   4.4435677620363904e-05
-3.7835178071935296e-05   5.526389272622872e-06   4.4435677620363904e-05
-4.3887963319195783e-05   8.322673520099778e-06   5.28458824839784e-05
-4.3887963319195783e-05   8.322673520099778e-06   5.28458824839784e-05
-4.3887963319195783e-05   8.322673520099778e-06   5.28458824839784e-05
-4.3887963319195783e-05   8.322673520099778e-06   5.28458824839784e-05
-3.7835178071935296e-05   9.067417761143143e-06   6.745390882377826e-05
-3.7835178071935296e-05   9.067417761143143e-06   6.745390882377826e-05
-3.7835178071935296e-05   9.067417761143143e-06   6.745390882377826e-05
-3.7835178071935296e-05   9.067417761143143e-06   6.745390882377826e-05
-5.164611679398445e-05   5.526389272622438e-06   4.231106052725157e-05
-5.164611679398445e-05   5.526389272622438e-06   4.231106052725157e-05
-5.164611679398445e-05   5.526389272622438e-06   4.231106052725157e-05
-5.164611679398445e-05   5.526389272622438e-06   4.231106052725157e-05
-5.240488145287557e-05   7.452775999193962e-06   6.767935299740579e-05
-5.240488145287557e-05   7.452775999193962e-06   6.767935299740579e-05
-5.240488145287557e-05   7.452775999193962e-06   6.767935299740579e-05
-5.240488145287557e-05   7.452775999193962e-06   6.767935299740579e-05
-3.848715447801905e-05   4.072499902173406e-06   4.6511307030857284e-05
-3.848715447801905e-05   4.072499902173406e-06   4.6511307030857284e-05
-3.848715447801905e-05   4.072499902173406e-06   4.6511307030857284e-05
-3.848715447801905e-05   4.072499902173406e-06   4.6511307030857284e-05
-4.46688306834002e-05   7.194636249843907e-06   5.494081889789162e-05
-4.46688306834002e-05   7.194636249843907e-06   5.494081889789162e-05
-4.46688306834002e-05   7.194636249843907e-06   5.494081889789162e-05
-4.46688306834002e-05   7.194636249843907e-06   5.494081889789162e-05
-5.001949169207334e-05   1.5025713831928137e-05   2.8653587724573448e-05
-5.001949169207334e-05   1.5025713831928137e-05   2.8653587724573448e-05
-5.001949169207334e-05   1.5025713831928137e-05   2.8653587724573448e-05
-5.001949169207334e-05   1.5025713831928137e-05   2.8653587724573448e-05
-6.049334206921714e-05   1.0081224133423952e-05   8.230476610230578e-06
-6.049334206921714e-05   1.0081224133423952e-05   8.230476610230578e-06
-6.049334206921714e-05   1.0081224133423952e-05   8.230476610230578e-06
-6.049334206921714e-05   1.0081224133423952e-05   8.230476610230578e-06
-6.30914725296024e-05   1.4166363752564012e-05   3.356067969497584e-05
-6.30914725296024e-05   1.4166363752564012e-05   3.356067969497584e-05
-6.30914725296024e-05   1.4166363752564012e-05   3.356067969497584e-05
-6.30914725296024e-05   1.4166363752564012e-05   3.356067969497584e-05
-5.070076197658923e-05   9.00997872219653e-06   1.6003326458173322e-05
-5.070076197658923e-05   9.00997872219653e-06   1.6003326458173322e-05
-5.070076197658923e-05   9.00997872219653e-06   1.6003326458173322e-05
-5.070076197658923e-05   9.00997872219653e-06   1.6003326458173322e-05
-5.413310910990697e-05   1.1956468209439134e-05   1.9956011321357273e-05
-5.413310910990697e-05   1.1956468209439134e-05   1.9956011321357273e-05
-5.413310910990697e-05   1.1956468209439134e-05   1.9956011321357273e-05
-5.413310910990697e-05   1.1956468209439134e-05   1.9956011321357273e-05
-5.0700761976589124e-05   1.4166363752563579e-05   3.665451071319494e-05
-5.0700761976589124e-05   1.4166363752563579e-05   3.665451071319494e-05
-5.0700761976589124e-05   1.4166363752563579e-05   3.665451071319494e-05
-5.0700761976589124e-05   1.4166363752563579e-05   3.665451071319494e-05
-6.309147252960261e-05   9.009978722196964e-06   1.2909495439953136e-05
-6.309147252960261e-05   9.009978722196964e-06   1.2909495439953136e-05
-6.309147252960261e-05   9.009978722196964e-06   1.2909495439953136e-05
-6.309147252960261e-05   9.009978722196964e-06   1.2909495439953136e-05
-6.532500449049302e-05   1.3453852401412551e-05   3.9532434955012654e-05
-6.532500449049302e-05   1.3453852401412551e-05   3.9532434955012654e-05
-6.532500449049302e-05   1.3453852401412551e-05   3.9532434955012654e-05
-6.532500449049302e-05   1.3453852401412551e-05   3.9532434955012654e-05
-5.164611679398445e-05   8.276261919115072e-06   1.9840843083543435e-05
-5.164611679398445e-05   8.276261919115072e-06   1.9840843083543435e-05
-5.164611679398445e-05   8.276261919115072e-06   1.9840843083543435e-05
-5.164611679398445e-05   8.276261919115072e-06   1.9840843083543435e-05
-5.632953227665394e-05   1.1532403398261271e-05   2.569285066717289e-05
-5.632953227665394e-05   1.1532403398261271e-05   2.569285066717289e-05
-5.632953227665394e-05   1.1532403398261271e-05   2.569285066717289e-05
-5.632953227665394e-05   1.1532403398261271e-05   2.569285066717289e-05
-5.164611679398445e-05   1.3453852401412551e-05   4.2638989244391055e-05
-5.164611679398445e-05   1.3453852401412551e-05   4.2638989244391055e-05
-5.164611679398445e-05   1.3453852401412551e-05   4.2638989244391055e-05
-5.164611679398445e-05   1.3453852401412551e-05   4.2638989244391055e-05
-6.532500449049324e-05   8.276261919115506e-06   1.6734288794164817e-05
-6.532500449049324e-05   8.276261919115506e-06   1.6734288794164817e-05
-6.532500449049324e-05   8.276261919115506e-06   1.6734288794164817e-05
-6.532500449049324e-05   8.276261919115506e-06   1.6734288794164817e-05
-6.817550522982192e-05   1.1524840741192113e-05   5.034750821523862e-05
-6.817550522982192e-05   1.1524840741192113e-05   5.034750821523862e-05
-6.817550522982192e-05   1.1524840741192113e-05   5.034750821523862e-05
-6.817550522982192e-05   1.1524840741192113e-05   5.034750821523862e-05
-5.240488145287546e-05   6.601220376562661e-06   2.7017307472439493e-05
-5.240488145287546e-05   6.601220376562661e-06   2.7017307472439493e-05
-5.240488145287546e-05   6.601220376562661e-06   2.7017307472439493e-05
-5.240488145287546e-05   6.601220376562661e-06   2.7017307472439493e-05
-5.696582295603244e-05   1.0732590002922662e-05   3.214005486855127e-05
-5.696582295603244e-05   1.0732590002922662e-05   3.214005486855127e-05
-5.696582295603244e-05   1.0732590002922662e-05   3.214005486855127e-05
-5.696582295603244e-05   1.0732590002922662e-05   3.214005486855127e-05
-2.5703571333659007e-05   4.631045043794815e-06   2.9461721983666802e-05
-2.5703571333659007e-05   4.631045043794815e-06   2.9461721983666802e-05
-2.5703571333659007e-05   4.631045043794815e-06   2.9461721983666802e-05
-2.5703571333659007e-05   4.631045043794815e-06   2.9461721983666802e-05
-2.769936602011162e-05   8.67242306241728e-06   2.856022431741898e-05
-2.769936602011162e-05   8.67242306241728e-06   2.856022431741898e-05
-2.769936602011162e-05   8.67242306241728e-06   2.856022431741898e-05
-2.769936602011162e-05   8.67242306241728e-06   2.856022431741898e-05
-2.8391135309869042e-05   3.160293465823572e-06   3.176058055752158e-05
-2.8391135309869042e-05   3.160293465823572e-06   3.176058055752158e-05
-2.8391135309869042e-05   3.160293465823572e-06   3.176058055752158e-05
-2.8391135309869042e-05   3.160293465823572e-06   3.176058055752158e-05
-2.8655363016568048e-05   6.790354560723671e-06   3.002292341174631e-05
-2.8655363016568048e-05   6.790354560723671e-06   3.002292341174631e-05
-2.8655363016568048e-05   6.790354560723671e-06   3.002292341174631e-05
-2.8655363016568048e-05   6.790354560723671e-06   3.002292341174631e-05
-2.6914218124675325e-05   5.441564741108171e-06   2.7930289150361056e-05
-2.6914218124675325e-05   5.441564741108171e-06   2.7930289150361056e-05
-2.6914218124675325e-05   5.441564741108171e-06   2.7930289150361056e-05
-2.6914218124675325e-05   5.441564741108171e-06   2.7930289150361056e-05
-2.8655363016568075e-05   3.160293465823572e-06   2.958254390058126e-05
-2.8655363016568075e-05   3.160293465823572e-06   2.958254390058126e-05
-2.8655363016568075e-05   3.160293465823572e-06   2.958254390058126e-05
-2.8655363016568075e-05   3.160293465823572e-06   2.958254390058126e-05
-2.8391135309869042e-05   6.790354560723671e-06   3.2200960068686684e-05
-2.8391135309869042e-05   6.790354560723671e-06   3.2200960068686684e-05
-2.8391135309869042e-05   6.790354560723671e-06   3.2200960068686684e-05
-2.8391135309869042e-05   6.790354560723671e-06   3.2200960068686684e-05
-2.9289775111200725e-05   2.3450990829917626e-06   3.283005737724572e-05
-2.9289775111200725e-05   2.3450990829917626e-06   3.283005737724572e-05
-2.9289775111200725e-05   2.3450990829917626e-06   3.283005737724572e-05
-2.9289775111200725e-05   2.3450990829917626e-06   3.283005737724572e-05
-3.152149546591844e-05   5.483416187202026e-06   3.466660103924863e-05
-3.152149546591844e-05   5.483416187202026e-06   3.466660103924863e-05
-3.152149546591844e-05   5.483416187202026e-06   3.466660103924863e-05
-3.152149546591844e-05   5.483416187202026e-06   3.466660103924863e-05
-2.8673436214430023e-05   4.62803292314122e-06   3.0433065578536835e-05
-2.8673436214430023e-05   4.62803292314122e-06   3.0433065578536835e-05
-2.8673436214430023e-05   4.62803292314122e-06   3.0433065578536835e-05
-2.8673436214430023e-05   4.62803292314122e-06   3.0433065578536835e-05
-3.1521495465918495e-05   2.3450990829917626e-06   3.094706711471865e-05
-3.1521495465918495e-05   2.3450990829917626e-06   3.094706711471865e-05
-3.1521495465918495e-05   2.3450990829917626e-06   3.094706711471865e-05
-3.1521495465918495e-05   2.3450990829917626e-06   3.094706711471865e-05
-2.9289775111200725e-05   5.483416187202026e-06   3.6549591301774775e-05
-2.9289775111200725e-05   5.483416187202026e-06   3.6549591301774775e-05
-2.9289775111200725e-05   5.483416187202026e-06   3.6549591301774775e-05
-2.9289775111200725e-05   5.483416187202026e-06   3.6549591301774775e-05
-2.9854251317820913e-05   6.106849670005007e-07   3.6195965149189236e-05
-2.9854251317820913e-05   6.106849670005007e-07   3.6195965149189236e-05
-2.9854251317820913e-05   6.106849670005007e-07   3.6195965149189236e-05
-2.9854251317820913e-05   6.106849670005007e-07   3.6195965149189236e-05
-3.4570129776895626e-05   2.2656356109152388e-06   4.306279219463125e-05
-3.4570129776895626e-05   2.2656356109152388e-06   4.306279219463125e-05
-3.4570129776895626e-05   2.2656356109152388e-06   4.306279219463125e-05
-3.4570129776895626e-05   2.2656356109152388e-06   4.306279219463125e-05
-2.9885158481634475e-05   3.6222100808433466e-06   3.444056202057125e-05
-2.9885158481634475e-05   3.6222100808433466e-06   3.444056202057125e-05
-2.9885158481634475e-05   3.6222100808433466e-06   3.444056202057125e-05
-2.9885158481634475e-05   3.6222100808433466e-06   3.444056202057125e-05
-2.7699366020111566e-05   5.32439013363516e-06   5.906246679933001e-05
-2.7699366020111566e-05   5.32439013363516e-06   5.906246679933001e-05
-2.7699366020111566e-05   5.32439013363516e-06   5.906246679933001e-05
-2.7699366020111566e-05   5.32439013363516e-06   5.906246679933001e-05
-2.7826394865864616e-05   2.240973205817941e-06   5.70007018997179e-05
-2.7826394865864616e-05   2.240973205817941e-06   5.70007018997179e-05
-2.7826394865864616e-05   2.240973205817941e-06   5.70007018997179e-05
-2.7826394865864616e-05   2.240973205817941e-06   5.70007018997179e-05
-2.8029157373868168e-05   3.678916166011993e-06   5.683293132542036e-05
-2.8029157373868168e-05   3.678916166011993e-06   5.683293132542036e-05
-2.8029157373868168e-05   3.678916166011993e-06   5.683293132542036e-05
-2.8029157373868168e-05   3.678916166011993e-06   5.683293132542036e-05
-2.8391135309869042e-05   1.0852932616606768e-06   5.899240162803273e-05
-2.8391135309869042e-05   1.0852932616606768e-06   5.899240162803273e-05
-2.8391135309869042e-05   1.0852932616606768e-06   5.899240162803273e-05
-2.8391135309869042e-05   1.0852932616606768e-06   5.899240162803273e-05
-2.789534454809525e-05   2.7300481746359885e-06   5.7179230743957716e-05
-2.789534454809525e-05   2.7300481746359885e-06   5.7179230743957716e-05
-2.789534454809525e-05   2.7300481746359885e-06   5.7179230743957716e-05
-2.789534454809525e-05   2.7300481746359885e-06   5.7179230743957716e-05
-2.8391135309869e-05   3.678916166012427e-06   5.8389105068030285e-05
-2.8391135309869e-05   3.678916166012427e-06   5.8389105068030285e-05
-2.8391135309869e-05   3.678916166012427e-06   5.8389105068030285e-05
-2.8391135309869e-05   3.678916166012427e-06   5.8389105068030285e-05
-2.8029157373868113e-05   1.0852932616606768e-06   5.74362278854217e-05
-2.8029157373868113e-05   1.0852932616606768e-06   5.74362278854217e-05
-2.8029157373868113e-05   1.0852932616606768e-06   5.74362278854217e-05
-2.8029157373868113e-05   1.0852932616606768e-06   5.74362278854217e-05
-2.828254793368971e-05   2.154912693568163e-06   5.764530322985512e-05
-2.828254793368971e-05   2.154912693568163e-06   5.764530322985512e-05
-2.828254793368971e-05   2.154912693568163e-06   5.764530322985512e-05
-2.828254793368971e-05   2.154912693568163e-06   5.764530322985512e-05
-2.9289775111200725e-05   -2.646100125398669e-07   6.077572881603744e-05
-2.9289775111200725e-05   -2.646100125398669e-07   6.077572881603744e-05
-2.9289775111200725e-05   -2.646100125398669e-07   6.077572881603744e-05
-2.9289775111200725e-05   -2.646100125398669e-07   6.077572881603744e-05
-2.8146178282595505e-05   1.7674591780195668e-06   5.7650492587358996e-05
-2.8146178282595505e-05   1.7674591780195668e-06   5.7650492587358996e-05
-2.8146178282595505e-05   1.7674591780195668e-06   5.7650492587358996e-05
-2.8146178282595505e-05   1.7674591780195668e-06   5.7650492587358996e-05
-2.9289775111200725e-05   2.154912693568163e-06   5.9097016853518506e-05
-2.9289775111200725e-05   2.154912693568163e-06   5.9097016853518506e-05
-2.9289775111200725e-05   2.154912693568163e-06   5.9097016853518506e-05
-2.9289775111200725e-05   2.154912693568163e-06   5.9097016853518506e-05
-2.8282547933689657e-05   -2.646100125398669e-07   5.932401519237278e-05
-2.8282547933689657e-05   -2.646100125398669e-07   5.932401519237278e-05
-2.8282547933689657e-05   -2.646100125398669e-07   5.932401519237278e-05
-2.8282547933689657e-05   -2.646100125398669e-07   5.932401519237278e-05
-2.8460596549199316e-05   4.984400083889173e-07   5.933613934205038e-05
-2.8460596549199316e-05   4.984400083889173e-07   5.933613934205038e-05
-2.8460596549199316e-05   4.984400083889173e-07   5.933613934205038e-05
-2.8460596549199316e-05   4.984400083889173e-07   5.933613934205038e-05
-2.9854251317820886e-05   -2.0445322630154375e-06   6.318468065259525e-05
-2.9854251317820886e-05   -2.0445322630154375e-06   6.318468065259525e-05
-2.9854251317820886e-05   -2.0445322630154375e-06   6.318468065259525e-05
-2.9854251317820886e-05   -2.0445322630154375e-06   6.318468065259525e-05
-2.8552771496135857e-05   6.303497190190965e-07   5.9410618427231654e-05
-2.8552771496135857e-05   6.303497190190965e-07   5.9410618427231654e-05
-2.8552771496135857e-05   6.303497190190965e-07   5.9410618427231654e-05
-2.8552771496135857e-05   6.303497190190965e-07   5.9410618427231654e-05
-2.7826394865864724e-05   6.351429813068309e-06   6.516734840326076e-05
-2.7826394865864724e-05   6.351429813068309e-06   6.516734840326076e-05
-2.7826394865864724e-05   6.351429813068309e-06   6.516734840326076e-05
-2.7826394865864724e-05   6.351429813068309e-06   6.516734840326076e-05
-2.976444243502378e-05   6.180830709142694e-07   5.849726107603624e-05
-2.976444243502378e-05   6.180830709142694e-07   5.849726107603624e-05
-2.976444243502378e-05   6.180830709142694e-07   5.849726107603624e-05
-2.976444243502378e-05   6.180830709142694e-07   5.849726107603624e-05
-2.982142918933595e-05   4.822547811937552e-06   6.18315148369717e-05
-2.982142918933595e-05   4.822547811937552e-06   6.18315148369717e-05
-2.982142918933595e-05   4.822547811937552e-06   6.18315148369717e-05
-2.982142918933595e-05   4.822547811937552e-06   6.18315148369717e-05
-2.8029157373868113e-05   -3.642007263627081e-07   6.195644426750576e-05
-2.8029157373868113e-05   -3.642007263627081e-07   6.195644426750576e-05
-2.8029157373868113e-05   -3.642007263627081e-07   6.195644426750576e-05
-2.8029157373868113e-05   -3.642007263627081e-07   6.195644426750576e-05
-2.880828461653234e-05   2.7637180320737136e-06   6.137823841688417e-05
-2.880828461653234e-05   2.7637180320737136e-06   6.137823841688417e-05
-2.880828461653234e-05   2.7637180320737136e-06   6.137823841688417e-05
-2.880828461653234e-05   2.7637180320737136e-06   6.137823841688417e-05
-2.8029157373868168e-05   4.822547811937552e-06   6.494356395995169e-05
-2.8029157373868168e-05   4.822547811937552e-06   6.494356395995169e-05
-2.8029157373868168e-05   4.822547811937552e-06   6.494356395995169e-05
-2.8029157373868168e-05   4.822547811937552e-06   6.494356395995169e-05
-2.9821429189335843e-05   -3.642007263624913e-07   5.884439514452567e-05
-2.9821429189335843e-05   -3.642007263624913e-07   5.884439514452567e-05
-2.9821429189335843e-05   -3.642007263624913e-07   5.884439514452567e-05
-2.9821429189335843e-05   -3.642007263624913e-07   5.884439514452567e-05
-2.9937866639912457e-05   3.2682525364334525e-06   6.281797742331736e-05
-2.9937866639912457e-05   3.2682525364334525e-06   6.281797742331736e-05
-2.9937866639912457e-05   3.2682525364334525e-06   6.281797742331736e-05
-2.9937866639912457e-05   3.2682525364334525e-06   6.281797742331736e-05
-2.8282547933689657e-05   -1.540913689002674e-06   6.294461264820745e-05
-2.8282547933689657e-05   -1.540913689002674e-06   6.294461264820745e-05
-2.8282547933689657e-05   -1.540913689002674e-06   6.294461264820745e-05
-2.8282547933689657e-05   -1.540913689002674e-06   6.294461264820745e-05
-2.8808586279448803e-05   1.7881732618731279e-06   6.18238910539455e-05
-2.8808586279448803e-05   1.7881732618731279e-06   6.18238910539455e-05
-2.8808586279448803e-05   1.7881732618731279e-06   6.18238910539455e-05
-2.8808586279448803e-05   1.7881732618731279e-06   6.18238910539455e-05
-2.828254793368971e-05   3.268252536433886e-06   6.570347715857856e-05
-2.828254793368971e-05   3.268252536433886e-06   6.570347715857856e-05
-2.828254793368971e-05   3.268252536433886e-06   6.570347715857856e-05
-2.828254793368971e-05   3.268252536433886e-06   6.570347715857856e-05
-2.993786663991235e-05   -1.5409136890024572e-06   6.0059112912945706e-05
-2.993786663991235e-05   -1.5409136890024572e-06   6.0059112912945706e-05
-2.993786663991235e-05   -1.5409136890024572e-06   6.0059112912945706e-05
-2.993786663991235e-05   -1.5409136890024572e-06   6.0059112912945706e-05
-3.0005952986821558e-05   1.7927732721590046e-06   6.456927106319402e-05
-3.0005952986821558e-05   1.7927732721590046e-06   6.456927106319402e-05
-3.0005952986821558e-05   1.7927732721590046e-06   6.456927106319402e-05
-3.0005952986821558e-05   1.7927732721590046e-06   6.456927106319402e-05
-2.8460596549199262e-05   -2.7263264194975385e-06   6.470513681548361e-05
-2.8460596549199262e-05   -2.7263264194975385e-06   6.470513681548361e-05
-2.8460596549199262e-05   -2.7263264194975385e-06   6.470513681548361e-05
-2.8460596549199262e-05   -2.7263264194975385e-06   6.470513681548361e-05
-2.885591084396741e-05   7.843977795620946e-07   6.325755945399316e-05
-2.885591084396741e-05   7.843977795620946e-07   6.325755945399316e-05
-2.885591084396741e-05   7.843977795620946e-07   6.325755945399316e-05
-2.885591084396741e-05   7.843977795620946e-07   6.325755945399316e-05
-2.976444243502378e-05   8.564750844437807e-06   5.301930590540004e-05
-2.976444243502378e-05   8.564750844437807e-06   5.301930590540004e-05
-2.976444243502378e-05   8.564750844437807e-06   5.301930590540004e-05
-2.976444243502378e-05   8.564750844437807e-06   5.301930590540004e-05
-3.2653328010292e-05   2.802064831266323e-06   4.4746885005383886e-05
-3.2653328010292e-05   2.802064831266323e-06   4.4746885005383886e-05
-3.2653328010292e-05   2.802064831266323e-06   4.4746885005383886e-05
-3.2653328010292e-05   2.802064831266323e-06   4.4746885005383886e-05
-3.269026850503433e-05   6.955748154211655e-06   5.006096645960656e-05
-3.269026850503433e-05   6.955748154211655e-06   5.006096645960656e-05
-3.269026850503433e-05   6.955748154211655e-06   5.006096645960656e-05
-3.269026850503433e-05   6.955748154211655e-06   5.006096645960656e-05
-2.982142918933595e-05   1.5100045669762772e-06   4.8547013752450914e-05
-2.982142918933595e-05   1.5100045669762772e-06   4.8547013752450914e-05
-2.982142918933595e-05   1.5100045669762772e-06   4.8547013752450914e-05
-2.982142918933595e-05   1.5100045669762772e-06   4.8547013752450914e-05
-3.115024839069774e-05   5.080780296354628e-06   4.8619246983760446e-05
-3.115024839069774e-05   5.080780296354628e-06   4.8619246983760446e-05
-3.115024839069774e-05   5.080780296354628e-06   4.8619246983760446e-05
-3.115024839069774e-05   5.080780296354628e-06   4.8619246983760446e-05
-2.982142918933595e-05   6.955748154211655e-06   5.33284126119477e-05
-2.982142918933595e-05   6.955748154211655e-06   5.33284126119477e-05
-2.982142918933595e-05   6.955748154211655e-06   5.33284126119477e-05
-2.982142918933595e-05   6.955748154211655e-06   5.33284126119477e-05
-3.269026850503433e-05   1.5100045669760604e-06   4.527956760010956e-05
-3.269026850503433e-05   1.5100045669760604e-06   4.527956760010956e-05
-3.269026850503433e-05   1.5100045669760604e-06   4.527956760010956e-05
-3.269026850503433e-05   1.5100045669760604e-06   4.527956760010956e-05
-3.303120492429107e-05   5.526389272622872e-06   5.192553499278529e-05
-3.303120492429107e-05   5.526389272622872e-06   5.192553499278529e-05
-3.303120492429107e-05   5.526389272622872e-06   5.192553499278529e-05
-3.303120492429107e-05   5.526389272622872e-06   5.192553499278529e-05
-2.9937866639912457e-05   4.0481683219028425e-07   4.984291464974616e-05
-2.9937866639912457e-05   4.0481683219028425e-07   4.984291464974616e-05
-2.9937866639912457e-05   4.0481683219028425e-07   4.984291464974616e-05
-2.9937866639912457e-05   4.0481683219028425e-07   4.984291464974616e-05
-3.1046310351746866e-05   4.016429850038725e-06   4.95233530254254e-05
-3.1046310351746866e-05   4.016429850038725e-06   4.95233530254254e-05
-3.1046310351746866e-05   4.016429850038725e-06   4.95233530254254e-05
-3.1046310351746866e-05   4.016429850038725e-06   4.95233530254254e-05
-2.9937866639912457e-05   5.526389272622438e-06   5.4998478457043195e-05
-2.9937866639912457e-05   5.526389272622438e-06   5.4998478457043195e-05
-2.9937866639912457e-05   5.526389272622438e-06   5.4998478457043195e-05
-2.9937866639912457e-05   5.526389272622438e-06   5.4998478457043195e-05
-3.303120492429107e-05   4.0481683219028425e-07   4.6769971185486956e-05
-3.303120492429107e-05   4.0481683219028425e-07   4.6769971185486956e-05
-3.303120492429107e-05   4.0481683219028425e-07   4.6769971185486956e-05
-3.303120492429107e-05   4.0481683219028425e-07   4.6769971185486956e-05
-3.322989365425256e-05   4.072499902173839e-06   5.4246050158655856e-05
-3.322989365425256e-05   4.072499902173839e-06   5.4246050158655856e-05
-3.322989365425256e-05   4.072499902173839e-06   5.4246050158655856e-05
-3.322989365425256e-05   4.072499902173839e-06   5.4246050158655856e-05
-3.0005952986821558e-05   -7.085107522300949e-07   5.174142210557955e-05
-3.0005952986821558e-05   -7.085107522300949e-07   5.174142210557955e-05
-3.0005952986821558e-05   -7.085107522300949e-07   5.174142210557955e-05
-3.0005952986821558e-05   -7.085107522300949e-07   5.174142210557955e-05
-3.118607519448079e-05   3.0674072481803177e-06   5.1442741651430875e-05
-3.118607519448079e-05   3.0674072481803177e-06   5.1442741651430875e-05
-3.118607519448079e-05   3.0674072481803177e-06   5.1442741651430875e-05
-3.118607519448079e-05   3.0674072481803177e-06   5.1442741651430875e-05
-3.265332801029189e-05   1.0081224133423519e-05   2.027117180799739e-05
-3.265332801029189e-05   1.0081224133423519e-05   2.027117180799739e-05
-3.265332801029189e-05   1.0081224133423519e-05   2.027117180799739e-05
-3.265332801029189e-05   1.0081224133423519e-05   2.027117180799739e-05
-3.201427401764269e-05   4.590543223956765e-06   1.804185325006598e-05
-3.201427401764269e-05   4.590543223956765e-06   1.804185325006598e-05
-3.201427401764269e-05   4.590543223956765e-06   1.804185325006598e-05
-3.201427401764269e-05   4.590543223956765e-06   1.804185325006598e-05
-3.365935301123408e-05   9.009978722196964e-06   2.21950454646915e-05
-3.365935301123408e-05   9.009978722196964e-06   2.21950454646915e-05
-3.365935301123408e-05   9.009978722196964e-06   2.21950454646915e-05
-3.365935301123408e-05   9.009978722196964e-06   2.21950454646915e-05
-3.269026850503422e-05   3.67967102614321e-06   2.377808923865717e-05
-3.269026850503422e-05   3.67967102614321e-06   2.377808923865717e-05
-3.269026850503422e-05   3.67967102614321e-06   2.377808923865717e-05
-3.269026850503422e-05   3.67967102614321e-06   2.377808923865717e-05
-3.169239759776677e-05   7.082321383398895e-06   2.0073380845524397e-05
-3.169239759776677e-05   7.082321383398895e-06   2.0073380845524397e-05
-3.169239759776677e-05   7.082321383398895e-06   2.0073380845524397e-05
-3.169239759776677e-05   7.082321383398895e-06   2.0073380845524397e-05
-3.269026850503411e-05   9.009978722196964e-06   2.539323008232306e-05
-3.269026850503411e-05   9.009978722196964e-06   2.539323008232306e-05
-3.269026850503411e-05   9.009978722196964e-06   2.539323008232306e-05
-3.269026850503411e-05   9.009978722196964e-06   2.539323008232306e-05
-3.3659353011234296e-05   3.67967102614321e-06   2.0579904621025177e-05
-3.3659353011234296e-05   3.67967102614321e-06   2.0579904621025177e-05
-3.3659353011234296e-05   3.67967102614321e-06   2.0579904621025177e-05
-3.3659353011234296e-05   3.67967102614321e-06   2.0579904621025177e-05
-3.5105665008087344e-05   8.276261919115072e-06   2.6339473601633395e-05
-3.5105665008087344e-05   8.276261919115072e-06   2.6339473601633395e-05
-3.5105665008087344e-05   8.276261919115072e-06   2.6339473601633395e-05
-3.5105665008087344e-05   8.276261919115072e-06   2.6339473601633395e-05
-3.303120492429107e-05   3.083188673375613e-06   2.599788407608235e-05
-3.303120492429107e-05   3.083188673375613e-06   2.599788407608235e-05
-3.303120492429107e-05   3.083188673375613e-06   2.599788407608235e-05
-3.303120492429107e-05   3.083188673375613e-06   2.599788407608235e-05
-3.285870437142119e-05   6.544816628025439e-06   2.363340638184149e-05
-3.285870437142119e-05   6.544816628025439e-06   2.363340638184149e-05
-3.285870437142119e-05   6.544816628025439e-06   2.363340638184149e-05
-3.285870437142119e-05   6.544816628025439e-06   2.363340638184149e-05
-3.303120492429096e-05   8.276261919115072e-06   2.945531754907564e-05
-3.303120492429096e-05   8.276261919115072e-06   2.945531754907564e-05
-3.303120492429096e-05   8.276261919115072e-06   2.945531754907564e-05
-3.303120492429096e-05   8.276261919115072e-06   2.945531754907564e-05
-3.510566500808756e-05   3.083188673375613e-06   2.2882040128638804e-05
-3.510566500808756e-05   3.083188673375613e-06   2.2882040128638804e-05
-3.510566500808756e-05   3.083188673375613e-06   2.2882040128638804e-05
-3.510566500808756e-05   3.083188673375613e-06   2.2882040128638804e-05
-3.727029163374629e-05   6.601220376562661e-06   3.395573651600661e-05
-3.727029163374629e-05   6.601220376562661e-06   3.395573651600661e-05
-3.727029163374629e-05   6.601220376562661e-06   3.395573651600661e-05
-3.727029163374629e-05   6.601220376562661e-06   3.395573651600661e-05
-3.322989365425256e-05   1.8937541391575788e-06   3.00462196259595e-05
-3.322989365425256e-05   1.8937541391575788e-06   3.00462196259595e-05
-3.322989365425256e-05   1.8937541391575788e-06   3.00462196259595e-05
-3.322989365425256e-05   1.8937541391575788e-06   3.00462196259595e-05
-3.3251628263366716e-05   5.913756910135015e-06   2.767044231189418e-05
-3.3251628263366716e-05   5.913756910135015e-06   2.767044231189418e-05
-3.3251628263366716e-05   5.913756910135015e-06   2.767044231189418e-05
-3.3251628263366716e-05   5.913756910135015e-06   2.767044231189418e-05
-6.553156444601705e-05   8.672423062417497e-06   2.4492383606109207e-05
-6.553156444601705e-05   8.672423062417497e-06   2.4492383606109207e-05
-6.553156444601705e-05   8.672423062417497e-06   2.4492383606109207e-05
-6.553156444601705e-05   8.672423062417497e-06   2.4492383606109207e-05
-4.404257747289632e-05   1.2032964851538546e-05   6.232368696811649e-05
-4.404257747289632e-05   1.2032964851538546e-05   6.232368696811649e-05
-4.404257747289632e-05   1.2032964851538546e-05   6.232368696811649e-05
-4.404257747289632e-05   1.2032964851538546e-05   6.232368696811649e-05
-4.400761775096048e-05   6.790354560723671e-06   2.800982336552513e-05
-4.400761775096048e-05   6.790354560723671e-06   2.800982336552513e-05
-4.400761775096048e-05   6.790354560723671e-06   2.800982336552513e-05
-4.400761775096048e-05   6.790354560723671e-06   2.800982336552513e-05
-7.207158859496654e-05   4.974995195387399e-06   7.587232372473744e-05
-7.207158859496654e-05   4.974995195387399e-06   7.587232372473744e-05
-7.207158859496654e-05   4.974995195387399e-06   7.587232372473744e-05
-7.207158859496654e-05   4.974995195387399e-06   7.587232372473744e-05
-5.350644470482434e-05   7.153848628683145e-06   4.362310518118963e-05
-5.350644470482434e-05   7.153848628683145e-06   4.362310518118963e-05
-5.350644470482434e-05   7.153848628683145e-06   4.362310518118963e-05
-5.350644470482434e-05   7.153848628683145e-06   4.362310518118963e-05
-7.207158859496665e-05   6.790354560723454e-06   2.9099038984726783e-05
-7.207158859496665e-05   6.790354560723454e-06   2.9099038984726783e-05
-7.207158859496665e-05   6.790354560723454e-06   2.9099038984726783e-05
-7.207158859496665e-05   6.790354560723454e-06   2.9099038984726783e-05
-4.400761775096048e-05   4.974995195387399e-06   7.478310810553573e-05
-4.400761775096048e-05   4.974995195387399e-06   7.478310810553573e-05
-4.400761775096048e-05   4.974995195387399e-06   7.478310810553573e-05
-4.400761775096048e-05   4.974995195387399e-06   7.478310810553573e-05
-4.457263102023042e-05   5.483416187202026e-06   3.141854212784692e-05
-4.457263102023042e-05   5.483416187202026e-06   3.141854212784692e-05
-4.457263102023042e-05   5.483416187202026e-06   3.141854212784692e-05
-4.457263102023042e-05   5.483416187202026e-06   3.141854212784692e-05
-7.22932268864085e-05   3.6055818685105717e-06   7.874623582935844e-05
-7.22932268864085e-05   3.6055818685105717e-06   7.874623582935844e-05
-7.22932268864085e-05   3.6055818685105717e-06   7.874623582935844e-05
-7.22932268864085e-05   3.6055818685105717e-06   7.874623582935844e-05
-5.703923063413477e-05   4.506251400273253e-06   5.278250702317729e-05
-5.703923063413477e-05   4.506251400273253e-06   5.278250702317729e-05
-5.703923063413477e-05   4.506251400273253e-06   5.278250702317729e-05
-5.703923063413477e-05   4.506251400273253e-06   5.278250702317729e-05
-7.229322688640861e-05   5.483416187202026e-06   3.2545242719062006e-05
-7.229322688640861e-05   5.483416187202026e-06   3.2545242719062006e-05
-7.229322688640861e-05   5.483416187202026e-06   3.2545242719062006e-05
-7.229322688640861e-05   5.483416187202026e-06   3.2545242719062006e-05
-4.457263102023035e-05   3.6055818685105717e-06   7.761953523814375e-05
-4.457263102023035e-05   3.6055818685105717e-06   7.761953523814375e-05
-4.457263102023035e-05   3.6055818685105717e-06   7.761953523814375e-05
-4.457263102023035e-05   3.6055818685105717e-06   7.761953523814375e-05
-4.4062043743951426e-05   2.2656356109152388e-06   3.7387569099730285e-05
-4.4062043743951426e-05   2.2656356109152388e-06   3.7387569099730285e-05
-4.4062043743951426e-05   2.2656356109152388e-06   3.7387569099730285e-05
-4.4062043743951426e-05   2.2656356109152388e-06   3.7387569099730285e-05
-7.302041145736898e-05   -2.1969648097296037e-06   8.832907554114604e-05
-7.302041145736898e-05   -2.1969648097296037e-06   8.832907554114604e-05
-7.302041145736898e-05   -2.1969648097296037e-06   8.832907554114604e-05
-7.302041145736898e-05   -2.1969648097296037e-06   8.832907554114604e-05
-5.6132841352766317e-05   2.229814654021835e-06   5.7527057688557524e-05
-5.6132841352766317e-05   2.229814654021835e-06   5.7527057688557524e-05
-5.6132841352766317e-05   2.229814654021835e-06   5.7527057688557524e-05
-5.6132841352766317e-05   2.229814654021835e-06   5.7527057688557524e-05
-4.40425774728964e-05   2.240973205818158e-06   5.679923641857109e-05
-4.40425774728964e-05   2.240973205818158e-06   5.679923641857109e-05
-4.40425774728964e-05   2.240973205818158e-06   5.679923641857109e-05
-4.40425774728964e-05   2.240973205818158e-06   5.679923641857109e-05
-2.692855858568721e-05   -1.3265085334891106e-05   7.601896610616085e-05
-2.692855858568721e-05   -1.3265085334891106e-05   7.601896610616085e-05
-2.692855858568721e-05   -1.3265085334891106e-05   7.601896610616085e-05
-2.692855858568721e-05   -1.3265085334891106e-05   7.601896610616085e-05
-2.696068867328943e-05   1.0852932616606768e-06   4.7650574804854965e-05
-2.696068867328943e-05   1.0852932616606768e-06   4.7650574804854965e-05
-2.696068867328943e-05   1.0852932616606768e-06   4.7650574804854965e-05
-2.696068867328943e-05   1.0852932616606768e-06   4.7650574804854965e-05
-4.400761775096048e-05   -1.0832523605032603e-05   8.32128133876568e-05
-4.400761775096048e-05   -1.0832523605032603e-05   8.32128133876568e-05
-4.400761775096048e-05   -1.0832523605032603e-05   8.32128133876568e-05
-4.400761775096048e-05   -1.0832523605032603e-05   8.32128133876568e-05
-3.528821253332126e-05   -6.553586277055403e-06   6.611310896147187e-05
-3.528821253332126e-05   -6.553586277055403e-06   6.611310896147187e-05
-3.528821253332126e-05   -6.553586277055403e-06   6.611310896147187e-05
-3.528821253332126e-05   -6.553586277055403e-06   6.611310896147187e-05
-4.400761775096051e-05   1.0852932616606768e-06   5.480126492487061e-05
-4.400761775096051e-05   1.0852932616606768e-06   5.480126492487061e-05
-4.400761775096051e-05   1.0852932616606768e-06   5.480126492487061e-05
-4.400761775096051e-05   1.0852932616606768e-06   5.480126492487061e-05
-2.696068867328932e-05   -1.0832523605032603e-05   7.606212326764084e-05
-2.696068867328932e-05   -1.0832523605032603e-05   7.606212326764084e-05
-2.696068867328932e-05   -1.0832523605032603e-05   7.606212326764084e-05
-2.696068867328932e-05   -1.0832523605032603e-05   7.606212326764084e-05
-2.703470158315236e-05   -2.646100125398669e-07   4.915065072313529e-05
-2.703470158315236e-05   -2.646100125398669e-07   4.915065072313529e-05
-2.703470158315236e-05   -2.646100125398669e-07   4.915065072313529e-05
-2.703470158315236e-05   -2.646100125398669e-07   4.915065072313529e-05
-4.457263102023035e-05   -1.1087991544163952e-05   8.487456203723948e-05
-4.457263102023035e-05   -1.1087991544163952e-05   8.487456203723948e-05
-4.457263102023035e-05   -1.1087991544163952e-05   8.487456203723948e-05
-4.457263102023035e-05   -1.1087991544163952e-05   8.487456203723948e-05
-3.500787170711751e-05   -5.7243034322729345e-06   6.571508364824972e-05
-3.500787170711751e-05   -5.7243034322729345e-06   6.571508364824972e-05
-3.500787170711751e-05   -5.7243034322729345e-06   6.571508364824972e-05
-3.500787170711751e-05   -5.7243034322729345e-06   6.571508364824972e-05
-4.457263102023042e-05   -2.646100125398669e-07   5.564467964210983e-05
-4.457263102023042e-05   -2.646100125398669e-07   5.564467964210983e-05
-4.457263102023042e-05   -2.646100125398669e-07   5.564467964210983e-05
-4.457263102023042e-05   -2.646100125398669e-07   5.564467964210983e-05
-2.7034701583152304e-05   -1.1087991544163952e-05   7.838053311826483e-05
-2.7034701583152304e-05   -1.1087991544163952e-05   7.838053311826483e-05
-2.7034701583152304e-05   -1.1087991544163952e-05   7.838053311826483e-05
-2.7034701583152304e-05   -1.1087991544163952e-05   7.838053311826483e-05
-2.6732553689860956e-05   -2.0445322630154375e-06   5.101355354613529e-05
-2.6732553689860956e-05   -2.0445322630154375e-06   5.101355354613529e-05
-2.6732553689860956e-05   -2.0445322630154375e-06   5.101355354613529e-05
-2.6732553689860956e-05   -2.0445322630154375e-06   5.101355354613529e-05
-4.406204374395133e-05   -1.1216088305032322e-05   8.539897059482921e-05
-4.406204374395133e-05   -1.1216088305032322e-05   8.539897059482921e-05
-4.406204374395133e-05   -1.1216088305032322e-05   8.539897059482921e-05
-4.406204374395133e-05   -1.1216088305032322e-05   8.539897059482921e-05
-3.5136964225426225e-05   -6.446143244477056e-06   6.766187102762102e-05
-3.5136964225426225e-05   -6.446143244477056e-06   6.766187102762102e-05
-3.5136964225426225e-05   -6.446143244477056e-06   6.766187102762102e-05
-3.5136964225426225e-05   -6.446143244477056e-06   6.766187102762102e-05
-2.692855858568721e-05   6.180830709142694e-07   5.2432168515756297e-05
-2.692855858568721e-05   6.180830709142694e-07   5.2432168515756297e-05
-2.692855858568721e-05   6.180830709142694e-07   5.2432168515756297e-05
-2.692855858568721e-05   6.180830709142694e-07   5.2432168515756297e-05
-1.9705020395688463e-05   -1.0359409978769074e-05   5.7884903002610854e-05
-1.9705020395688463e-05   -1.0359409978769074e-05   5.7884903002610854e-05
-1.9705020395688463e-05   -1.0359409978769074e-05   5.7884903002610854e-05
-1.9705020395688463e-05   -1.0359409978769074e-05   5.7884903002610854e-05
-1.9504053210453887e-05   -3.642007263627081e-07   4.628490329799907e-05
-1.9504053210453887e-05   -3.642007263627081e-07   4.628490329799907e-05
-1.9504053210453887e-05   -3.642007263627081e-07   4.628490329799907e-05
-1.9504053210453887e-05   -3.642007263627081e-07   4.628490329799907e-05
-2.696068867328932e-05   -1.0174013874595864e-05   6.459851695833185e-05
-2.696068867328932e-05   -1.0174013874595864e-05   6.459851695833185e-05
-2.696068867328932e-05   -1.0174013874595864e-05   6.459851695833185e-05
-2.696068867328932e-05   -1.0174013874595864e-05   6.459851695833185e-05
-2.3127790610156997e-05   -5.241655642280931e-06   5.525093858038937e-05
-2.3127790610156997e-05   -5.241655642280931e-06   5.525093858038937e-05
-2.3127790610156997e-05   -5.241655642280931e-06   5.525093858038937e-05
-2.3127790610156997e-05   -5.241655642280931e-06   5.525093858038937e-05
-2.696068867328932e-05   -3.642007263627081e-07   5.2170791186939135e-05
-2.696068867328932e-05   -3.642007263627081e-07   5.2170791186939135e-05
-2.696068867328932e-05   -3.642007263627081e-07   5.2170791186939135e-05
-2.696068867328932e-05   -3.642007263627081e-07   5.2170791186939135e-05
-1.9504053210453996e-05   -1.0174013874595864e-05   5.8712629069392e-05
-1.9504053210453996e-05   -1.0174013874595864e-05   5.8712629069392e-05
-1.9504053210453996e-05   -1.0174013874595864e-05   5.8712629069392e-05
-1.9504053210453996e-05   -1.0174013874595864e-05   5.8712629069392e-05
-1.9323273857467104e-05   -1.540913689002674e-06   4.740160131867159e-05
-1.9323273857467104e-05   -1.540913689002674e-06   4.740160131867159e-05
-1.9323273857467104e-05   -1.540913689002674e-06   4.740160131867159e-05
-1.9323273857467104e-05   -1.540913689002674e-06   4.740160131867159e-05
-2.7034701583152304e-05   -1.0490325122833538e-05   6.562362772177821e-05
-2.7034701583152304e-05   -1.0490325122833538e-05   6.562362772177821e-05
-2.7034701583152304e-05   -1.0490325122833538e-05   6.562362772177821e-05
-2.7034701583152304e-05   -1.0490325122833538e-05   6.562362772177821e-05
-2.2898578983314265e-05   -5.60299954808466e-06   5.579769471053108e-05
-2.2898578983314265e-05   -5.60299954808466e-06   5.579769471053108e-05
-2.2898578983314265e-05   -5.60299954808466e-06   5.579769471053108e-05
-2.2898578983314265e-05   -5.60299954808466e-06   5.579769471053108e-05
-2.7034701583152304e-05   -1.5409136890024572e-06   5.2771248178970064e-05
-2.7034701583152304e-05   -1.5409136890024572e-06   5.2771248178970064e-05
-2.7034701583152304e-05   -1.5409136890024572e-06   5.2771248178970064e-05
-2.7034701583152304e-05   -1.5409136890024572e-06   5.2771248178970064e-05
-1.9323273857467212e-05   -1.0490325122833538e-05   6.025398086147984e-05
-1.9323273857467212e-05   -1.0490325122833538e-05   6.025398086147984e-05
-1.9323273857467212e-05   -1.0490325122833538e-05   6.025398086147984e-05
-1.9323273857467212e-05   -1.0490325122833538e-05   6.025398086147984e-05
-1.8909423162631026e-05   -2.7263264194975385e-06   4.91269866505909e-05
-1.8909423162631026e-05   -2.7263264194975385e-06   4.91269866505909e-05
-1.8909423162631026e-05   -2.7263264194975385e-06   4.91269866505909e-05
-1.8909423162631026e-05   -2.7263264194975385e-06   4.91269866505909e-05
-2.6732553689860956e-05   -1.0947670454957152e-05   6.709834395058267e-05
-2.6732553689860956e-05   -1.0947670454957152e-05   6.709834395058267e-05
-2.6732553689860956e-05   -1.0947670454957152e-05   6.709834395058267e-05
-2.6732553689860956e-05   -1.0947670454957152e-05   6.709834395058267e-05
-2.2628741622303242e-05   -6.124173412867329e-06   5.736455894606615e-05
-2.2628741622303242e-05   -6.124173412867329e-06   5.736455894606615e-05
-2.2628741622303242e-05   -6.124173412867329e-06   5.736455894606615e-05
-2.2628741622303242e-05   -6.124173412867329e-06   5.736455894606615e-05
-1.9705020395688463e-05   2.802064831266323e-06   3.555290822319641e-05
-1.9705020395688463e-05   2.802064831266323e-06   3.555290822319641e-05
-1.9705020395688463e-05   2.802064831266323e-06   3.555290822319641e-05
-1.9705020395688463e-05   2.802064831266323e-06   3.555290822319641e-05
-1.630407536795317e-05   -4.240100157634871e-06   3.699585094274786e-05
-1.630407536795317e-05   -4.240100157634871e-06   3.699585094274786e-05
-1.630407536795317e-05   -4.240100157634871e-06   3.699585094274786e-05
-1.630407536795317e-05   -4.240100157634871e-06   3.699585094274786e-05
-1.5925209317928842e-05   1.5100045669762772e-06   3.2097435757032916e-05
-1.5925209317928842e-05   1.5100045669762772e-06   3.2097435757032916e-05
-1.5925209317928842e-05   1.5100045669762772e-06   3.2097435757032916e-05
-1.5925209317928842e-05   1.5100045669762772e-06   3.2097435757032916e-05
-1.9504053210453887e-05   -4.973472347843152e-06   4.195226172680022e-05
-1.9504053210453887e-05   -4.973472347843152e-06   4.195226172680022e-05
-1.9504053210453887e-05   -4.973472347843152e-06   4.195226172680022e-05
-1.9504053210453887e-05   -4.973472347843152e-06   4.195226172680022e-05
-1.772798464769247e-05   -9.655540480035633e-07   3.658739647562797e-05
-1.772798464769247e-05   -9.655540480035633e-07   3.658739647562797e-05
-1.772798464769247e-05   -9.655540480035633e-07   3.658739647562797e-05
-1.772798464769247e-05   -9.655540480035633e-07   3.658739647562797e-05
-1.9504053210453887e-05   1.5100045669762772e-06   3.598752190592442e-05
-1.9504053210453887e-05   1.5100045669762772e-06   3.598752190592442e-05
-1.9504053210453887e-05   1.5100045669762772e-06   3.598752190592442e-05
-1.9504053210453887e-05   1.5100045669762772e-06   3.598752190592442e-05
-1.5925209317928842e-05   -4.973472347843152e-06   3.8062175577908714e-05
-1.5925209317928842e-05   -4.973472347843152e-06   3.8062175577908714e-05
-1.5925209317928842e-05   -4.973472347843152e-06   3.8062175577908714e-05
-1.5925209317928842e-05   -4.973472347843152e-06   3.8062175577908714e-05
-1.573793272209795e-05   4.0481683219028425e-07   3.36229197126104e-05
-1.573793272209795e-05   4.0481683219028425e-07   3.36229197126104e-05
-1.573793272209795e-05   4.0481683219028425e-07   3.36229197126104e-05
-1.573793272209795e-05   4.0481683219028425e-07   3.36229197126104e-05
-1.9323273857467104e-05   -5.532655405912309e-06   4.31609716144202e-05
-1.9323273857467104e-05   -5.532655405912309e-06   4.31609716144202e-05
-1.9323273857467104e-05   -5.532655405912309e-06   4.31609716144202e-05
-1.9323273857467104e-05   -5.532655405912309e-06   4.31609716144202e-05
-1.73532357455495e-05   -1.7568611857536783e-06   3.761209822912754e-05
-1.73532357455495e-05   -1.7568611857536783e-06   3.761209822912754e-05
-1.73532357455495e-05   -1.7568611857536783e-06   3.761209822912754e-05
-1.73532357455495e-05   -1.7568611857536783e-06   3.761209822912754e-05
-1.9323273857466995e-05   4.0481683219028425e-07   3.71854030554715e-05
-1.9323273857466995e-05   4.0481683219028425e-07   3.71854030554715e-05
-1.9323273857466995e-05   4.0481683219028425e-07   3.71854030554715e-05
-1.9323273857466995e-05   4.0481683219028425e-07   3.71854030554715e-05
-1.573793272209795e-05   -5.532655405912309e-06   3.9598488271558666e-05
-1.573793272209795e-05   -5.532655405912309e-06   3.9598488271558666e-05
-1.573793272209795e-05   -5.532655405912309e-06   3.9598488271558666e-05
-1.573793272209795e-05   -5.532655405912309e-06   3.9598488271558666e-05
-1.5446785411441085e-05   -7.085107522300949e-07   3.553870878211362e-05
-1.5446785411441085e-05   -7.085107522300949e-07   3.553870878211362e-05
-1.5446785411441085e-05   -7.085107522300949e-07   3.553870878211362e-05
-1.5446785411441085e-05   -7.085107522300949e-07   3.553870878211362e-05
-1.8909423162631026e-05   -6.268549041507816e-06   4.464579467432987e-05
-1.8909423162631026e-05   -6.268549041507816e-06   4.464579467432987e-05
-1.8909423162631026e-05   -6.268549041507816e-06   4.464579467432987e-05
-1.8909423162631026e-05   -6.268549041507816e-06   4.464579467432987e-05
-1.7052525873378574e-05   -2.447713746360448e-06   3.925846468182158e-05
-1.7052525873378574e-05   -2.447713746360448e-06   3.925846468182158e-05
-1.7052525873378574e-05   -2.447713746360448e-06   3.925846468182158e-05
-1.7052525873378574e-05   -2.447713746360448e-06   3.925846468182158e-05
-1.630407536795317e-05   4.590543223956765e-06   7.916986020218555e-06
-1.630407536795317e-05   4.590543223956765e-06   7.916986020218555e-06
-1.630407536795317e-05   4.590543223956765e-06   7.916986020218555e-06
-1.630407536795317e-05   4.590543223956765e-06   7.916986020218555e-06
-9.235991709341832e-06   -4.919265107837089e-07   1.664764361039334e-05
-9.235991709341832e-06   -4.919265107837089e-07   1.664764361039334e-05
-9.235991709341832e-06   -4.919265107837089e-07   1.664764361039334e-05
-9.235991709341832e-06   -4.919265107837089e-07   1.664764361039334e-05
-9.738076220634209e-06   3.67967102614321e-06   7.981018478946458e-06
-9.738076220634209e-06   3.67967102614321e-06   7.981018478946458e-06
-9.738076220634209e-06   3.67967102614321e-06   7.981018478946458e-06
-9.738076220634209e-06   3.67967102614321e-06   7.981018478946458e-06
-1.5925209317928842e-05   -6.785605015810709e-07   2.0907845891072595e-05
-1.5925209317928842e-05   -6.785605015810709e-07   2.0907845891072595e-05
-1.5925209317928842e-05   -6.785605015810709e-07   2.0907845891072595e-05
-1.5925209317928842e-05   -6.785605015810709e-07   2.0907845891072595e-05
-1.2361202130722003e-05   2.355485108513581e-06   1.3147406546337856e-05
-1.2361202130722003e-05   2.355485108513581e-06   1.3147406546337856e-05
-1.2361202130722003e-05   2.355485108513581e-06   1.3147406546337856e-05
-1.2361202130722003e-05   2.355485108513581e-06   1.3147406546337856e-05
-1.5925209317928842e-05   3.67967102614321e-06   1.0595957395580094e-05
-1.5925209317928842e-05   3.67967102614321e-06   1.0595957395580094e-05
-1.5925209317928842e-05   3.67967102614321e-06   1.0595957395580094e-05
-1.5925209317928842e-05   3.67967102614321e-06   1.0595957395580094e-05
-9.738076220634209e-06   -6.785605015810709e-07   1.8292906974437875e-05
-9.738076220634209e-06   -6.785605015810709e-07   1.8292906974437875e-05
-9.738076220634209e-06   -6.785605015810709e-07   1.8292906974437875e-05
-9.738076220634209e-06   -6.785605015810709e-07   1.8292906974437875e-05
-1.0146475228720898e-05   3.083188673375613e-06   1.0440734722669005e-05
-1.0146475228720898e-05   3.083188673375613e-06   1.0440734722669005e-05
-1.0146475228720898e-05   3.083188673375613e-06   1.0440734722669005e-05
-1.0146475228720898e-05   3.083188673375613e-06   1.0440734722669005e-05
-1.573793272209795e-05   -9.33641127519075e-07   2.2169928425500593e-05
-1.573793272209795e-05   -9.33641127519075e-07   2.2169928425500593e-05
-1.573793272209795e-05   -9.33641127519075e-07   2.2169928425500593e-05
-1.573793272209795e-05   -9.33641127519075e-07   2.2169928425500593e-05
-1.2549267676983489e-05   1.9004815213848232e-06   1.5155013094299936e-05
-1.2549267676983489e-05   1.9004815213848232e-06   1.5155013094299936e-05
-1.2549267676983489e-05   1.9004815213848232e-06   1.5155013094299936e-05
-1.2549267676983489e-05   1.9004815213848232e-06   1.5155013094299936e-05
-1.573793272209795e-05   3.083188673375396e-06   1.2850832603205796e-05
-1.573793272209795e-05   3.083188673375396e-06   1.2850832603205796e-05
-1.573793272209795e-05   3.083188673375396e-06   1.2850832603205796e-05
-1.573793272209795e-05   3.083188673375396e-06   1.2850832603205796e-05
-1.0146475228720898e-05   -9.33641127519075e-07   1.9759830544963802e-05
-1.0146475228720898e-05   -9.33641127519075e-07   1.9759830544963802e-05
-1.0146475228720898e-05   -9.33641127519075e-07   1.9759830544963802e-05
-1.0146475228720898e-05   -9.33641127519075e-07   1.9759830544963802e-05
-1.1200593945299249e-05   1.8937541391575788e-06   1.4834894287781876e-05
-1.1200593945299249e-05   1.8937541391575788e-06   1.4834894287781876e-05
-1.1200593945299249e-05   1.8937541391575788e-06   1.4834894287781876e-05
-1.1200593945299249e-05   1.8937541391575788e-06   1.4834894287781876e-05
-1.5446785411441085e-05   -1.23494320643301e-06   2.3789098472039088e-05
-1.5446785411441085e-05   -1.23494320643301e-06   2.3789098472039088e-05
-1.5446785411441085e-05   -1.23494320643301e-06   2.3789098472039088e-05
-1.5446785411441085e-05   -1.23494320643301e-06   2.3789098472039088e-05
-1.2553112265895365e-05   1.596992066182001e-06   1.7267148732561053e-05
-1.2553112265895365e-05   1.596992066182001e-06   1.7267148732561053e-05
-1.2553112265895365e-05   1.596992066182001e-06   1.7267148732561053e-05
-1.2553112265895365e-05   1.596992066182001e-06   1.7267148732561053e-05
-0.00015239144995690392   1.2032964851538654e-05   6.397467072956657e-05
-0.00015239144995690392   1.2032964851538654e-05   6.397467072956657e-05
-0.00015239144995690392   1.2032964851538654e-05   6.397467072956657e-05
-0.00015239144995690392   1.2032964851538654e-05   6.397467072956657e-05
-3.597872583500748e-05   -7.28365735734545e-05   0.0002070741545443982
-3.597872583500748e-05   -7.28365735734545e-05   0.0002070741545443982
-3.597872583500748e-05   -7.28365735734545e-05   0.0002070741545443982
-3.597872583500748e-05   -7.28365735734545e-05   0.0002070741545443982
-4.2125074944383796e-05   4.974995195387399e-06   3.525142702065547e-05
-4.2125074944383796e-05   4.974995195387399e-06   3.525142702065547e-05
-4.2125074944383796e-05   4.974995195387399e-06   3.525142702065547e-05
-4.2125074944383796e-05   4.974995195387399e-06   3.525142702065547e-05
-0.00013898433704985226   -5.636598550591345e-05   0.00023348811895054973
-0.00013898433704985226   -5.636598550591345e-05   0.00023348811895054973
-0.00013898433704985226   -5.636598550591345e-05   0.00023348811895054973
-0.00013898433704985226   -5.636598550591345e-05   0.00023348811895054973
-9.270762412153653e-05   -2.8072718425927552e-05   0.00013938430382203203
-9.270762412153653e-05   -2.8072718425927552e-05   0.00013938430382203203
-9.270762412153653e-05   -2.8072718425927552e-05   0.00013938430382203203
-9.270762412153653e-05   -2.8072718425927552e-05   0.00013938430382203203
-0.00013898433704985201   4.974995195387399e-06   7.205601544143592e-05
-0.00013898433704985201   4.974995195387399e-06   7.205601544143592e-05
-0.00013898433704985201   4.974995195387399e-06   7.205601544143592e-05
-0.00013898433704985201   4.974995195387399e-06   7.205601544143592e-05
-4.212507494438385e-05   -5.636598550591345e-05   0.00019668353052976933
-4.212507494438385e-05   -5.636598550591345e-05   0.00019668353052976933
-4.212507494438385e-05   -5.636598550591345e-05   0.00019668353052976933
-4.212507494438385e-05   -5.636598550591345e-05   0.00019668353052976933
-4.30252411159659e-05   3.6055818685105717e-06   3.872773998254248e-05
-4.30252411159659e-05   3.6055818685105717e-06   3.872773998254248e-05
-4.30252411159659e-05   3.6055818685105717e-06   3.872773998254248e-05
-4.30252411159659e-05   3.6055818685105717e-06   3.872773998254248e-05
-0.00013112402664554573   -4.839670336129799e-05   0.0002167604203363936
-0.00013112402664554573   -4.839670336129799e-05   0.0002167604203363936
-0.00013112402664554573   -4.839670336129799e-05   0.0002167604203363936
-0.00013112402664554573   -4.839670336129799e-05   0.0002167604203363936
-8.989359739835915e-05   -2.656991791865612e-05   0.00013494696699216434
-8.989359739835915e-05   -2.656991791865612e-05   0.00013494696699216434
-8.989359739835915e-05   -2.656991791865612e-05   0.00013494696699216434
-8.989359739835915e-05   -2.656991791865612e-05   0.00013494696699216434
-0.0001311240266455455   3.6055818685105717e-06   6.992911112042746e-05
-0.0001311240266455455   3.6055818685105717e-06   6.992911112042746e-05
-0.0001311240266455455   3.6055818685105717e-06   6.992911112042746e-05
-0.0001311240266455455   3.6055818685105717e-06   6.992911112042746e-05
-4.302524111596598e-05   -4.839670336129799e-05   0.00018555904919850843
-4.302524111596598e-05   -4.839670336129799e-05   0.00018555904919850843
-4.302524111596598e-05   -4.839670336129799e-05   0.00018555904919850843
-4.302524111596598e-05   -4.839670336129799e-05   0.00018555904919850843
-4.702250965305657e-05   -2.1969648097296037e-06   4.854510681394998e-05
-4.702250965305657e-05   -2.1969648097296037e-06   4.854510681394998e-05
-4.702250965305657e-05   -2.1969648097296037e-06   4.854510681394998e-05
-4.702250965305657e-05   -2.1969648097296037e-06   4.854510681394998e-05
-0.00012106589952249805   -3.783461117611473e-05   0.00019333334441618325
-0.00012106589952249805   -3.783461117611473e-05   0.00019333334441618325
-0.00012106589952249805   -3.783461117611473e-05   0.00019333334441618325
-0.00012106589952249805   -3.783461117611473e-05   0.00019333334441618325
-8.64095882632676e-05   -2.4514805853878096e-05   0.00012758094245745726
-8.64095882632676e-05   -2.4514805853878096e-05   0.00012758094245745726
-8.64095882632676e-05   -2.4514805853878096e-05   0.00012758094245745726
-8.64095882632676e-05   -2.4514805853878096e-05   0.00012758094245745726
-3.59787258350074e-05   -1.3265085334891106e-05   3.605186193704035e-05
-3.59787258350074e-05   -1.3265085334891106e-05   3.605186193704035e-05
-3.59787258350074e-05   -1.3265085334891106e-05   3.605186193704035e-05
-3.59787258350074e-05   -1.3265085334891106e-05   3.605186193704035e-05
-1.257767163005501e-05   -2.212892979918349e-05   6.973531226671923e-05
-1.257767163005501e-05   -2.212892979918349e-05   6.973531226671923e-05
-1.257767163005501e-05   -2.212892979918349e-05   6.973531226671923e-05
-1.257767163005501e-05   -2.212892979918349e-05   6.973531226671923e-05
-1.3988960094666898e-05   -1.0832523605032712e-05   3.246425467437583e-05
-1.3988960094666898e-05   -1.0832523605032712e-05   3.246425467437583e-05
-1.3988960094666898e-05   -1.0832523605032712e-05   3.246425467437583e-05
-1.3988960094666898e-05   -1.0832523605032712e-05   3.246425467437583e-05
-4.212507494438385e-05   -2.9527319652367506e-05   9.057465705230466e-05
-4.212507494438385e-05   -2.9527319652367506e-05   9.057465705230466e-05
-4.212507494438385e-05   -2.9527319652367506e-05   9.057465705230466e-05
-4.212507494438385e-05   -2.9527319652367506e-05   9.057465705230466e-05
-2.4803967329834533e-05   -1.5538131730523407e-05   5.33126316082823e-05
-2.4803967329834533e-05   -1.5538131730523407e-05   5.33126316082823e-05
-2.4803967329834533e-05   -1.5538131730523407e-05   5.33126316082823e-05
-2.4803967329834533e-05   -1.5538131730523407e-05   5.33126316082823e-05
-4.212507494438377e-05   -1.0832523605032712e-05   4.3681132302776215e-05
-4.212507494438377e-05   -1.0832523605032712e-05   4.3681132302776215e-05
-4.212507494438377e-05   -1.0832523605032712e-05   4.3681132302776215e-05
-4.212507494438377e-05   -1.0832523605032712e-05   4.3681132302776215e-05
-1.3988960094666898e-05   -2.9527319652367506e-05   7.935777942390373e-05
-1.3988960094666898e-05   -2.9527319652367506e-05   7.935777942390373e-05
-1.3988960094666898e-05   -2.9527319652367506e-05   7.935777942390373e-05
-1.3988960094666898e-05   -2.9527319652367506e-05   7.935777942390373e-05
-1.5193353370274328e-05   -1.108799154416406e-05   3.64952198149824e-05
-1.5193353370274328e-05   -1.108799154416406e-05   3.64952198149824e-05
-1.5193353370274328e-05   -1.108799154416406e-05   3.64952198149824e-05
-1.5193353370274328e-05   -1.108799154416406e-05   3.64952198149824e-05
-4.302524111596598e-05   -2.6900569821924004e-05   9.236924635779077e-05
-4.302524111596598e-05   -2.6900569821924004e-05   9.236924635779077e-05
-4.302524111596598e-05   -2.6900569821924004e-05   9.236924635779077e-05
-4.302524111596598e-05   -2.6900569821924004e-05   9.236924635779077e-05
-2.790042601768665e-05   -1.9056262813433114e-05   6.245463698889781e-05
-2.790042601768665e-05   -1.9056262813433114e-05   6.245463698889781e-05
-2.790042601768665e-05   -1.9056262813433114e-05   6.245463698889781e-05
-2.790042601768665e-05   -1.9056262813433114e-05   6.245463698889781e-05
-4.30252411159659e-05   -1.108799154416406e-05   4.598276678163837e-05
-4.30252411159659e-05   -1.108799154416406e-05   4.598276678163837e-05
-4.30252411159659e-05   -1.108799154416406e-05   4.598276678163837e-05
-4.30252411159659e-05   -1.108799154416406e-05   4.598276678163837e-05
-1.5193353370274328e-05   -2.6900569821924004e-05   8.288169939113483e-05
-1.5193353370274328e-05   -2.6900569821924004e-05   8.288169939113483e-05
-1.5193353370274328e-05   -2.6900569821924004e-05   8.288169939113483e-05
-1.5193353370274328e-05   -2.6900569821924004e-05   8.288169939113483e-05
-1.7142202258159215e-05   -1.1216088305032322e-05   3.986929718473385e-05
-1.7142202258159215e-05   -1.1216088305032322e-05   3.986929718473385e-05
-1.7142202258159215e-05   -1.1216088305032322e-05   3.986929718473385e-05
-1.7142202258159215e-05   -1.1216088305032322e-05   3.986929718473385e-05
-4.70225096530566e-05   -2.5254863197175948e-05   9.809307444484872e-05
-4.70225096530566e-05   -2.5254863197175948e-05   9.809307444484872e-05
-4.70225096530566e-05   -2.5254863197175948e-05   9.809307444484872e-05
-4.70225096530566e-05   -2.5254863197175948e-05   9.809307444484872e-05
-2.9672313248936864e-05   -1.738939913903441e-05   6.445680200309762e-05
-2.9672313248936864e-05   -1.738939913903441e-05   6.445680200309762e-05
-2.9672313248936864e-05   -1.738939913903441e-05   6.445680200309762e-05
-2.9672313248936864e-05   -1.738939913903441e-05   6.445680200309762e-05
-1.257767163005501e-05   -1.0359409978769074e-05   1.918598798472497e-05
-1.257767163005501e-05   -1.0359409978769074e-05   1.918598798472497e-05
-1.257767163005501e-05   -1.0359409978769074e-05   1.918598798472497e-05
-1.257767163005501e-05   -1.0359409978769074e-05   1.918598798472497e-05
-6.989684237968365e-06   -5.92779725085107e-06   3.1158267941619835e-05
-6.989684237968365e-06   -5.92779725085107e-06   3.1158267941619835e-05
-6.989684237968365e-06   -5.92779725085107e-06   3.1158267941619835e-05
-6.989684237968365e-06   -5.92779725085107e-06   3.1158267941619835e-05
-6.6866061443467345e-06   -1.0174013874595864e-05   2.239933899664693e-05
-6.6866061443467345e-06   -1.0174013874595864e-05   2.239933899664693e-05
-6.6866061443467345e-06   -1.0174013874595864e-05   2.239933899664693e-05
-6.6866061443467345e-06   -1.0174013874595864e-05   2.239933899664693e-05
-1.3988960094666898e-05   -7.842862821962624e-06   3.317123828226688e-05
-1.3988960094666898e-05   -7.842862821962624e-06   3.317123828226688e-05
-1.3988960094666898e-05   -7.842862821962624e-06   3.317123828226688e-05
-1.3988960094666898e-05   -7.842862821962624e-06   3.317123828226688e-05
-9.427074962868842e-06   -8.158541428781121e-06   2.5757503560027502e-05
-9.427074962868842e-06   -8.158541428781121e-06   2.5757503560027502e-05
-9.427074962868842e-06   -8.158541428781121e-06   2.5757503560027502e-05
-9.427074962868842e-06   -8.158541428781121e-06   2.5757503560027502e-05
-1.3988960094666898e-05   -1.0174013874595864e-05   2.10006483650669e-05
-1.3988960094666898e-05   -1.0174013874595864e-05   2.10006483650669e-05
-1.3988960094666898e-05   -1.0174013874595864e-05   2.10006483650669e-05
-1.3988960094666898e-05   -1.0174013874595864e-05   2.10006483650669e-05
-6.6866061443467345e-06   -7.842862821962624e-06   3.4569928913846804e-05
-6.6866061443467345e-06   -7.842862821962624e-06   3.4569928913846804e-05
-6.6866061443467345e-06   -7.842862821962624e-06   3.4569928913846804e-05
-6.6866061443467345e-06   -7.842862821962624e-06   3.4569928913846804e-05
-6.666259831159091e-06   -1.0490325122833538e-05   2.392859954407616e-05
-6.666259831159091e-06   -1.0490325122833538e-05   2.392859954407616e-05
-6.666259831159091e-06   -1.0490325122833538e-05   2.392859954407616e-05
-6.666259831159091e-06   -1.0490325122833538e-05   2.392859954407616e-05
-1.5193353370274328e-05   -1.0173183246865773e-05   3.7950136983687225e-05
-1.5193353370274328e-05   -1.0173183246865773e-05   3.7950136983687225e-05
-1.5193353370274328e-05   -1.0173183246865773e-05   3.7950136983687225e-05
-1.5193353370274328e-05   -1.0173183246865773e-05   3.7950136983687225e-05
-9.956811549424082e-06   -8.922205775898132e-06   2.8471980799689802e-05
-9.956811549424082e-06   -8.922205775898132e-06   2.8471980799689802e-05
-9.956811549424082e-06   -8.922205775898132e-06   2.8471980799689802e-05
-9.956811549424082e-06   -8.922205775898132e-06   2.8471980799689802e-05
-1.5193353370274328e-05   -1.0490325122833538e-05   2.3738314418495507e-05
-1.5193353370274328e-05   -1.0490325122833538e-05   2.3738314418495507e-05
-1.5193353370274328e-05   -1.0490325122833538e-05   2.3738314418495507e-05
-1.5193353370274328e-05   -1.0490325122833538e-05   2.3738314418495507e-05
-6.666259831159091e-06   -1.0173183246865773e-05   3.814042210926799e-05
-6.666259831159091e-06   -1.0173183246865773e-05   3.814042210926799e-05
-6.666259831159091e-06   -1.0173183246865773e-05   3.814042210926799e-05
-6.666259831159091e-06   -1.0173183246865773e-05   3.814042210926799e-05
-6.71052560552313e-06   -1.094767045495726e-05   2.620463825929193e-05
-6.71052560552313e-06   -1.094767045495726e-05   2.620463825929193e-05
-6.71052560552313e-06   -1.094767045495726e-05   2.620463825929193e-05
-6.71052560552313e-06   -1.094767045495726e-05   2.620463825929193e-05
-1.7142202258159215e-05   -1.2392613632300042e-05   4.445773192009053e-05
-1.7142202258159215e-05   -1.2392613632300042e-05   4.445773192009053e-05
-1.7142202258159215e-05   -1.2392613632300042e-05   4.445773192009053e-05
-1.7142202258159215e-05   -1.2392613632300042e-05   4.445773192009053e-05
-1.0552767336537969e-05   -9.772539453123082e-06   3.1903295876548965e-05
-1.0552767336537969e-05   -9.772539453123082e-06   3.1903295876548965e-05
-1.0552767336537969e-05   -9.772539453123082e-06   3.1903295876548965e-05
-1.0552767336537969e-05   -9.772539453123082e-06   3.1903295876548965e-05
-6.989684237968365e-06   -4.240100157634871e-06   5.181202554953648e-06
-6.989684237968365e-06   -4.240100157634871e-06   5.181202554953648e-06
-6.989684237968365e-06   -4.240100157634871e-06   5.181202554953648e-06
-6.989684237968365e-06   -4.240100157634871e-06   5.181202554953648e-06
-5.1302111823488435e-06   1.310769713924013e-06   1.1610846237254972e-05
-5.1302111823488435e-06   1.310769713924013e-06   1.1610846237254972e-05
-5.1302111823488435e-06   1.310769713924013e-06   1.1610846237254972e-05
-5.1302111823488435e-06   1.310769713924013e-06   1.1610846237254972e-05
-4.125375405633885e-06   -4.973472347843152e-06   9.01119285114842e-06
-4.125375405633885e-06   -4.973472347843152e-06   9.01119285114842e-06
-4.125375405633885e-06   -4.973472347843152e-06   9.01119285114842e-06
-4.125375405633885e-06   -4.973472347843152e-06   9.01119285114842e-06
-6.6866061443467345e-06   6.468963139791398e-07   9.907689551909467e-06
-6.6866061443467345e-06   6.468963139791398e-07   9.907689551909467e-06
-6.6866061443467345e-06   6.468963139791398e-07   9.907689551909467e-06
-6.6866061443467345e-06   6.468963139791398e-07   9.907689551909467e-06
-5.381450180290013e-06   -1.904237787885574e-06   9.26311007293343e-06
-5.381450180290013e-06   -1.904237787885574e-06   9.26311007293343e-06
-5.381450180290013e-06   -1.904237787885574e-06   9.26311007293343e-06
-5.381450180290013e-06   -1.904237787885574e-06   9.26311007293343e-06
-6.6866061443467345e-06   -4.973472347843152e-06   5.638971654054934e-06
-6.6866061443467345e-06   -4.973472347843152e-06   5.638971654054934e-06
-6.6866061443467345e-06   -4.973472347843152e-06   5.638971654054934e-06
-6.6866061443467345e-06   -4.973472347843152e-06   5.638971654054934e-06
-4.125375405633885e-06   6.468963139791398e-07   1.3279910749002845e-05
-4.125375405633885e-06   6.468963139791398e-07   1.3279910749002845e-05
-4.125375405633885e-06   6.468963139791398e-07   1.3279910749002845e-05
-4.125375405633885e-06   6.468963139791398e-07   1.3279910749002845e-05
-3.5630039862397708e-06   -5.532655405912309e-06   9.896464923221139e-06
-3.5630039862397708e-06   -5.532655405912309e-06   9.896464923221139e-06
-3.5630039862397708e-06   -5.532655405912309e-06   9.896464923221139e-06
-3.5630039862397708e-06   -5.532655405912309e-06   9.896464923221139e-06
-6.666259831159091e-06   -4.311976955721894e-07   1.2007683371881945e-05
-6.666259831159091e-06   -4.311976955721894e-07   1.2007683371881945e-05
-6.666259831159091e-06   -4.311976955721894e-07   1.2007683371881945e-05
-6.666259831159091e-06   -4.311976955721894e-07   1.2007683371881945e-05
-4.853799223144726e-06   -2.4579468252077354e-06   1.0202965169639477e-05
-4.853799223144726e-06   -2.4579468252077354e-06   1.0202965169639477e-05
-4.853799223144726e-06   -2.4579468252077354e-06   1.0202965169639477e-05
-4.853799223144726e-06   -2.4579468252077354e-06   1.0202965169639477e-05
-6.666259831159091e-06   -5.532655405912309e-06   6.835590297016737e-06
-6.666259831159091e-06   -5.532655405912309e-06   6.835590297016737e-06
-6.666259831159091e-06   -5.532655405912309e-06   6.835590297016737e-06
-6.666259831159091e-06   -5.532655405912309e-06   6.835590297016737e-06
-3.5630039862397708e-06   -4.311976955721894e-07   1.5068557998085914e-05
-3.5630039862397708e-06   -4.311976955721894e-07   1.5068557998085914e-05
-3.5630039862397708e-06   -4.311976955721894e-07   1.5068557998085914e-05
-3.5630039862397708e-06   -4.311976955721894e-07   1.5068557998085914e-05
-2.698807778205633e-06   -6.268549041507816e-06   1.0839449422195323e-05
-2.698807778205633e-06   -6.268549041507816e-06   1.0839449422195323e-05
-2.698807778205633e-06   -6.268549041507816e-06   1.0839449422195323e-05
-2.698807778205633e-06   -6.268549041507816e-06   1.0839449422195323e-05
-6.71052560552313e-06   -2.677625678372978e-06   1.537109178317668e-05
-6.71052560552313e-06   -2.677625678372978e-06   1.537109178317668e-05
-6.71052560552313e-06   -2.677625678372978e-06   1.537109178317668e-05
-6.71052560552313e-06   -2.677625678372978e-06   1.537109178317668e-05
-4.411381735696448e-06   -3.3172531443541884e-06   1.1922961813055346e-05
-4.411381735696448e-06   -3.3172531443541884e-06   1.1922961813055346e-05
-4.411381735696448e-06   -3.3172531443541884e-06   1.1922961813055346e-05
-4.411381735696448e-06   -3.3172531443541884e-06   1.1922961813055346e-05
-5.1302111823488435e-06   -4.919265107836005e-07   -8.787001013621596e-06
-5.1302111823488435e-06   -4.919265107836005e-07   -8.787001013621596e-06
-5.1302111823488435e-06   -4.919265107836005e-07   -8.787001013621596e-06
-5.1302111823488435e-06   -4.919265107836005e-07   -8.787001013621596e-06
-8.905142383506051e-07   7.602226775287052e-07   -9.695499273037513e-07
-8.905142383506051e-07   7.602226775287052e-07   -9.695499273037513e-07
-8.905142383506051e-07   7.602226775287052e-07   -9.695499273037513e-07
-8.905142383506051e-07   7.602226775287052e-07   -9.695499273037513e-07
9.855854866350905e-08   -6.785605015810709e-07   -6.940795073317931e-06
9.855854866350905e-08   -6.785605015810709e-07   -6.940795073317931e-06
9.855854866350905e-08   -6.785605015810709e-07   -6.940795073317931e-06
9.855854866350905e-08   -6.785605015810709e-07   -6.940795073317931e-06
-4.125375405633885e-06   1.325342435701653e-06   -1.1032469118591424e-06
-4.125375405633885e-06   1.325342435701653e-06   -1.1032469118591424e-06
-4.125375405633885e-06   1.325342435701653e-06   -1.1032469118591424e-06
-4.125375405633885e-06   1.325342435701653e-06   -1.1032469118591424e-06
-2.2964279339293334e-06   3.438214915329812e-07   -3.562580131533013e-06
-2.2964279339293334e-06   3.438214915329812e-07   -3.562580131533013e-06
-2.2964279339293334e-06   3.438214915329812e-07   -3.562580131533013e-06
-2.2964279339293334e-06   3.438214915329812e-07   -3.562580131533013e-06
-4.125375405633885e-06   -6.785605015810709e-07   -8.14313683568824e-06
-4.125375405633885e-06   -6.785605015810709e-07   -8.14313683568824e-06
-4.125375405633885e-06   -6.785605015810709e-07   -8.14313683568824e-06
-4.125375405633885e-06   -6.785605015810709e-07   -8.14313683568824e-06
9.855854866350905e-08   1.325342435701653e-06   9.909485051040785e-08
9.855854866350905e-08   1.325342435701653e-06   9.909485051040785e-08
9.855854866350905e-08   1.325342435701653e-06   9.909485051040785e-08
9.855854866350905e-08   1.325342435701653e-06   9.909485051040785e-08
6.281504442669835e-07   -9.33641127519075e-07   -6.274544925697137e-06
6.281504442669835e-07   -9.33641127519075e-07   -6.274544925697137e-06
6.281504442669835e-07   -9.33641127519075e-07   -6.274544925697137e-06
6.281504442669835e-07   -9.33641127519075e-07   -6.274544925697137e-06
-3.5630039862397708e-06   1.1622755343810236e-06   -5.4683753865966e-07
-3.5630039862397708e-06   1.1622755343810236e-06   -5.4683753865966e-07
-3.5630039862397708e-06   1.1622755343810236e-06   -5.4683753865966e-07
-3.5630039862397708e-06   1.1622755343810236e-06   -5.4683753865966e-07
-1.5598756863008595e-06   2.2679023715878495e-07   -3.324093526890304e-06
-1.5598756863008595e-06   2.2679023715878495e-07   -3.324093526890304e-06
-1.5598756863008595e-06   2.2679023715878495e-07   -3.324093526890304e-06
-1.5598756863008595e-06   2.2679023715878495e-07   -3.324093526890304e-06
-3.5630039862397708e-06   -9.33641127519075e-07   -7.532094922837692e-06
-3.5630039862397708e-06   -9.33641127519075e-07   -7.532094922837692e-06
-3.5630039862397708e-06   -9.33641127519075e-07   -7.532094922837692e-06
-3.5630039862397708e-06   -9.33641127519075e-07   -7.532094922837692e-06
6.281504442672003e-07   1.1622755343810236e-06   7.107124584801363e-07
6.281504442672003e-07   1.1622755343810236e-06   7.107124584801363e-07
6.281504442672003e-07   1.1622755343810236e-06   7.107124584801363e-07
6.281504442672003e-07   1.1622755343810236e-06   7.107124584801363e-07
1.2947391194746e-06   -1.23494320643301e-06   -5.310675660613086e-06
1.2947391194746e-06   -1.23494320643301e-06   -5.310675660613086e-06
1.2947391194746e-06   -1.23494320643301e-06   -5.310675660613086e-06
1.2947391194746e-06   -1.23494320643301e-06   -5.310675660613086e-06
-2.698807778205633e-06   1.0493037034263767e-06   -2.531231039527848e-08
-2.698807778205633e-06   1.0493037034263767e-06   -2.531231039527848e-08
-2.698807778205633e-06   1.0493037034263767e-06   -2.531231039527848e-08
-2.698807778205633e-06   1.0493037034263767e-06   -2.531231039527848e-08
-8.906143791969582e-07   9.045151213942469e-08   -2.4636566606373988e-06
-8.906143791969582e-07   9.045151213942469e-08   -2.4636566606373988e-06
-8.906143791969582e-07   9.045151213942469e-08   -2.4636566606373988e-06
-8.906143791969582e-07   9.045151213942469e-08   -2.4636566606373988e-06
              </DataArray>   
             <DataArray type="Float64" NumberOfComponents="3" Name="Stress" format="ascii">   
-7.887467074743769   -1.9718667686859424   -1.9718667686859424
-7.887467074743769   -1.9718667686859424   -1.9718667686859424
-7.887467074743769   -1.9718667686859424   -1.9718667686859424
-7.887467074743769   -1.9718667686859424   -1.9718667686859424
-4.565093926588093   -0.14318206842566583   -0.09095875308423965
-4.565093926588093   -0.14318206842566583   -0.09095875308423965
-4.565093926588093   -0.14318206842566583   -0.09095875308423965
-4.565093926588093   -0.14318206842566583   -0.09095875308423965
-4.921956507061174   -1.2304891267652935   -1.2304891267652935
-4.921956507061174   -1.2304891267652935   -1.2304891267652935
-4.921956507061174   -1.2304891267652935   -1.2304891267652935
-4.921956507061174   -1.2304891267652935   -1.2304891267652935
-7.602428987148892   -0.623180279428333   -0.237964042826402
-7.602428987148892   -0.623180279428333   -0.237964042826402
-7.602428987148892   -0.623180279428333   -0.237964042826402
-7.602428987148892   -0.623180279428333   -0.237964042826402
-5.962898721931381   -0.9769043651166682   -0.01638618547916504
-5.962898721931381   -0.9769043651166682   -0.01638618547916504
-5.962898721931381   -0.9769043651166682   -0.01638618547916504
-5.962898721931381   -0.9769043651166682   -0.01638618547916504
-8.255777914108844   -2.063944478527211   -2.063944478527211
-8.255777914108844   -2.063944478527211   -2.063944478527211
-8.255777914108844   -2.063944478527211   -2.063944478527211
-8.255777914108844   -2.063944478527211   -2.063944478527211
-4.423433067881028   0.055449584553791786   -0.023810642183649755
-4.423433067881028   0.055449584553791786   -0.023810642183649755
-4.423433067881028   0.055449584553791786   -0.023810642183649755
-4.423433067881028   0.055449584553791786   -0.023810642183649755
-4.936860675233674   -1.2342151688084184   -1.2342151688084184
-4.936860675233674   -1.2342151688084184   -1.2342151688084184
-4.936860675233674   -1.2342151688084184   -1.2342151688084184
-4.936860675233674   -1.2342151688084184   -1.2342151688084184
-7.8590814292536315   -0.629479192298326   -0.34883825883033
-7.8590814292536315   -0.629479192298326   -0.34883825883033
-7.8590814292536315   -0.629479192298326   -0.34883825883033
-7.8590814292536315   -0.629479192298326   -0.34883825883033
-6.1863991975788   -0.9201398969037089   -0.3284192649696816
-6.1863991975788   -0.9201398969037089   -0.3284192649696816
-6.1863991975788   -0.9201398969037089   -0.3284192649696816
-6.1863991975788   -0.9201398969037089   -0.3284192649696816
-8.514908821142127   -2.1287272052855317   -2.1287272052855317
-8.514908821142127   -2.1287272052855317   -2.1287272052855317
-8.514908821142127   -2.1287272052855317   -2.1287272052855317
-8.514908821142127   -2.1287272052855317   -2.1287272052855317
-4.411530790451125   0.13453533707285337   0.02368374922305322
-4.411530790451125   0.13453533707285337   0.02368374922305322
-4.411530790451125   0.13453533707285337   0.02368374922305322
-4.411530790451125   0.13453533707285337   0.02368374922305322
-4.935419387150029   -1.2338548467875072   -1.2338548467875072
-4.935419387150029   -1.2338548467875072   -1.2338548467875072
-4.935419387150029   -1.2338548467875072   -1.2338548467875072
-4.935419387150029   -1.2338548467875072   -1.2338548467875072
-8.317241150613036   -0.5528628711260459   -0.20874622308328683
-8.317241150613036   -0.5528628711260459   -0.20874622308328683
-8.317241150613036   -0.5528628711260459   -0.20874622308328683
-8.317241150613036   -0.5528628711260459   -0.20874622308328683
-6.352626242755119   -0.9061337814195153   -0.5937589636987849
-6.352626242755119   -0.9061337814195153   -0.5937589636987849
-6.352626242755119   -0.9061337814195153   -0.5937589636987849
-6.352626242755119   -0.9061337814195153   -0.5937589636987849
-5.020295291429022   -1.2550738228572555   -1.2550738228572555
-5.020295291429022   -1.2550738228572555   -1.2550738228572555
-5.020295291429022   -1.2550738228572555   -1.2550738228572555
-5.020295291429022   -1.2550738228572555   -1.2550738228572555
-2.093251613143535   -0.13832728195533173   -0.04504306740601706
-2.093251613143535   -0.13832728195533173   -0.04504306740601706
-2.093251613143535   -0.13832728195533173   -0.04504306740601706
-2.093251613143535   -0.13832728195533173   -0.04504306740601706
-2.1987609654722426   -0.5496902413680607   -0.5496902413680607
-2.1987609654722426   -0.5496902413680607   -0.5496902413680607
-2.1987609654722426   -0.5496902413680607   -0.5496902413680607
-2.1987609654722426   -0.5496902413680607   -0.5496902413680607
-4.571378917052693   -0.5370924716634645   -0.1709978318247179
-4.571378917052693   -0.5370924716634645   -0.1709978318247179
-4.571378917052693   -0.5370924716634645   -0.1709978318247179
-4.571378917052693   -0.5370924716634645   -0.1709978318247179
-3.3709234327137305   -0.6382524849865527   0.026511899445719064
-3.3709234327137305   -0.6382524849865527   0.026511899445719064
-3.3709234327137305   -0.6382524849865527   0.026511899445719064
-3.3709234327137305   -0.6382524849865527   0.026511899445719064
-4.921956507061171   -1.2304891267652927   -1.2304891267652927
-4.921956507061171   -1.2304891267652927   -1.2304891267652927
-4.921956507061171   -1.2304891267652927   -1.2304891267652927
-4.921956507061171   -1.2304891267652927   -1.2304891267652927
-1.97584794066451   0.01604184853302021   -0.0008572072304776635
-1.97584794066451   0.01604184853302021   -0.0008572072304776635
-1.97584794066451   0.01604184853302021   -0.0008572072304776635
-1.97584794066451   0.01604184853302021   -0.0008572072304776635
-2.1506964107055775   -0.5376741026763944   -0.5376741026763944
-2.1506964107055775   -0.5376741026763944   -0.5376741026763944
-2.1506964107055775   -0.5376741026763944   -0.5376741026763944
-2.1506964107055775   -0.5376741026763944   -0.5376741026763944
-4.560874609448872   -0.43842595107070903   -0.15007405762211862
-4.560874609448872   -0.43842595107070903   -0.15007405762211862
-4.560874609448872   -0.43842595107070903   -0.15007405762211862
-4.560874609448872   -0.43842595107070903   -0.15007405762211862
-3.324991073017036   -0.5375324592758686   -0.1739538408341511
-3.324991073017036   -0.5375324592758686   -0.1739538408341511
-3.324991073017036   -0.5375324592758686   -0.1739538408341511
-3.324991073017036   -0.5375324592758686   -0.1739538408341511
-4.936860675233674   -1.2342151688084184   -1.2342151688084184
-4.936860675233674   -1.2342151688084184   -1.2342151688084184
-4.936860675233674   -1.2342151688084184   -1.2342151688084184
-4.936860675233674   -1.2342151688084184   -1.2342151688084184
-1.898358071576802   0.1344673884052886   0.05187610188579955
-1.898358071576802   0.1344673884052886   0.05187610188579955
-1.898358071576802   0.1344673884052886   0.05187610188579955
-1.898358071576802   0.1344673884052886   0.05187610188579955
-2.107098925377847   -0.5267747313444617   -0.5267747313444617
-2.107098925377847   -0.5267747313444617   -0.5267747313444617
-2.107098925377847   -0.5267747313444617   -0.5267747313444617
-2.107098925377847   -0.5267747313444617   -0.5267747313444617
-4.528460407948618   -0.33858796323083107   -0.09432683433718414
-4.528460407948618   -0.33858796323083107   -0.09432683433718414
-4.528460407948618   -0.33858796323083107   -0.09432683433718414
-4.528460407948618   -0.33858796323083107   -0.09432683433718414
-3.3425185260088752   -0.4759706509252242   -0.3877128777432359
-3.3425185260088752   -0.4759706509252242   -0.3877128777432359
-3.3425185260088752   -0.4759706509252242   -0.3877128777432359
-3.3425185260088752   -0.4759706509252242   -0.3877128777432359
-2.2850861591902984   -0.5712715397975746   -0.5712715397975746
-2.2850861591902984   -0.5712715397975746   -0.5712715397975746
-2.2850861591902984   -0.5712715397975746   -0.5712715397975746
-2.2850861591902984   -0.5712715397975746   -0.5712715397975746
0.27417161359532527   0.018443288428583046   0.0022021065777697232
0.27417161359532527   0.018443288428583046   0.0022021065777697232
0.27417161359532527   0.018443288428583046   0.0022021065777697232
0.27417161359532527   0.018443288428583046   0.0022021065777697232
0.35467409565487995   0.08866852391371999   0.08866852391371999
0.35467409565487995   0.08866852391371999   0.08866852391371999
0.35467409565487995   0.08866852391371999   0.08866852391371999
0.35467409565487995   0.08866852391371999   0.08866852391371999
-2.0670661433390385   -0.35730487918004095   -0.08360149289005887
-2.0670661433390385   -0.35730487918004095   -0.08360149289005887
-2.0670661433390385   -0.35730487918004095   -0.08360149289005887
-2.0670661433390385   -0.35730487918004095   -0.08360149289005887
-0.883375870401528   -0.22415608105687315   0.15070387200391472
-0.883375870401528   -0.22415608105687315   0.15070387200391472
-0.883375870401528   -0.22415608105687315   0.15070387200391472
-0.883375870401528   -0.22415608105687315   0.15070387200391472
-2.1987609654722426   -0.5496902413680607   -0.5496902413680607
-2.1987609654722426   -0.5496902413680607   -0.5496902413680607
-2.1987609654722426   -0.5496902413680607   -0.5496902413680607
-2.1987609654722426   -0.5496902413680607   -0.5496902413680607
0.3608468686948628   0.15553183700851775   0.05266907601883343
0.3608468686948628   0.15553183700851775   0.05266907601883343
0.3608468686948628   0.15553183700851775   0.05266907601883343
0.3608468686948628   0.15553183700851775   0.05266907601883343
0.3976537919432074   0.09941344798580184   0.09941344798580184
0.3976537919432074   0.09941344798580184   0.09941344798580184
0.3976537919432074   0.09941344798580184   0.09941344798580184
0.3976537919432074   0.09941344798580184   0.09941344798580184
-1.9950172645473072   -0.24087752737317822   -0.056074947188278
-1.9950172645473072   -0.24087752737317822   -0.056074947188278
-1.9950172645473072   -0.24087752737317822   -0.056074947188278
-1.9950172645473072   -0.24087752737317822   -0.056074947188278
-0.8484685545830934   -0.13869041290526402   -0.05116121956987564
-0.8484685545830934   -0.13869041290526402   -0.05116121956987564
-0.8484685545830934   -0.13869041290526402   -0.05116121956987564
-0.8484685545830934   -0.13869041290526402   -0.05116121956987564
-2.1506964107055775   -0.5376741026763944   -0.5376741026763944
-2.1506964107055775   -0.5376741026763944   -0.5376741026763944
-2.1506964107055775   -0.5376741026763944   -0.5376741026763944
-2.1506964107055775   -0.5376741026763944   -0.5376741026763944
0.430334958143366   0.27321204333090954   0.08902068364148372
0.430334958143366   0.27321204333090954   0.08902068364148372
0.430334958143366   0.27321204333090954   0.08902068364148372
0.430334958143366   0.27321204333090954   0.08902068364148372
0.45582289583735897   0.11395572395933974   0.11395572395933974
0.45582289583735897   0.11395572395933974   0.11395572395933974
0.45582289583735897   0.11395572395933974   0.11395572395933974
0.45582289583735897   0.11395572395933974   0.11395572395933974
-1.91658900381552   -0.10194691052857896   0.0009470556512816974
-1.91658900381552   -0.10194691052857896   0.0009470556512816974
-1.91658900381552   -0.10194691052857896   0.0009470556512816974
-1.91658900381552   -0.10194691052857896   0.0009470556512816974
-0.8241982329316664   -0.05630026635142957   -0.25122548985341914
-0.8241982329316664   -0.05630026635142957   -0.25122548985341914
-0.8241982329316664   -0.05630026635142957   -0.25122548985341914
-0.8241982329316664   -0.05630026635142957   -0.25122548985341914
0.3000472606600614   0.07501181516501534   0.07501181516501534
0.3000472606600614   0.07501181516501534   0.07501181516501534
0.3000472606600614   0.07501181516501534   0.07501181516501534
0.3000472606600614   0.07501181516501534   0.07501181516501534
2.864860988485496   0.26272521553996625   0.0877305972644656
2.864860988485496   0.26272521553996625   0.0877305972644656
2.864860988485496   0.26272521553996625   0.0877305972644656
2.864860988485496   0.26272521553996625   0.0877305972644656
3.1094885350265105   0.7773721337566276   0.7773721337566276
3.1094885350265105   0.7773721337566276   0.7773721337566276
3.1094885350265105   0.7773721337566276   0.7773721337566276
3.1094885350265105   0.7773721337566276   0.7773721337566276
0.27031489848124435   -0.20183420325831747   -0.04262473478242619
0.27031489848124435   -0.20183420325831747   -0.04262473478242619
0.27031489848124435   -0.20183420325831747   -0.04262473478242619
0.27031489848124435   -0.20183420325831747   -0.04262473478242619
1.6344065406917103   0.20342055766476783   0.29715660549899625
1.6344065406917103   0.20342055766476783   0.29715660549899625
1.6344065406917103   0.20342055766476783   0.29715660549899625
1.6344065406917103   0.20342055766476783   0.29715660549899625
0.3546740956548812   0.0886685239137203   0.0886685239137203
0.3546740956548812   0.0886685239137203   0.0886685239137203
0.3546740956548812   0.0886685239137203   0.0886685239137203
0.3546740956548812   0.0886685239137203   0.0886685239137203
2.8975666081335922   0.35930667686530865   0.13582795618335658
2.8975666081335922   0.35930667686530865   0.13582795618335658
2.8975666081335922   0.35930667686530865   0.13582795618335658
2.8975666081335922   0.35930667686530865   0.13582795618335658
3.0950222778140275   0.7737555694535069   0.7737555694535069
3.0950222778140275   0.7737555694535069   0.7737555694535069
3.0950222778140275   0.7737555694535069   0.7737555694535069
3.0950222778140275   0.7737555694535069   0.7737555694535069
0.34024966292520414   -0.08803084715134474   -0.00016290196707118704
0.34024966292520414   -0.08803084715134474   -0.00016290196707118704
0.34024966292520414   -0.08803084715134474   -0.00016290196707118704
0.34024966292520414   -0.08803084715134474   -0.00016290196707118704
1.621174684110551   0.2665361425771725   0.07752043767053875
1.621174684110551   0.2665361425771725   0.07752043767053875
1.621174684110551   0.2665361425771725   0.07752043767053875
1.621174684110551   0.2665361425771725   0.07752043767053875
0.39765379194320777   0.09941344798580194   0.09941344798580194
0.39765379194320777   0.09941344798580194   0.09941344798580194
0.39765379194320777   0.09941344798580194   0.09941344798580194
0.39765379194320777   0.09941344798580194   0.09941344798580194
2.911274822167648   0.45996794768798455   0.1688059129871314
2.911274822167648   0.45996794768798455   0.1688059129871314
2.911274822167648   0.45996794768798455   0.1688059129871314
2.911274822167648   0.45996794768798455   0.1688059129871314
3.153859732035056   0.788464933008764   0.788464933008764
3.153859732035056   0.788464933008764   0.788464933008764
3.153859732035056   0.788464933008764   0.788464933008764
3.153859732035056   0.788464933008764   0.788464933008764
0.43222434085460026   0.06263543457277808   0.04728323843210429
0.43222434085460026   0.06263543457277808   0.04728323843210429
0.43222434085460026   0.06263543457277808   0.04728323843210429
0.43222434085460026   0.06263543457277808   0.04728323843210429
1.6452126687886457   0.3612959140270783   -0.12613799903493753
1.6452126687886457   0.3612959140270783   -0.12613799903493753
1.6452126687886457   0.3612959140270783   -0.12613799903493753
1.6452126687886457   0.3612959140270783   -0.12613799903493753
3.1052998065828996   0.7763249516457249   0.7763249516457249
3.1052998065828996   0.7763249516457249   0.7763249516457249
3.1052998065828996   0.7763249516457249   0.7763249516457249
3.1052998065828996   0.7763249516457249   0.7763249516457249
6.434615598996422   0.4901193384560182   0.16671561811226035
6.434615598996422   0.4901193384560182   0.16671561811226035
6.434615598996422   0.4901193384560182   0.16671561811226035
6.434615598996422   0.4901193384560182   0.16671561811226035
6.575788120738   1.6439470301845   1.6439470301845
6.575788120738   1.6439470301845   1.6439470301845
6.575788120738   1.6439470301845   1.6439470301845
6.575788120738   1.6439470301845   1.6439470301845
2.763726529641589   -0.1575203514992014   -0.01654540791214959
2.763726529641589   -0.1575203514992014   -0.01654540791214959
2.763726529641589   -0.1575203514992014   -0.01654540791214959
2.763726529641589   -0.1575203514992014   -0.01654540791214959
4.590059035099526   0.6492562217784346   0.5185911172471757
4.590059035099526   0.6492562217784346   0.5185911172471757
4.590059035099526   0.6492562217784346   0.5185911172471757
4.590059035099526   0.6492562217784346   0.5185911172471757
3.109488535026508   0.777372133756627   0.777372133756627
3.109488535026508   0.777372133756627   0.777372133756627
3.109488535026508   0.777372133756627   0.777372133756627
3.109488535026508   0.777372133756627   0.777372133756627
6.0933322722205725   0.5723607017961826   0.3032541159857801
6.0933322722205725   0.5723607017961826   0.3032541159857801
6.0933322722205725   0.5723607017961826   0.3032541159857801
6.0933322722205725   0.5723607017961826   0.3032541159857801
6.377983659720309   1.5944959149300773   1.5944959149300773
6.377983659720309   1.5944959149300773   1.5944959149300773
6.377983659720309   1.5944959149300773   1.5944959149300773
6.377983659720309   1.5944959149300773   1.5944959149300773
2.7723082109892996   -0.0874784471650516   0.021419251948425228
2.7723082109892996   -0.0874784471650516   0.021419251948425228
2.7723082109892996   -0.0874784471650516   0.021419251948425228
2.7723082109892996   -0.0874784471650516   0.021419251948425228
4.452638990311409   0.6676463059011014   0.24873620747561187
4.452638990311409   0.6676463059011014   0.24873620747561187
4.452638990311409   0.6676463059011014   0.24873620747561187
4.452638990311409   0.6676463059011014   0.24873620747561187
3.0950222778140275   0.7737555694535069   0.7737555694535069
3.0950222778140275   0.7737555694535069   0.7737555694535069
3.0950222778140275   0.7737555694535069   0.7737555694535069
3.0950222778140275   0.7737555694535069   0.7737555694535069
5.895918776705148   0.5739110821211053   0.20475633266334559
5.895918776705148   0.5739110821211053   0.20475633266334559
5.895918776705148   0.5739110821211053   0.20475633266334559
5.895918776705148   0.5739110821211053   0.20475633266334559
6.084311380266691   1.5210778450666727   1.5210778450666727
6.084311380266691   1.5210778450666727   1.5210778450666727
6.084311380266691   1.5210778450666727   1.5210778450666727
6.084311380266691   1.5210778450666727   1.5210778450666727
2.8737352147891135   0.08916906484499032   0.08713821494282567
2.8737352147891135   0.08916906484499032   0.08713821494282567
2.8737352147891135   0.08916906484499032   0.08713821494282567
2.8737352147891135   0.08916906484499032   0.08713821494282567
4.26240292578689   0.7234880283375534   -0.06497413008474409
4.26240292578689   0.7234880283375534   -0.06497413008474409
4.26240292578689   0.7234880283375534   -0.06497413008474409
4.26240292578689   0.7234880283375534   -0.06497413008474409
-6.243806838873511   -0.4469308455448302   0.06901027360537237
-6.243806838873511   -0.4469308455448302   0.06901027360537237
-6.243806838873511   -0.4469308455448302   0.06901027360537237
-6.243806838873511   -0.4469308455448302   0.06901027360537237
-3.9730181253397427   -0.09044290592098647   -0.025245704274612757
-3.9730181253397427   -0.09044290592098647   -0.025245704274612757
-3.9730181253397427   -0.09044290592098647   -0.025245704274612757
-3.9730181253397427   -0.09044290592098647   -0.025245704274612757
-4.000971696208036   0.16125459235468564   0.08275302514784211
-4.000971696208036   0.16125459235468564   0.08275302514784211
-4.000971696208036   0.16125459235468564   0.08275302514784211
-4.000971696208036   0.16125459235468564   0.08275302514784211
-6.337290043492998   -0.4316399326516901   -0.07447536775832611
-6.337290043492998   -0.4316399326516901   -0.07447536775832611
-6.337290043492998   -0.4316399326516901   -0.07447536775832611
-6.337290043492998   -0.4316399326516901   -0.07447536775832611
-4.936427491326625   -0.16819783861280402   -0.018911410933940165
-4.936427491326625   -0.16819783861280402   -0.018911410933940165
-4.936427491326625   -0.16819783861280402   -0.018911410933940165
-4.936427491326625   -0.16819783861280402   -0.018911410933940165
-6.291804372665887   -0.3076666143511215   0.028979668076657306
-6.291804372665887   -0.3076666143511215   0.028979668076657306
-6.291804372665887   -0.3076666143511215   0.028979668076657306
-6.291804372665887   -0.3076666143511215   0.028979668076657306
-4.053168412956715   0.03057022813256227   -0.0475461943733618
-4.053168412956715   0.03057022813256227   -0.0475461943733618
-4.053168412956715   0.03057022813256227   -0.0475461943733618
-4.053168412956715   0.03057022813256227   -0.0475461943733618
-4.006410362399631   0.22971194712386667   0.09444637142664153
-4.006410362399631   0.22971194712386667   0.09444637142664153
-4.006410362399631   0.22971194712386667   0.09444637142664153
-4.006410362399631   0.22971194712386667   0.09444637142664153
-6.376646240859475   -0.3804476743073715   -0.09838277359834635
-6.376646240859475   -0.3804476743073715   -0.09838277359834635
-6.376646240859475   -0.3804476743073715   -0.09838277359834635
-6.376646240859475   -0.3804476743073715   -0.09838277359834635
-5.075890616312557   -0.11287197444193198   -0.04781874575575046
-5.075890616312557   -0.11287197444193198   -0.04781874575575046
-5.075890616312557   -0.11287197444193198   -0.04781874575575046
-5.075890616312557   -0.11287197444193198   -0.04781874575575046
-6.262817021813967   -0.18532960798331488   0.2756452553050704
-6.262817021813967   -0.18532960798331488   0.2756452553050704
-6.262817021813967   -0.18532960798331488   0.2756452553050704
-6.262817021813967   -0.18532960798331488   0.2756452553050704
-4.072663275599944   0.08217018664499998   -0.08927643409601971
-4.072663275599944   0.08217018664499998   -0.08927643409601971
-4.072663275599944   0.08217018664499998   -0.08927643409601971
-4.072663275599944   0.08217018664499998   -0.08927643409601971
-3.9342892171748343   0.3999184994489562   0.17220869635352964
-3.9342892171748343   0.3999184994489562   0.17220869635352964
-3.9342892171748343   0.3999184994489562   0.17220869635352964
-3.9342892171748343   0.3999184994489562   0.17220869635352964
-6.20182490211741   -0.30755720274268294   -0.16124881081702597
-6.20182490211741   -0.30755720274268294   -0.16124881081702597
-6.20182490211741   -0.30755720274268294   -0.16124881081702597
-6.20182490211741   -0.30755720274268294   -0.16124881081702597
-4.882816707805039   0.044916098839272056   0.10799100112333404
-4.882816707805039   0.044916098839272056   0.10799100112333404
-4.882816707805039   0.044916098839272056   0.10799100112333404
-4.882816707805039   0.044916098839272056   0.10799100112333404
-4.072081531424834   -0.5394048168788323   -0.071600823742221
-4.072081531424834   -0.5394048168788323   -0.071600823742221
-4.072081531424834   -0.5394048168788323   -0.071600823742221
-4.072081531424834   -0.5394048168788323   -0.071600823742221
-1.8743779678694168   -0.04086943923936365   0.020085617358834698
-1.8743779678694168   -0.04086943923936365   0.020085617358834698
-1.8743779678694168   -0.04086943923936365   0.020085617358834698
-1.8743779678694168   -0.04086943923936365   0.020085617358834698
-1.9025400145320508   0.03648730931987082   0.028062170571320266
-1.9025400145320508   0.03648730931987082   0.028062170571320266
-1.9025400145320508   0.03648730931987082   0.028062170571320266
-1.9025400145320508   0.03648730931987082   0.028062170571320266
-4.153201144886917   -0.3949549157433566   -0.12218471014852167
-4.153201144886917   -0.3949549157433566   -0.12218471014852167
-4.153201144886917   -0.3949549157433566   -0.12218471014852167
-4.153201144886917   -0.3949549157433566   -0.12218471014852167
-3.0004074871725535   -0.24322909053753045   -0.06845198183590152
-3.0004074871725535   -0.24322909053753045   -0.06845198183590152
-3.0004074871725535   -0.24322909053753045   -0.06845198183590152
-3.0004074871725535   -0.24322909053753045   -0.06845198183590152
-4.149423318400094   -0.43179323688296534   -0.06645725657481744
-4.149423318400094   -0.43179323688296534   -0.06645725657481744
-4.149423318400094   -0.43179323688296534   -0.06645725657481744
-4.149423318400094   -0.43179323688296534   -0.06645725657481744
-1.8989021798776824   0.080741291600673   0.0019973615623766483
-1.8989021798776824   0.080741291600673   0.0019973615623766483
-1.8989021798776824   0.080741291600673   0.0019973615623766483
-1.8989021798776824   0.080741291600673   0.0019973615623766483
-1.895980000095831   0.13223894224963767   0.03835579962658123
-1.895980000095831   0.13223894224963767   0.03835579962658123
-1.895980000095831   0.13223894224963767   0.03835579962658123
-1.895980000095831   0.13223894224963767   0.03835579962658123
-4.155616316595448   -0.28976802641745725   -0.13210342601111447
-4.155616316595448   -0.28976802641745725   -0.13210342601111447
-4.155616316595448   -0.28976802641745725   -0.13210342601111447
-4.155616316595448   -0.28976802641745725   -0.13210342601111447
-2.995204655746486   -0.13550423125620936   -0.03251825364028196
-2.995204655746486   -0.13550423125620936   -0.03251825364028196
-2.995204655746486   -0.13550423125620936   -0.03251825364028196
-2.995204655746486   -0.13550423125620936   -0.03251825364028196
-4.139478189499094   -0.3269733491214103   -0.014207467825395642
-4.139478189499094   -0.3269733491214103   -0.014207467825395642
-4.139478189499094   -0.3269733491214103   -0.014207467825395642
-4.139478189499094   -0.3269733491214103   -0.014207467825395642
-1.898356487121584   0.18320590502419898   -0.024493598276712242
-1.898356487121584   0.18320590502419898   -0.024493598276712242
-1.898356487121584   0.18320590502419898   -0.024493598276712242
-1.898356487121584   0.18320590502419898   -0.024493598276712242
-1.8648087769162291   0.22848565257339026   0.07738961365153335
-1.8648087769162291   0.22848565257339026   0.07738961365153335
-1.8648087769162291   0.22848565257339026   0.07738961365153335
-1.8648087769162291   0.22848565257339026   0.07738961365153335
-4.111800520646095   -0.1682428342663217   -0.14718648728751568
-4.111800520646095   -0.1682428342663217   -0.14718648728751568
-4.111800520646095   -0.1682428342663217   -0.14718648728751568
-4.111800520646095   -0.1682428342663217   -0.14718648728751568
-2.983356120196209   -0.0335755466258002   0.015008142522946771
-2.983356120196209   -0.0335755466258002   0.015008142522946771
-2.983356120196209   -0.0335755466258002   0.015008142522946771
-2.983356120196209   -0.0335755466258002   0.015008142522946771
-1.9767898772126413   -0.4489650873065819   -0.08387828129008845
-1.9767898772126413   -0.4489650873065819   -0.08387828129008845
-1.9767898772126413   -0.4489650873065819   -0.08387828129008845
-1.9767898772126413   -0.4489650873065819   -0.08387828129008845
0.20817146513997342   0.04735338632028406   0.07701382969055698
0.20817146513997342   0.04735338632028406   0.07701382969055698
0.20817146513997342   0.04735338632028406   0.07701382969055698
0.20817146513997342   0.04735338632028406   0.07701382969055698
0.19823274634507954   0.11368784627416174   0.0060632446968366845
0.19823274634507954   0.11368784627416174   0.0060632446968366845
0.19823274634507954   0.11368784627416174   0.0060632446968366845
0.19823274634507954   0.11368784627416174   0.0060632446968366845
-1.9856881572573604   -0.2976572508870634   -0.05353398284829397
-1.9856881572573604   -0.2976572508870634   -0.05353398284829397
-1.9856881572573604   -0.2976572508870634   -0.05353398284829397
-1.9856881572573604   -0.2976572508870634   -0.05353398284829397
-0.8976054469624002   -0.14863185643118543   -0.02822738289746518
-0.8976054469624002   -0.14863185643118543   -0.02822738289746518
-0.8976054469624002   -0.14863185643118543   -0.02822738289746518
-0.8976054469624002   -0.14863185643118543   -0.02822738289746518
-1.9994074952165444   -0.34250869640315534   -0.07727922712812119
-1.9994074952165444   -0.34250869640315534   -0.07727922712812119
-1.9994074952165444   -0.34250869640315534   -0.07727922712812119
-1.9994074952165444   -0.34250869640315534   -0.07727922712812119
0.21962271899976862   0.16620992648575827   0.060491027758685534
0.21962271899976862   0.16620992648575827   0.060491027758685534
0.21962271899976862   0.16620992648575827   0.060491027758685534
0.21962271899976862   0.16620992648575827   0.060491027758685534
0.21316622474584843   0.21914528738393196   0.035855637304113404
0.21316622474584843   0.21914528738393196   0.035855637304113404
0.21316622474584843   0.21914528738393196   0.035855637304113404
0.21316622474584843   0.21914528738393196   0.035855637304113404
-1.9798541960272955   -0.18202911482785417   -0.06674712295325143
-1.9798541960272955   -0.18202911482785417   -0.06674712295325143
-1.9798541960272955   -0.18202911482785417   -0.06674712295325143
-1.9798541960272955   -0.18202911482785417   -0.06674712295325143
-0.8840933433603874   -0.03652055002636359   0.01070444155581255
-0.8840933433603874   -0.03652055002636359   0.01070444155581255
-0.8840933433603874   -0.03652055002636359   0.01070444155581255
-0.8840933433603874   -0.03652055002636359   0.01070444155581255
-1.985111288997294   -0.23557806945978196   -0.03948363317131406
-1.985111288997294   -0.23557806945978196   -0.03948363317131406
-1.985111288997294   -0.23557806945978196   -0.03948363317131406
-1.985111288997294   -0.23557806945978196   -0.03948363317131406
0.22667131907446536   0.2809422433744758   0.0415841529566524
0.22667131907446536   0.2809422433744758   0.0415841529566524
0.22667131907446536   0.2809422433744758   0.0415841529566524
0.22667131907446536   0.2809422433744758   0.0415841529566524
0.21754771286172622   0.3365158196462591   0.05912398984822568
0.21754771286172622   0.3365158196462591   0.05912398984822568
0.21754771286172622   0.3365158196462591   0.05912398984822568
0.21754771286172622   0.3365158196462591   0.05912398984822568
-1.954465151506803   -0.058375078807782754   -0.08403152792015241
-1.954465151506803   -0.058375078807782754   -0.08403152792015241
-1.954465151506803   -0.058375078807782754   -0.08403152792015241
-1.954465151506803   -0.058375078807782754   -0.08403152792015241
-0.8624727576802006   0.08072416037710115   0.05332390321805773
-0.8624727576802006   0.08072416037710115   0.05332390321805773
-0.8624727576802006   0.08072416037710115   0.05332390321805773
-0.8624727576802006   0.08072416037710115   0.05332390321805773
0.09696614230949586   -0.328943127313695   -0.10271627082785177
0.09696614230949586   -0.328943127313695   -0.10271627082785177
0.09696614230949586   -0.328943127313695   -0.10271627082785177
0.09696614230949586   -0.328943127313695   -0.10271627082785177
2.360388658450211   0.16325805303043178   0.14114963665585606
2.360388658450211   0.16325805303043178   0.14114963665585606
2.360388658450211   0.16325805303043178   0.14114963665585606
2.360388658450211   0.16325805303043178   0.14114963665585606
2.3570910923041666   0.21955447650707738   -0.022457529778377727
2.3570910923041666   0.21955447650707738   -0.022457529778377727
2.3570910923041666   0.21955447650707738   -0.022457529778377727
2.3570910923041666   0.21955447650707738   -0.022457529778377727
0.13744581708452558   -0.1979846484559855   0.013801093124214264
0.13744581708452558   -0.1979846484559855   0.013801093124214264
0.13744581708452558   -0.1979846484559855   0.013801093124214264
0.13744581708452558   -0.1979846484559855   0.013801093124214264
1.2227528580720335   -0.02794635753058422   0.0027720753903838213
1.2227528580720335   -0.02794635753058422   0.0027720753903838213
1.2227528580720335   -0.02794635753058422   0.0027720753903838213
1.2227528580720335   -0.02794635753058422   0.0027720753903838213
0.11087533652322067   -0.2405036336009132   -0.07653232453738118
0.11087533652322067   -0.2405036336009132   -0.07653232453738118
0.11087533652322067   -0.2405036336009132   -0.07653232453738118
0.11087533652322067   -0.2405036336009132   -0.07653232453738118
2.3974138899048016   0.2758257786913345   0.12288515604052327
2.3974138899048016   0.2758257786913345   0.12288515604052327
2.3974138899048016   0.2758257786913345   0.12288515604052327
2.3974138899048016   0.2758257786913345   0.12288515604052327
2.375108096438427   0.32382125379059085   0.024239169229379937
2.375108096438427   0.32382125379059085   0.024239169229379937
2.375108096438427   0.32382125379059085   0.024239169229379937
2.375108096438427   0.32382125379059085   0.024239169229379937
0.1417796441325186   -0.09467700488890654   -0.007254973489697444
0.1417796441325186   -0.09467700488890654   -0.007254973489697444
0.1417796441325186   -0.09467700488890654   -0.007254973489697444
0.1417796441325186   -0.09467700488890654   -0.007254973489697444
1.2385098351096755   0.07174108998924261   0.050615130972664554
1.2385098351096755   0.07174108998924261   0.050615130972664554
1.2385098351096755   0.07174108998924261   0.050615130972664554
1.2385098351096755   0.07174108998924261   0.050615130972664554
0.12247978978794843   -0.1426987428380604   -0.05573250726339377
0.12247978978794843   -0.1426987428380604   -0.05573250726339377
0.12247978978794843   -0.1426987428380604   -0.05573250726339377
0.12247978978794843   -0.1426987428380604   -0.05573250726339377
2.4043541285761387   0.3817891695328785   0.11250141417560765
2.4043541285761387   0.3817891695328785   0.11250141417560765
2.4043541285761387   0.3817891695328785   0.11250141417560765
2.4043541285761387   0.3817891695328785   0.11250141417560765
2.3365146661306686   0.44417594832291635   0.050695481906722774
2.3365146661306686   0.44417594832291635   0.050695481906722774
2.3365146661306686   0.44417594832291635   0.050695481906722774
2.3365146661306686   0.44417594832291635   0.050695481906722774
0.1400420151717484   0.03336789795281766   -0.02525657690822185
0.1400420151717484   0.03336789795281766   -0.02525657690822185
0.1400420151717484   0.03336789795281766   -0.02525657690822185
0.1400420151717484   0.03336789795281766   -0.02525657690822185
1.2562730164074192   0.18572714567263193   0.09486809839652971
1.2562730164074192   0.18572714567263193   0.09486809839652971
1.2562730164074192   0.18572714567263193   0.09486809839652971
1.2562730164074192   0.18572714567263193   0.09486809839652971
2.1750263704292974   -0.43301865080292923   -0.1893850996153524
2.1750263704292974   -0.43301865080292923   -0.1893850996153524
2.1750263704292974   -0.43301865080292923   -0.1893850996153524
2.1750263704292974   -0.43301865080292923   -0.1893850996153524
4.475810130777577   0.2956017336300414   0.13694417911375328
4.475810130777577   0.2956017336300414   0.13694417911375328
4.475810130777577   0.2956017336300414   0.13694417911375328
4.475810130777577   0.2956017336300414   0.13694417911375328
4.525818100468024   0.1412432233245735   -0.2848191046197102
4.525818100468024   0.1412432233245735   -0.2848191046197102
4.525818100468024   0.1412432233245735   -0.2848191046197102
4.525818100468024   0.1412432233245735   -0.2848191046197102
2.316070453055242   -0.0897005287389474   0.08169427922298556
2.316070453055242   -0.0897005287389474   0.08169427922298556
2.316070453055242   -0.0897005287389474   0.08169427922298556
2.316070453055242   -0.0897005287389474   0.08169427922298556
3.2055990491091717   -0.055364479740725336   -0.0797183812688502
3.2055990491091717   -0.055364479740725336   -0.0797183812688502
3.2055990491091717   -0.055364479740725336   -0.0797183812688502
3.2055990491091717   -0.055364479740725336   -0.0797183812688502
2.2356065375478344   -0.28491702812176245   -0.12540879893120802
2.2356065375478344   -0.28491702812176245   -0.12540879893120802
2.2356065375478344   -0.28491702812176245   -0.12540879893120802
2.2356065375478344   -0.28491702812176245   -0.12540879893120802
4.647251765176737   0.3774294719086999   0.0861629703397267
4.647251765176737   0.3774294719086999   0.0861629703397267
4.647251765176737   0.3774294719086999   0.0861629703397267
4.647251765176737   0.3774294719086999   0.0861629703397267
4.574762582741043   0.25598144202264683   -0.06373567386483411
4.574762582741043   0.25598144202264683   -0.06373567386483411
4.574762582741043   0.25598144202264683   -0.06373567386483411
4.574762582741043   0.25598144202264683   -0.06373567386483411
2.3062101878485435   -0.03825698318374482   0.041827863254255804
2.3062101878485435   -0.03825698318374482   0.041827863254255804
2.3062101878485435   -0.03825698318374482   0.041827863254255804
2.3062101878485435   -0.03825698318374482   0.041827863254255804
3.3723856604929674   0.08418253778197948   0.05529389307480931
3.3723856604929674   0.08418253778197948   0.05529389307480931
3.3723856604929674   0.08418253778197948   0.05529389307480931
3.3723856604929674   0.08418253778197948   0.05529389307480931
2.241754851833656   -0.21801177448886966   -0.10069402551503703
2.241754851833656   -0.21801177448886966   -0.10069402551503703
2.241754851833656   -0.21801177448886966   -0.10069402551503703
2.241754851833656   -0.21801177448886966   -0.10069402551503703
4.633726335892736   0.4302446504645816   0.0568198834516952
4.633726335892736   0.4302446504645816   0.0568198834516952
4.633726335892736   0.4302446504645816   0.0568198834516952
4.633726335892736   0.4302446504645816   0.0568198834516952
4.566073668370753   0.3906355536325016   -0.09786779470125676
4.566073668370753   0.3906355536325016   -0.09786779470125676
4.566073668370753   0.3906355536325016   -0.09786779470125676
4.566073668370753   0.3906355536325016   -0.09786779470125676
2.2582556847303876   0.08054385977359113   0.023032663454599964
2.2582556847303876   0.08054385977359113   0.023032663454599964
2.2582556847303876   0.08054385977359113   0.023032663454599964
2.2582556847303876   0.08054385977359113   0.023032663454599964
3.2854344995956883   0.14716397792816316   0.04061509977084829
3.2854344995956883   0.14716397792816316   0.04061509977084829
3.2854344995956883   0.14716397792816316   0.04061509977084829
3.2854344995956883   0.14716397792816316   0.04061509977084829
-4.9154245336153926   -0.22357281517884098   0.25151115771176474
-4.9154245336153926   -0.22357281517884098   0.25151115771176474
-4.9154245336153926   -0.22357281517884098   0.25151115771176474
-4.9154245336153926   -0.22357281517884098   0.25151115771176474
-3.262048414052425   -0.12294424265330695   -0.06544494375869486
-3.262048414052425   -0.12294424265330695   -0.06544494375869486
-3.262048414052425   -0.12294424265330695   -0.06544494375869486
-3.262048414052425   -0.12294424265330695   -0.06544494375869486
-3.1452672428488864   0.26389407469827975   0.21117186834741172
-3.1452672428488864   0.26389407469827975   0.21117186834741172
-3.1452672428488864   0.26389407469827975   0.21117186834741172
-3.1452672428488864   0.26389407469827975   0.21117186834741172
-4.938359667115414   -0.35221498384427297   -0.10264137615088581
-4.938359667115414   -0.35221498384427297   -0.10264137615088581
-4.938359667115414   -0.35221498384427297   -0.10264137615088581
-4.938359667115414   -0.35221498384427297   -0.10264137615088581
-3.9000439580982813   -0.060322738192744585   -0.006505728041337894
-3.9000439580982813   -0.060322738192744585   -0.006505728041337894
-3.9000439580982813   -0.060322738192744585   -0.006505728041337894
-3.9000439580982813   -0.060322738192744585   -0.006505728041337894
-4.801612339286648   -0.053194385357517304   0.28207466450618823
-4.801612339286648   -0.053194385357517304   0.28207466450618823
-4.801612339286648   -0.053194385357517304   0.28207466450618823
-4.801612339286648   -0.053194385357517304   0.28207466450618823
-3.260461571825684   -0.01357352493650743   -0.0873321769017878
-3.260461571825684   -0.01357352493650743   -0.0873321769017878
-3.260461571825684   -0.01357352493650743   -0.0873321769017878
-3.260461571825684   -0.01357352493650743   -0.0873321769017878
-3.132730729680249   0.3271848353950272   0.19586426373442123
-3.132730729680249   0.3271848353950272   0.19586426373442123
-3.132730729680249   0.3271848353950272   0.19586426373442123
-3.132730729680249   0.3271848353950272   0.19586426373442123
-4.862548767557408   -0.29487690427796187   -0.14064221231203036
-4.862548767557408   -0.29487690427796187   -0.14064221231203036
-4.862548767557408   -0.29487690427796187   -0.14064221231203036
-4.862548767557408   -0.29487690427796187   -0.14064221231203036
-3.9089024365103713   0.014047159211676097   0.04539195369067023
-3.9089024365103713   0.014047159211676097   0.04539195369067023
-3.9089024365103713   0.014047159211676097   0.04539195369067023
-3.9089024365103713   0.014047159211676097   0.04539195369067023
-4.735165010616237   0.006504216736764823   0.19489545137909758
-4.735165010616237   0.006504216736764823   0.19489545137909758
-4.735165010616237   0.006504216736764823   0.19489545137909758
-4.735165010616237   0.006504216736764823   0.19489545137909758
-3.25300727614143   0.03291092486029967   -0.11124455803673139
-3.25300727614143   0.03291092486029967   -0.11124455803673139
-3.25300727614143   0.03291092486029967   -0.11124455803673139
-3.25300727614143   0.03291092486029967   -0.11124455803673139
-3.136025446467781   0.36893319732388585   0.1554037338661885
-3.136025446467781   0.36893319732388585   0.1554037338661885
-3.136025446467781   0.36893319732388585   0.1554037338661885
-3.136025446467781   0.36893319732388585   0.1554037338661885
-4.763960899343393   -0.2341242659675582   -0.17944440540379658
-4.763960899343393   -0.2341242659675582   -0.17944440540379658
-4.763960899343393   -0.2341242659675582   -0.17944440540379658
-4.763960899343393   -0.2341242659675582   -0.17944440540379658
-3.7970290686435844   0.08056270838265556   0.09386271596221143
-3.7970290686435844   0.08056270838265556   0.09386271596221143
-3.7970290686435844   0.08056270838265556   0.09386271596221143
-3.7970290686435844   0.08056270838265556   0.09386271596221143
-3.2722352150666136   -0.31026887537263   0.07094568388968435
-3.2722352150666136   -0.31026887537263   0.07094568388968435
-3.2722352150666136   -0.31026887537263   0.07094568388968435
-3.2722352150666136   -0.31026887537263   0.07094568388968435
-1.6502989633257565   -0.05911567667242884   0.003269913752323758
-1.6502989633257565   -0.05911567667242884   0.003269913752323758
-1.6502989633257565   -0.05911567667242884   0.003269913752323758
-1.6502989633257565   -0.05911567667242884   0.003269913752323758
-1.603882005536872   0.16230999342812502   0.1148206963588414
-1.603882005536872   0.16230999342812502   0.1148206963588414
-1.603882005536872   0.16230999342812502   0.1148206963588414
-1.603882005536872   0.16230999342812502   0.1148206963588414
-3.324381039663435   -0.30598368389736497   -0.11451935712970843
-3.324381039663435   -0.30598368389736497   -0.11451935712970843
-3.324381039663435   -0.30598368389736497   -0.11451935712970843
-3.324381039663435   -0.30598368389736497   -0.11451935712970843
-2.453874394533813   -0.1204081077233764   -0.049396758800278245
-2.453874394533813   -0.1204081077233764   -0.049396758800278245
-2.453874394533813   -0.1204081077233764   -0.049396758800278245
-2.453874394533813   -0.1204081077233764   -0.049396758800278245
-3.2622294522158026   -0.17856054661434206   0.06881544282543667
-3.2622294522158026   -0.17856054661434206   0.06881544282543667
-3.2622294522158026   -0.17856054661434206   0.06881544282543667
-3.2622294522158026   -0.17856054661434206   0.06881544282543667
-1.6534129642513247   0.04750748487829054   -0.018031588663571782
-1.6534129642513247   0.04750748487829054   -0.018031588663571782
-1.6534129642513247   0.04750748487829054   -0.018031588663571782
-1.6534129642513247   0.04750748487829054   -0.018031588663571782
-1.5990390019365384   0.26784632237775163   0.09939100330602124
-1.5990390019365384   0.26784632237775163   0.09939100330602124
-1.5990390019365384   0.26784632237775163   0.09939100330602124
-1.5990390019365384   0.26784632237775163   0.09939100330602124
-3.305862100219981   -0.20742514664655465   -0.1351826069226567
-3.305862100219981   -0.20742514664655465   -0.1351826069226567
-3.305862100219981   -0.20742514664655465   -0.1351826069226567
-3.305862100219981   -0.20742514664655465   -0.1351826069226567
-2.4273453003940437   -0.013538430540117607   1.2718405545397715e-07
-2.4273453003940437   -0.013538430540117607   1.2718405545397715e-07
-2.4273453003940437   -0.013538430540117607   1.2718405545397715e-07
-2.4273453003940437   -0.013538430540117607   1.2718405545397715e-07
-3.2424344700627024   -0.0715040770543719   0.04603447427155269
-3.2424344700627024   -0.0715040770543719   0.04603447427155269
-3.2424344700627024   -0.0715040770543719   0.04603447427155269
-3.2424344700627024   -0.0715040770543719   0.04603447427155269
-1.6521879783657696   0.14220390651362352   -0.040711462975977
-1.6521879783657696   0.14220390651362352   -0.040711462975977
-1.6521879783657696   0.14220390651362352   -0.040711462975977
-1.6521879783657696   0.14220390651362352   -0.040711462975977
-1.5987957423462045   0.3786988466519454   0.07451713900391371
-1.5987957423462045   0.3786988466519454   0.07451713900391371
-1.5987957423462045   0.3786988466519454   0.07451713900391371
-1.5987957423462045   0.3786988466519454   0.07451713900391371
-3.290221111947402   -0.1011432383650529   -0.1454981578429979
-3.290221111947402   -0.1011432383650529   -0.1454981578429979
-3.290221111947402   -0.1011432383650529   -0.1454981578429979
-3.290221111947402   -0.1011432383650529   -0.1454981578429979
-2.429208067716126   0.08437561016845674   0.0377119585718485
-2.429208067716126   0.08437561016845674   0.0377119585718485
-2.429208067716126   0.08437561016845674   0.0377119585718485
-2.429208067716126   0.08437561016845674   0.0377119585718485
-1.711963282453378   -0.35409150070678597   -0.010075857851441963
-1.711963282453378   -0.35409150070678597   -0.010075857851441963
-1.711963282453378   -0.35409150070678597   -0.010075857851441963
-1.711963282453378   -0.35409150070678597   -0.010075857851441963
-0.053637530617045515   0.0182411620243312   0.07313145723806858
-0.053637530617045515   0.0182411620243312   0.07313145723806858
-0.053637530617045515   0.0182411620243312   0.07313145723806858
-0.053637530617045515   0.0182411620243312   0.07313145723806858
-0.060125087138350394   0.10514471677142131   0.03491278532511967
-0.060125087138350394   0.10514471677142131   0.03491278532511967
-0.060125087138350394   0.10514471677142131   0.03491278532511967
-0.060125087138350394   0.10514471677142131   0.03491278532511967
-1.7133460352449439   -0.2272275778803042   -0.0429618808730888
-1.7133460352449439   -0.2272275778803042   -0.0429618808730888
-1.7133460352449439   -0.2272275778803042   -0.0429618808730888
-1.7133460352449439   -0.2272275778803042   -0.0429618808730888
-0.8874656722414507   -0.11079404807535692   -0.027580043331279017
-0.8874656722414507   -0.11079404807535692   -0.027580043331279017
-0.8874656722414507   -0.11079404807535692   -0.027580043331279017
-0.8874656722414507   -0.11079404807535692   -0.027580043331279017
-1.711504404895893   -0.23692497103894916   -0.024056335969189876
-1.711504404895893   -0.23692497103894916   -0.024056335969189876
-1.711504404895893   -0.23692497103894916   -0.024056335969189876
-1.711504404895893   -0.23692497103894916   -0.024056335969189876
-0.052553116695226505   0.12425571072223593   0.053661643589925145
-0.052553116695226505   0.12425571072223593   0.053661643589925145
-0.052553116695226505   0.12425571072223593   0.053661643589925145
-0.052553116695226505   0.12425571072223593   0.053661643589925145
-0.05255577146443484   0.2201486078636531   0.016843065941423804
-0.05255577146443484   0.2201486078636531   0.016843065941423804
-0.05255577146443484   0.2201486078636531   0.016843065941423804
-0.05255577146443484   0.2201486078636531   0.016843065941423804
-1.7092791149056288   -0.12104743615964497   -0.06291580300201968
-1.7092791149056288   -0.12104743615964497   -0.06291580300201968
-1.7092791149056288   -0.12104743615964497   -0.06291580300201968
-1.7092791149056288   -0.12104743615964497   -0.06291580300201968
-0.8790727654746813   -0.004417062171904129   0.012318416628683992
-0.8790727654746813   -0.004417062171904129   0.012318416628683992
-0.8790727654746813   -0.004417062171904129   0.012318416628683992
-0.8790727654746813   -0.004417062171904129   0.012318416628683992
-1.7066995003283796   -0.12355148696042278   -0.047513679314995755
-1.7066995003283796   -0.12355148696042278   -0.047513679314995755
-1.7066995003283796   -0.12355148696042278   -0.047513679314995755
-1.7066995003283796   -0.12355148696042278   -0.047513679314995755
-0.04736022143190055   0.2304278232742121   0.0325416006935374
-0.04736022143190055   0.2304278232742121   0.0325416006935374
-0.04736022143190055   0.2304278232742121   0.0325416006935374
-0.04736022143190055   0.2304278232742121   0.0325416006935374
-0.05113507209328853   0.3386084665297834   -0.0024438806458361023
-0.05113507209328853   0.3386084665297834   -0.0024438806458361023
-0.05113507209328853   0.3386084665297834   -0.0024438806458361023
-0.05113507209328853   0.3386084665297834   -0.0024438806458361023
-1.7086587109650693   -0.013043722199926222   -0.08305513523854685
-1.7086587109650693   -0.013043722199926222   -0.08305513523854685
-1.7086587109650693   -0.013043722199926222   -0.08305513523854685
-1.7086587109650693   -0.013043722199926222   -0.08305513523854685
-0.8726084406031863   0.10205943635104356   0.04890187760518404
-0.8726084406031863   0.10205943635104356   0.04890187760518404
-0.8726084406031863   0.10205943635104356   0.04890187760518404
-0.8726084406031863   0.10205943635104356   0.04890187760518404
-0.16633026790843847   -0.3872782275094853   -0.08481283968507927
-0.16633026790843847   -0.3872782275094853   -0.08481283968507927
-0.16633026790843847   -0.3872782275094853   -0.08481283968507927
-0.16633026790843847   -0.3872782275094853   -0.08481283968507927
1.5374559412314033   0.10887407138670924   0.13899311616701104
1.5374559412314033   0.10887407138670924   0.13899311616701104
1.5374559412314033   0.10887407138670924   0.13899311616701104
1.5374559412314033   0.10887407138670924   0.13899311616701104
1.487243328628938   0.05832127838037182   -0.05446678423841138
1.487243328628938   0.05832127838037182   -0.05446678423841138
1.487243328628938   0.05832127838037182   -0.05446678423841138
1.487243328628938   0.05832127838037182   -0.05446678423841138
-0.1106398939273234   -0.14216607001622383   0.02964953816790046
-0.1106398939273234   -0.14216607001622383   0.02964953816790046
-0.1106398939273234   -0.14216607001622383   0.02964953816790046
-0.1106398939273234   -0.14216607001622383   0.02964953816790046
0.6772332781145441   -0.08920969033473589   -0.015489308260873587
0.6772332781145441   -0.08920969033473589   -0.015489308260873587
0.6772332781145441   -0.08920969033473589   -0.015489308260873587
0.6772332781145441   -0.08920969033473589   -0.015489308260873587
-0.16595996724077366   -0.2827078363575001   -0.1064090620580746
-0.16595996724077366   -0.2827078363575001   -0.1064090620580746
-0.16595996724077366   -0.2827078363575001   -0.1064090620580746
-0.16595996724077366   -0.2827078363575001   -0.1064090620580746
1.5532677348512722   0.2095673776305395   0.12440914762309098
1.5532677348512722   0.2095673776305395   0.12440914762309098
1.5532677348512722   0.2095673776305395   0.12440914762309098
1.5532677348512722   0.2095673776305395   0.12440914762309098
1.5108554684795086   0.16528210196028176   -0.07653526359074588
1.5108554684795086   0.16528210196028176   -0.07653526359074588
1.5108554684795086   0.16528210196028176   -0.07653526359074588
1.5108554684795086   0.16528210196028176   -0.07653526359074588
-0.1076879002246435   -0.047043762279632584   0.00837479228366804
-0.1076879002246435   -0.047043762279632584   0.00837479228366804
-0.1076879002246435   -0.047043762279632584   0.00837479228366804
-0.1076879002246435   -0.047043762279632584   0.00837479228366804
0.6828209230271673   0.006953563601339474   0.024128670744851866
0.6828209230271673   0.006953563601339474   0.024128670744851866
0.6828209230271673   0.006953563601339474   0.024128670744851866
0.6828209230271673   0.006953563601339474   0.024128670744851866
-0.16148247873677973   -0.17950567273013013   -0.12813618982651703
-0.16148247873677973   -0.17950567273013013   -0.12813618982651703
-0.16148247873677973   -0.17950567273013013   -0.12813618982651703
-0.16148247873677973   -0.17950567273013013   -0.12813618982651703
1.5763129772822222   0.3094069427013564   0.10662743968174748
1.5763129772822222   0.3094069427013564   0.10662743968174748
1.5763129772822222   0.3094069427013564   0.10662743968174748
1.5763129772822222   0.3094069427013564   0.10662743968174748
1.5252856582464784   0.29951449915627937   -0.07976721396564343
1.5252856582464784   0.29951449915627937   -0.07976721396564343
1.5252856582464784   0.29951449915627937   -0.07976721396564343
1.5252856582464784   0.29951449915627937   -0.07976721396564343
-0.10809241029591764   0.0642235805040928   -0.012845685633289874
-0.10809241029591764   0.0642235805040928   -0.012845685633289874
-0.10809241029591764   0.0642235805040928   -0.012845685633289874
-0.10809241029591764   0.0642235805040928   -0.012845685633289874
0.7059925165902567   0.11430113604919964   0.07122577847007969
0.7059925165902567   0.11430113604919964   0.07122577847007969
0.7059925165902567   0.11430113604919964   0.07122577847007969
0.7059925165902567   0.11430113604919964   0.07122577847007969
1.3780558835817012   -0.38430380980903545   -0.1648292908857394
1.3780558835817012   -0.38430380980903545   -0.1648292908857394
1.3780558835817012   -0.38430380980903545   -0.1648292908857394
1.3780558835817012   -0.38430380980903545   -0.1648292908857394
3.0261351952167086   0.22477854329185115   0.15409572176567843
3.0261351952167086   0.22477854329185115   0.15409572176567843
3.0261351952167086   0.22477854329185115   0.15409572176567843
3.0261351952167086   0.22477854329185115   0.15409572176567843
3.002444188463697   -0.012640113246728202   -0.21937737872437352
3.002444188463697   -0.012640113246728202   -0.21937737872437352
3.002444188463697   -0.012640113246728202   -0.21937737872437352
3.002444188463697   -0.012640113246728202   -0.21937737872437352
1.5005774596903685   -0.032764546776948844   0.10328969622607245
1.5005774596903685   -0.032764546776948844   0.10328969622607245
1.5005774596903685   -0.032764546776948844   0.10328969622607245
1.5005774596903685   -0.032764546776948844   0.10328969622607245
2.1187362857861674   -0.07457333352307371   -0.06921719257982228
2.1187362857861674   -0.07457333352307371   -0.06921719257982228
2.1187362857861674   -0.07457333352307371   -0.06921719257982228
2.1187362857861674   -0.07457333352307371   -0.06921719257982228
1.3791315184246864   -0.33397340240459267   -0.20273115447468515
1.3791315184246864   -0.33397340240459267   -0.20273115447468515
1.3791315184246864   -0.33397340240459267   -0.20273115447468515
1.3791315184246864   -0.33397340240459267   -0.20273115447468515
3.1326260367035235   0.29730464935506096   0.12158709987296681
3.1326260367035235   0.29730464935506096   0.12158709987296681
3.1326260367035235   0.29730464935506096   0.12158709987296681
3.1326260367035235   0.29730464935506096   0.12158709987296681
3.075222588561546   0.048368929619786005   -0.29405497344109277
3.075222588561546   0.048368929619786005   -0.29405497344109277
3.075222588561546   0.048368929619786005   -0.29405497344109277
3.075222588561546   0.048368929619786005   -0.29405497344109277
1.511226693090732   0.013762914734001708   0.07684004669167545
1.511226693090732   0.013762914734001708   0.07684004669167545
1.511226693090732   0.013762914734001708   0.07684004669167545
1.511226693090732   0.013762914734001708   0.07684004669167545
2.2138969120879075   -0.008690741266039803   -0.021283916314604745
2.2138969120879075   -0.008690741266039803   -0.021283916314604745
2.2138969120879075   -0.008690741266039803   -0.021283916314604745
2.2138969120879075   -0.008690741266039803   -0.021283916314604745
1.394397934547749   -0.2730776439605039   -0.2204631873287452
1.394397934547749   -0.2730776439605039   -0.2204631873287452
1.394397934547749   -0.2730776439605039   -0.2204631873287452
1.394397934547749   -0.2730776439605039   -0.2204631873287452
3.2113352605532373   0.35449340176300187   0.08038391437417143
3.2113352605532373   0.35449340176300187   0.08038391437417143
3.2113352605532373   0.35449340176300187   0.08038391437417143
3.2113352605532373   0.35449340176300187   0.08038391437417143
3.1908303893952934   0.20717773002865697   -0.2763726899349767
3.1908303893952934   0.20717773002865697   -0.2763726899349767
3.1908303893952934   0.20717773002865697   -0.2763726899349767
3.1908303893952934   0.20717773002865697   -0.2763726899349767
1.5159054922438733   0.11681825086985714   0.05602820430777938
1.5159054922438733   0.11681825086985714   0.05602820430777938
1.5159054922438733   0.11681825086985714   0.05602820430777938
1.5159054922438733   0.11681825086985714   0.05602820430777938
2.229519465899583   0.06675828320004323   0.031641443548626566
2.229519465899583   0.06675828320004323   0.031641443548626566
2.229519465899583   0.06675828320004323   0.031641443548626566
2.229519465899583   0.06675828320004323   0.031641443548626566
-3.520056229760578   -0.11579620356813691   0.22830306737530853
-3.520056229760578   -0.11579620356813691   0.22830306737530853
-3.520056229760578   -0.11579620356813691   0.22830306737530853
-3.520056229760578   -0.11579620356813691   0.22830306737530853
-2.459691169995253   -0.1634872280393953   -0.08642107343880198
-2.459691169995253   -0.1634872280393953   -0.08642107343880198
-2.459691169995253   -0.1634872280393953   -0.08642107343880198
-2.459691169995253   -0.1634872280393953   -0.08642107343880198
-2.315667483350449   0.23180806908475993   0.19478170472931372
-2.315667483350449   0.23180806908475993   0.19478170472931372
-2.315667483350449   0.23180806908475993   0.19478170472931372
-2.315667483350449   0.23180806908475993   0.19478170472931372
-3.5203669491967333   -0.28958692895320143   -0.12637245693101118
-3.5203669491967333   -0.28958692895320143   -0.12637245693101118
-3.5203669491967333   -0.28958692895320143   -0.12637245693101118
-3.5203669491967333   -0.28958692895320143   -0.12637245693101118
-2.8327545007287807   -0.04533193920348677   -0.005589068310946799
-2.8327545007287807   -0.04533193920348677   -0.005589068310946799
-2.8327545007287807   -0.04533193920348677   -0.005589068310946799
-2.8327545007287807   -0.04533193920348677   -0.005589068310946799
-3.389408928115426   0.021557985908639   0.2172727336136862
-3.389408928115426   0.021557985908639   0.2172727336136862
-3.389408928115426   0.021557985908639   0.2172727336136862
-3.389408928115426   0.021557985908639   0.2172727336136862
-2.435986133718674   -0.06869747506399443   -0.10630600296303526
-2.435986133718674   -0.06869747506399443   -0.10630600296303526
-2.435986133718674   -0.06869747506399443   -0.10630600296303526
-2.435986133718674   -0.06869747506399443   -0.10630600296303526
-2.293888782188073   0.27991974214678994   0.16468103444239388
-2.293888782188073   0.27991974214678994   0.16468103444239388
-2.293888782188073   0.27991974214678994   0.16468103444239388
-2.293888782188073   0.27991974214678994   0.16468103444239388
-3.4374646817530805   -0.23597510333942218   -0.159857133988405
-3.4374646817530805   -0.23597510333942218   -0.159857133988405
-3.4374646817530805   -0.23597510333942218   -0.159857133988405
-3.4374646817530805   -0.23597510333942218   -0.159857133988405
-2.8132535775586605   0.01816801732042783   0.030161974911417505
-2.8132535775586605   0.01816801732042783   0.030161974911417505
-2.8132535775586605   0.01816801732042783   0.030161974911417505
-2.8132535775586605   0.01816801732042783   0.030161974911417505
-3.307571949387706   0.0791443222651611   0.17448710223388295
-3.307571949387706   0.0791443222651611   0.17448710223388295
-3.307571949387706   0.0791443222651611   0.17448710223388295
-3.307571949387706   0.0791443222651611   0.17448710223388295
-2.414148961466186   -0.025567130370528934   -0.1311329894308329
-2.414148961466186   -0.025567130370528934   -0.1311329894308329
-2.414148961466186   -0.025567130370528934   -0.1311329894308329
-2.414148961466186   -0.025567130370528934   -0.1311329894308329
-2.2818158672589917   0.32653742633710425   0.1417190240351155
-2.2818158672589917   0.32653742633710425   0.1417190240351155
-2.2818158672589917   0.32653742633710425   0.1417190240351155
-2.2818158672589917   0.32653742633710425   0.1417190240351155
-3.3263088432572503   -0.16520019261819419   -0.19145627327268575
-3.3263088432572503   -0.16520019261819419   -0.19145627327268575
-3.3263088432572503   -0.16520019261819419   -0.19145627327268575
-3.3263088432572503   -0.16520019261819419   -0.19145627327268575
-2.7079004345583817   0.07756265981722377   0.08045012756790895
-2.7079004345583817   0.07756265981722377   0.08045012756790895
-2.7079004345583817   0.07756265981722377   0.08045012756790895
-2.7079004345583817   0.07756265981722377   0.08045012756790895
-2.43249842165937   -0.1991653858744799   0.08522082607568159
-2.43249842165937   -0.1991653858744799   0.08522082607568159
-2.43249842165937   -0.1991653858744799   0.08522082607568159
-2.43249842165937   -0.1991653858744799   0.08522082607568159
-1.407614463095586   -0.10595698494024863   -0.013935918323600457
-1.407614463095586   -0.10595698494024863   -0.013935918323600457
-1.407614463095586   -0.10595698494024863   -0.013935918323600457
-1.407614463095586   -0.10595698494024863   -0.013935918323600457
-1.3361638496582677   0.13557045822257452   0.10503416346482217
-1.3361638496582677   0.13557045822257452   0.10503416346482217
-1.3361638496582677   0.13557045822257452   0.10503416346482217
-1.3361638496582677   0.13557045822257452   0.10503416346482217
-2.4689344020797255   -0.23681045465374229   -0.10293436517856588
-2.4689344020797255   -0.23681045465374229   -0.10293436517856588
-2.4689344020797255   -0.23681045465374229   -0.10293436517856588
-2.4689344020797255   -0.23681045465374229   -0.10293436517856588
-1.9035259476004385   -0.09301868937274343   -0.038583838745030186
-1.9035259476004385   -0.09301868937274343   -0.038583838745030186
-1.9035259476004385   -0.09301868937274343   -0.038583838745030186
-1.9035259476004385   -0.09301868937274343   -0.038583838745030186
-2.4040751429280935   -0.08509028161598808   0.06964175754183419
-2.4040751429280935   -0.08509028161598808   0.06964175754183419
-2.4040751429280935   -0.08509028161598808   0.06964175754183419
-2.4040751429280935   -0.08509028161598808   0.06964175754183419
-1.392708398454266   -0.00783500445954699   -0.03428311783304841
-1.392708398454266   -0.00783500445954699   -0.03428311783304841
-1.392708398454266   -0.00783500445954699   -0.03428311783304841
-1.392708398454266   -0.00783500445954699   -0.03428311783304841
-1.3191578498788867   0.23418313776379907   0.08615456478801753
-1.3191578498788867   0.23418313776379907   0.08615456478801753
-1.3191578498788867   0.23418313776379907   0.08615456478801753
-1.3191578498788867   0.23418313776379907   0.08615456478801753
-2.4357910420353535   -0.1436525275280378   -0.12125799511918287
-2.4357910420353535   -0.1436525275280378   -0.12125799511918287
-2.4357910420353535   -0.1436525275280378   -0.12125799511918287
-2.4357910420353535   -0.1436525275280378   -0.12125799511918287
-1.8669947802938887   0.004022520557516229   0.003097115342469106
-1.8669947802938887   0.004022520557516229   0.003097115342469106
-1.8669947802938887   0.004022520557516229   0.003097115342469106
-1.8669947802938887   0.004022520557516229   0.003097115342469106
-2.366021456395048   0.020305820511520745   0.06363158504278754
-2.366021456395048   0.020305820511520745   0.06363158504278754
-2.366021456395048   0.020305820511520745   0.06363158504278754
-2.366021456395048   0.020305820511520745   0.06363158504278754
-1.3786016375157437   0.0805505877276918   -0.05743182336014524
-1.3786016375157437   0.0805505877276918   -0.05743182336014524
-1.3786016375157437   0.0805505877276918   -0.05743182336014524
-1.3786016375157437   0.0805505877276918   -0.05743182336014524
-1.3027303801242334   0.3391691610855288   0.06857310758671131
-1.3027303801242334   0.3391691610855288   0.06857310758671131
-1.3027303801242334   0.3391691610855288   0.06857310758671131
-1.3027303801242334   0.3391691610855288   0.06857310758671131
-2.4109481913446476   -0.043354800603020105   -0.13405036945302337
-2.4109481913446476   -0.043354800603020105   -0.13405036945302337
-2.4109481913446476   -0.043354800603020105   -0.13405036945302337
-2.4109481913446476   -0.043354800603020105   -0.13405036945302337
-1.8528881162062778   0.09521510399882538   0.042743401254466934
-1.8528881162062778   0.09521510399882538   0.042743401254466934
-1.8528881162062778   0.09521510399882538   0.042743401254466934
-1.8528881162062778   0.09521510399882538   0.042743401254466934
-1.4375134198108803   -0.2725315371917631   0.0031438503514321257
-1.4375134198108803   -0.2725315371917631   0.0031438503514321257
-1.4375134198108803   -0.2725315371917631   0.0031438503514321257
-1.4375134198108803   -0.2725315371917631   0.0031438503514321257
-0.3666737498709445   -0.03113855369180156   0.05867511381832716
-0.3666737498709445   -0.03113855369180156   0.05867511381832716
-0.3666737498709445   -0.03113855369180156   0.05867511381832716
-0.3666737498709445   -0.03113855369180156   0.05867511381832716
-0.35754142099250114   0.05652730260044203   0.020007907278199615
-0.35754142099250114   0.05652730260044203   0.020007907278199615
-0.35754142099250114   0.05652730260044203   0.020007907278199615
-0.35754142099250114   0.05652730260044203   0.020007907278199615
-1.4217320425537927   -0.15972358796920913   -0.027512754821035386
-1.4217320425537927   -0.15972358796920913   -0.027512754821035386
-1.4217320425537927   -0.15972358796920913   -0.027512754821035386
-1.4217320425537927   -0.15972358796920913   -0.027512754821035386
-0.89737840164958   -0.09739062974905939   -0.027386740080091
-0.89737840164958   -0.09739062974905939   -0.027386740080091
-0.89737840164958   -0.09739062974905939   -0.027386740080091
-0.89737840164958   -0.09739062974905939   -0.027386740080091
-1.4194321065079551   -0.16249979039208315   -0.01323687216897259
-1.4194321065079551   -0.16249979039208315   -0.01323687216897259
-1.4194321065079551   -0.16249979039208315   -0.01323687216897259
-1.4194321065079551   -0.16249979039208315   -0.01323687216897259
-0.3515062712506974   0.06763859081095759   0.0390723677767029
-0.3515062712506974   0.06763859081095759   0.0390723677767029
-0.3515062712506974   0.06763859081095759   0.0390723677767029
-0.3515062712506974   0.06763859081095759   0.0390723677767029
-0.3370137977163026   0.16705464679882998   0.005329294601028725
-0.3370137977163026   0.16705464679882998   0.005329294601028725
-0.3370137977163026   0.16705464679882998   0.005329294601028725
-0.3370137977163026   0.16705464679882998   0.005329294601028725
-1.4047136512222789   -0.06027011389200215   -0.04717119027314197
-1.4047136512222789   -0.06027011389200215   -0.04717119027314197
-1.4047136512222789   -0.06027011389200215   -0.04717119027314197
-1.4047136512222789   -0.06027011389200215   -0.04717119027314197
-0.8754576663710665   0.00198243836194803   0.011875175015567188
-0.8754576663710665   0.00198243836194803   0.011875175015567188
-0.8754576663710665   0.00198243836194803   0.011875175015567188
-0.8754576663710665   0.00198243836194803   0.011875175015567188
-1.3995068507612953   -0.05232606925201633   -0.029081232608210078
-1.3995068507612953   -0.05232606925201633   -0.029081232608210078
-1.3995068507612953   -0.05232606925201633   -0.029081232608210078
-1.3995068507612953   -0.05232606925201633   -0.029081232608210078
-0.3345253683324124   0.16680583200372856   0.018020256315584092
-0.3345253683324124   0.16680583200372856   0.018020256315584092
-0.3345253683324124   0.16680583200372856   0.018020256315584092
-0.3345253683324124   0.16680583200372856   0.018020256315584092
-0.318614366921211   0.2791845990049181   -0.011957873258183482
-0.318614366921211   0.2791845990049181   -0.011957873258183482
-0.318614366921211   0.2791845990049181   -0.011957873258183482
-0.318614366921211   0.2791845990049181   -0.011957873258183482
-1.389750135207907   0.04034594474832115   -0.067702451494452
-1.389750135207907   0.04034594474832115   -0.067702451494452
-1.389750135207907   0.04034594474832115   -0.067702451494452
-1.389750135207907   0.04034594474832115   -0.067702451494452
-0.8554406079880437   0.10183092181987105   0.049699697104524154
-0.8554406079880437   0.10183092181987105   0.049699697104524154
-0.8554406079880437   0.10183092181987105   0.049699697104524154
-0.8554406079880437   0.10183092181987105   0.049699697104524154
-0.45414701575593314   -0.33267591425320375   -0.07715385504521748
-0.45414701575593314   -0.33267591425320375   -0.07715385504521748
-0.45414701575593314   -0.33267591425320375   -0.07715385504521748
-0.45414701575593314   -0.33267591425320375   -0.07715385504521748
0.6611275358640935   0.052819344064427856   0.12727599957919455
0.6611275358640935   0.052819344064427856   0.12727599957919455
0.6611275358640935   0.052819344064427856   0.12727599957919455
0.6611275358640935   0.052819344064427856   0.12727599957919455
0.6157899649733601   -0.016909358897974056   -0.07049676514153425
0.6157899649733601   -0.016909358897974056   -0.07049676514153425
0.6157899649733601   -0.016909358897974056   -0.07049676514153425
0.6157899649733601   -0.016909358897974056   -0.07049676514153425
-0.3789525907903637   -0.07747307956956082   0.046952440458889945
-0.3789525907903637   -0.07747307956956082   0.046952440458889945
-0.3789525907903637   -0.07747307956956082   0.046952440458889945
-0.3789525907903637   -0.07747307956956082   0.046952440458889945
0.10675723586750016   -0.09097173857161946   -0.019468000564250406
0.10675723586750016   -0.09097173857161946   -0.019468000564250406
0.10675723586750016   -0.09097173857161946   -0.019468000564250406
0.10675723586750016   -0.09097173857161946   -0.019468000564250406
-0.4383446460979813   -0.232610926011406   -0.09486998963735266
-0.4383446460979813   -0.232610926011406   -0.09486998963735266
-0.4383446460979813   -0.232610926011406   -0.09486998963735266
-0.4383446460979813   -0.232610926011406   -0.09486998963735266
0.6851044958580497   0.14815096312093157   0.11101556726299978
0.6851044958580497   0.14815096312093157   0.11101556726299978
0.6851044958580497   0.14815096312093157   0.11101556726299978
0.6851044958580497   0.14815096312093157   0.11101556726299978
0.6539287133853057   0.08763559952748724   -0.07984501229071274
0.6539287133853057   0.08763559952748724   -0.07984501229071274
0.6539287133853057   0.08763559952748724   -0.07984501229071274
0.6539287133853057   0.08763559952748724   -0.07984501229071274
-0.3641341098129284   0.011469415845556566   0.0253129650711765
-0.3641341098129284   0.011469415845556566   0.0253129650711765
-0.3641341098129284   0.011469415845556566   0.0253129650711765
-0.3641341098129284   0.011469415845556566   0.0253129650711765
0.12700949432508207   -0.00093473960927596   0.020450306958467154
0.12700949432508207   -0.00093473960927596   0.020450306958467154
0.12700949432508207   -0.00093473960927596   0.020450306958467154
0.12700949432508207   -0.00093473960927596   0.020450306958467154
-0.42144872343096146   -0.13452418567693042   -0.11526650149650328
-0.42144872343096146   -0.13452418567693042   -0.11526650149650328
-0.42144872343096146   -0.13452418567693042   -0.11526650149650328
-0.42144872343096146   -0.13452418567693042   -0.11526650149650328
0.7198463705865498   0.24223224463317677   0.09514662860979924
0.7198463705865498   0.24223224463317677   0.09514662860979924
0.7198463705865498   0.24223224463317677   0.09514662860979924
0.7198463705865498   0.24223224463317677   0.09514662860979924
0.6846183802626093   0.20689198134370942   -0.09221447199370297
0.6846183802626093   0.20689198134370942   -0.09221447199370297
0.6846183802626093   0.20689198134370942   -0.09221447199370297
0.6846183802626093   0.20689198134370942   -0.09221447199370297
-0.3482912438402856   0.11411368861507856   0.004728652536279465
-0.3482912438402856   0.11411368861507856   0.004728652536279465
-0.3482912438402856   0.11411368861507856   0.004728652536279465
-0.3482912438402856   0.11411368861507856   0.004728652536279465
0.1584101159158805   0.0971471677892608   0.06183229120610971
0.1584101159158805   0.0971471677892608   0.06183229120610971
0.1584101159158805   0.0971471677892608   0.06183229120610971
0.1584101159158805   0.0971471677892608   0.06183229120610971
0.5274703728000649   -0.3361763832332638   -0.15201408844325276
0.5274703728000649   -0.3361763832332638   -0.15201408844325276
0.5274703728000649   -0.3361763832332638   -0.15201408844325276
0.5274703728000649   -0.3361763832332638   -0.15201408844325276
1.576805720846911   0.15506550162436808   0.16441423621978207
1.576805720846911   0.15506550162436808   0.16441423621978207
1.576805720846911   0.15506550162436808   0.16441423621978207
1.576805720846911   0.15506550162436808   0.16441423621978207
1.5613515469672912   -0.08128230403676479   -0.20007317734992983
1.5613515469672912   -0.08128230403676479   -0.20007317734992983
1.5613515469672912   -0.08128230403676479   -0.20007317734992983
1.5613515469672912   -0.08128230403676479   -0.20007317734992983
0.6632797831675299   0.02741698892028352   0.12262597801105299
0.6632797831675299   0.02741698892028352   0.12262597801105299
0.6632797831675299   0.02741698892028352   0.12262597801105299
0.6632797831675299   0.02741698892028352   0.12262597801105299
1.0258589982807353   -0.06911964054584024   -0.05380316901984862
1.0258589982807353   -0.06911964054584024   -0.05380316901984862
1.0258589982807353   -0.06911964054584024   -0.05380316901984862
1.0258589982807353   -0.06911964054584024   -0.05380316901984862
0.5420524739698732   -0.28028849914804316   -0.17580507990890382
0.5420524739698732   -0.28028849914804316   -0.17580507990890382
0.5420524739698732   -0.28028849914804316   -0.17580507990890382
0.5420524739698732   -0.28028849914804316   -0.17580507990890382
1.6926958031066435   0.23654013097327162   0.13882566833681875
1.6926958031066435   0.23654013097327162   0.13882566833681875
1.6926958031066435   0.23654013097327162   0.13882566833681875
1.6926958031066435   0.23654013097327162   0.13882566833681875
1.6456352995358647   -0.02268517583502322   -0.23980901259858178
1.6456352995358647   -0.02268517583502322   -0.23980901259858178
1.6456352995358647   -0.02268517583502322   -0.23980901259858178
1.6456352995358647   -0.02268517583502322   -0.23980901259858178
0.6855445642306686   0.07033037762519347   0.09553946383837593
0.6855445642306686   0.07033037762519347   0.09553946383837593
0.6855445642306686   0.07033037762519347   0.09553946383837593
0.6855445642306686   0.07033037762519347   0.09553946383837593
1.1112550303560975   -0.010102820491615927   -0.006710094098876018
1.1112550303560975   -0.010102820491615927   -0.006710094098876018
1.1112550303560975   -0.010102820491615927   -0.006710094098876018
1.1112550303560975   -0.010102820491615927   -0.006710094098876018
0.5653098350595448   -0.23154102257414866   -0.20376278181788898
0.5653098350595448   -0.23154102257414866   -0.20376278181788898
0.5653098350595448   -0.23154102257414866   -0.20376278181788898
0.5653098350595448   -0.23154102257414866   -0.20376278181788898
1.7763994825106646   0.2897156781680024   0.10161104827242436
1.7763994825106646   0.2897156781680024   0.10161104827242436
1.7763994825106646   0.2897156781680024   0.10161104827242436
1.7763994825106646   0.2897156781680024   0.10161104827242436
1.774908678550733   0.10609711541030531   -0.2565806592968702
1.774908678550733   0.10609711541030531   -0.2565806592968702
1.774908678550733   0.10609711541030531   -0.2565806592968702
1.774908678550733   0.10609711541030531   -0.2565806592968702
0.7083388152044021   0.15740084621019243   0.07587883784877437
0.7083388152044021   0.15740084621019243   0.07587883784877437
0.7083388152044021   0.15740084621019243   0.07587883784877437
0.7083388152044021   0.15740084621019243   0.07587883784877437
1.1534333993748418   0.055058559704602494   0.03371087259075113
1.1534333993748418   0.055058559704602494   0.03371087259075113
1.1534333993748418   0.055058559704602494   0.03371087259075113
1.1534333993748418   0.055058559704602494   0.03371087259075113
-2.116061374313827   -0.03645400567512491   0.20511524270118547
-2.116061374313827   -0.03645400567512491   0.20511524270118547
-2.116061374313827   -0.03645400567512491   0.20511524270118547
-2.116061374313827   -0.03645400567512491   0.20511524270118547
-1.646327922446361   -0.20825391952237232   -0.10180679985493792
-1.646327922446361   -0.20825391952237232   -0.10180679985493792
-1.646327922446361   -0.20825391952237232   -0.10180679985493792
-1.646327922446361   -0.20825391952237232   -0.10180679985493792
-1.4903898105213582   0.17678158227171759   0.17549296051820867
-1.4903898105213582   0.17678158227171759   0.17549296051820867
-1.4903898105213582   0.17678158227171759   0.17549296051820867
-1.4903898105213582   0.17678158227171759   0.17549296051820867
-2.1069135758255757   -0.22934936849950482   -0.13843900645364338
-2.1069135758255757   -0.22934936849950482   -0.13843900645364338
-2.1069135758255757   -0.22934936849950482   -0.13843900645364338
-2.1069135758255757   -0.22934936849950482   -0.13843900645364338
-1.769305466282124   -0.04891422578018573   -0.025377211803745733
-1.769305466282124   -0.04891422578018573   -0.025377211803745733
-1.769305466282124   -0.04891422578018573   -0.025377211803745733
-1.769305466282124   -0.04891422578018573   -0.025377211803745733
-1.9774532855659284   0.08347742535681618   0.19603565098827158
-1.9774532855659284   0.08347742535681618   0.19603565098827158
-1.9774532855659284   0.08347742535681618   0.19603565098827158
-1.9774532855659284   0.08347742535681618   0.19603565098827158
-1.6108941213813819   -0.12708923218496723   -0.12315777932521027
-1.6108941213813819   -0.12708923218496723   -0.12315777932521027
-1.6108941213813819   -0.12708923218496723   -0.12315777932521027
-1.6108941213813819   -0.12708923218496723   -0.12315777932521027
-1.4531865852054846   0.22255273241485374   0.14850394823537844
-1.4531865852054846   0.22255273241485374   0.14850394823537844
-1.4531865852054846   0.22255273241485374   0.14850394823537844
-1.4531865852054846   0.22255273241485374   0.14850394823537844
-2.010441310580884   -0.17749238451380384   -0.17308221465620272
-2.010441310580884   -0.17749238451380384   -0.17308221465620272
-2.010441310580884   -0.17749238451380384   -0.17308221465620272
-2.010441310580884   -0.17749238451380384   -0.17308221465620272
-1.7188809214191534   0.011047785091173878   0.0128208622624469
-1.7188809214191534   0.011047785091173878   0.0128208622624469
-1.7188809214191534   0.011047785091173878   0.0128208622624469
-1.7188809214191534   0.011047785091173878   0.0128208622624469
-1.8808252136878476   0.13902116177528384   0.158484723519892
-1.8808252136878476   0.13902116177528384   0.158484723519892
-1.8808252136878476   0.13902116177528384   0.158484723519892
-1.8808252136878476   0.13902116177528384   0.158484723519892
-1.5743106598323304   -0.08546879160804066   -0.1490949008759406
-1.5743106598323304   -0.08546879160804066   -0.1490949008759406
-1.5743106598323304   -0.08546879160804066   -0.1490949008759406
-1.5743106598323304   -0.08546879160804066   -0.1490949008759406
-1.4229826289350185   0.2793740057611381   0.12808850430174326
-1.4229826289350185   0.2793740057611381   0.12808850430174326
-1.4229826289350185   0.2793740057611381   0.12808850430174326
-1.4229826289350185   0.2793740057611381   0.12808850430174326
-1.8808009004786654   -0.09450796288092506   -0.20034785202133537
-1.8808009004786654   -0.09450796288092506   -0.20034785202133537
-1.8808009004786654   -0.09450796288092506   -0.20034785202133537
-1.8808009004786654   -0.09450796288092506   -0.20034785202133537
-1.6169374317243164   0.07006645297238706   0.06029893385681097
-1.6169374317243164   0.07006645297238706   0.06029893385681097
-1.6169374317243164   0.07006645297238706   0.06029893385681097
-1.6169374317243164   0.07006645297238706   0.06029893385681097
-1.589082060214411   -0.12019133528567122   0.09635992706811121
-1.589082060214411   -0.12019133528567122   0.09635992706811121
-1.589082060214411   -0.12019133528567122   0.09635992706811121
-1.589082060214411   -0.12019133528567122   0.09635992706811121
-1.1628515238852581   -0.15794730042832644   -0.030166017120411465
-1.1628515238852581   -0.15794730042832644   -0.030166017120411465
-1.1628515238852581   -0.15794730042832644   -0.030166017120411465
-1.1628515238852581   -0.15794730042832644   -0.030166017120411465
-1.0757326960520925   0.08035742291888198   0.08970331665692285
-1.0757326960520925   0.08035742291888198   0.08970331665692285
-1.0757326960520925   0.08035742291888198   0.08970331665692285
-1.0757326960520925   0.08035742291888198   0.08970331665692285
-1.6121739670579354   -0.1694341791834582   -0.08721206070946998
-1.6121739670579354   -0.1694341791834582   -0.08721206070946998
-1.6121739670579354   -0.1694341791834582   -0.08721206070946998
-1.6121739670579354   -0.1694341791834582   -0.08721206070946998
-1.356110785262797   -0.08462872438230565   -0.036299737092082736
-1.356110785262797   -0.08462872438230565   -0.036299737092082736
-1.356110785262797   -0.08462872438230565   -0.036299737092082736
-1.356110785262797   -0.08462872438230565   -0.036299737092082736
-1.5475513496461006   -0.015544668081717838   0.08201151524793174
-1.5475513496461006   -0.015544668081717838   0.08201151524793174
-1.5475513496461006   -0.015544668081717838   0.08201151524793174
-1.5475513496461006   -0.015544668081717838   0.08201151524793174
-1.1331306593625656   -0.06630743408150175   -0.05062164289505726
-1.1331306593625656   -0.06630743408150175   -0.05062164289505726
-1.1331306593625656   -0.06630743408150175   -0.05062164289505726
-1.1331306593625656   -0.06630743408150175   -0.05062164289505726
-1.0436270138092891   0.17338740535267788   0.07177764105839197
-1.0436270138092891   0.17338740535267788   0.07177764105839197
-1.0436270138092891   0.17338740535267788   0.07177764105839197
-1.0436270138092891   0.17338740535267788   0.07177764105839197
-1.5642503566312083   -0.0798758304501459   -0.10438634602820973
-1.5642503566312083   -0.0798758304501459   -0.10438634602820973
-1.5642503566312083   -0.0798758304501459   -0.10438634602820973
-1.5642503566312083   -0.0798758304501459   -0.10438634602820973
-1.3098006532041204   0.005187863702724893   0.003929984319099952
-1.3098006532041204   0.005187863702724893   0.003929984319099952
-1.3098006532041204   0.005187863702724893   0.003929984319099952
-1.3098006532041204   0.005187863702724893   0.003929984319099952
-1.4958400490285404   0.08345595200346034   0.07433340953149417
-1.4958400490285404   0.08345595200346034   0.07433340953149417
-1.4958400490285404   0.08345595200346034   0.07433340953149417
-1.4958400490285404   0.08345595200346034   0.07433340953149417
-1.1036961617775638   0.018396782533468936   -0.07357747596378006
-1.1036961617775638   0.018396782533468936   -0.07357747596378006
-1.1036961617775638   0.018396782533468936   -0.07357747596378006
-1.1036961617775638   0.018396782533468936   -0.07357747596378006
-1.0116279685844731   0.2742602879330558   0.054704850467181654
-1.0116279685844731   0.2742602879330558   0.054704850467181654
-1.0116279685844731   0.2742602879330558   0.054704850467181654
-1.0116279685844731   0.2742602879330558   0.054704850467181654
-1.5246067613035748   0.017835175890593857   -0.11849332767046256
-1.5246067613035748   0.017835175890593857   -0.11849332767046256
-1.5246067613035748   0.017835175890593857   -0.11849332767046256
-1.5246067613035748   0.017835175890593857   -0.11849332767046256
-1.276274323747749   0.09310968952302845   0.04323370271632024
-1.276274323747749   0.09310968952302845   0.04323370271632024
-1.276274323747749   0.09310968952302845   0.04323370271632024
-1.276274323747749   0.09310968952302845   0.04323370271632024
-1.1615766379721475   -0.19850160972694605   0.016762721743746288
-1.1615766379721475   -0.19850160972694605   0.016762721743746288
-1.1615766379721475   -0.19850160972694605   0.016762721743746288
-1.1615766379721475   -0.19850160972694605   0.016762721743746288
-0.6861861372562719   -0.08279058086169885   0.04279007228676858
-0.6861861372562719   -0.08279058086169885   0.04279007228676858
-0.6861861372562719   -0.08279058086169885   0.04279007228676858
-0.6861861372562719   -0.08279058086169885   0.04279007228676858
-0.6621969982495597   -0.0012024928832943538   0.005557676304305557
-0.6621969982495597   -0.0012024928832943538   0.005557676304305557
-0.6621969982495597   -0.0012024928832943538   0.005557676304305557
-0.6621969982495597   -0.0012024928832943538   0.005557676304305557
-1.129926758498467   -0.09076497391556593   -0.01014459874050111
-1.129926758498467   -0.09076497391556593   -0.01014459874050111
-1.129926758498467   -0.09076497391556593   -0.01014459874050111
-1.129926758498467   -0.09076497391556593   -0.01014459874050111
-0.9114111326357667   -0.08896336620145542   -0.026400010015427453
-0.9114111326357667   -0.08896336620145542   -0.026400010015427453
-0.9114111326357667   -0.08896336620145542   -0.026400010015427453
-0.9114111326357667   -0.08896336620145542   -0.026400010015427453
-1.128619011559316   -0.09539383199847554   0.0010229940381559152
-1.128619011559316   -0.09539383199847554   0.0010229940381559152
-1.128619011559316   -0.09539383199847554   0.0010229940381559152
-1.128619011559316   -0.09539383199847554   0.0010229940381559152
-0.6563229693044204   0.010608141083904371   0.02311718706280358
-0.6563229693044204   0.010608141083904371   0.02311718706280358
-0.6563229693044204   0.010608141083904371   0.02311718706280358
-0.6563229693044204   0.010608141083904371   0.02311718706280358
-0.6273563866183052   0.10282343999126939   -0.009060685460757834
-0.6273563866183052   0.10282343999126939   -0.009060685460757834
-0.6273563866183052   0.10282343999126939   -0.009060685460757834
-0.6273563866183052   0.10282343999126939   -0.009060685460757834
-1.0977665903010598   0.003962088515553741   -0.029494924563345015
-1.0977665903010598   0.003962088515553741   -0.029494924563345015
-1.0977665903010598   0.003962088515553741   -0.029494924563345015
-1.0977665903010598   0.003962088515553741   -0.029494924563345015
-0.8746785556307021   0.004613843497663361   0.01258914391712724
-0.8746785556307021   0.004613843497663361   0.01258914391712724
-0.8746785556307021   0.004613843497663361   0.01258914391712724
-0.8746785556307021   0.004613843497663361   0.01258914391712724
-1.0939874587115146   0.00831827253730369   -0.014955450637377035
-1.0939874587115146   0.00831827253730369   -0.014955450637377035
-1.0939874587115146   0.00831827253730369   -0.014955450637377035
-1.0939874587115146   0.00831827253730369   -0.014955450637377035
-0.6246425291111245   0.10496024506624516   0.0023717970001766314
-0.6246425291111245   0.10496024506624516   0.0023717970001766314
-0.6246425291111245   0.10496024506624516   0.0023717970001766314
-0.6246425291111245   0.10496024506624516   0.0023717970001766314
-0.5944533052715159   0.20779218910405547   -0.025768059652171216
-0.5944533052715159   0.20779218910405547   -0.025768059652171216
-0.5944533052715159   0.20779218910405547   -0.025768059652171216
-0.5944533052715159   0.20779218910405547   -0.025768059652171216
-1.0675655273525928   0.09942337512093591   -0.05014603056129249
-1.0675655273525928   0.09942337512093591   -0.05014603056129249
-1.0675655273525928   0.09942337512093591   -0.05014603056129249
-1.0675655273525928   0.09942337512093591   -0.05014603056129249
-0.8399136265847541   0.0985255171133724   0.05001184482356469
-0.8399136265847541   0.0985255171133724   0.05001184482356469
-0.8399136265847541   0.0985255171133724   0.05001184482356469
-0.8399136265847541   0.0985255171133724   0.05001184482356469
-0.7442688696273576   -0.2664983091964795   -0.06391586123389105
-0.7442688696273576   -0.2664983091964795   -0.06391586123389105
-0.7442688696273576   -0.2664983091964795   -0.06391586123389105
-0.7442688696273576   -0.2664983091964795   -0.06391586123389105
-0.22217501745771004   -0.0029753922875022064   0.11225105845892618
-0.22217501745771004   -0.0029753922875022064   0.11225105845892618
-0.22217501745771004   -0.0029753922875022064   0.11225105845892618
-0.22217501745771004   -0.0029753922875022064   0.11225105845892618
-0.25356403218509665   -0.07815738803021227   -0.08185766044957303
-0.25356403218509665   -0.07815738803021227   -0.08185766044957303
-0.25356403218509665   -0.07815738803021227   -0.08185766044957303
-0.25356403218509665   -0.07815738803021227   -0.08185766044957303
-0.6522911922422757   -0.010202470003735462   0.0640866834611605
-0.6522911922422757   -0.010202470003735462   0.0640866834611605
-0.6522911922422757   -0.010202470003735462   0.0640866834611605
-0.6522911922422757   -0.010202470003735462   0.0640866834611605
-0.46807542755589604   -0.08554314232419055   -0.01904225843475317
-0.46807542755589604   -0.08554314232419055   -0.01904225843475317
-0.46807542755589604   -0.08554314232419055   -0.01904225843475317
-0.46807542755589604   -0.08554314232419055   -0.01904225843475317
-0.7131942459371299   -0.16986509141172879   -0.08076596360512239
-0.7131942459371299   -0.16986509141172879   -0.08076596360512239
-0.7131942459371299   -0.16986509141172879   -0.08076596360512239
-0.7131942459371299   -0.16986509141172879   -0.08076596360512239
-0.18460903885688454   0.08955717301113811   0.0952027451501373
-0.18460903885688454   0.08955717301113811   0.0952027451501373
-0.18460903885688454   0.08955717301113811   0.0952027451501373
-0.18460903885688454   0.08955717301113811   0.0952027451501373
-0.20277203313624492   0.02025130409857978   -0.0921396703403295
-0.20277203313624492   0.02025130409857978   -0.0921396703403295
-0.20277203313624492   0.02025130409857978   -0.0921396703403295
-0.20277203313624492   0.02025130409857978   -0.0921396703403295
-0.622593849458514   0.07486171459522009   0.042713725734248004
-0.622593849458514   0.07486171459522009   0.042713725734248004
-0.622593849458514   0.07486171459522009   0.042713725734248004
-0.622593849458514   0.07486171459522009   0.042713725734248004
-0.4290693144782961   0.0015566132193847726   0.020672406629523327
-0.4290693144782961   0.0015566132193847726   0.020672406629523327
-0.4290693144782961   0.0015566132193847726   0.020672406629523327
-0.4290693144782961   0.0015566132193847726   0.020672406629523327
-0.6815660949228912   -0.07711394299097402   -0.10017184400145218
-0.6815660949228912   -0.07711394299097402   -0.10017184400145218
-0.6815660949228912   -0.07711394299097402   -0.10017184400145218
-0.6815660949228912   -0.07711394299097402   -0.10017184400145218
-0.1363060032804417   0.1797207460761998   0.08072103696107437
-0.1363060032804417   0.1797207460761998   0.08072103696107437
-0.1363060032804417   0.1797207460761998   0.08072103696107437
-0.1363060032804417   0.1797207460761998   0.08072103696107437
-0.15979479032310695   0.13023087324115126   -0.10318187785053567
-0.15979479032310695   0.13023087324115126   -0.10318187785053567
-0.15979479032310695   0.13023087324115126   -0.10318187785053567
-0.15979479032310695   0.13023087324115126   -0.10318187785053567
-0.5921936573991833   0.17121070540352618   0.022111663410021062
-0.5921936573991833   0.17121070540352618   0.022111663410021062
-0.5921936573991833   0.17121070540352618   0.022111663410021062
-0.5921936573991833   0.17121070540352618   0.022111663410021062
-0.388615929210653   0.09247473950128617   0.06043552084399888
-0.388615929210653   0.09247473950128617   0.06043552084399888
-0.388615929210653   0.09247473950128617   0.06043552084399888
-0.388615929210653   0.09247473950128617   0.06043552084399888
-0.32911457471207384   -0.28673819062623174   -0.1386839294741708
-0.32911457471207384   -0.28673819062623174   -0.1386839294741708
-0.32911457471207384   -0.28673819062623174   -0.1386839294741708
-0.32911457471207384   -0.28673819062623174   -0.1386839294741708
0.13093571700256687   0.08602125057033558   0.17075243693105632
0.13093571700256687   0.08602125057033558   0.17075243693105632
0.13093571700256687   0.08602125057033558   0.17075243693105632
0.13093571700256687   0.08602125057033558   0.17075243693105632
0.13216995734645293   -0.1400368491741318   -0.18353338664000796
0.13216995734645293   -0.1400368491741318   -0.18353338664000796
0.13216995734645293   -0.1400368491741318   -0.18353338664000796
0.13216995734645293   -0.1400368491741318   -0.18353338664000796
-0.17596442767204068   0.08824559934327854   0.1397373747422162
-0.17596442767204068   0.08824559934327854   0.1397373747422162
-0.17596442767204068   0.08824559934327854   0.1397373747422162
-0.17596442767204068   0.08824559934327854   0.1397373747422162
-0.06486728022760142   -0.060460218255309166   -0.03277621074691321
-0.06486728022760142   -0.060460218255309166   -0.03277621074691321
-0.06486728022760142   -0.060460218255309166   -0.03277621074691321
-0.06486728022760142   -0.060460218255309166   -0.03277621074691321
-0.29767882716799327   -0.22118144452322758   -0.15940757887104062
-0.29767882716799327   -0.22118144452322758   -0.15940757887104062
-0.29767882716799327   -0.22118144452322758   -0.15940757887104062
-0.29767882716799327   -0.22118144452322758   -0.15940757887104062
0.2624988588076683   0.17800469665763707   0.15006957483429997
0.2624988588076683   0.17800469665763707   0.15006957483429997
0.2624988588076683   0.17800469665763707   0.15006957483429997
0.2624988588076683   0.17800469665763707   0.15006957483429997
0.2291667126130777   -0.08363616735136452   -0.2179154094268232
0.2291667126130777   -0.08363616735136452   -0.2179154094268232
0.2291667126130777   -0.08363616735136452   -0.2179154094268232
0.2291667126130777   -0.08363616735136452   -0.2179154094268232
-0.14015800393791908   0.12916688518181396   0.11201489456806554
-0.14015800393791908   0.12916688518181396   0.11201489456806554
-0.14015800393791908   0.12916688518181396   0.11201489456806554
-0.14015800393791908   0.12916688518181396   0.11201489456806554
0.015146390712231273   -0.0024897493182547024   0.010326720765936465
0.015146390712231273   -0.0024897493182547024   0.010326720765936465
0.015146390712231273   -0.0024897493182547024   0.010326720765936465
0.015146390712231273   -0.0024897493182547024   0.010326720765936465
-0.2602036005484277   -0.17478032396569476   -0.18426587933696906
-0.2602036005484277   -0.17478032396569476   -0.18426587933696906
-0.2602036005484277   -0.17478032396569476   -0.18426587933696906
-0.2602036005484277   -0.17478032396569476   -0.18426587933696906
0.3578244798579041   0.22892321243045177   0.11281404701549279
0.3578244798579041   0.22892321243045177   0.11281404701549279
0.3578244798579041   0.22892321243045177   0.11281404701549279
0.3578244798579041   0.22892321243045177   0.11281404701549279
0.36485476715013654   0.02687506556555006   -0.23326601732017177
0.36485476715013654   0.02687506556555006   -0.23326601732017177
0.36485476715013654   0.02687506556555006   -0.23326601732017177
0.36485476715013654   0.02687506556555006   -0.23326601732017177
-0.10668703078009471   0.20157259238314423   0.09101520072253265
-0.10668703078009471   0.20157259238314423   0.09101520072253265
-0.10668703078009471   0.20157259238314423   0.09101520072253265
-0.10668703078009471   0.20157259238314423   0.09101520072253265
0.08681878571044238   0.05852612683951977   0.052366282138912486
0.08681878571044238   0.05852612683951977   0.052366282138912486
0.08681878571044238   0.05852612683951977   0.052366282138912486
0.08681878571044238   0.05852612683951977   0.052366282138912486
-0.7077687847264034   0.038824201131067854   0.1950246656923056
-0.7077687847264034   0.038824201131067854   0.1950246656923056
-0.7077687847264034   0.038824201131067854   0.1950246656923056
-0.7077687847264034   0.038824201131067854   0.1950246656923056
-0.8332870522481711   -0.2546528005207115   -0.11531829835140658
-0.8332870522481711   -0.2546528005207115   -0.11531829835140658
-0.8332870522481711   -0.2546528005207115   -0.11531829835140658
-0.8332870522481711   -0.2546528005207115   -0.11531829835140658
-0.6652664580635765   0.1186240747175441   0.15978109186960224
-0.6652664580635765   0.1186240747175441   0.15978109186960224
-0.6652664580635765   0.1186240747175441   0.15978109186960224
-0.6652664580635765   0.1186240747175441   0.15978109186960224
-0.6870662583242936   -0.16854425371059306   -0.14842881575269784
-0.6870662583242936   -0.16854425371059306   -0.14842881575269784
-0.6870662583242936   -0.16854425371059306   -0.14842881575269784
-0.6870662583242936   -0.16854425371059306   -0.14842881575269784
-0.7048007764549706   -0.05425806303025496   -0.05297400025232041
-0.7048007764549706   -0.05425806303025496   -0.05297400025232041
-0.7048007764549706   -0.05425806303025496   -0.05297400025232041
-0.7048007764549706   -0.05425806303025496   -0.05297400025232041
-0.5584613626131859   0.14436596437679272   0.1816854447154547
-0.5584613626131859   0.14436596437679272   0.1816854447154547
-0.5584613626131859   0.14436596437679272   0.1816854447154547
-0.5584613626131859   0.14436596437679272   0.1816854447154547
-0.7858680068348426   -0.18628279642999754   -0.13831978083917126
-0.7858680068348426   -0.18628279642999754   -0.13831978083917126
-0.7858680068348426   -0.18628279642999754   -0.13831978083917126
-0.7858680068348426   -0.18628279642999754   -0.13831978083917126
-0.613032561070166   0.1635127959941645   0.13453493837285924
-0.613032561070166   0.1635127959941645   0.13453493837285924
-0.613032561070166   0.1635127959941645   0.13453493837285924
-0.613032561070166   0.1635127959941645   0.13453493837285924
-0.5758382051298163   -0.11781417468273192   -0.18503050755548683
-0.5758382051298163   -0.11781417468273192   -0.18503050755548683
-0.5758382051298163   -0.11781417468273192   -0.18503050755548683
-0.5758382051298163   -0.11781417468273192   -0.18503050755548683
-0.6227302224302552   0.0031508341834660114   -0.010672085512912197
-0.6227302224302552   0.0031508341834660114   -0.010672085512912197
-0.6227302224302552   0.0031508341834660114   -0.010672085512912197
-0.6227302224302552   0.0031508341834660114   -0.010672085512912197
-0.4464307870956854   0.1989705372508106   0.14522187068160927
-0.4464307870956854   0.1989705372508106   0.14522187068160927
-0.4464307870956854   0.1989705372508106   0.14522187068160927
-0.4464307870956854   0.1989705372508106   0.14522187068160927
-0.7348748225901608   -0.14570675942524458   -0.16545681380770558
-0.7348748225901608   -0.14570675942524458   -0.16545681380770558
-0.7348748225901608   -0.14570675942524458   -0.16545681380770558
-0.7348748225901608   -0.14570675942524458   -0.16545681380770558
-0.5651877697829357   0.23192595911833044   0.11620862727921256
-0.5651877697829357   0.23192595911833044   0.11620862727921256
-0.5651877697829357   0.23192595911833044   0.11620862727921256
-0.5651877697829357   0.23192595911833044   0.11620862727921256
-0.4273979438945569   -0.021368793178947895   -0.20848394799030828
-0.4273979438945569   -0.021368793178947895   -0.20848394799030828
-0.4273979438945569   -0.021368793178947895   -0.20848394799030828
-0.4273979438945569   -0.021368793178947895   -0.20848394799030828
-0.5238947088082677   0.0630313429886531   0.03468840069796295
-0.5238947088082677   0.0630313429886531   0.03468840069796295
-0.5238947088082677   0.0630313429886531   0.03468840069796295
-0.5238947088082677   0.0630313429886531   0.03468840069796295
-0.7465015426620448   -0.04654400912325156   0.11050045818174946
-0.7465015426620448   -0.04654400912325156   0.11050045818174946
-0.7465015426620448   -0.04654400912325156   0.11050045818174946
-0.7465015426620448   -0.04654400912325156   0.11050045818174946
-0.9212366929957742   -0.20768134755675   -0.04506665758568354
-0.9212366929957742   -0.20768134755675   -0.04506665758568354
-0.9212366929957742   -0.20768134755675   -0.04506665758568354
-0.9212366929957742   -0.20768134755675   -0.04506665758568354
-0.8205293324904752   0.021161183459135258   0.0741201179360375
-0.8205293324904752   0.021161183459135258   0.0741201179360375
-0.8205293324904752   0.021161183459135258   0.0741201179360375
-0.8205293324904752   0.021161183459135258   0.0741201179360375
-0.754418851345612   -0.09895225146355313   -0.06840454835946311
-0.754418851345612   -0.09895225146355313   -0.06840454835946311
-0.754418851345612   -0.09895225146355313   -0.06840454835946311
-0.754418851345612   -0.09895225146355313   -0.06840454835946311
-0.811160991014353   -0.07669097641378603   -0.03747639934737867
-0.811160991014353   -0.07669097641378603   -0.03747639934737867
-0.811160991014353   -0.07669097641378603   -0.03747639934737867
-0.811160991014353   -0.07669097641378603   -0.03747639934737867
-0.6913633466016502   0.05146208485754028   0.09645863903923756
-0.6913633466016502   0.05146208485754028   0.09645863903923756
-0.6913633466016502   0.05146208485754028   0.09645863903923756
-0.6913633466016502   0.05146208485754028   0.09645863903923756
-0.8773228197903387   -0.1229911354178636   -0.06569499968628886
-0.8773228197903387   -0.1229911354178636   -0.06569499968628886
-0.8773228197903387   -0.1229911354178636   -0.06569499968628886
-0.8773228197903387   -0.1229911354178636   -0.06569499968628886
-0.7738553063951239   0.11039524136004888   0.05657396278674118
-0.7738553063951239   0.11039524136004888   0.05657396278674118
-0.7738553063951239   0.11039524136004888   0.05657396278674118
-0.7738553063951239   0.11039524136004888   0.05657396278674118
-0.6921842438926563   -0.012820175650577276   -0.08489050409484994
-0.6921842438926563   -0.012820175650577276   -0.08489050409484994
-0.6921842438926563   -0.012820175650577276   -0.08489050409484994
-0.6921842438926563   -0.012820175650577276   -0.08489050409484994
-0.7554923214417663   0.006689190700892855   0.001604999389443848
-0.7554923214417663   0.006689190700892855   0.001604999389443848
-0.7554923214417663   0.006689190700892855   0.001604999389443848
-0.7554923214417663   0.006689190700892855   0.001604999389443848
-0.6260710923001178   0.14600692272096236   0.08684815549630251
-0.6260710923001178   0.14600692272096236   0.08684815549630251
-0.6260710923001178   0.14600692272096236   0.08684815549630251
-0.6260710923001178   0.14600692272096236   0.08684815549630251
-0.8332959332800813   -0.04175933230391232   -0.08847459797410012
-0.8332959332800813   -0.04175933230391232   -0.08847459797410012
-0.8332959332800813   -0.04175933230391232   -0.08847459797410012
-0.8332959332800813   -0.04175933230391232   -0.08847459797410012
-0.7269644485702842   0.209041881255759   0.039897886422133835
-0.7269644485702842   0.209041881255759   0.039897886422133835
-0.7269644485702842   0.209041881255759   0.039897886422133835
-0.7269644485702842   0.209041881255759   0.039897886422133835
-0.6383812773276346   0.08265316795349809   -0.1004861192794503
-0.6383812773276346   0.08265316795349809   -0.1004861192794503
-0.6383812773276346   0.08265316795349809   -0.1004861192794503
-0.6383812773276346   0.08265316795349809   -0.1004861192794503
-0.7028732070109841   0.09266319778329199   0.041334168165720504
-0.7028732070109841   0.09266319778329199   0.041334168165720504
-0.7028732070109841   0.09266319778329199   0.041334168165720504
-0.7028732070109841   0.09266319778329199   0.041334168165720504
-0.8896849966651733   -0.12587189324893616   0.030882369759483594
-0.8896849966651733   -0.12587189324893616   0.030882369759483594
-0.8896849966651733   -0.12587189324893616   0.030882369759483594
-0.8896849966651733   -0.12587189324893616   0.030882369759483594
-1.0091869981729942   -0.13049407945929525   0.027330906048078946
-1.0091869981729942   -0.13049407945929525   0.027330906048078946
-1.0091869981729942   -0.13049407945929525   0.027330906048078946
-1.0091869981729942   -0.13049407945929525   0.027330906048078946
-0.9716691083632085   -0.058993963846739356   -0.00954719853162686
-0.9716691083632085   -0.058993963846739356   -0.00954719853162686
-0.9716691083632085   -0.058993963846739356   -0.00954719853162686
-0.9716691083632085   -0.058993963846739356   -0.00954719853162686
-0.841422207031175   -0.01801298368909221   0.008829912380766303
-0.841422207031175   -0.01801298368909221   0.008829912380766303
-0.841422207031175   -0.01801298368909221   0.008829912380766303
-0.841422207031175   -0.01801298368909221   0.008829912380766303
-0.9293811189945773   -0.0786149669563342   -0.0248056201889014
-0.9293811189945773   -0.0786149669563342   -0.0248056201889014
-0.9293811189945773   -0.0786149669563342   -0.0248056201889014
-0.9293811189945773   -0.0786149669563342   -0.0248056201889014
-0.8421741938200122   -0.028145118568566996   0.015202113316038796
-0.8421741938200122   -0.028145118568566996   0.015202113316038796
-0.8421741938200122   -0.028145118568566996   0.015202113316038796
-0.8421741938200122   -0.028145118568566996   0.015202113316038796
-0.9650209020820153   -0.04296560947490985   0.007665478502518364
-0.9650209020820153   -0.04296560947490985   0.007665478502518364
-0.9650209020820153   -0.04296560947490985   0.007665478502518364
-0.9650209020820153   -0.04296560947490985   0.007665478502518364
-0.9226745601920686   0.04002554956637461   -0.02426964941823201
-0.9226745601920686   0.04002554956637461   -0.02426964941823201
-0.9226745601920686   0.04002554956637461   -0.02426964941823201
-0.9226745601920686   0.04002554956637461   -0.02426964941823201
-0.7949066355343445   0.07193841183517036   -0.01022585338448323
-0.7949066355343445   0.07193841183517036   -0.01022585338448323
-0.7949066355343445   0.07193841183517036   -0.01022585338448323
-0.7949066355343445   0.07193841183517036   -0.01022585338448323
-0.8782207169143492   0.00994809975563754   0.01375226865577863
-0.8782207169143492   0.00994809975563754   0.01375226865577863
-0.8782207169143492   0.00994809975563754   0.01375226865577863
-0.8782207169143492   0.00994809975563754   0.01375226865577863
-0.7933610548679004   0.07052522739286082   -0.001084765609969035
-0.7933610548679004   0.07052522739286082   -0.001084765609969035
-0.7933610548679004   0.07052522739286082   -0.001084765609969035
-0.7933610548679004   0.07052522739286082   -0.001084765609969035
-0.9190821074252428   0.0465767674419513   -0.012858603459680124
-0.9190821074252428   0.0465767674419513   -0.012858603459680124
-0.9190821074252428   0.0465767674419513   -0.012858603459680124
-0.9190821074252428   0.0465767674419513   -0.012858603459680124
-0.8757649133104064   0.13962891486568568   -0.04091894587979164
-0.8757649133104064   0.13962891486568568   -0.04091894587979164
-0.8757649133104064   0.13962891486568568   -0.04091894587979164
-0.8757649133104064   0.13962891486568568   -0.04091894587979164
-0.7505241792075737   0.1622579126585565   -0.03111679816710332
-0.7505241792075737   0.1622579126585565   -0.03111679816710332
-0.7505241792075737   0.1622579126585565   -0.03111679816710332
-0.7505241792075737   0.1622579126585565   -0.03111679816710332
-0.8293986425445297   0.0986683831145127   0.050509200381396946
-0.8293986425445297   0.0986683831145127   0.050509200381396946
-0.8293986425445297   0.0986683831145127   0.050509200381396946
-0.8293986425445297   0.0986683831145127   0.050509200381396946
-1.0385062884834408   -0.19886981931428252   -0.050889805649183446
-1.0385062884834408   -0.19886981931428252   -0.050889805649183446
-1.0385062884834408   -0.19886981931428252   -0.050889805649183446
-1.0385062884834408   -0.19886981931428252   -0.050889805649183446
-1.1042826752107668   -0.054921398090770374   0.09658703383995629
-1.1042826752107668   -0.054921398090770374   0.09658703383995629
-1.1042826752107668   -0.054921398090770374   0.09658703383995629
-1.1042826752107668   -0.054921398090770374   0.09658703383995629
-1.1216679174252466   -0.13573504202913086   -0.09419945148290687
-1.1216679174252466   -0.13573504202913086   -0.09419945148290687
-1.1216679174252466   -0.13573504202913086   -0.09419945148290687
-1.1216679174252466   -0.13573504202913086   -0.09419945148290687
-0.9297500806516149   0.05978072561282466   0.08127325056677728
-0.9297500806516149   0.05978072561282466   0.08127325056677728
-0.9297500806516149   0.05978072561282466   0.08127325056677728
-0.9297500806516149   0.05978072561282466   0.08127325056677728
-1.0442520291056594   -0.07706131752194961   -0.015564099516224339
-1.0442520291056594   -0.07706131752194961   -0.015564099516224339
-1.0442520291056594   -0.07706131752194961   -0.015564099516224339
-1.0442520291056594   -0.07706131752194961   -0.015564099516224339
-0.9922624775252057   -0.1044297211585213   -0.06707828702983862
-0.9922624775252057   -0.1044297211585213   -0.06707828702983862
-0.9922624775252057   -0.1044297211585213   -0.06707828702983862
-0.9922624775252057   -0.1044297211585213   -0.06707828702983862
-1.0529715477777648   0.03465937751609455   0.07888797720927668
-1.0529715477777648   0.03465937751609455   0.07888797720927668
-1.0529715477777648   0.03465937751609455   0.07888797720927668
-1.0529715477777648   0.03465937751609455   0.07888797720927668
-1.0576409859638372   -0.041826535028518824   -0.10568038587918463
-1.0576409859638372   -0.041826535028518824   -0.10568038587918463
-1.0576409859638372   -0.041826535028518824   -0.10568038587918463
-1.0576409859638372   -0.041826535028518824   -0.10568038587918463
-0.8855740393366383   0.1409254428989241   0.06033306152636053
-0.8855740393366383   0.1409254428989241   0.06033306152636053
-0.8855740393366383   0.1409254428989241   0.06033306152636053
-0.8855740393366383   0.1409254428989241   0.06033306152636053
-0.9862510825425548   0.008180807812111252   0.02421566585621475
-0.9862510825425548   0.008180807812111252   0.02421566585621475
-0.9862510825425548   0.008180807812111252   0.02421566585621475
-0.9862510825425548   0.008180807812111252   0.02421566585621475
-0.9461547132604262   -0.015601813625610667   -0.08604305156805486
-0.9461547132604262   -0.015601813625610667   -0.08604305156805486
-0.9461547132604262   -0.015601813625610667   -0.08604305156805486
-0.9461547132604262   -0.015601813625610667   -0.08604305156805486
-0.9908102573459816   0.12095077619010375   0.06569594599147928
-0.9908102573459816   0.12095077619010375   0.06569594599147928
-0.9908102573459816   0.12095077619010375   0.06569594599147928
-0.9908102573459816   0.12095077619010375   0.06569594599147928
-1.0015855782358394   0.06172310740118925   -0.1159344057650073
-1.0015855782358394   0.06172310740118925   -0.1159344057650073
-1.0015855782358394   0.06172310740118925   -0.1159344057650073
-1.0015855782358394   0.06172310740118925   -0.1159344057650073
-0.8412743966923226   0.23147913906483267   0.03968341301148019
-0.8412743966923226   0.23147913906483267   0.03968341301148019
-0.8412743966923226   0.23147913906483267   0.03968341301148019
-0.8412743966923226   0.23147913906483267   0.03968341301148019
-0.9368185362168968   0.09289377720274089   0.062294867448780156
-0.9368185362168968   0.09289377720274089   0.062294867448780156
-0.9368185362168968   0.09289377720274089   0.062294867448780156
-0.9368185362168968   0.09289377720274089   0.062294867448780156
-1.1854162359030072   -0.23683338411616328   -0.12716878359586392
-1.1854162359030072   -0.23683338411616328   -0.12716878359586392
-1.1854162359030072   -0.23683338411616328   -0.12716878359586392
-1.1854162359030072   -0.23683338411616328   -0.12716878359586392
-1.3053916074135545   0.019585093472177018   0.17324243946161022
-1.3053916074135545   0.019585093472177018   0.17324243946161022
-1.3053916074135545   0.019585093472177018   0.17324243946161022
-1.3053916074135545   0.019585093472177018   0.17324243946161022
-1.2869773288356938   -0.19574097948752908   -0.16918261824816874
-1.2869773288356938   -0.19574097948752908   -0.16918261824816874
-1.2869773288356938   -0.19574097948752908   -0.16918261824816874
-1.2869773288356938   -0.19574097948752908   -0.16918261824816874
-1.014790146556613   0.14915378470181517   0.15530057612930417
-1.014790146556613   0.14915378470181517   0.15530057612930417
-1.014790146556613   0.14915378470181517   0.15530057612930417
-1.014790146556613   0.14915378470181517   0.15530057612930417
-1.1502513798375877   -0.05043832543906396   -0.008147679957327708
-1.1502513798375877   -0.05043832543906396   -0.008147679957327708
-1.1502513798375877   -0.05043832543906396   -0.008147679957327708
-1.1502513798375877   -0.05043832543906396   -0.008147679957327708
-1.1369499851785538   -0.1609732946351461   -0.14537153764345495
-1.1369499851785538   -0.1609732946351461   -0.14537153764345495
-1.1369499851785538   -0.1609732946351461   -0.14537153764345495
-1.1369499851785538   -0.1609732946351461   -0.14537153764345495
-1.1582776586033459   0.12092593145984448   0.15764882196618354
-1.1582776586033459   0.12092593145984448   0.15764882196618354
-1.1582776586033459   0.12092593145984448   0.15764882196618354
-1.1582776586033459   0.12092593145984448   0.15764882196618354
-1.1767704904657483   -0.14087045615391613   -0.20155932558269402
-1.1767704904657483   -0.14087045615391613   -0.20155932558269402
-1.1767704904657483   -0.14087045615391613   -0.20155932558269402
-1.1767704904657483   -0.14087045615391613   -0.20155932558269402
-0.965164343362008   0.18779895792686266   0.12707733417458011
-0.965164343362008   0.18779895792686266   0.12707733417458011
-0.965164343362008   0.18779895792686266   0.12707733417458011
-0.965164343362008   0.18779895792686266   0.12707733417458011
-1.0752632752018323   0.006847777148036888   0.030078858385958182
-1.0752632752018323   0.006847777148036888   0.030078858385958182
-1.0752632752018323   0.006847777148036888   0.030078858385958182
-1.0752632752018323   0.006847777148036888   0.030078858385958182
-1.0849235587976345   -0.11581096809924518   -0.16810881697745322
-1.0849235587976345   -0.11581096809924518   -0.16810881697745322
-1.0849235587976345   -0.11581096809924518   -0.16810881697745322
-1.0849235587976345   -0.11581096809924518   -0.16810881697745322
-1.0501624331248598   0.16958831177743194   0.12102219319040106
-1.0501624331248598   0.16958831177743194   0.12102219319040106
-1.0501624331248598   0.16958831177743194   0.12102219319040106
-1.0501624331248598   0.16958831177743194   0.12102219319040106
-1.0324001557461926   -0.04580851799258076   -0.22017722618993302
-1.0324001557461926   -0.04580851799258076   -0.22017722618993302
-1.0324001557461926   -0.04580851799258076   -0.22017722618993302
-1.0324001557461926   -0.04580851799258076   -0.22017722618993302
-0.9206700330303013   0.2456938267060614   0.10467260095780534
-0.9206700330303013   0.2456938267060614   0.10467260095780534
-0.9206700330303013   0.2456938267060614   0.10467260095780534
-0.9206700330303013   0.2456938267060614   0.10467260095780534
-0.9734823488112088   0.06419245904574739   0.07423189547310717
-0.9734823488112088   0.06419245904574739   0.07423189547310717
-0.9734823488112088   0.06419245904574739   0.07423189547310717
-0.9734823488112088   0.06419245904574739   0.07423189547310717
0.7162844255430146   0.11616165527123279   0.18918250281712898
0.7162844255430146   0.11616165527123279   0.18918250281712898
0.7162844255430146   0.11616165527123279   0.18918250281712898
0.7162844255430146   0.11616165527123279   0.18918250281712898
-0.01969711559441452   -0.3044015503900036   -0.12525705595720651
-0.01969711559441452   -0.3044015503900036   -0.12525705595720651
-0.01969711559441452   -0.3044015503900036   -0.12525705595720651
-0.01969711559441452   -0.3044015503900036   -0.12525705595720651
0.16009533495101952   0.05982455826406182   0.14625365084538622
0.16009533495101952   0.05982455826406182   0.14625365084538622
0.16009533495101952   0.05982455826406182   0.14625365084538622
0.16009533495101952   0.05982455826406182   0.14625365084538622
0.7483692523978713   -0.1078431122166768   -0.15660704728721664
0.7483692523978713   -0.1078431122166768   -0.15660704728721664
0.7483692523978713   -0.1078431122166768   -0.15660704728721664
0.7483692523978713   -0.1078431122166768   -0.15660704728721664
0.36527835200777653   -0.05960124179332951   -0.08988458907513294
0.36527835200777653   -0.05960124179332951   -0.08988458907513294
0.36527835200777653   -0.05960124179332951   -0.08988458907513294
0.36527835200777653   -0.05960124179332951   -0.08988458907513294
0.8770255185295561   0.208105082534665   0.1707260886198655
0.8770255185295561   0.208105082534665   0.1707260886198655
0.8770255185295561   0.208105082534665   0.1707260886198655
0.8770255185295561   0.208105082534665   0.1707260886198655
0.039291274665345544   -0.24827143064126916   -0.14967066167765267
0.039291274665345544   -0.24827143064126916   -0.14967066167765267
0.039291274665345544   -0.24827143064126916   -0.14967066167765267
0.039291274665345544   -0.24827143064126916   -0.14967066167765267
0.22611072991956702   0.10400856145602547   0.1221342380889168
0.22611072991956702   0.10400856145602547   0.1221342380889168
0.22611072991956702   0.10400856145602547   0.1221342380889168
0.22611072991956702   0.10400856145602547   0.1221342380889168
0.8740921736985509   -0.057913392609098724   -0.19610138339394353
0.8740921736985509   -0.057913392609098724   -0.19610138339394353
0.8740921736985509   -0.057913392609098724   -0.19610138339394353
0.8740921736985509   -0.057913392609098724   -0.19610138339394353
0.4786568356415479   -0.004439019528801574   -0.04204247737265362
0.4786568356415479   -0.004439019528801574   -0.04204247737265362
0.4786568356415479   -0.004439019528801574   -0.04204247737265362
0.4786568356415479   -0.004439019528801574   -0.04204247737265362
1.0042248563542697   0.2621118888169083   0.13453674845862829
1.0042248563542697   0.2621118888169083   0.13453674845862829
1.0042248563542697   0.2621118888169083   0.13453674845862829
1.0042248563542697   0.2621118888169083   0.13453674845862829
0.10368644600608476   -0.20830832122774753   -0.17767029879472146
0.10368644600608476   -0.20830832122774753   -0.17767029879472146
0.10368644600608476   -0.20830832122774753   -0.17767029879472146
0.10368644600608476   -0.20830832122774753   -0.17767029879472146
0.2902068249570533   0.1849886705279094   0.10569860169236804
0.2902068249570533   0.1849886705279094   0.10569860169236804
0.2902068249570533   0.1849886705279094   0.10569860169236804
0.2902068249570533   0.1849886705279094   0.10569860169236804
1.0409077316922852   0.05388395796564416   -0.21632703019700295
1.0409077316922852   0.05388395796564416   -0.21632703019700295
1.0409077316922852   0.05388395796564416   -0.21632703019700295
1.0409077316922852   0.05388395796564416   -0.21632703019700295
0.5741900684757012   0.05727627644118889   0.003282346124195642
0.5741900684757012   0.05727627644118889   0.003282346124195642
0.5741900684757012   0.05727627644118889   0.003282346124195642
0.5741900684757012   0.05727627644118889   0.003282346124195642
0.09799650485056494   0.030783768920990728   0.12802572695668107
0.09799650485056494   0.030783768920990728   0.12802572695668107
0.09799650485056494   0.030783768920990728   0.12802572695668107
0.09799650485056494   0.030783768920990728   0.12802572695668107
-0.6865963442953218   -0.25826517030864565   -0.057427514291374826
-0.6865963442953218   -0.25826517030864565   -0.057427514291374826
-0.6865963442953218   -0.25826517030864565   -0.057427514291374826
-0.6865963442953218   -0.25826517030864565   -0.057427514291374826
-0.5728738475835087   -0.037222817539183606   0.05869761750028127
-0.5728738475835087   -0.037222817539183606   0.05869761750028127
-0.5728738475835087   -0.037222817539183606   0.05869761750028127
-0.5728738475835087   -0.037222817539183606   0.05869761750028127
0.10359939529131537   -0.030570037905845393   -0.045831451283227354
0.10359939529131537   -0.030570037905845393   -0.045831451283227354
0.10359939529131537   -0.030570037905845393   -0.045831451283227354
0.10359939529131537   -0.030570037905845393   -0.045831451283227354
-0.27007955087226837   -0.06720192072896553   -0.04330920794077262
-0.27007955087226837   -0.06720192072896553   -0.04330920794077262
-0.27007955087226837   -0.06720192072896553   -0.04330920794077262
-0.27007955087226837   -0.06720192072896553   -0.04330920794077262
0.16590043911327218   0.12151105190354883   0.11359267801716251
0.16590043911327218   0.12151105190354883   0.11359267801716251
0.16590043911327218   0.12151105190354883   0.11359267801716251
0.16590043911327218   0.12151105190354883   0.11359267801716251
-0.6294777787326891   -0.18360679467580135   -0.07793806110900263
-0.6294777787326891   -0.18360679467580135   -0.07793806110900263
-0.6294777787326891   -0.18360679467580135   -0.07793806110900263
-0.6294777787326891   -0.18360679467580135   -0.07793806110900263
-0.5126442035374046   0.04836846184270069   0.04151264301641082
-0.5126442035374046   0.04836846184270069   0.04151264301641082
-0.5126442035374046   0.04836846184270069   0.04151264301641082
-0.5126442035374046   0.04836846184270069   0.04151264301641082
0.17864265286698744   0.05079042849259699   -0.06198801421055258
0.17864265286698744   0.05079042849259699   -0.06198801421055258
0.17864265286698744   0.05079042849259699   -0.06198801421055258
0.17864265286698744   0.05079042849259699   -0.06198801421055258
-0.20626020662607567   0.00840624414255891   -0.005168903306232283
-0.20626020662607567   0.00840624414255891   -0.005168903306232283
-0.20626020662607567   0.00840624414255891   -0.005168903306232283
-0.20626020662607567   0.00840624414255891   -0.005168903306232283
0.2435508212735038   0.21164465788712497   0.10169859842750124
0.2435508212735038   0.21164465788712497   0.10169859842750124
0.2435508212735038   0.21164465788712497   0.10169859842750124
0.2435508212735038   0.21164465788712497   0.10169859842750124
-0.5720775906360939   -0.10701098624397977   -0.10027484439035514
-0.5720775906360939   -0.10701098624397977   -0.10027484439035514
-0.5720775906360939   -0.10701098624397977   -0.10027484439035514
-0.5720775906360939   -0.10701098624397977   -0.10027484439035514
-0.4520724051258565   0.14503808445130162   0.02512959100778915
-0.4520724051258565   0.14503808445130162   0.02512959100778915
-0.4520724051258565   0.14503808445130162   0.02512959100778915
-0.4520724051258565   0.14503808445130162   0.02512959100778915
0.24481295177556223   0.14291769975674873   -0.0791997934439267
0.24481295177556223   0.14291769975674873   -0.0791997934439267
0.24481295177556223   0.14291769975674873   -0.0791997934439267
0.24481295177556223   0.14291769975674873   -0.0791997934439267
-0.1358126110619685   0.09175517680197122   0.035445008692548095
-0.1358126110619685   0.09175517680197122   0.035445008692548095
-0.1358126110619685   0.09175517680197122   0.035445008692548095
-0.1358126110619685   0.09175517680197122   0.035445008692548095
-0.6242325388918804   -0.04978675027437454   0.04591309269156876
-0.6242325388918804   -0.04978675027437454   0.04591309269156876
-0.6242325388918804   -0.04978675027437454   0.04591309269156876
-0.6242325388918804   -0.04978675027437454   0.04591309269156876
-1.3415110551933678   -0.1828117334080845   0.0120770367701553
-1.3415110551933678   -0.1828117334080845   0.0120770367701553
-1.3415110551933678   -0.1828117334080845   0.0120770367701553
-1.3415110551933678   -0.1828117334080845   0.0120770367701553
-1.2886427520889225   -0.11428683431817172   -0.02531879570688353
-1.2886427520889225   -0.11428683431817172   -0.02531879570688353
-1.2886427520889225   -0.11428683431817172   -0.02531879570688353
-1.2886427520889225   -0.11428683431817172   -0.02531879570688353
-0.5619168829231903   0.04758184268159757   0.028677780581100105
-0.5619168829231903   0.04758184268159757   0.028677780581100105
-0.5619168829231903   0.04758184268159757   0.028677780581100105
-0.5619168829231903   0.04758184268159757   0.028677780581100105
-0.9554749312744653   -0.06866663351330063   -0.025124322033936677
-0.9554749312744653   -0.06866663351330063   -0.025124322033936677
-0.9554749312744653   -0.06866663351330063   -0.025124322033936677
-0.9554749312744653   -0.06866663351330063   -0.025124322033936677
-0.5627227676962718   0.04200580131766107   0.030224398079629455
-0.5627227676962718   0.04200580131766107   0.030224398079629455
-0.5627227676962718   0.04200580131766107   0.030224398079629455
-0.5627227676962718   0.04200580131766107   0.030224398079629455
-1.2829673072202454   -0.10384123285863936   -0.007387172823029607
-1.2829673072202454   -0.10384123285863936   -0.007387172823029607
-1.2829673072202454   -0.10384123285863936   -0.007387172823029607
-1.2829673072202454   -0.10384123285863936   -0.007387172823029607
-1.225341861398566   -0.02006727182702006   -0.03981904583121382
-1.225341861398566   -0.02006727182702006   -0.03981904583121382
-1.225341861398566   -0.02006727182702006   -0.03981904583121382
-1.225341861398566   -0.02006727182702006   -0.03981904583121382
-0.5022776362055336   0.13124217932239834   0.010471762196068421
-0.5022776362055336   0.13124217932239834   0.010471762196068421
-0.5022776362055336   0.13124217932239834   0.010471762196068421
-0.5022776362055336   0.13124217932239834   0.010471762196068421
-0.8901416168778113   0.014136207250461219   0.013268117170219723
-0.8901416168778113   0.014136207250461219   0.013268117170219723
-0.8901416168778113   0.014136207250461219   0.013268117170219723
-0.8901416168778113   0.014136207250461219   0.013268117170219723
-0.500827870354242   0.1354932414192269   0.01346952935569709
-0.500827870354242   0.1354932414192269   0.01346952935569709
-0.500827870354242   0.1354932414192269   0.01346952935569709
-0.500827870354242   0.1354932414192269   0.01346952935569709
-1.2229130723546446   -0.020439779028637584   -0.027302593409999992
-1.2229130723546446   -0.020439779028637584   -0.027302593409999992
-1.2229130723546446   -0.020439779028637584   -0.027302593409999992
-1.2229130723546446   -0.020439779028637584   -0.027302593409999992
-1.1646034026033256   0.07438519210009314   -0.05640117756366832
-1.1646034026033256   0.07438519210009314   -0.05640117756366832
-1.1646034026033256   0.07438519210009314   -0.05640117756366832
-1.1646034026033256   0.07438519210009314   -0.05640117756366832
-0.44516822141679235   0.21514947275175866   -0.01046087874734715
-0.44516822141679235   0.21514947275175866   -0.01046087874734715
-0.44516822141679235   0.21514947275175866   -0.01046087874734715
-0.44516822141679235   0.21514947275175866   -0.01046087874734715
-0.8281848027757815   0.09669947018202335   0.049153531388316976
-0.8281848027757815   0.09669947018202335   0.049153531388316976
-0.8281848027757815   0.09669947018202335   0.049153531388316976
-0.8281848027757815   0.09669947018202335   0.049153531388316976
-1.3409921143625583   -0.12934057598824503   -0.03879941649562533
-1.3409921143625583   -0.12934057598824503   -0.03879941649562533
-1.3409921143625583   -0.12934057598824503   -0.03879941649562533
-1.3409921143625583   -0.12934057598824503   -0.03879941649562533
-1.9886577365020652   -0.11193062054850128   0.08039523840570478
-1.9886577365020652   -0.11193062054850128   0.08039523840570478
-1.9886577365020652   -0.11193062054850128   0.08039523840570478
-1.9886577365020652   -0.11193062054850128   0.08039523840570478
-1.9884913221886014   -0.1896627666618952   -0.10720296926983561
-1.9884913221886014   -0.1896627666618952   -0.10720296926983561
-1.9884913221886014   -0.1896627666618952   -0.10720296926983561
-1.9884913221886014   -0.1896627666618952   -0.10720296926983561
-1.2167443124674402   0.12191153007116756   0.09797503801118972
-1.2167443124674402   0.12191153007116756   0.09797503801118972
-1.2167443124674402   0.12191153007116756   0.09797503801118972
-1.2167443124674402   0.12191153007116756   0.09797503801118972
-1.6246252992120462   -0.06922175423663324   -0.010505981783734977
-1.6246252992120462   -0.06922175423663324   -0.010505981783734977
-1.6246252992120462   -0.06922175423663324   -0.010505981783734977
-1.6246252992120462   -0.06922175423663324   -0.010505981783734977
-1.27892989774776   -0.037098466319651024   -0.053942891999578815
-1.27892989774776   -0.037098466319651024   -0.053942891999578815
-1.27892989774776   -0.037098466319651024   -0.053942891999578815
-1.27892989774776   -0.037098466319651024   -0.053942891999578815
-1.9223029779801015   -0.026650011342871427   0.060725996453656214
-1.9223029779801015   -0.026650011342871427   0.060725996453656214
-1.9223029779801015   -0.026650011342871427   0.060725996453656214
-1.9223029779801015   -0.026650011342871427   0.060725996453656214
-1.9093587691819487   -0.09975248321910557   -0.11927183921860011
-1.9093587691819487   -0.09975248321910557   -0.11927183921860011
-1.9093587691819487   -0.09975248321910557   -0.11927183921860011
-1.9093587691819487   -0.09975248321910557   -0.11927183921860011
-1.1581566814547504   0.19808031929920528   0.07795926276163831
-1.1581566814547504   0.19808031929920528   0.07795926276163831
-1.1581566814547504   0.19808031929920528   0.07795926276163831
-1.1581566814547504   0.19808031929920528   0.07795926276163831
-1.5464664137928945   0.014222195652462577   0.0290195513486384
-1.5464664137928945   0.014222195652462577   0.0290195513486384
-1.5464664137928945   0.014222195652462577   0.0290195513486384
-1.5464664137928945   0.014222195652462577   0.0290195513486384
-1.218289524574914   0.04782567236502139   -0.07245030590500033
-1.218289524574914   0.04782567236502139   -0.07245030590500033
-1.218289524574914   0.04782567236502139   -0.07245030590500033
-1.218289524574914   0.04782567236502139   -0.07245030590500033
-1.8447192004384014   0.05500888933846121   0.0491646319415692
-1.8447192004384014   0.05500888933846121   0.0491646319415692
-1.8447192004384014   0.05500888933846121   0.0491646319415692
-1.8447192004384014   0.05500888933846121   0.0491646319415692
-1.8385404824380056   -0.001582095353738766   -0.128356673335694
-1.8385404824380056   -0.001582095353738766   -0.128356673335694
-1.8385404824380056   -0.001582095353738766   -0.128356673335694
-1.8385404824380056   -0.001582095353738766   -0.128356673335694
-1.100171885856328   0.2823399988133518   0.05780159945806121
-1.100171885856328   0.2823399988133518   0.05780159945806121
-1.100171885856328   0.2823399988133518   0.05780159945806121
-1.100171885856328   0.2823399988133518   0.05780159945806121
-1.4876614872879586   0.09216894153988964   0.06448199194919885
-1.4876614872879586   0.09216894153988964   0.06448199194919885
-1.4876614872879586   0.09216894153988964   0.06448199194919885
-1.4876614872879586   0.09216894153988964   0.06448199194919885
-2.043044406869769   -0.1860730842563556   -0.11739564972496125
-2.043044406869769   -0.1860730842563556   -0.11739564972496125
-2.043044406869769   -0.1860730842563556   -0.11739564972496125
-2.043044406869769   -0.1860730842563556   -0.11739564972496125
-2.7254786049775506   -0.04685403736060978   0.17336288495599844
-2.7254786049775506   -0.04685403736060978   0.17336288495599844
-2.7254786049775506   -0.04685403736060978   0.17336288495599844
-2.7254786049775506   -0.04685403736060978   0.17336288495599844
-2.6863280290356353   -0.24748570805343584   -0.15635900516792853
-2.6863280290356353   -0.24748570805343584   -0.15635900516792853
-2.6863280290356353   -0.24748570805343584   -0.15635900516792853
-2.6863280290356353   -0.24748570805343584   -0.15635900516792853
-1.853786127546568   0.20575379414327877   0.17090644313515876
-1.853786127546568   0.20575379414327877   0.17090644313515876
-1.853786127546568   0.20575379414327877   0.17090644313515876
-1.853786127546568   0.20575379414327877   0.17090644313515876
-2.226925542209831   -0.039385682805260724   0.018107899901942684
-2.226925542209831   -0.039385682805260724   0.018107899901942684
-2.226925542209831   -0.039385682805260724   0.018107899901942684
-2.226925542209831   -0.039385682805260724   0.018107899901942684
-1.9757973861000389   -0.10065582460876071   -0.13274023088014916
-1.9757973861000389   -0.10065582460876071   -0.13274023088014916
-1.9757973861000389   -0.10065582460876071   -0.13274023088014916
-1.9757973861000389   -0.10065582460876071   -0.13274023088014916
-2.5607000515752874   0.06254062960547435   0.16175454447485624
-2.5607000515752874   0.06254062960547435   0.16175454447485624
-2.5607000515752874   0.06254062960547435   0.16175454447485624
-2.5607000515752874   0.06254062960547435   0.16175454447485624
-2.5615460871048663   -0.1940946538144201   -0.1860089807889751
-2.5615460871048663   -0.1940946538144201   -0.1860089807889751
-2.5615460871048663   -0.1940946538144201   -0.1860089807889751
-2.5615460871048663   -0.1940946538144201   -0.1860089807889751
-1.7892156568007418   0.24084814709184243   0.14084309237647094
-1.7892156568007418   0.24084814709184243   0.14084309237647094
-1.7892156568007418   0.24084814709184243   0.14084309237647094
-1.7892156568007418   0.24084814709184243   0.14084309237647094
-2.155571550754678   0.01658136606029409   0.050082201998446305
-2.155571550754678   0.01658136606029409   0.050082201998446305
-2.155571550754678   0.01658136606029409   0.050082201998446305
-2.155571550754678   0.01658136606029409   0.050082201998446305
-1.9075365046640698   -0.05672795094846056   -0.15318504889985127
-1.9075365046640698   -0.05672795094846056   -0.15318504889985127
-1.9075365046640698   -0.05672795094846056   -0.15318504889985127
-1.9075365046640698   -0.05672795094846056   -0.15318504889985127
-2.438786015312639   0.10792066815476031   0.12577605620295781
-2.438786015312639   0.10792066815476031   0.12577605620295781
-2.438786015312639   0.10792066815476031   0.12577605620295781
-2.438786015312639   0.10792066815476031   0.12577605620295781
-2.4080981333854465   -0.11419045354163437   -0.20732069992552798
-2.4080981333854465   -0.11419045354163437   -0.20732069992552798
-2.4080981333854465   -0.11419045354163437   -0.20732069992552798
-2.4080981333854465   -0.11419045354163437   -0.20732069992552798
-1.732383447569494   0.2835136675045549   0.11733273814856943
-1.732383447569494   0.2835136675045549   0.11733273814856943
-1.732383447569494   0.2835136675045549   0.11733273814856943
-1.732383447569494   0.2835136675045549   0.11733273814856943
-2.0235071084710086   0.06911335222248643   0.09499209075964635
-2.0235071084710086   0.06911335222248643   0.09499209075964635
-2.0235071084710086   0.06911335222248643   0.09499209075964635
-2.0235071084710086   0.06911335222248643   0.09499209075964635
2.174215672599548   0.1973526982078339   0.18960139883801924
2.174215672599548   0.1973526982078339   0.18960139883801924
2.174215672599548   0.1973526982078339   0.18960139883801924
2.174215672599548   0.1973526982078339   0.18960139883801924
0.7974974797319692   -0.3634380778019971   -0.12485342478537312
0.7974974797319692   -0.3634380778019971   -0.12485342478537312
0.7974974797319692   -0.3634380778019971   -0.12485342478537312
0.7974974797319692   -0.3634380778019971   -0.12485342478537312
0.9864041111317294   -0.0016104490825593065   0.1365214096495127
0.9864041111317294   -0.0016104490825593065   0.1365214096495127
0.9864041111317294   -0.0016104490825593065   0.1365214096495127
0.9864041111317294   -0.0016104490825593065   0.1365214096495127
2.2146196082640093   -0.05191929677851892   -0.1593272791599344
2.2146196082640093   -0.05191929677851892   -0.1593272791599344
2.2146196082640093   -0.05191929677851892   -0.1593272791599344
2.2146196082640093   -0.05191929677851892   -0.1593272791599344
1.448245784682346   -0.06623127521263389   -0.1402995978705613
1.448245784682346   -0.06623127521263389   -0.1402995978705613
1.448245784682346   -0.06623127521263389   -0.1402995978705613
1.448245784682346   -0.06623127521263389   -0.1402995978705613
2.344984166932273   0.2757637696901781   0.16481244771265624
2.344984166932273   0.2757637696901781   0.16481244771265624
2.344984166932273   0.2757637696901781   0.16481244771265624
2.344984166932273   0.2757637696901781   0.16481244771265624
0.8652217550428187   -0.3201113129719059   -0.15088950690567854
0.8652217550428187   -0.3201113129719059   -0.15088950690567854
0.8652217550428187   -0.3201113129719059   -0.15088950690567854
0.8652217550428187   -0.3201113129719059   -0.15088950690567854
1.061359057749213   0.04129135113882548   0.11265545129513825
1.061359057749213   0.04129135113882548   0.11265545129513825
1.061359057749213   0.04129135113882548   0.11265545129513825
1.061359057749213   0.04129135113882548   0.11265545129513825
2.3506885482442947   -0.003124407856698763   -0.20092363341631037
2.3506885482442947   -0.003124407856698763   -0.20092363341631037
2.3506885482442947   -0.003124407856698763   -0.20092363341631037
2.3506885482442947   -0.003124407856698763   -0.20092363341631037
1.5901231243032892   -0.013466366705258193   -0.08484318360206813
1.5901231243032892   -0.013466366705258193   -0.08484318360206813
1.5901231243032892   -0.013466366705258193   -0.08484318360206813
1.5901231243032892   -0.013466366705258193   -0.08484318360206813
2.4825543631102676   0.3283796071361473   0.12690142592069265
2.4825543631102676   0.3283796071361473   0.12690142592069265
2.4825543631102676   0.3283796071361473   0.12690142592069265
2.4825543631102676   0.3283796071361473   0.12690142592069265
0.9393039387709351   -0.280401967966328   -0.17592682449109737
0.9393039387709351   -0.280401967966328   -0.17592682449109737
0.9393039387709351   -0.280401967966328   -0.17592682449109737
0.9393039387709351   -0.280401967966328   -0.17592682449109737
1.1362002553143318   0.13573613978328078   0.09764135526913362
1.1362002553143318   0.13573613978328078   0.09764135526913362
1.1362002553143318   0.13573613978328078   0.09764135526913362
1.1362002553143318   0.13573613978328078   0.09764135526913362
2.5292613691799164   0.12416037130894292   -0.21681204420341116
2.5292613691799164   0.12416037130894292   -0.21681204420341116
2.5292613691799164   0.12416037130894292   -0.21681204420341116
2.5292613691799164   0.12416037130894292   -0.21681204420341116
1.6782248434856406   0.05061818317313127   -0.036746677192074306
1.6782248434856406   0.05061818317313127   -0.036746677192074306
1.6782248434856406   0.05061818317313127   -0.036746677192074306
1.6782248434856406   0.05061818317313127   -0.036746677192074306
0.9474237221239326   0.11024357308997211   0.1510961362824596
0.9474237221239326   0.11024357308997211   0.1510961362824596
0.9474237221239326   0.11024357308997211   0.1510961362824596
0.9474237221239326   0.11024357308997211   0.1510961362824596
-0.45937583880579486   -0.33902409709419135   -0.06532679546467775
-0.45937583880579486   -0.33902409709419135   -0.06532679546467775
-0.45937583880579486   -0.33902409709419135   -0.06532679546467775
-0.45937583880579486   -0.33902409709419135   -0.06532679546467775
-0.32917016031815294   -0.09876615360204222   0.045957525845379626
-0.32917016031815294   -0.09876615360204222   0.045957525845379626
-0.32917016031815294   -0.09876615360204222   0.045957525845379626
-0.32917016031815294   -0.09876615360204222   0.045957525845379626
0.9556295791973654   0.0013147418558704937   -0.020276440960721877
0.9556295791973654   0.0013147418558704937   -0.020276440960721877
0.9556295791973654   0.0013147418558704937   -0.020276440960721877
0.9556295791973654   0.0013147418558704937   -0.020276440960721877
0.26617717838730426   -0.07210018701053562   -0.059940944683365714
0.26617717838730426   -0.07210018701053562   -0.059940944683365714
0.26617717838730426   -0.07210018701053562   -0.059940944683365714
0.26617717838730426   -0.07210018701053562   -0.059940944683365714
1.0243581719120516   0.1897368838071989   0.13494438066138062
1.0243581719120516   0.1897368838071989   0.13494438066138062
1.0243581719120516   0.1897368838071989   0.13494438066138062
1.0243581719120516   0.1897368838071989   0.13494438066138062
-0.3924044043341894   -0.2816939468547209   -0.08728590098212394
-0.3924044043341894   -0.2816939468547209   -0.08728590098212394
-0.3924044043341894   -0.2816939468547209   -0.08728590098212394
-0.3924044043341894   -0.2816939468547209   -0.08728590098212394
-0.2593118219771617   -0.018582881040306507   0.029099912969201808
-0.2593118219771617   -0.018582881040306507   0.029099912969201808
-0.2593118219771617   -0.018582881040306507   0.029099912969201808
-0.2593118219771617   -0.018582881040306507   0.029099912969201808
1.0376973622814474   0.0733420399655891   -0.03770371487045381
1.0376973622814474   0.0733420399655891   -0.03770371487045381
1.0376973622814474   0.0733420399655891   -0.03770371487045381
1.0376973622814474   0.0733420399655891   -0.03770371487045381
0.33372821823436766   -0.008694153132115606   -0.02385970228069875
0.33372821823436766   -0.008694153132115606   -0.02385970228069875
0.33372821823436766   -0.008694153132115606   -0.02385970228069875
0.33372821823436766   -0.008694153132115606   -0.02385970228069875
1.109164546127945   0.27323938237701983   0.11973486195060408
1.109164546127945   0.27323938237701983   0.11973486195060408
1.109164546127945   0.27323938237701983   0.11973486195060408
1.109164546127945   0.27323938237701983   0.11973486195060408
-0.32526616162826555   -0.21296737925632292   -0.10628728707030102
-0.32526616162826555   -0.21296737925632292   -0.10628728707030102
-0.32526616162826555   -0.21296737925632292   -0.10628728707030102
-0.32526616162826555   -0.21296737925632292   -0.10628728707030102
-0.19035759025842788   0.07418522981828686   0.01230839889763138
-0.19035759025842788   0.07418522981828686   0.01230839889763138
-0.19035759025842788   0.07418522981828686   0.01230839889763138
-0.19035759025842788   0.07418522981828686   0.01230839889763138
1.110565928161256   0.15899991025568241   -0.05379405096863108
1.110565928161256   0.15899991025568241   -0.05379405096863108
1.110565928161256   0.15899991025568241   -0.05379405096863108
1.110565928161256   0.15899991025568241   -0.05379405096863108
0.4169179823340622   0.0689598863456019   0.01823217798648037
0.4169179823340622   0.0689598863456019   0.01823217798648037
0.4169179823340622   0.0689598863456019   0.01823217798648037
0.4169179823340622   0.0689598863456019   0.01823217798648037
-0.36094521729725887   0.023705391511536514   0.06409682347227419
-0.36094521729725887   0.023705391511536514   0.06409682347227419
-0.36094521729725887   0.023705391511536514   0.06409682347227419
-0.36094521729725887   0.023705391511536514   0.06409682347227419
-1.6912474933060884   -0.29907746264767165   -0.008460646655563666
-1.6912474933060884   -0.29907746264767165   -0.008460646655563666
-1.6912474933060884   -0.29907746264767165   -0.008460646655563666
-1.6912474933060884   -0.29907746264767165   -0.008460646655563666
-1.608292608533275   -0.1753877541665432   -0.039794478049519376
-1.608292608533275   -0.1753877541665432   -0.039794478049519376
-1.608292608533275   -0.1753877541665432   -0.039794478049519376
-1.608292608533275   -0.1753877541665432   -0.039794478049519376
-0.30138931102578564   0.04335024099584178   0.04274537770933226
-0.30138931102578564   0.04335024099584178   0.04274537770933226
-0.30138931102578564   0.04335024099584178   0.04274537770933226
-0.30138931102578564   0.04335024099584178   0.04274537770933226
-0.9922259292692548   -0.09208892649708456   -0.037384771667677
-0.9922259292692548   -0.09208892649708456   -0.037384771667677
-0.9922259292692548   -0.09208892649708456   -0.037384771667677
-0.9922259292692548   -0.09208892649708456   -0.037384771667677
-0.28764589509571403   0.10638585316831597   0.04842684518721583
-0.28764589509571403   0.10638585316831597   0.04842684518721583
-0.28764589509571403   0.10638585316831597   0.04842684518721583
-0.28764589509571403   0.10638585316831597   0.04842684518721583
-1.6184006043763428   -0.23478794625201382   -0.030934265179388718
-1.6184006043763428   -0.23478794625201382   -0.030934265179388718
-1.6184006043763428   -0.23478794625201382   -0.030934265179388718
-1.6184006043763428   -0.23478794625201382   -0.030934265179388718
-1.5313209652752564   -0.0874153859408549   -0.053772735050474946
-1.5313209652752564   -0.0874153859408549   -0.053772735050474946
-1.5313209652752564   -0.0874153859408549   -0.053772735050474946
-1.5313209652752564   -0.0874153859408549   -0.053772735050474946
-0.23338112415353027   0.1160941471850898   0.02407637386197002
-0.23338112415353027   0.1160941471850898   0.02407637386197002
-0.23338112415353027   0.1160941471850898   0.02407637386197002
-0.23338112415353027   0.1160941471850898   0.02407637386197002
-0.9146096404216628   -0.018467923108139633   -0.000593557063763947
-0.9146096404216628   -0.018467923108139633   -0.000593557063763947
-0.9146096404216628   -0.018467923108139633   -0.000593557063763947
-0.9146096404216628   -0.018467923108139633   -0.000593557063763947
-0.216809635650505   0.19237251642218967   0.030655447139996517
-0.216809635650505   0.19237251642218967   0.030655447139996517
-0.216809635650505   0.19237251642218967   0.030655447139996517
-0.216809635650505   0.19237251642218967   0.030655447139996517
-1.5445085330654236   -0.1603098344651171   -0.04681612547704857
-1.5445085330654236   -0.1603098344651171   -0.04681612547704857
-1.5445085330654236   -0.1603098344651171   -0.04681612547704857
-1.5445085330654236   -0.1603098344651171   -0.04681612547704857
-1.4596861844345788   0.00023354572249417727   -0.07052255087576044
-1.4596861844345788   0.00023354572249417727   -0.07052255087576044
-1.4596861844345788   0.00023354572249417727   -0.07052255087576044
-1.4596861844345788   0.00023354572249417727   -0.07052255087576044
-0.16842016105295007   0.1904211548727403   0.005759619870574724
-0.16842016105295007   0.1904211548727403   0.005759619870574724
-0.16842016105295007   0.1904211548727403   0.005759619870574724
-0.16842016105295007   0.1904211548727403   0.005759619870574724
-0.8432821592186804   0.05486860206659164   0.03443030149493485
-0.8432821592186804   0.05486860206659164   0.03443030149493485
-0.8432821592186804   0.05486860206659164   0.03443030149493485
-0.8432821592186804   0.05486860206659164   0.03443030149493485
-1.647860003394601   -0.06497521129775474   -0.02562544844802689
-1.647860003394601   -0.06497521129775474   -0.02562544844802689
-1.647860003394601   -0.06497521129775474   -0.02562544844802689
-1.647860003394601   -0.06497521129775474   -0.02562544844802689
-2.8938394549482833   -0.24182866560673494   0.05662064474509389
-2.8938394549482833   -0.24182866560673494   0.05662064474509389
-2.8938394549482833   -0.24182866560673494   0.05662064474509389
-2.8938394549482833   -0.24182866560673494   0.05662064474509389
-2.8528813537118505   -0.24887870621381575   -0.11983910216931666
-2.8528813537118505   -0.24887870621381575   -0.11983910216931666
-2.8528813537118505   -0.24887870621381575   -0.11983910216931666
-2.8528813537118505   -0.24887870621381575   -0.11983910216931666
-1.5213445418883351   0.11185222070927253   0.1077058802993758
-1.5213445418883351   0.11185222070927253   0.1077058802993758
-1.5213445418883351   0.11185222070927253   0.1077058802993758
-1.5213445418883351   0.11185222070927253   0.1077058802993758
-2.213556063668876   -0.09687301686762839   -0.012995098128738752
-2.213556063668876   -0.09687301686762839   -0.012995098128738752
-2.213556063668876   -0.09687301686762839   -0.012995098128738752
-2.213556063668876   -0.09687301686762839   -0.012995098128738752
-1.5681624245014079   0.024272198042347926   -0.03880351009906316
-1.5681624245014079   0.024272198042347926   -0.03880351009906316
-1.5681624245014079   0.024272198042347926   -0.03880351009906316
-1.5681624245014079   0.024272198042347926   -0.03880351009906316
-2.8059761585144507   -0.16121137096253924   0.027019538566432494
-2.8059761585144507   -0.16121137096253924   0.027019538566432494
-2.8059761585144507   -0.16121137096253924   0.027019538566432494
-2.8059761585144507   -0.16121137096253924   0.027019538566432494
-2.7524257041971896   -0.1628740074019246   -0.132543348001572
-2.7524257041971896   -0.1628740074019246   -0.132543348001572
-2.7524257041971896   -0.1628740074019246   -0.132543348001572
-2.7524257041971896   -0.1628740074019246   -0.132543348001572
-1.4496221103162543   0.1812726091005546   0.08603354470314267
-1.4496221103162543   0.1812726091005546   0.08603354470314267
-1.4496221103162543   0.1812726091005546   0.08603354470314267
-1.4496221103162543   0.1812726091005546   0.08603354470314267
-2.1114952882574602   -0.015468660380952293   0.02385509090266605
-2.1114952882574602   -0.015468660380952293   0.02385509090266605
-2.1114952882574602   -0.015468660380952293   0.02385509090266605
-2.1114952882574602   -0.015468660380952293   0.02385509090266605
-1.4935682178898568   0.10410106887249304   -0.056525452936816295
-1.4935682178898568   0.10410106887249304   -0.056525452936816295
-1.4935682178898568   0.10410106887249304   -0.056525452936816295
-1.4935682178898568   0.10410106887249304   -0.056525452936816295
-2.7062568263428384   -0.08347969689309553   0.018906730761353296
-2.7062568263428384   -0.08347969689309553   0.018906730761353296
-2.7062568263428384   -0.08347969689309553   0.018906730761353296
-2.7062568263428384   -0.08347969689309553   0.018906730761353296
-2.662587142278696   -0.06956824918913584   -0.13932438413200912
-2.662587142278696   -0.06956824918913584   -0.13932438413200912
-2.662587142278696   -0.06956824918913584   -0.13932438413200912
-2.662587142278696   -0.06956824918913584   -0.13932438413200912
-1.380154957203783   0.25770881201035095   0.06965831899037161
-1.380154957203783   0.25770881201035095   0.06965831899037161
-1.380154957203783   0.25770881201035095   0.06965831899037161
-1.380154957203783   0.25770881201035095   0.06965831899037161
-2.0420849366215426   0.05420535268826121   0.055672950349024725
-2.0420849366215426   0.05420535268826121   0.055672950349024725
-2.0420849366215426   0.05420535268826121   0.055672950349024725
-2.0420849366215426   0.05420535268826121   0.055672950349024725
-2.906419274067859   -0.13944680955147937   -0.10866030690804046
-2.906419274067859   -0.13944680955147937   -0.10866030690804046
-2.906419274067859   -0.13944680955147937   -0.10866030690804046
-2.906419274067859   -0.13944680955147937   -0.10866030690804046
-4.140015900402534   -0.14895401432423472   0.18844052760504262
-4.140015900402534   -0.14895401432423472   0.18844052760504262
-4.140015900402534   -0.14895401432423472   0.18844052760504262
-4.140015900402534   -0.14895401432423472   0.18844052760504262
-4.05885220229874   -0.29815511962646957   -0.14357205096140993
-4.05885220229874   -0.29815511962646957   -0.14357205096140993
-4.05885220229874   -0.29815511962646957   -0.14357205096140993
-4.05885220229874   -0.29815511962646957   -0.14357205096140993
-2.694394808530094   0.23236634197964323   0.19134857554600593
-2.694394808530094   0.23236634197964323   0.19134857554600593
-2.694394808530094   0.23236634197964323   0.19134857554600593
-2.694394808530094   0.23236634197964323   0.19134857554600593
-3.2969938718335925   -0.04079191953184924   0.03768766215527167
-3.2969938718335925   -0.04079191953184924   0.03768766215527167
-3.2969938718335925   -0.04079191953184924   0.03768766215527167
-3.2969938718335925   -0.04079191953184924   0.03768766215527167
-2.812140234110308   -0.04425063155967279   -0.12076157881573618
-2.812140234110308   -0.04425063155967279   -0.12076157881573618
-2.812140234110308   -0.04425063155967279   -0.12076157881573618
-2.812140234110308   -0.04425063155967279   -0.12076157881573618
-3.939248529931425   -0.019679899300075965   0.17597109054874105
-3.939248529931425   -0.019679899300075965   0.17597109054874105
-3.939248529931425   -0.019679899300075965   0.17597109054874105
-3.939248529931425   -0.019679899300075965   0.17597109054874105
-3.9072486986894877   -0.24472889784897545   -0.16900909043887238
-3.9072486986894877   -0.24472889784897545   -0.16900909043887238
-3.9072486986894877   -0.24472889784897545   -0.16900909043887238
-3.9072486986894877   -0.24472889784897545   -0.16900909043887238
-2.6099700392082914   0.26533161076735146   0.15152935877364246
-2.6099700392082914   0.26533161076735146   0.15152935877364246
-2.6099700392082914   0.26533161076735146   0.15152935877364246
-2.6099700392082914   0.26533161076735146   0.15152935877364246
-3.2179708213294034   0.017488724799417876   0.06849324533914711
-3.2179708213294034   0.017488724799417876   0.06849324533914711
-3.2179708213294034   0.017488724799417876   0.06849324533914711
-3.2179708213294034   0.017488724799417876   0.06849324533914711
-2.7210387717576943   -0.0011513608467051961   -0.13733133235931497
-2.7210387717576943   -0.0011513608467051961   -0.13733133235931497
-2.7210387717576943   -0.0011513608467051961   -0.13733133235931497
-2.7210387717576943   -0.0011513608467051961   -0.13733133235931497
-3.794345552797719   0.023588487107436218   0.1271892540634942
-3.794345552797719   0.023588487107436218   0.1271892540634942
-3.794345552797719   0.023588487107436218   0.1271892540634942
-3.794345552797719   0.023588487107436218   0.1271892540634942
-3.7417905681458516   -0.18032927274933075   -0.19247484254450142
-3.7417905681458516   -0.18032927274933075   -0.19247484254450142
-3.7417905681458516   -0.18032927274933075   -0.19247484254450142
-3.7417905681458516   -0.18032927274933075   -0.19247484254450142
-2.5356563340425775   0.296698866049518   0.12906254180992816
-2.5356563340425775   0.296698866049518   0.12906254180992816
-2.5356563340425775   0.296698866049518   0.12906254180992816
-2.5356563340425775   0.296698866049518   0.12906254180992816
-3.051403682007176   0.06603868861626094   0.11481860998318916
-3.051403682007176   0.06603868861626094   0.11481860998318916
-3.051403682007176   0.06603868861626094   0.11481860998318916
-3.051403682007176   0.06603868861626094   0.11481860998318916
3.6611252147975804   0.27326009840489185   0.19500972118346035
3.6611252147975804   0.27326009840489185   0.19500972118346035
3.6611252147975804   0.27326009840489185   0.19500972118346035
3.6611252147975804   0.27326009840489185   0.19500972118346035
1.6167218357662185   -0.43316199660360766   -0.08916131068355476
1.6167218357662185   -0.43316199660360766   -0.08916131068355476
1.6167218357662185   -0.43316199660360766   -0.08916131068355476
1.6167218357662185   -0.43316199660360766   -0.08916131068355476
1.8042261967446864   -0.07530889209881059   0.13411815575780767
1.8042261967446864   -0.07530889209881059   0.13411815575780767
1.8042261967446864   -0.07530889209881059   0.13411815575780767
1.8042261967446864   -0.07530889209881059   0.13411815575780767
3.70239246036817   -0.008800790993668928   -0.14006404238707043
3.70239246036817   -0.008800790993668928   -0.14006404238707043
3.70239246036817   -0.008800790993668928   -0.14006404238707043
3.70239246036817   -0.008800790993668928   -0.14006404238707043
2.538106796485004   -0.0777598744770932   -0.19924316757192137
2.538106796485004   -0.0777598744770932   -0.19924316757192137
2.538106796485004   -0.0777598744770932   -0.19924316757192137
2.538106796485004   -0.0777598744770932   -0.19924316757192137
3.8320131900233774   0.3360605319870159   0.16317828290824915
3.8320131900233774   0.3360605319870159   0.16317828290824915
3.8320131900233774   0.3360605319870159   0.16317828290824915
3.8320131900233774   0.3360605319870159   0.16317828290824915
1.6870346438860802   -0.40774103828289704   -0.11940746235112076
1.6870346438860802   -0.40774103828289704   -0.11940746235112076
1.6870346438860802   -0.40774103828289704   -0.11940746235112076
1.6870346438860802   -0.40774103828289704   -0.11940746235112076
1.8778909441469112   -0.03579779509480152   0.10850703449055926
1.8778909441469112   -0.03579779509480152   0.10850703449055926
1.8778909441469112   -0.03579779509480152   0.10850703449055926
1.8778909441469112   -0.03579779509480152   0.10850703449055926
3.8306162966157564   0.0347998343404915   -0.17522212457354913
3.8306162966157564   0.0347998343404915   -0.17522212457354913
3.8306162966157564   0.0347998343404915   -0.17522212457354913
3.8306162966157564   0.0347998343404915   -0.17522212457354913
2.698784461277039   -0.031088202867904702   -0.1354007820578018
2.698784461277039   -0.031088202867904702   -0.1354007820578018
2.698784461277039   -0.031088202867904702   -0.1354007820578018
2.698784461277039   -0.031088202867904702   -0.1354007820578018
3.959508120979443   0.38302633307555634   0.12101049850981671
3.959508120979443   0.38302633307555634   0.12101049850981671
3.959508120979443   0.38302633307555634   0.12101049850981671
3.959508120979443   0.38302633307555634   0.12101049850981671
1.7598968479206616   -0.3731265656924295   -0.14413467604305963
1.7598968479206616   -0.3731265656924295   -0.14413467604305963
1.7598968479206616   -0.3731265656924295   -0.14413467604305963
1.7598968479206616   -0.3731265656924295   -0.14413467604305963
1.9445774683302421   0.06961214060676729   0.09513070313538462
1.9445774683302421   0.06961214060676729   0.09513070313538462
1.9445774683302421   0.06961214060676729   0.09513070313538462
1.9445774683302421   0.06961214060676729   0.09513070313538462
3.9882060658096754   0.1623030645187079   -0.18356908593882562
3.9882060658096754   0.1623030645187079   -0.18356908593882562
3.9882060658096754   0.1623030645187079   -0.18356908593882562
3.9882060658096754   0.1623030645187079   -0.18356908593882562
2.759539557147887   0.03161721074796453   -0.09109276951307216
2.759539557147887   0.03161721074796453   -0.09109276951307216
2.759539557147887   0.03161721074796453   -0.09109276951307216
2.759539557147887   0.03161721074796453   -0.09109276951307216
1.7886103093008703   0.15921858641438957   0.17790047397168446
1.7886103093008703   0.15921858641438957   0.17790047397168446
1.7886103093008703   0.15921858641438957   0.17790047397168446
1.7886103093008703   0.15921858641438957   0.17790047397168446
-0.2176220142797003   -0.5345197457338715   -0.05065298999699541
-0.2176220142797003   -0.5345197457338715   -0.05065298999699541
-0.2176220142797003   -0.5345197457338715   -0.05065298999699541
-0.2176220142797003   -0.5345197457338715   -0.05065298999699541
-0.055770683114568884   -0.18778147020405264   0.045642761051596724
-0.055770683114568884   -0.18778147020405264   0.045642761051596724
-0.055770683114568884   -0.18778147020405264   0.045642761051596724
-0.055770683114568884   -0.18778147020405264   0.045642761051596724
1.7738437436178836   -0.10166539348542941   0.00856239151041241
1.7738437436178836   -0.10166539348542941   0.00856239151041241
1.7738437436178836   -0.10166539348542941   0.00856239151041241
1.7738437436178836   -0.10166539348542941   0.00856239151041241
0.8000028803436583   -0.14988946703910694   -0.09534139791118215
0.8000028803436583   -0.14988946703910694   -0.09534139791118215
0.8000028803436583   -0.14988946703910694   -0.09534139791118215
0.8000028803436583   -0.14988946703910694   -0.09534139791118215
1.8678305263722816   0.21931366820199674   0.15751724359499306
1.8678305263722816   0.21931366820199674   0.15751724359499306
1.8678305263722816   0.21931366820199674   0.15751724359499306
1.8678305263722816   0.21931366820199674   0.15751724359499306
-0.14324444183794735   -0.5022475078604565   -0.07725999490889174
-0.14324444183794735   -0.5022475078604565   -0.07725999490889174
-0.14324444183794735   -0.5022475078604565   -0.07725999490889174
-0.14324444183794735   -0.5022475078604565   -0.07725999490889174
0.019366640586318352   -0.1171895228382933   0.02796919280526313
0.019366640586318352   -0.1171895228382933   0.02796919280526313
0.019366640586318352   -0.1171895228382933   0.02796919280526313
0.019366640586318352   -0.1171895228382933   0.02796919280526313
1.8506950084665499   -0.048452714356335136   -0.014817724649712899
1.8506950084665499   -0.048452714356335136   -0.014817724649712899
1.8506950084665499   -0.048452714356335136   -0.014817724649712899
1.8506950084665499   -0.048452714356335136   -0.014817724649712899
0.8654049615862972   -0.10657913660809037   -0.06187547232060918
0.8654049615862972   -0.10657913660809037   -0.06187547232060918
0.8654049615862972   -0.10657913660809037   -0.06187547232060918
0.8654049615862972   -0.10657913660809037   -0.06187547232060918
1.9497312435840026   0.2913930887636951   0.14051764781752074
1.9497312435840026   0.2913930887636951   0.14051764781752074
1.9497312435840026   0.2913930887636951   0.14051764781752074
1.9497312435840026   0.2913930887636951   0.14051764781752074
-0.07582806634685738   -0.4531937977740478   -0.11200006692486869
-0.07582806634685738   -0.4531937977740478   -0.11200006692486869
-0.07582806634685738   -0.4531937977740478   -0.11200006692486869
-0.07582806634685738   -0.4531937977740478   -0.11200006692486869
0.07832559810979994   -0.0346712889741326   0.010090282933750144
0.07832559810979994   -0.0346712889741326   0.010090282933750144
0.07832559810979994   -0.0346712889741326   0.010090282933750144
0.07832559810979994   -0.0346712889741326   0.010090282933750144
1.9082987644405358   0.01931525324515959   -0.03596592895156844
1.9082987644405358   0.01931525324515959   -0.03596592895156844
1.9082987644405358   0.01931525324515959   -0.03596592895156844
1.9082987644405358   0.01931525324515959   -0.03596592895156844
0.9451342291636176   -0.04185923323344676   -0.026070887398519954
0.9451342291636176   -0.04185923323344676   -0.026070887398519954
0.9451342291636176   -0.04185923323344676   -0.026070887398519954
0.9451342291636176   -0.04185923323344676   -0.026070887398519954
-0.07420347540947314   0.04367288498903532   0.08824707363123346
-0.07420347540947314   0.04367288498903532   0.08824707363123346
-0.07420347540947314   0.04367288498903532   0.08824707363123346
-0.07420347540947314   0.04367288498903532   0.08824707363123346
-2.037965605679002   -0.6716684771722041   -0.04096397413532189
-2.037965605679002   -0.6716684771722041   -0.04096397413532189
-2.037965605679002   -0.6716684771722041   -0.04096397413532189
-2.037965605679002   -0.6716684771722041   -0.04096397413532189
-1.8737975788887837   -0.28824116913243536   -0.04280340506905547
-1.8737975788887837   -0.28824116913243536   -0.04280340506905547
-1.8737975788887837   -0.28824116913243536   -0.04280340506905547
-1.8737975788887837   -0.28824116913243536   -0.04280340506905547
-0.06633507637387254   -0.2345575184832655   0.039596843034291354
-0.06633507637387254   -0.2345575184832655   0.039596843034291354
-0.06633507637387254   -0.2345575184832655   0.039596843034291354
-0.06633507637387254   -0.2345575184832655   0.039596843034291354
-1.0177581563970712   -0.27229082248437425   -0.08527444889510066
-1.0177581563970712   -0.27229082248437425   -0.08527444889510066
-1.0177581563970712   -0.27229082248437425   -0.08527444889510066
-1.0177581563970712   -0.27229082248437425   -0.08527444889510066
0.009233619938459777   0.11125192739111445   0.07163087872157296
0.009233619938459777   0.11125192739111445   0.07163087872157296
0.009233619938459777   0.11125192739111445   0.07163087872157296
0.009233619938459777   0.11125192739111445   0.07163087872157296
-1.9446769338158052   -0.6293612736215248   -0.056080075215072675
-1.9446769338158052   -0.6293612736215248   -0.056080075215072675
-1.9446769338158052   -0.6293612736215248   -0.056080075215072675
-1.9446769338158052   -0.6293612736215248   -0.056080075215072675
-1.7806357638151704   -0.209850830294799   -0.05839387387571128
-1.7806357638151704   -0.209850830294799   -0.05839387387571128
-1.7806357638151704   -0.209850830294799   -0.05839387387571128
-1.7806357638151704   -0.209850830294799   -0.05839387387571128
0.003698472810366435   -0.18344938208804978   0.015888213175252353
0.003698472810366435   -0.18344938208804978   0.015888213175252353
0.003698472810366435   -0.18344938208804978   0.015888213175252353
0.003698472810366435   -0.18344938208804978   0.015888213175252353
-0.9273214414052997   -0.2159886863778583   -0.047485864181871895
-0.9273214414052997   -0.2159886863778583   -0.047485864181871895
-0.9273214414052997   -0.2159886863778583   -0.047485864181871895
-0.9273214414052997   -0.2159886863778583   -0.047485864181871895
0.0855992624226938   0.18621958796473664   0.055723191184102766
0.0855992624226938   0.18621958796473664   0.055723191184102766
0.0855992624226938   0.18621958796473664   0.055723191184102766
0.0855992624226938   0.18621958796473664   0.055723191184102766
-1.8626470860376831   -0.5796303329577681   -0.09867098232529005
-1.8626470860376831   -0.5796303329577681   -0.09867098232529005
-1.8626470860376831   -0.5796303329577681   -0.09867098232529005
-1.8626470860376831   -0.5796303329577681   -0.09867098232529005
-1.7148203802054798   -0.13518137347321682   -0.07585280270668127
-1.7148203802054798   -0.13518137347321682   -0.07585280270668127
-1.7148203802054798   -0.13518137347321682   -0.07585280270668127
-1.7148203802054798   -0.13518137347321682   -0.07585280270668127
0.0497330733220335   -0.14274545878578448   -0.024798171193437864
0.0497330733220335   -0.14274545878578448   -0.024798171193437864
0.0497330733220335   -0.14274545878578448   -0.024798171193437864
0.0497330733220335   -0.14274545878578448   -0.024798171193437864
-0.8609683816840901   -0.16354815155017108   -0.023926103970419842
-0.8609683816840901   -0.16354815155017108   -0.023926103970419842
-0.8609683816840901   -0.16354815155017108   -0.023926103970419842
-0.8609683816840901   -0.16354815155017108   -0.023926103970419842
-1.9073713946391342   -0.056492884762970375   -0.0031685113452325914
-1.9073713946391342   -0.056492884762970375   -0.0031685113452325914
-1.9073713946391342   -0.056492884762970375   -0.0031685113452325914
-1.9073713946391342   -0.056492884762970375   -0.0031685113452325914
-3.865926400994108   -0.7221243652101578   -0.03316264489504893
-3.865926400994108   -0.7221243652101578   -0.03316264489504893
-3.865926400994108   -0.7221243652101578   -0.03316264489504893
-3.865926400994108   -0.7221243652101578   -0.03316264489504893
-3.6891736997526334   -0.3688238345232796   -0.1278452379990865
-3.6891736997526334   -0.3688238345232796   -0.1278452379990865
-3.6891736997526334   -0.3688238345232796   -0.1278452379990865
-3.6891736997526334   -0.3688238345232796   -0.1278452379990865
-1.8394239757848805   -0.24354550496661176   0.0843689462846208
-1.8394239757848805   -0.24354550496661176   0.0843689462846208
-1.8394239757848805   -0.24354550496661176   0.0843689462846208
-1.8394239757848805   -0.24354550496661176   0.0843689462846208
-2.80060684905148   -0.3268962668829249   -0.0601633055273819
-2.80060684905148   -0.3268962668829249   -0.0601633055273819
-2.80060684905148   -0.3268962668829249   -0.0601633055273819
-2.80060684905148   -0.3268962668829249   -0.0601633055273819
-1.8044642383946061   0.030676275835016087   -0.015054147565635417
-1.8044642383946061   0.030676275835016087   -0.015054147565635417
-1.8044642383946061   0.030676275835016087   -0.015054147565635417
-1.8044642383946061   0.030676275835016087   -0.015054147565635417
-3.7257530843900084   -0.6446652625720033   -0.034900733137208956
-3.7257530843900084   -0.6446652625720033   -0.034900733137208956
-3.7257530843900084   -0.6446652625720033   -0.034900733137208956
-3.7257530843900084   -0.6446652625720033   -0.034900733137208956
-3.556127109464431   -0.28686330745408406   -0.1481410389218742
-3.556127109464431   -0.28686330745408406   -0.1481410389218742
-3.556127109464431   -0.28686330745408406   -0.1481410389218742
-3.556127109464431   -0.28686330745408406   -0.1481410389218742
-1.7488579655848293   -0.18192640514517955   0.07257069212639156
-1.7488579655848293   -0.18192640514517955   0.07257069212639156
-1.7488579655848293   -0.18192640514517955   0.07257069212639156
-1.7488579655848293   -0.18192640514517955   0.07257069212639156
-2.664083395491978   -0.2482707927945504   -0.020048885042576195
-2.664083395491978   -0.2482707927945504   -0.020048885042576195
-2.664083395491978   -0.2482707927945504   -0.020048885042576195
-2.664083395491978   -0.2482707927945504   -0.020048885042576195
-1.7110581726866745   0.1064227816501947   -0.026779530178236366
-1.7110581726866745   0.1064227816501947   -0.026779530178236366
-1.7110581726866745   0.1064227816501947   -0.026779530178236366
-1.7110581726866745   0.1064227816501947   -0.026779530178236366
-3.6004500558541586   -0.5817356477410309   -0.0748834305835358
-3.6004500558541586   -0.5817356477410309   -0.0748834305835358
-3.6004500558541586   -0.5817356477410309   -0.0748834305835358
-3.6004500558541586   -0.5817356477410309   -0.0748834305835358
-3.447967825271405   -0.20034722013582895   -0.15280897367290525
-3.447967825271405   -0.20034722013582895   -0.15280897367290525
-3.447967825271405   -0.20034722013582895   -0.15280897367290525
-3.447967825271405   -0.20034722013582895   -0.15280897367290525
-1.6967888930587256   -0.14275288609013878   0.021876145644027352
-1.6967888930587256   -0.14275288609013878   0.021876145644027352
-1.6967888930587256   -0.14275288609013878   0.021876145644027352
-1.6967888930587256   -0.14275288609013878   0.021876145644027352
-2.58820006445834   -0.20029634763264087   -0.007019006088296906
-2.58820006445834   -0.20029634763264087   -0.007019006088296906
-2.58820006445834   -0.20029634763264087   -0.007019006088296906
-2.58820006445834   -0.20029634763264087   -0.007019006088296906
-3.7595446296669137   -0.12935291365997137   -0.094025239809261
-3.7595446296669137   -0.12935291365997137   -0.094025239809261
-3.7595446296669137   -0.12935291365997137   -0.094025239809261
-3.7595446296669137   -0.12935291365997137   -0.094025239809261
-5.668454646715841   -0.4863110543854563   0.21645679159877385
-5.668454646715841   -0.4863110543854563   0.21645679159877385
-5.668454646715841   -0.4863110543854563   0.21645679159877385
-5.668454646715841   -0.4863110543854563   0.21645679159877385
-5.4713740925130585   -0.38636176199645167   -0.125312660351504
-5.4713740925130585   -0.38636176199645167   -0.125312660351504
-5.4713740925130585   -0.38636176199645167   -0.125312660351504
-5.4713740925130585   -0.38636176199645167   -0.125312660351504
-3.530073258511459   0.1003335641999673   0.19849956948350286
-3.530073258511459   0.1003335641999673   0.19849956948350286
-3.530073258511459   0.1003335641999673   0.19849956948350286
-3.530073258511459   0.1003335641999673   0.19849956948350286
-4.401460226485855   -0.15318741567296168   0.0198944148415999
-4.401460226485855   -0.15318741567296168   0.0198944148415999
-4.401460226485855   -0.15318741567296168   0.0198944148415999
-4.401460226485855   -0.15318741567296168   0.0198944148415999
-3.612757474431761   -0.010411246244575123   -0.10417669967341847
-3.612757474431761   -0.010411246244575123   -0.10417669967341847
-3.612757474431761   -0.010411246244575123   -0.10417669967341847
-3.612757474431761   -0.010411246244575123   -0.10417669967341847
-5.375345847061938   -0.2622729220210839   0.23073972692872644
-5.375345847061938   -0.2622729220210839   0.23073972692872644
-5.375345847061938   -0.2622729220210839   0.23073972692872644
-5.375345847061938   -0.2622729220210839   0.23073972692872644
-5.260102972698613   -0.3248475117858095   -0.1492333205018417
-5.260102972698613   -0.3248475117858095   -0.1492333205018417
-5.260102972698613   -0.3248475117858095   -0.1492333205018417
-5.260102972698613   -0.3248475117858095   -0.1492333205018417
-3.3983963561364208   0.16178812936348763   0.19186129090060533
-3.3983963561364208   0.16178812936348763   0.19186129090060533
-3.3983963561364208   0.16178812936348763   0.19186129090060533
-3.3983963561364208   0.16178812936348763   0.19186129090060533
-4.275699424487551   -0.061808443087133846   0.08734162291390493
-4.275699424487551   -0.061808443087133846   0.08734162291390493
-4.275699424487551   -0.061808443087133846   0.08734162291390493
-4.275699424487551   -0.061808443087133846   0.08734162291390493
-3.484064216248373   0.03772410628789913   -0.11241398658353777
-3.484064216248373   0.03772410628789913   -0.11241398658353777
-3.484064216248373   0.03772410628789913   -0.11241398658353777
-3.484064216248373   0.03772410628789913   -0.11241398658353777
-5.171806406874454   -0.1981547829979976   0.1655567798310901
-5.171806406874454   -0.1981547829979976   0.1655567798310901
-5.171806406874454   -0.1981547829979976   0.1655567798310901
-5.171806406874454   -0.1981547829979976   0.1655567798310901
-5.041716517006797   -0.2663814647346592   -0.18027892914673882
-5.041716517006797   -0.2663814647346592   -0.18027892914673882
-5.041716517006797   -0.2663814647346592   -0.18027892914673882
-5.041716517006797   -0.2663814647346592   -0.18027892914673882
-3.3004246539561697   0.23590906951931345   0.14865059324813082
-3.3004246539561697   0.23590906951931345   0.14865059324813082
-3.3004246539561697   0.23590906951931345   0.14865059324813082
-3.3004246539561697   0.23590906951931345   0.14865059324813082
-4.041474427113806   0.016438330176455906   0.15456764732331568
-4.041474427113806   0.016438330176455906   0.15456764732331568
-4.041474427113806   0.016438330176455906   0.15456764732331568
-4.041474427113806   0.016438330176455906   0.15456764732331568
5.007956384736929   0.2994572452753417   0.18270034974048172
5.007956384736929   0.2994572452753417   0.18270034974048172
5.007956384736929   0.2994572452753417   0.18270034974048172
5.007956384736929   0.2994572452753417   0.18270034974048172
2.3895838868027424   -0.44888680366520917   0.042054176816862965
2.3895838868027424   -0.44888680366520917   0.042054176816862965
2.3895838868027424   -0.44888680366520917   0.042054176816862965
2.3895838868027424   -0.44888680366520917   0.042054176816862965
2.5224941430366172   -0.18858597496280394   0.14090835509868432
2.5224941430366172   -0.18858597496280394   0.14090835509868432
2.5224941430366172   -0.18858597496280394   0.14090835509868432
2.5224941430366172   -0.18858597496280394   0.14090835509868432
5.03499025510578   0.040462676259793495   -0.03966391939889091
5.03499025510578   0.040462676259793495   -0.03966391939889091
5.03499025510578   0.040462676259793495   -0.03966391939889091
5.03499025510578   0.040462676259793495   -0.03966391939889091
3.522222851565031   -0.09709550973326708   -0.23483377810370237
3.522222851565031   -0.09709550973326708   -0.23483377810370237
3.522222851565031   -0.09709550973326708   -0.23483377810370237
3.522222851565031   -0.09709550973326708   -0.23483377810370237
5.130486163772149   0.3337386818359289   0.1445396183568184
5.130486163772149   0.3337386818359289   0.1445396183568184
5.130486163772149   0.3337386818359289   0.1445396183568184
5.130486163772149   0.3337386818359289   0.1445396183568184
2.4499905544448706   -0.45886966046431776   0.04867409764146219
2.4499905544448706   -0.45886966046431776   0.04867409764146219
2.4499905544448706   -0.45886966046431776   0.04867409764146219
2.4499905544448706   -0.45886966046431776   0.04867409764146219
2.573096662711644   -0.16019691428281935   0.10731376621400907
2.573096662711644   -0.16019691428281935   0.10731376621400907
2.573096662711644   -0.16019691428281935   0.10731376621400907
2.573096662711644   -0.16019691428281935   0.10731376621400907
5.124016385688545   0.07251317708875282   -0.01116999452682993
5.124016385688545   0.07251317708875282   -0.01116999452682993
5.124016385688545   0.07251317708875282   -0.01116999452682993
5.124016385688545   0.07251317708875282   -0.01116999452682993
3.6683213294286734   -0.07695215264742228   -0.16019923497948566
3.6683213294286734   -0.07695215264742228   -0.16019923497948566
3.6683213294286734   -0.07695215264742228   -0.16019923497948566
3.6683213294286734   -0.07695215264742228   -0.16019923497948566
5.204733634620053   0.3647113435832938   0.1002180836361658
5.204733634620053   0.3647113435832938   0.1002180836361658
5.204733634620053   0.3647113435832938   0.1002180836361658
5.204733634620053   0.3647113435832938   0.1002180836361658
2.508375782030447   -0.4363987125270501   0.059911161052254025
2.508375782030447   -0.4363987125270501   0.059911161052254025
2.508375782030447   -0.4363987125270501   0.059911161052254025
2.508375782030447   -0.4363987125270501   0.059911161052254025
2.647449562003835   -0.049514774033653675   0.09809822510532878
2.647449562003835   -0.049514774033653675   0.09809822510532878
2.647449562003835   -0.049514774033653675   0.09809822510532878
2.647449562003835   -0.049514774033653675   0.09809822510532878
5.21642479080285   0.14552423955414118   -0.0007817436122940502
5.21642479080285   0.14552423955414118   -0.0007817436122940502
5.21642479080285   0.14552423955414118   -0.0007817436122940502
5.21642479080285   0.14552423955414118   -0.0007817436122940502
3.6871907600183382   -0.035965604534849094   -0.11943457638847987
3.6871907600183382   -0.035965604534849094   -0.11943457638847987
3.6871907600183382   -0.035965604534849094   -0.11943457638847987
3.6871907600183382   -0.035965604534849094   -0.11943457638847987
2.521406562581954   0.06156059837283434   0.19072015367487932
2.521406562581954   0.06156059837283434   0.19072015367487932
2.521406562581954   0.06156059837283434   0.19072015367487932
2.521406562581954   0.06156059837283434   0.19072015367487932
0.13808101387715177   -0.8972480698057527   0.0931990069823222
0.13808101387715177   -0.8972480698057527   0.0931990069823222
0.13808101387715177   -0.8972480698057527   0.0931990069823222
0.13808101387715177   -0.8972480698057527   0.0931990069823222
0.3117258891736694   -0.3785180569877752   0.0864169284428978
0.3117258891736694   -0.3785180569877752   0.0864169284428978
0.3117258891736694   -0.3785180569877752   0.0864169284428978
0.3117258891736694   -0.3785180569877752   0.0864169284428978
2.456418426956074   -0.43604553820619607   0.05798933793933181
2.456418426956074   -0.43604553820619607   0.05798933793933181
2.456418426956074   -0.43604553820619607   0.05798933793933181
2.456418426956074   -0.43604553820619607   0.05798933793933181
1.3126957859881083   -0.40387727683645835   -0.1509381853308215
1.3126957859881083   -0.40387727683645835   -0.1509381853308215
1.3126957859881083   -0.40387727683645835   -0.1509381853308215
1.3126957859881083   -0.40387727683645835   -0.1509381853308215
2.5818627400152527   0.09004916708148014   0.15911619794759077
2.5818627400152527   0.09004916708148014   0.15911619794759077
2.5818627400152527   0.09004916708148014   0.15911619794759077
2.5818627400152527   0.09004916708148014   0.15911619794759077
0.21938832211985304   -0.8715060162700616   0.11771705245610237
0.21938832211985304   -0.8715060162700616   0.11771705245610237
0.21938832211985304   -0.8715060162700616   0.11771705245610237
0.21938832211985304   -0.8715060162700616   0.11771705245610237
0.38169647161841624   -0.326722228047005   0.06283324374507127
0.38169647161841624   -0.326722228047005   0.06283324374507127
0.38169647161841624   -0.326722228047005   0.06283324374507127
0.38169647161841624   -0.326722228047005   0.06283324374507127
2.5162401944281494   -0.40905287268105484   0.07188738319477211
2.5162401944281494   -0.40905287268105484   0.07188738319477211
2.5162401944281494   -0.40905287268105484   0.07188738319477211
2.5162401944281494   -0.40905287268105484   0.07188738319477211
1.37242251936803   -0.3841550256696386   -0.07545624561181677
1.37242251936803   -0.3841550256696386   -0.07545624561181677
1.37242251936803   -0.3841550256696386   -0.07545624561181677
1.37242251936803   -0.3841550256696386   -0.07545624561181677
2.6382156293592263   0.13879774315496896   0.13391394201413145
2.6382156293592263   0.13879774315496896   0.13391394201413145
2.6382156293592263   0.13879774315496896   0.13391394201413145
2.6382156293592263   0.13879774315496896   0.13391394201413145
0.29158580947002427   -0.8427080711003442   0.1282657760564505
0.29158580947002427   -0.8427080711003442   0.1282657760564505
0.29158580947002427   -0.8427080711003442   0.1282657760564505
0.29158580947002427   -0.8427080711003442   0.1282657760564505
0.48898722824122154   -0.24899324780716486   0.041803101986123664
0.48898722824122154   -0.24899324780716486   0.041803101986123664
0.48898722824122154   -0.24899324780716486   0.041803101986123664
0.48898722824122154   -0.24899324780716486   0.041803101986123664
2.58179713792847   -0.36796153670200427   0.0882828673968678
2.58179713792847   -0.36796153670200427   0.0882828673968678
2.58179713792847   -0.36796153670200427   0.0882828673968678
2.58179713792847   -0.36796153670200427   0.0882828673968678
1.4765739632013604   -0.33620037385925755   0.01232156452576022
1.4765739632013604   -0.33620037385925755   0.01232156452576022
1.4765739632013604   -0.33620037385925755   0.01232156452576022
1.4765739632013604   -0.33620037385925755   0.01232156452576022
0.28873780737882104   -0.17357334899713955   0.12280825368205525
0.28873780737882104   -0.17357334899713955   0.12280825368205525
0.28873780737882104   -0.17357334899713955   0.12280825368205525
0.28873780737882104   -0.17357334899713955   0.12280825368205525
-2.132802701858708   -1.5435081113878901   0.1342351559642055
-2.132802701858708   -1.5435081113878901   0.1342351559642055
-2.132802701858708   -1.5435081113878901   0.1342351559642055
-2.132802701858708   -1.5435081113878901   0.1342351559642055
-1.8578646422455263   -0.5988591848617622   0.009618077013461582
-1.8578646422455263   -0.5988591848617622   0.009618077013461582
-1.8578646422455263   -0.5988591848617622   0.009618077013461582
-1.8578646422455263   -0.5988591848617622   0.009618077013461582
0.15447708022145057   -1.1285608395985867   0.050215666292615146
0.15447708022145057   -1.1285608395985867   0.050215666292615146
0.15447708022145057   -1.1285608395985867   0.050215666292615146
0.15447708022145057   -1.1285608395985867   0.050215666292615146
-0.9151189717801307   -0.8673502666897245   -0.18116023777390544
-0.9151189717801307   -0.8673502666897245   -0.18116023777390544
-0.9151189717801307   -0.8673502666897245   -0.18116023777390544
-0.9151189717801307   -0.8673502666897245   -0.18116023777390544
0.36200360631833867   -0.13745971592998976   0.0967471731084588
0.36200360631833867   -0.13745971592998976   0.0967471731084588
0.36200360631833867   -0.13745971592998976   0.0967471731084588
0.36200360631833867   -0.13745971592998976   0.0967471731084588
-2.0176062938801436   -1.5421754340680858   0.1542260680467144
-2.0176062938801436   -1.5421754340680858   0.1542260680467144
-2.0176062938801436   -1.5421754340680858   0.1542260680467144
-2.0176062938801436   -1.5421754340680858   0.1542260680467144
-1.751838956665821   -0.5375651621151216   0.0008467425162031958
-1.751838956665821   -0.5375651621151216   0.0008467425162031958
-1.751838956665821   -0.5375651621151216   0.0008467425162031958
-1.751838956665821   -0.5375651621151216   0.0008467425162031958
0.22819874325223505   -1.104298305057859   0.0729206789250193
0.22819874325223505   -1.104298305057859   0.0729206789250193
0.22819874325223505   -1.104298305057859   0.0729206789250193
0.22819874325223505   -1.104298305057859   0.0729206789250193
-0.8078441172110162   -0.838281240898889   -0.06787868766982391
-0.8078441172110162   -0.838281240898889   -0.06787868766982391
-0.8078441172110162   -0.838281240898889   -0.06787868766982391
-0.8078441172110162   -0.838281240898889   -0.06787868766982391
0.42898185014704193   -0.0892189729896052   0.06175688133079968
0.42898185014704193   -0.0892189729896052   0.06175688133079968
0.42898185014704193   -0.0892189729896052   0.06175688133079968
0.42898185014704193   -0.0892189729896052   0.06175688133079968
-1.9093753100106088   -1.509397740633352   0.18499755431052134
-1.9093753100106088   -1.509397740633352   0.18499755431052134
-1.9093753100106088   -1.509397740633352   0.18499755431052134
-1.9093753100106088   -1.509397740633352   0.18499755431052134
-1.5769086540977943   -0.466910016562749   -0.01897923265830998
-1.5769086540977943   -0.466910016562749   -0.01897923265830998
-1.5769086540977943   -0.466910016562749   -0.01897923265830998
-1.5769086540977943   -0.466910016562749   -0.01897923265830998
0.3433124528695876   -1.0355972846963704   0.10003326201715951
0.3433124528695876   -1.0355972846963704   0.10003326201715951
0.3433124528695876   -1.0355972846963704   0.10003326201715951
0.3433124528695876   -1.0355972846963704   0.10003326201715951
-0.6685021689043946   -0.7723787649203849   0.0510143535772454
-0.6685021689043946   -0.7723787649203849   0.0510143535772454
-0.6685021689043946   -0.7723787649203849   0.0510143535772454
-0.6685021689043946   -0.7723787649203849   0.0510143535772454
-1.9014267101925761   -0.3108920812412091   0.0584990841481622
-1.9014267101925761   -0.3108920812412091   0.0584990841481622
-1.9014267101925761   -0.3108920812412091   0.0584990841481622
-1.9014267101925761   -0.3108920812412091   0.0584990841481622
-4.756047068004537   -2.4059488826751765   -0.1156708703805347
-4.756047068004537   -2.4059488826751765   -0.1156708703805347
-4.756047068004537   -2.4059488826751765   -0.1156708703805347
-4.756047068004537   -2.4059488826751765   -0.1156708703805347
-4.301882560859244   -0.7792675125037682   -0.1317825063267982
-4.301882560859244   -0.7792675125037682   -0.1317825063267982
-4.301882560859244   -0.7792675125037682   -0.1317825063267982
-4.301882560859244   -0.7792675125037682   -0.1317825063267982
-2.135240983136026   -2.015476611905931   0.03935379960513069
-2.135240983136026   -2.015476611905931   0.03935379960513069
-2.135240983136026   -2.015476611905931   0.03935379960513069
-2.135240983136026   -2.015476611905931   0.03935379960513069
-3.269862956338933   -1.4228784699977512   -0.19005412673595073
-3.269862956338933   -1.4228784699977512   -0.19005412673595073
-3.269862956338933   -1.4228784699977512   -0.19005412673595073
-3.269862956338933   -1.4228784699977512   -0.19005412673595073
-1.77607572652712   -0.23650745851936483   0.056210929263094705
-1.77607572652712   -0.23650745851936483   0.056210929263094705
-1.77607572652712   -0.23650745851936483   0.056210929263094705
-1.77607572652712   -0.23650745851936483   0.056210929263094705
-4.650724277348211   -2.547913125770375   -0.10734547550502749
-4.650724277348211   -2.547913125770375   -0.10734547550502749
-4.650724277348211   -2.547913125770375   -0.10734547550502749
-4.650724277348211   -2.547913125770375   -0.10734547550502749
-4.161015147604785   -0.7057041652370853   -0.13416092631318205
-4.161015147604785   -0.7057041652370853   -0.13416092631318205
-4.161015147604785   -0.7057041652370853   -0.13416092631318205
-4.161015147604785   -0.7057041652370853   -0.13416092631318205
-2.032640124706546   -2.000315540414644   0.0595912806121191
-2.032640124706546   -2.000315540414644   0.0595912806121191
-2.032640124706546   -2.000315540414644   0.0595912806121191
-2.032640124706546   -2.000315540414644   0.0595912806121191
-3.122469098220633   -1.3852094151917629   -0.13445917193521464
-3.122469098220633   -1.3852094151917629   -0.13445917193521464
-3.122469098220633   -1.3852094151917629   -0.13445917193521464
-3.122469098220633   -1.3852094151917629   -0.13445917193521464
-1.6763515388788464   -0.1781629369683907   0.018881606304352816
-1.6763515388788464   -0.1781629369683907   0.018881606304352816
-1.6763515388788464   -0.1781629369683907   0.018881606304352816
-1.6763515388788464   -0.1781629369683907   0.018881606304352816
-4.517502718181719   -2.5280557534325485   -0.09424719100235379
-4.517502718181719   -2.5280557534325485   -0.09424719100235379
-4.517502718181719   -2.5280557534325485   -0.09424719100235379
-4.517502718181719   -2.5280557534325485   -0.09424719100235379
-3.941520162409585   -0.6264837849566405   -0.15204707933774453
-3.941520162409585   -0.6264837849566405   -0.15204707933774453
-3.941520162409585   -0.6264837849566405   -0.15204707933774453
-3.941520162409585   -0.6264837849566405   -0.15204707933774453
-1.810704904537749   -1.8012347374604774   0.14636423603966825
-1.810704904537749   -1.8012347374604774   0.14636423603966825
-1.810704904537749   -1.8012347374604774   0.14636423603966825
-1.810704904537749   -1.8012347374604774   0.14636423603966825
-2.957677843206593   -1.2570527868120873   -0.07622776780509688
-2.957677843206593   -1.2570527868120873   -0.07622776780509688
-2.957677843206593   -1.2570527868120873   -0.07622776780509688
-2.957677843206593   -1.2570527868120873   -0.07622776780509688
-4.310654567941609   -0.2641448729154622   -0.030512379825610003
-4.310654567941609   -0.2641448729154622   -0.030512379825610003
-4.310654567941609   -0.2641448729154622   -0.030512379825610003
-4.310654567941609   -0.2641448729154622   -0.030512379825610003
-7.6183333624222955   -1.5081548797715085   0.07755896356475267
-7.6183333624222955   -1.5081548797715085   0.07755896356475267
-7.6183333624222955   -1.5081548797715085   0.07755896356475267
-7.6183333624222955   -1.5081548797715085   0.07755896356475267
-7.316775968721753   -0.7290582751290157   -0.1617569169511174
-7.316775968721753   -0.7290582751290157   -0.1617569169511174
-7.316775968721753   -0.7290582751290157   -0.1617569169511174
-7.316775968721753   -0.7290582751290157   -0.1617569169511174
-4.211656085726969   -0.778595621482699   0.31867797831347433
-4.211656085726969   -0.778595621482699   0.31867797831347433
-4.211656085726969   -0.778595621482699   0.31867797831347433
-4.211656085726969   -0.778595621482699   0.31867797831347433
-5.626542743929038   -0.875686983567024   0.08201231625084744
-5.626542743929038   -0.875686983567024   0.08201231625084744
-5.626542743929038   -0.875686983567024   0.08201231625084744
-5.626542743929038   -0.875686983567024   0.08201231625084744
-4.131349719475482   -0.05941567022655614   0.0010298583147858587
-4.131349719475482   -0.05941567022655614   0.0010298583147858587
-4.131349719475482   -0.05941567022655614   0.0010298583147858587
-4.131349719475482   -0.05941567022655614   0.0010298583147858587
-7.426115418883462   -1.4772713102953665   0.039758867406629594
-7.426115418883462   -1.4772713102953665   0.039758867406629594
-7.426115418883462   -1.4772713102953665   0.039758867406629594
-7.426115418883462   -1.4772713102953665   0.039758867406629594
-7.149714528474272   -0.6678996336188625   -0.20525935167329434
-7.149714528474272   -0.6678996336188625   -0.20525935167329434
-7.149714528474272   -0.6678996336188625   -0.20525935167329434
-7.149714528474272   -0.6678996336188625   -0.20525935167329434
-4.066607364461184   -0.739072256715569   0.3712460808833391
-4.066607364461184   -0.739072256715569   0.3712460808833391
-4.066607364461184   -0.739072256715569   0.3712460808833391
-4.066607364461184   -0.739072256715569   0.3712460808833391
-5.537561321939904   -0.7208234608900322   0.07852175414564452
-5.537561321939904   -0.7208234608900322   0.07852175414564452
-5.537561321939904   -0.7208234608900322   0.07852175414564452
-5.537561321939904   -0.7208234608900322   0.07852175414564452
-4.002088795731333   -0.005307735976842531   -0.03992559620613312
-4.002088795731333   -0.005307735976842531   -0.03992559620613312
-4.002088795731333   -0.005307735976842531   -0.03992559620613312
-4.002088795731333   -0.005307735976842531   -0.03992559620613312
-7.225170752745857   -1.412601809899332   0.16216170324919643
-7.225170752745857   -1.412601809899332   0.16216170324919643
-7.225170752745857   -1.412601809899332   0.16216170324919643
-7.225170752745857   -1.412601809899332   0.16216170324919643
-6.802894907149644   -0.540126138014455   -0.2290551912272378
-6.802894907149644   -0.540126138014455   -0.2290551912272378
-6.802894907149644   -0.540126138014455   -0.2290551912272378
-6.802894907149644   -0.540126138014455   -0.2290551912272378
-3.8412198485784312   -0.6863748572861701   0.409345562147581
-3.8412198485784312   -0.6863748572861701   0.409345562147581
-3.8412198485784312   -0.6863748572861701   0.409345562147581
-3.8412198485784312   -0.6863748572861701   0.409345562147581
-5.203647876308914   -0.5507909827810271   0.15962315891850332
-5.203647876308914   -0.5507909827810271   0.15962315891850332
-5.203647876308914   -0.5507909827810271   0.15962315891850332
-5.203647876308914   -0.5507909827810271   0.15962315891850332
5.484997306584822   0.1773271208925271   0.07771037982346435
5.484997306584822   0.1773271208925271   0.07771037982346435
5.484997306584822   0.1773271208925271   0.07771037982346435
5.484997306584822   0.1773271208925271   0.07771037982346435
2.8042970068331763   -0.14619150335400033   0.058173735583447184
2.8042970068331763   -0.14619150335400033   0.058173735583447184
2.8042970068331763   -0.14619150335400033   0.058173735583447184
2.8042970068331763   -0.14619150335400033   0.058173735583447184
2.6935710779132798   -0.3972526876505478   0.11317843824190271
2.6935710779132798   -0.3972526876505478   0.11317843824190271
2.6935710779132798   -0.3972526876505478   0.11317843824190271
2.6935710779132798   -0.3972526876505478   0.11317843824190271
5.44503232177956   0.3069618280502685   0.0424616856448741
5.44503232177956   0.3069618280502685   0.0424616856448741
5.44503232177956   0.3069618280502685   0.0424616856448741
5.44503232177956   0.3069618280502685   0.0424616856448741
3.888065206309625   -0.05584758406823698   -0.14335697587231547
3.888065206309625   -0.05584758406823698   -0.14335697587231547
3.888065206309625   -0.05584758406823698   -0.14335697587231547
3.888065206309625   -0.05584758406823698   -0.14335697587231547
5.414308882832848   0.13618370789775125   0.059622611063830155
5.414308882832848   0.13618370789775125   0.059622611063830155
5.414308882832848   0.13618370789775125   0.059622611063830155
5.414308882832848   0.13618370789775125   0.059622611063830155
2.7151690084087594   -0.23560007594926302   0.059515479018016765
2.7151690084087594   -0.23560007594926302   0.059515479018016765
2.7151690084087594   -0.23560007594926302   0.059515479018016765
2.7151690084087594   -0.23560007594926302   0.059515479018016765
2.623154802455339   -0.40667600498462364   0.09374567833949465
2.623154802455339   -0.40667600498462364   0.09374567833949465
2.623154802455339   -0.40667600498462364   0.09374567833949465
2.623154802455339   -0.40667600498462364   0.09374567833949465
5.3805263865801285   0.2933775576251837   0.07284183622616289
5.3805263865801285   0.2933775576251837   0.07284183622616289
5.3805263865801285   0.2933775576251837   0.07284183622616289
5.3805263865801285   0.2933775576251837   0.07284183622616289
3.8755843423251317   -0.0770870438958865   -0.1665269558469624
3.8755843423251317   -0.0770870438958865   -0.1665269558469624
3.8755843423251317   -0.0770870438958865   -0.1665269558469624
3.8755843423251317   -0.0770870438958865   -0.1665269558469624
5.334972883447831   0.12052404265328209   0.01792783553653049
5.334972883447831   0.12052404265328209   0.01792783553653049
5.334972883447831   0.12052404265328209   0.01792783553653049
5.334972883447831   0.12052404265328209   0.01792783553653049
2.652401037620415   -0.25012975797995074   0.0834306071602042
2.652401037620415   -0.25012975797995074   0.0834306071602042
2.652401037620415   -0.25012975797995074   0.0834306071602042
2.652401037620415   -0.25012975797995074   0.0834306071602042
2.5487515090561264   -0.3716675607085257   0.0809325368210948
2.5487515090561264   -0.3716675607085257   0.0809325368210948
2.5487515090561264   -0.3716675607085257   0.0809325368210948
2.5487515090561264   -0.3716675607085257   0.0809325368210948
5.280992496789035   0.29588511661134786   0.10424190589497495
5.280992496789035   0.29588511661134786   0.10424190589497495
5.280992496789035   0.29588511661134786   0.10424190589497495
5.280992496789035   0.29588511661134786   0.10424190589497495
3.7291167387568374   -0.07799394280612426   -0.2253549386836835
3.7291167387568374   -0.07799394280612426   -0.2253549386836835
3.7291167387568374   -0.07799394280612426   -0.2253549386836835
3.7291167387568374   -0.07799394280612426   -0.2253549386836835
2.777225813266904   -0.3606113820372079   0.13723764643529401
2.777225813266904   -0.3606113820372079   0.13723764643529401
2.777225813266904   -0.3606113820372079   0.13723764643529401
2.777225813266904   -0.3606113820372079   0.13723764643529401
0.5482283110799316   -0.3308972380818449   0.03047689069648578
0.5482283110799316   -0.3308972380818449   0.03047689069648578
0.5482283110799316   -0.3308972380818449   0.03047689069648578
0.5482283110799316   -0.3308972380818449   0.03047689069648578
0.35738385642124965   -0.8376546687609837   0.14897825570009554
0.35738385642124965   -0.8376546687609837   0.14897825570009554
0.35738385642124965   -0.8376546687609837   0.14897825570009554
0.35738385642124965   -0.8376546687609837   0.14897825570009554
2.7928378809981584   0.1059496291070855   0.10631013690866076
2.7928378809981584   0.1059496291070855   0.10631013690866076
2.7928378809981584   0.1059496291070855   0.10631013690866076
2.7928378809981584   0.1059496291070855   0.10631013690866076
1.5940779481809435   -0.3572100638427868   -0.005942602283903531
1.5940779481809435   -0.3572100638427868   -0.005942602283903531
1.5940779481809435   -0.3572100638427868   -0.005942602283903531
1.5940779481809435   -0.3572100638427868   -0.005942602283903531
2.698074038566699   -0.3763534772502075   0.11479403110864983
2.698074038566699   -0.3763534772502075   0.11479403110864983
2.698074038566699   -0.3763534772502075   0.11479403110864983
2.698074038566699   -0.3763534772502075   0.11479403110864983
0.42823498938440663   -0.37926427187201467   0.044843523626911186
0.42823498938440663   -0.37926427187201467   0.044843523626911186
0.42823498938440663   -0.37926427187201467   0.044843523626911186
0.42823498938440663   -0.37926427187201467   0.044843523626911186
0.272049838234726   -0.8455815716375792   0.13343424460557346
0.272049838234726   -0.8455815716375792   0.13343424460557346
0.272049838234726   -0.8455815716375792   0.13343424460557346
0.272049838234726   -0.8455815716375792   0.13343424460557346
2.727882306821141   0.08460753441128077   0.12609966077260182
2.727882306821141   0.08460753441128077   0.12609966077260182
2.727882306821141   0.08460753441128077   0.12609966077260182
2.727882306821141   0.08460753441128077   0.12609966077260182
1.4783199243639429   -0.38086977962533763   -0.07686902724674877
1.4783199243639429   -0.38086977962533763   -0.07686902724674877
1.4783199243639429   -0.38086977962533763   -0.07686902724674877
1.4783199243639429   -0.38086977962533763   -0.07686902724674877
2.628278008356504   -0.38207137163517013   0.09475707449584136
2.628278008356504   -0.38207137163517013   0.09475707449584136
2.628278008356504   -0.38207137163517013   0.09475707449584136
2.628278008356504   -0.38207137163517013   0.09475707449584136
0.34568434319569946   -0.4048724590947964   0.06089765686765777
0.34568434319569946   -0.4048724590947964   0.06089765686765777
0.34568434319569946   -0.4048724590947964   0.06089765686765777
0.34568434319569946   -0.4048724590947964   0.06089765686765777
0.17652296759050035   -0.8457437290300506   0.10464607609460602
0.17652296759050035   -0.8457437290300506   0.10464607609460602
0.17652296759050035   -0.8457437290300506   0.10464607609460602
0.17652296759050035   -0.8457437290300506   0.10464607609460602
2.6541657142643404   0.08543875672389678   0.15089724542975722
2.6541657142643404   0.08543875672389678   0.15089724542975722
2.6541657142643404   0.08543875672389678   0.15089724542975722
2.6541657142643404   0.08543875672389678   0.15089724542975722
1.4073401336215183   -0.37841821974172096   -0.137320301725116
1.4073401336215183   -0.37841821974172096   -0.137320301725116
1.4073401336215183   -0.37841821974172096   -0.137320301725116
1.4073401336215183   -0.37841821974172096   -0.137320301725116
0.4262464828297429   -1.0338426694752527   0.12351318083894197
0.4262464828297429   -1.0338426694752527   0.12351318083894197
0.4262464828297429   -1.0338426694752527   0.12351318083894197
0.4262464828297429   -1.0338426694752527   0.12351318083894197
-1.6199963237760135   -0.5147449799232366   0.0027652723852746586
-1.6199963237760135   -0.5147449799232366   0.0027652723852746586
-1.6199963237760135   -0.5147449799232366   0.0027652723852746586
-1.6199963237760135   -0.5147449799232366   0.0027652723852746586
-1.965273215295527   -1.5284015592183555   0.1707623637107486
-1.965273215295527   -1.5284015592183555   0.1707623637107486
-1.965273215295527   -1.5284015592183555   0.1707623637107486
-1.965273215295527   -1.5284015592183555   0.1707623637107486
0.4903820567542511   -0.0906437490363379   0.0669583376404495
0.4903820567542511   -0.0906437490363379   0.0669583376404495
0.4903820567542511   -0.0906437490363379   0.0669583376404495
0.4903820567542511   -0.0906437490363379   0.0669583376404495
-0.6580591861955666   -0.7807885966229586   0.02915451944634151
-0.6580591861955666   -0.7807885966229586   0.02915451944634151
-0.6580591861955666   -0.7807885966229586   0.02915451944634151
-0.6580591861955666   -0.7807885966229586   0.02915451944634151
0.2941993773662371   -1.092982729246119   0.08838392091016772
0.2941993773662371   -1.092982729246119   0.08838392091016772
0.2941993773662371   -1.092982729246119   0.08838392091016772
0.2941993773662371   -1.092982729246119   0.08838392091016772
-1.8024690589166676   -0.5594411020177102   0.015822688404383993
-1.8024690589166676   -0.5594411020177102   0.015822688404383993
-1.8024690589166676   -0.5594411020177102   0.015822688404383993
-1.8024690589166676   -0.5594411020177102   0.015822688404383993
-2.0842886014237916   -1.553661428237263   0.13859240770414927
-2.0842886014237916   -1.553661428237263   0.13859240770414927
-2.0842886014237916   -1.553661428237263   0.13859240770414927
-2.0842886014237916   -1.553661428237263   0.13859240770414927
0.4104620888012286   -0.11435656007014279   0.09427048587064998
0.4104620888012286   -0.11435656007014279   0.09427048587064998
0.4104620888012286   -0.11435656007014279   0.09427048587064998
0.4104620888012286   -0.11435656007014279   0.09427048587064998
-0.8066985592307405   -0.8286678301650457   -0.0702305432856033
-0.8066985592307405   -0.8286678301650457   -0.0702305432856033
-0.8066985592307405   -0.8286678301650457   -0.0702305432856033
-0.8066985592307405   -0.8286678301650457   -0.0702305432856033
0.2033014592926896   -1.1125331183193605   0.056643896577180275
0.2033014592926896   -1.1125331183193605   0.056643896577180275
0.2033014592926896   -1.1125331183193605   0.056643896577180275
0.2033014592926896   -1.1125331183193605   0.056643896577180275
-1.9167027662561322   -0.5950596643289275   0.017919819634087203
-1.9167027662561322   -0.5950596643289275   0.017919819634087203
-1.9167027662561322   -0.5950596643289275   0.017919819634087203
-1.9167027662561322   -0.5950596643289275   0.017919819634087203
-2.2130881457356812   -1.5433928643358548   0.11745596242500628
-2.2130881457356812   -1.5433928643358548   0.11745596242500628
-2.2130881457356812   -1.5433928643358548   0.11745596242500628
-2.2130881457356812   -1.5433928643358548   0.11745596242500628
0.3214975920782221   -0.12771610746663126   0.11149157696979532
0.3214975920782221   -0.12771610746663126   0.11149157696979532
0.3214975920782221   -0.12771610746663126   0.11149157696979532
0.3214975920782221   -0.12771610746663126   0.11149157696979532
-0.9271580521042037   -0.8470347548099035   -0.1692304566028556
-0.9271580521042037   -0.8470347548099035   -0.1692304566028556
-0.9271580521042037   -0.8470347548099035   -0.1692304566028556
-0.9271580521042037   -0.8470347548099035   -0.1692304566028556
-1.8423637515162021   -1.770701178790985   0.14688433255208766
-1.8423637515162021   -1.770701178790985   0.14688433255208766
-1.8423637515162021   -1.770701178790985   0.14688433255208766
-1.8423637515162021   -1.770701178790985   0.14688433255208766
-4.089682351537421   -0.6412594016727516   -0.09539048238677797
-4.089682351537421   -0.6412594016727516   -0.09539048238677797
-4.089682351537421   -0.6412594016727516   -0.09539048238677797
-4.089682351537421   -0.6412594016727516   -0.09539048238677797
-4.692696792275756   -2.561667438952945   -0.13414452649033215
-4.692696792275756   -2.561667438952945   -0.13414452649033215
-4.692696792275756   -2.561667438952945   -0.13414452649033215
-4.692696792275756   -2.561667438952945   -0.13414452649033215
-1.7116959792947202   -0.14760612730814188   0.05785311180455227
-1.7116959792947202   -0.14760612730814188   0.05785311180455227
-1.7116959792947202   -0.14760612730814188   0.05785311180455227
-1.7116959792947202   -0.14760612730814188   0.05785311180455227
-3.0548014003764834   -1.231348025142057   -0.10778868331371758
-3.0548014003764834   -1.231348025142057   -0.10778868331371758
-3.0548014003764834   -1.231348025142057   -0.10778868331371758
-3.0548014003764834   -1.231348025142057   -0.10778868331371758
-2.0847495184276084   -2.0035443509323767   0.04852363976436164
-2.0847495184276084   -2.0035443509323767   0.04852363976436164
-2.0847495184276084   -2.0035443509323767   0.04852363976436164
-2.0847495184276084   -2.0035443509323767   0.04852363976436164
-4.309781145093147   -0.6958671072789868   -0.08536662225124564
-4.309781145093147   -0.6958671072789868   -0.08536662225124564
-4.309781145093147   -0.6958671072789868   -0.08536662225124564
-4.309781145093147   -0.6958671072789868   -0.08536662225124564
-4.834089315225523   -2.6035529231522103   -0.15514644255685683
-4.834089315225523   -2.6035529231522103   -0.15514644255685683
-4.834089315225523   -2.6035529231522103   -0.15514644255685683
-4.834089315225523   -2.6035529231522103   -0.15514644255685683
-1.821199082247014   -0.18632194065925525   0.08670051601000567
-1.821199082247014   -0.18632194065925525   0.08670051601000567
-1.821199082247014   -0.18632194065925525   0.08670051601000567
-1.821199082247014   -0.18632194065925525   0.08670051601000567
-3.227396723900516   -1.3635024132745288   -0.15098683115551637
-3.227396723900516   -1.3635024132745288   -0.15098683115551637
-3.227396723900516   -1.3635024132745288   -0.15098683115551637
-3.227396723900516   -1.3635024132745288   -0.15098683115551637
-2.2061257767847513   -2.04315158868358   0.01889669134564581
-2.2061257767847513   -2.04315158868358   0.01889669134564581
-2.2061257767847513   -2.04315158868358   0.01889669134564581
-2.2061257767847513   -2.04315158868358   0.01889669134564581
-4.449256711564636   -0.7468173660047622   -0.08771898139990736
-4.449256711564636   -0.7468173660047622   -0.08771898139990736
-4.449256711564636   -0.7468173660047622   -0.08771898139990736
-4.449256711564636   -0.7468173660047622   -0.08771898139990736
-4.954894541997504   -2.494342076225169   -0.17498282032403484
-4.954894541997504   -2.494342076225169   -0.17498282032403484
-4.954894541997504   -2.494342076225169   -0.17498282032403484
-4.954894541997504   -2.494342076225169   -0.17498282032403484
-1.9600672938130494   -0.2409095744051799   0.08007693210745179
-1.9600672938130494   -0.2409095744051799   0.08007693210745179
-1.9600672938130494   -0.2409095744051799   0.08007693210745179
-1.9600672938130494   -0.2409095744051799   0.08007693210745179
-3.3859464133066055   -1.4088576575132001   -0.19193718146280103
-3.3859464133066055   -1.4088576575132001   -0.19193718146280103
-3.3859464133066055   -1.4088576575132001   -0.19193718146280103
-3.3859464133066055   -1.4088576575132001   -0.19193718146280103
-4.014633660874056   -0.7293400152694713   0.36793358452669955
-4.014633660874056   -0.7293400152694713   0.36793358452669955
-4.014633660874056   -0.7293400152694713   0.36793358452669955
-4.014633660874056   -0.7293400152694713   0.36793358452669955
-7.086983998020129   -0.5323528281424041   -0.12777726998582956
-7.086983998020129   -0.5323528281424041   -0.12777726998582956
-7.086983998020129   -0.5323528281424041   -0.12777726998582956
-7.086983998020129   -0.5323528281424041   -0.12777726998582956
-7.523788049209254   -1.4845185514682482   0.10119529186801302
-7.523788049209254   -1.4845185514682482   0.10119529186801302
-7.523788049209254   -1.4845185514682482   0.10119529186801302
-7.523788049209254   -1.4845185514682482   0.10119529186801302
-4.134879009066804   0.057879070132961896   0.03539788046848663
-4.134879009066804   0.057879070132961896   0.03539788046848663
-4.134879009066804   0.057879070132961896   0.03539788046848663
-4.134879009066804   0.057879070132961896   0.03539788046848663
-5.419057830687985   -0.5216145199361265   0.10933700817683514
-5.419057830687985   -0.5216145199361265   0.10933700817683514
-5.419057830687985   -0.5216145199361265   0.10933700817683514
-5.419057830687985   -0.5216145199361265   0.10933700817683514
-4.244932108786021   -0.7836534427967787   0.3266648948021267
-4.244932108786021   -0.7836534427967787   0.3266648948021267
-4.244932108786021   -0.7836534427967787   0.3266648948021267
-4.244932108786021   -0.7836534427967787   0.3266648948021267
-7.394282285649461   -0.6235333746979246   -0.11226106710328859
-7.394282285649461   -0.6235333746979246   -0.11226106710328859
-7.394282285649461   -0.6235333746979246   -0.11226106710328859
-7.394282285649461   -0.6235333746979246   -0.11226106710328859
-7.710301871942642   -1.5483179235601614   -0.031287745858165295
-7.710301871942642   -1.5483179235601614   -0.031287745858165295
-7.710301871942642   -1.5483179235601614   -0.031287745858165295
-7.710301871942642   -1.5483179235601614   -0.031287745858165295
-4.266327205081233   0.014677998171177209   0.06543318684116858
-4.266327205081233   0.014677998171177209   0.06543318684116858
-4.266327205081233   0.014677998171177209   0.06543318684116858
-4.266327205081233   0.014677998171177209   0.06543318684116858
-5.745989845303168   -0.6892353613339454   0.04544123188728702
-5.745989845303168   -0.6892353613339454   0.04544123188728702
-5.745989845303168   -0.6892353613339454   0.04544123188728702
-5.745989845303168   -0.6892353613339454   0.04544123188728702
-4.3929259069484194   -0.8243013718786674   0.2714190475550824
-4.3929259069484194   -0.8243013718786674   0.2714190475550824
-4.3929259069484194   -0.8243013718786674   0.2714190475550824
-4.3929259069484194   -0.8243013718786674   0.2714190475550824
-7.545004466463934   -0.6706398498987528   -0.08247879212590456
-7.545004466463934   -0.6706398498987528   -0.08247879212590456
-7.545004466463934   -0.6706398498987528   -0.08247879212590456
-7.545004466463934   -0.6706398498987528   -0.08247879212590456
-7.873740545101008   -1.5747442579881197   1.925516040879316e-05
-7.873740545101008   -1.5747442579881197   1.925516040879316e-05
-7.873740545101008   -1.5747442579881197   1.925516040879316e-05
-7.873740545101008   -1.5747442579881197   1.925516040879316e-05
-4.4506760157928325   -0.1746607470677115   0.02642848154186514
-4.4506760157928325   -0.1746607470677115   0.02642848154186514
-4.4506760157928325   -0.1746607470677115   0.02642848154186514
-4.4506760157928325   -0.1746607470677115   0.02642848154186514
-5.817861661338087   -0.8334897436038955   0.07187365872708955
-5.817861661338087   -0.8334897436038955   0.07187365872708955
-5.817861661338087   -0.8334897436038955   0.07187365872708955
-5.817861661338087   -0.8334897436038955   0.07187365872708955
4.7935899366840315   0.21894635844020816   -0.10542988529624367
4.7935899366840315   0.21894635844020816   -0.10542988529624367
4.7935899366840315   0.21894635844020816   -0.10542988529624367
4.7935899366840315   0.21894635844020816   -0.10542988529624367
2.4158429412380857   -0.046763493443851334   0.052420827857133645
2.4158429412380857   -0.046763493443851334   0.052420827857133645
2.4158429412380857   -0.046763493443851334   0.052420827857133645
2.4158429412380857   -0.046763493443851334   0.052420827857133645
2.2605441507973376   -0.35697484402680724   -0.0927335037582819
2.2605441507973376   -0.35697484402680724   -0.0927335037582819
2.2605441507973376   -0.35697484402680724   -0.0927335037582819
2.2605441507973376   -0.35697484402680724   -0.0927335037582819
4.737639799699714   0.3468618702017605   0.06133207627562681
4.737639799699714   0.3468618702017605   0.06133207627562681
4.737639799699714   0.3468618702017605   0.06133207627562681
4.737639799699714   0.3468618702017605   0.06133207627562681
3.365700245930303   0.00821903092818499   -0.13005910021979464
3.365700245930303   0.00821903092818499   -0.13005910021979464
3.365700245930303   0.00821903092818499   -0.13005910021979464
3.365700245930303   0.00821903092818499   -0.13005910021979464
4.658757809879833   0.11997615668079342   -0.10619215930277434
4.658757809879833   0.11997615668079342   -0.10619215930277434
4.658757809879833   0.11997615668079342   -0.10619215930277434
4.658757809879833   0.11997615668079342   -0.10619215930277434
2.3349994709642425   -0.13451580015881293   0.057084053208230956
2.3349994709642425   -0.13451580015881293   0.057084053208230956
2.3349994709642425   -0.13451580015881293   0.057084053208230956
2.3349994709642425   -0.13451580015881293   0.057084053208230956
2.1769930836040543   -0.37718480038114865   -0.07643665082930143
2.1769930836040543   -0.37718480038114865   -0.07643665082930143
2.1769930836040543   -0.37718480038114865   -0.07643665082930143
2.1769930836040543   -0.37718480038114865   -0.07643665082930143
4.62143909598308   0.3183319827797907   0.08930241760035798
4.62143909598308   0.3183319827797907   0.08930241760035798
4.62143909598308   0.3183319827797907   0.08930241760035798
4.62143909598308   0.3183319827797907   0.08930241760035798
3.319335537879404   -0.03419920016190592   -0.15578369342334195
3.319335537879404   -0.03419920016190592   -0.15578369342334195
3.319335537879404   -0.03419920016190592   -0.15578369342334195
3.319335537879404   -0.03419920016190592   -0.15578369342334195
4.542005322196395   0.09433173649379156   -0.08386620504706424
4.542005322196395   0.09433173649379156   -0.08386620504706424
4.542005322196395   0.09433173649379156   -0.08386620504706424
4.542005322196395   0.09433173649379156   -0.08386620504706424
2.250339272359948   -0.15927213912591964   0.07238163169493819
2.250339272359948   -0.15927213912591964   0.07238163169493819
2.250339272359948   -0.15927213912591964   0.07238163169493819
2.250339272359948   -0.15927213912591964   0.07238163169493819
2.0959669523229345   -0.37243169283492455   -0.05231659687028667
2.0959669523229345   -0.37243169283492455   -0.05231659687028667
2.0959669523229345   -0.37243169283492455   -0.05231659687028667
2.0959669523229345   -0.37243169283492455   -0.05231659687028667
4.4774630292373345   0.2983276036278836   0.115860181236766
4.4774630292373345   0.2983276036278836   0.115860181236766
4.4774630292373345   0.2983276036278836   0.115860181236766
4.4774630292373345   0.2983276036278836   0.115860181236766
3.1538921484111038   -0.059819845104737035   -0.2049541533610042
3.1538921484111038   -0.059819845104737035   -0.2049541533610042
3.1538921484111038   -0.059819845104737035   -0.2049541533610042
3.1538921484111038   -0.059819845104737035   -0.2049541533610042
2.4274334038533927   0.042975276526258266   0.020634370963540746
2.4274334038533927   0.042975276526258266   0.020634370963540746
2.4274334038533927   0.042975276526258266   0.020634370963540746
2.4274334038533927   0.042975276526258266   0.020634370963540746
0.2392242222013011   -0.1443792540528247   -0.004889661940087976
0.2392242222013011   -0.1443792540528247   -0.004889661940087976
0.2392242222013011   -0.1443792540528247   -0.004889661940087976
0.2392242222013011   -0.1443792540528247   -0.004889661940087976
0.09290086543630113   -0.4731058661981173   -0.08903032405549635
0.09290086543630113   -0.4731058661981173   -0.08903032405549635
0.09290086543630113   -0.4731058661981173   -0.08903032405549635
0.09290086543630113   -0.4731058661981173   -0.08903032405549635
2.4306201289721505   0.2799521491635337   0.12071939392542358
2.4306201289721505   0.2799521491635337   0.12071939392542358
2.4306201289721505   0.2799521491635337   0.12071939392542358
2.4306201289721505   0.2799521491635337   0.12071939392542358
1.2737215574748695   -0.0673523766444663   -0.05093541673868844
1.2737215574748695   -0.0673523766444663   -0.05093541673868844
1.2737215574748695   -0.0673523766444663   -0.05093541673868844
1.2737215574748695   -0.0673523766444663   -0.05093541673868844
2.3587958331859067   0.005157670828711325   0.03639239332904104
2.3587958331859067   0.005157670828711325   0.03639239332904104
2.3587958331859067   0.005157670828711325   0.03639239332904104
2.3587958331859067   0.005157670828711325   0.03639239332904104
0.16740939877819386   -0.19562715030764352   0.00603362676349363
0.16740939877819386   -0.19562715030764352   0.00603362676349363
0.16740939877819386   -0.19562715030764352   0.00603362676349363
0.16740939877819386   -0.19562715030764352   0.00603362676349363
0.012344097552919403   -0.4960587496560997   -0.061693550296201716
0.012344097552919403   -0.4960587496560997   -0.061693550296201716
0.012344097552919403   -0.4960587496560997   -0.061693550296201716
0.012344097552919403   -0.4960587496560997   -0.061693550296201716
2.342161751125543   0.23900184760395088   0.13322003879304384
2.342161751125543   0.23900184760395088   0.13322003879304384
2.342161751125543   0.23900184760395088   0.13322003879304384
2.342161751125543   0.23900184760395088   0.13322003879304384
1.1812114845259116   -0.10495550446891883   -0.07212642929319683
1.1812114845259116   -0.10495550446891883   -0.07212642929319683
1.1812114845259116   -0.10495550446891883   -0.07212642929319683
1.1812114845259116   -0.10495550446891883   -0.07212642929319683
2.2743491631970016   -0.020572697597672107   0.05373164435197725
2.2743491631970016   -0.020572697597672107   0.05373164435197725
2.2743491631970016   -0.020572697597672107   0.05373164435197725
2.2743491631970016   -0.020572697597672107   0.05373164435197725
0.07974970657409329   -0.23689118336186188   0.016166928515429918
0.07974970657409329   -0.23689118336186188   0.016166928515429918
0.07974970657409329   -0.23689118336186188   0.016166928515429918
0.07974970657409329   -0.23689118336186188   0.016166928515429918
-0.07419985984709962   -0.4987861933007614   -0.04186193058209352
-0.07419985984709962   -0.4987861933007614   -0.04186193058209352
-0.07419985984709962   -0.4987861933007614   -0.04186193058209352
-0.07419985984709962   -0.4987861933007614   -0.04186193058209352
2.252922775554062   0.21273172190958167   0.14729910454086287
2.252922775554062   0.21273172190958167   0.14729910454086287
2.252922775554062   0.21273172190958167   0.14729910454086287
2.252922775554062   0.21273172190958167   0.14729910454086287
1.1084751800365211   -0.120267867761232   -0.09046872488277981
1.1084751800365211   -0.120267867761232   -0.09046872488277981
1.1084751800365211   -0.120267867761232   -0.09046872488277981
1.1084751800365211   -0.120267867761232   -0.09046872488277981
0.2422288689031424   -0.14141844363433465   0.007172761150628433
0.2422288689031424   -0.14141844363433465   0.007172761150628433
0.2422288689031424   -0.14141844363433465   0.007172761150628433
0.2422288689031424   -0.14141844363433465   0.007172761150628433
-1.8640685193338171   -0.2158170040149295   -0.05876066253568917
-1.8640685193338171   -0.2158170040149295   -0.05876066253568917
-1.8640685193338171   -0.2158170040149295   -0.05876066253568917
-1.8640685193338171   -0.2158170040149295   -0.05876066253568917
-2.026733300584042   -0.6276928264899987   -0.10117169228968353
-2.026733300584042   -0.6276928264899987   -0.10117169228968353
-2.026733300584042   -0.6276928264899987   -0.10117169228968353
-2.026733300584042   -0.6276928264899987   -0.10117169228968353
0.2600333189867629   0.20448172439260495   0.06904435310609032
0.2600333189867629   0.20448172439260495   0.06904435310609032
0.2600333189867629   0.20448172439260495   0.06904435310609032
0.2600333189867629   0.20448172439260495   0.06904435310609032
-0.8497207587014308   -0.1857456582686817   -0.050693410954193045
-0.8497207587014308   -0.1857456582686817   -0.050693410954193045
-0.8497207587014308   -0.1857456582686817   -0.050693410954193045
-0.8497207587014308   -0.1857456582686817   -0.050693410954193045
0.1817361017103545   -0.15779717445820995   0.03983716557486327
0.1817361017103545   -0.15779717445820995   0.03983716557486327
0.1817361017103545   -0.15779717445820995   0.03983716557486327
0.1817361017103545   -0.15779717445820995   0.03983716557486327
-1.9424797420130828   -0.2594575863446327   -0.048139139580252
-1.9424797420130828   -0.2594575863446327   -0.048139139580252
-1.9424797420130828   -0.2594575863446327   -0.048139139580252
-1.9424797420130828   -0.2594575863446327   -0.048139139580252
-2.1212513988072472   -0.6528775693750059   -0.06662107304518947
-2.1212513988072472   -0.6528775693750059   -0.06662107304518947
-2.1212513988072472   -0.6528775693750059   -0.06662107304518947
-2.1212513988072472   -0.6528775693750059   -0.06662107304518947
0.17164351066722733   0.16061573868034099   0.07812902693889723
0.17164351066722733   0.16061573868034099   0.07812902693889723
0.17164351066722733   0.16061573868034099   0.07812902693889723
0.17164351066722733   0.16061573868034099   0.07812902693889723
-0.9278652073863549   -0.21198843651100424   -0.06084944200945189
-0.9278652073863549   -0.21198843651100424   -0.06084944200945189
-0.9278652073863549   -0.21198843651100424   -0.06084944200945189
-0.9278652073863549   -0.21198843651100424   -0.06084944200945189
0.09805845422679929   -0.1846062395631159   0.05542572298021384
0.09805845422679929   -0.1846062395631159   0.05542572298021384
0.09805845422679929   -0.1846062395631159   0.05542572298021384
0.09805845422679929   -0.1846062395631159   0.05542572298021384
-2.0464425105862034   -0.3064317593509357   -0.03902244196405533
-2.0464425105862034   -0.3064317593509357   -0.03902244196405533
-2.0464425105862034   -0.3064317593509357   -0.03902244196405533
-2.0464425105862034   -0.3064317593509357   -0.03902244196405533
-2.2261812634081233   -0.6713989409832708   -0.05924373512717965
-2.2261812634081233   -0.6713989409832708   -0.05924373512717965
-2.2261812634081233   -0.6713989409832708   -0.05924373512717965
-2.2261812634081233   -0.6713989409832708   -0.05924373512717965
0.07604421053954571   0.12314013505789914   0.08743209299247261
0.07604421053954571   0.12314013505789914   0.08743209299247261
0.07604421053954571   0.12314013505789914   0.08743209299247261
0.07604421053954571   0.12314013505789914   0.08743209299247261
-1.0294504679552194   -0.24341391857852832   -0.08524869333162552
-1.0294504679552194   -0.24341391857852832   -0.08524869333162552
-1.0294504679552194   -0.24341391857852832   -0.08524869333162552
-1.0294504679552194   -0.24341391857852832   -0.08524869333162552
-1.8364286794048719   -0.16567188679172554   0.02929341988580366
-1.8364286794048719   -0.16567188679172554   0.02929341988580366
-1.8364286794048719   -0.16567188679172554   0.02929341988580366
-1.8364286794048719   -0.16567188679172554   0.02929341988580366
-3.91500915232052   -0.25247306337288444   -0.10395575499299098
-3.91500915232052   -0.25247306337288444   -0.10395575499299098
-3.91500915232052   -0.25247306337288444   -0.10395575499299098
-3.91500915232052   -0.25247306337288444   -0.10395575499299098
-4.100083727318914   -0.6569771611620794   -0.10061430944094202
-4.100083727318914   -0.6569771611620794   -0.10061430944094202
-4.100083727318914   -0.6569771611620794   -0.10061430944094202
-4.100083727318914   -0.6569771611620794   -0.10061430944094202
-1.8459898117948723   0.15569537115921173   0.019157554006926508
-1.8459898117948723   0.15569537115921173   0.019157554006926508
-1.8459898117948723   0.15569537115921173   0.019157554006926508
-1.8459898117948723   0.15569537115921173   0.019157554006926508
-2.900194876595626   -0.2191852431026433   -0.042867175692671455
-2.900194876595626   -0.2191852431026433   -0.042867175692671455
-2.900194876595626   -0.2191852431026433   -0.042867175692671455
-2.900194876595626   -0.2191852431026433   -0.042867175692671455
-1.9034651168142394   -0.18336274763257687   0.07083914770189631
-1.9034651168142394   -0.18336274763257687   0.07083914770189631
-1.9034651168142394   -0.18336274763257687   0.07083914770189631
-1.9034651168142394   -0.18336274763257687   0.07083914770189631
-4.030869213542531   -0.3061798336132808   -0.1053390681078771
-4.030869213542531   -0.3061798336132808   -0.1053390681078771
-4.030869213542531   -0.3061798336132808   -0.1053390681078771
-4.030869213542531   -0.3061798336132808   -0.1053390681078771
-4.230972876675349   -0.6996907418430218   -0.07036969548049293
-4.230972876675349   -0.6996907418430218   -0.07036969548049293
-4.230972876675349   -0.6996907418430218   -0.07036969548049293
-4.230972876675349   -0.6996907418430218   -0.07036969548049293
-1.9511080386087463   0.10765953350229512   0.02355862507000092
-1.9511080386087463   0.10765953350229512   0.02355862507000092
-1.9511080386087463   0.10765953350229512   0.02355862507000092
-1.9511080386087463   0.10765953350229512   0.02355862507000092
-2.9832892188983373   -0.24304443817737226   -0.043127307405544615
-2.9832892188983373   -0.24304443817737226   -0.043127307405544615
-2.9832892188983373   -0.24304443817737226   -0.043127307405544615
-2.9832892188983373   -0.24304443817737226   -0.043127307405544615
-2.007932389709325   -0.22632452061653344   0.07342092368592595
-2.007932389709325   -0.22632452061653344   0.07342092368592595
-2.007932389709325   -0.22632452061653344   0.07342092368592595
-2.007932389709325   -0.22632452061653344   0.07342092368592595
-4.166293121142644   -0.3578512832920694   -0.08881037636792358
-4.166293121142644   -0.3578512832920694   -0.08881037636792358
-4.166293121142644   -0.3578512832920694   -0.08881037636792358
-4.166293121142644   -0.3578512832920694   -0.08881037636792358
-4.379186515247467   -0.7558511446881848   -0.07551169787315629
-4.379186515247467   -0.7558511446881848   -0.07551169787315629
-4.379186515247467   -0.7558511446881848   -0.07551169787315629
-4.379186515247467   -0.7558511446881848   -0.07551169787315629
-2.0646889966489934   0.04850337082632905   0.028315286858838107
-2.0646889966489934   0.04850337082632905   0.028315286858838107
-2.0646889966489934   0.04850337082632905   0.028315286858838107
-2.0646889966489934   0.04850337082632905   0.028315286858838107
-3.129825343854697   -0.30038754239996407   -0.06976342526351277
-3.129825343854697   -0.30038754239996407   -0.06976342526351277
-3.129825343854697   -0.30038754239996407   -0.06976342526351277
-3.129825343854697   -0.30038754239996407   -0.06976342526351277
-3.7815267391320386   0.18040893928973878   0.130574308286795
-3.7815267391320386   0.18040893928973878   0.130574308286795
-3.7815267391320386   0.18040893928973878   0.130574308286795
-3.7815267391320386   0.18040893928973878   0.130574308286795
-5.864968538551155   -0.2923662804922037   -0.07996597190690521
-5.864968538551155   -0.2923662804922037   -0.07996597190690521
-5.864968538551155   -0.2923662804922037   -0.07996597190690521
-5.864968538551155   -0.2923662804922037   -0.07996597190690521
-6.0112111201834475   -0.297601410356345   0.13432758913871848
-6.0112111201834475   -0.297601410356345   0.13432758913871848
-6.0112111201834475   -0.297601410356345   0.13432758913871848
-6.0112111201834475   -0.297601410356345   0.13432758913871848
-3.930934447142071   0.12066760963655532   -0.03251267935540997
-3.930934447142071   0.12066760963655532   -0.03251267935540997
-3.930934447142071   0.12066760963655532   -0.03251267935540997
-3.930934447142071   0.12066760963655532   -0.03251267935540997
-4.6690428101809385   0.0040073791953672   0.11825862909480944
-4.6690428101809385   0.0040073791953672   0.11825862909480944
-4.6690428101809385   0.0040073791953672   0.11825862909480944
-4.6690428101809385   0.0040073791953672   0.11825862909480944
-3.889089835754828   0.1328607717876067   0.16451721542973546
-3.889089835754828   0.1328607717876067   0.16451721542973546
-3.889089835754828   0.1328607717876067   0.16451721542973546
-3.889089835754828   0.1328607717876067   0.16451721542973546
-6.050361945818006   -0.30710078675469377   -0.051927162635720114
-6.050361945818006   -0.30710078675469377   -0.051927162635720114
-6.050361945818006   -0.30710078675469377   -0.051927162635720114
-6.050361945818006   -0.30710078675469377   -0.051927162635720114
-6.196047352639475   -0.34784807273025675   0.1825229798922405
-6.196047352639475   -0.34784807273025675   0.1825229798922405
-6.196047352639475   -0.34784807273025675   0.1825229798922405
-6.196047352639475   -0.34784807273025675   0.1825229798922405
-4.066429896780867   0.08655808348479088   -0.033903621335928336
-4.066429896780867   0.08655808348479088   -0.033903621335928336
-4.066429896780867   0.08655808348479088   -0.033903621335928336
-4.066429896780867   0.08655808348479088   -0.033903621335928336
-4.906483414692172   -0.05491041946404196   0.06383576281549519
-4.906483414692172   -0.05491041946404196   0.06383576281549519
-4.906483414692172   -0.05491041946404196   0.06383576281549519
-4.906483414692172   -0.05491041946404196   0.06383576281549519
-4.028191811363721   0.08165618116113715   0.16218870807345562
-4.028191811363721   0.08165618116113715   0.16218870807345562
-4.028191811363721   0.08165618116113715   0.16218870807345562
-4.028191811363721   0.08165618116113715   0.16218870807345562
-6.241484402635309   -0.3501451349852911   -0.04236520783189596
-6.241484402635309   -0.3501451349852911   -0.04236520783189596
-6.241484402635309   -0.3501451349852911   -0.04236520783189596
-6.241484402635309   -0.3501451349852911   -0.04236520783189596
-6.458553296517406   -0.549722934533719   0.15899482493640146
-6.458553296517406   -0.549722934533719   0.15899482493640146
-6.458553296517406   -0.549722934533719   0.15899482493640146
-6.458553296517406   -0.549722934533719   0.15899482493640146
-4.222636283382317   -0.016752442565185377   -0.031859240670482875
-4.222636283382317   -0.016752442565185377   -0.031859240670482875
-4.222636283382317   -0.016752442565185377   -0.031859240670482875
-4.222636283382317   -0.016752442565185377   -0.031859240670482875
-5.009169645496319   -0.1288192185991177   0.01555862058601215
-5.009169645496319   -0.1288192185991177   0.01555862058601215
-5.009169645496319   -0.1288192185991177   0.01555862058601215
-5.009169645496319   -0.1288192185991177   0.01555862058601215
3.8731442167978747   0.20627574294548023   -0.13968426575599718
3.8731442167978747   0.20627574294548023   -0.13968426575599718
3.8731442167978747   0.20627574294548023   -0.13968426575599718
3.8731442167978747   0.20627574294548023   -0.13968426575599718
1.9226076257946703   -0.00022602074282629392   0.051065036186998106
1.9226076257946703   -0.00022602074282629392   0.051065036186998106
1.9226076257946703   -0.00022602074282629392   0.051065036186998106
1.9226076257946703   -0.00022602074282629392   0.051065036186998106
1.7554473825070513   -0.2874001515957895   -0.12778561551946088
1.7554473825070513   -0.2874001515957895   -0.12778561551946088
1.7554473825070513   -0.2874001515957895   -0.12778561551946088
1.7554473825070513   -0.2874001515957895   -0.12778561551946088
3.7993425315368405   0.31400983582279185   0.06398443939770398
3.7993425315368405   0.31400983582279185   0.06398443939770398
3.7993425315368405   0.31400983582279185   0.06398443939770398
3.7993425315368405   0.31400983582279185   0.06398443939770398
2.6909341293046714   0.02384877846047584   -0.08851436220627099
2.6909341293046714   0.02384877846047584   -0.08851436220627099
2.6909341293046714   0.02384877846047584   -0.08851436220627099
2.6909341293046714   0.02384877846047584   -0.08851436220627099
3.7176084452292826   0.10371162732424688   -0.13438778364151022
3.7176084452292826   0.10371162732424688   -0.13438778364151022
3.7176084452292826   0.10371162732424688   -0.13438778364151022
3.7176084452292826   0.10371162732424688   -0.13438778364151022
1.833644673701129   -0.08063873821072542   0.05643942706582922
1.833644673701129   -0.08063873821072542   0.05643942706582922
1.833644673701129   -0.08063873821072542   0.05643942706582922
1.833644673701129   -0.08063873821072542   0.05643942706582922
1.6718242806675434   -0.3116469049658932   -0.11097720581252493
1.6718242806675434   -0.3116469049658932   -0.11097720581252493
1.6718242806675434   -0.3116469049658932   -0.11097720581252493
1.6718242806675434   -0.3116469049658932   -0.11097720581252493
3.6742083508636085   0.28076626984272446   0.08724209026894691
3.6742083508636085   0.28076626984272446   0.08724209026894691
3.6742083508636085   0.28076626984272446   0.08724209026894691
3.6742083508636085   0.28076626984272446   0.08724209026894691
2.6248871982152173   -0.019668095185055745   -0.11679335435753399
2.6248871982152173   -0.019668095185055745   -0.11679335435753399
2.6248871982152173   -0.019668095185055745   -0.11679335435753399
2.6248871982152173   -0.019668095185055745   -0.11679335435753399
3.594253458358861   0.07390095937708197   -0.10566706178908897
3.594253458358861   0.07390095937708197   -0.10566706178908897
3.594253458358861   0.07390095937708197   -0.10566706178908897
3.594253458358861   0.07390095937708197   -0.10566706178908897
1.7486358360114136   -0.10792493166110023   0.0693585976020184
1.7486358360114136   -0.10792493166110023   0.0693585976020184
1.7486358360114136   -0.10792493166110023   0.0693585976020184
1.7486358360114136   -0.10792493166110023   0.0693585976020184
1.5953879812857366   -0.3193857103632634   -0.09063134076737134
1.5953879812857366   -0.3193857103632634   -0.09063134076737134
1.5953879812857366   -0.3193857103632634   -0.09063134076737134
1.5953879812857366   -0.3193857103632634   -0.09063134076737134
3.533137444310645   0.25120262849707076   0.1083425053321056
3.533137444310645   0.25120262849707076   0.1083425053321056
3.533137444310645   0.25120262849707076   0.1083425053321056
3.533137444310645   0.25120262849707076   0.1083425053321056
2.4729376953363236   -0.04981390138350961   -0.15887042306257834
2.4729376953363236   -0.04981390138350961   -0.15887042306257834
2.4729376953363236   -0.04981390138350961   -0.15887042306257834
2.4729376953363236   -0.04981390138350961   -0.15887042306257834
1.954755017504601   0.2016833601621815   0.009892613831643214
1.954755017504601   0.2016833601621815   0.009892613831643214
1.954755017504601   0.2016833601621815   0.009892613831643214
1.954755017504601   0.2016833601621815   0.009892613831643214
0.07053621615357288   -0.06279297024507756   -0.007509019655145244
0.07053621615357288   -0.06279297024507756   -0.007509019655145244
0.07053621615357288   -0.06279297024507756   -0.007509019655145244
0.07053621615357288   -0.06279297024507756   -0.007509019655145244
-0.0554405413457173   -0.2587429338051141   -0.08669535059994798
-0.0554405413457173   -0.2587429338051141   -0.08669535059994798
-0.0554405413457173   -0.2587429338051141   -0.08669535059994798
-0.0554405413457173   -0.2587429338051141   -0.08669535059994798
1.9166307497139872   0.28401350316664   0.10671756575275475
1.9166307497139872   0.28401350316664   0.10671756575275475
1.9166307497139872   0.28401350316664   0.10671756575275475
1.9166307497139872   0.28401350316664   0.10671756575275475
0.9564992425624714   0.04043217480930242   -0.011139323971667933
0.9564992425624714   0.04043217480930242   -0.011139323971667933
0.9564992425624714   0.04043217480930242   -0.011139323971667933
0.9564992425624714   0.04043217480930242   -0.011139323971667933
1.8723915853754418   0.14839134258703546   0.0211439046396405
1.8723915853754418   0.14839134258703546   0.0211439046396405
1.8723915853754418   0.14839134258703546   0.0211439046396405
1.8723915853754418   0.14839134258703546   0.0211439046396405
-0.010429068455535394   -0.12234846467387293   0.0019675447197127077
-0.010429068455535394   -0.12234846467387293   0.0019675447197127077
-0.010429068455535394   -0.12234846467387293   0.0019675447197127077
-0.010429068455535394   -0.12234846467387293   0.0019675447197127077
-0.13466260042666645   -0.2979771865294688   -0.07485078032184503
-0.13466260042666645   -0.2979771865294688   -0.07485078032184503
-0.13466260042666645   -0.2979771865294688   -0.07485078032184503
-0.13466260042666645   -0.2979771865294688   -0.07485078032184503
1.8269006820655975   0.23461626652580747   0.11814162968602951
1.8269006820655975   0.23461626652580747   0.11814162968602951
1.8269006820655975   0.23461626652580747   0.11814162968602951
1.8269006820655975   0.23461626652580747   0.11814162968602951
0.859904232143053   -0.008182265752726792   -0.03879105877501271
0.859904232143053   -0.008182265752726792   -0.03879105877501271
0.859904232143053   -0.008182265752726792   -0.03879105877501271
0.859904232143053   -0.008182265752726792   -0.03879105877501271
1.7843028072114582   0.10728312954227642   0.032485392398879445
1.7843028072114582   0.10728312954227642   0.032485392398879445
1.7843028072114582   0.10728312954227642   0.032485392398879445
1.7843028072114582   0.10728312954227642   0.032485392398879445
-0.09198366365918947   -0.17056298763259758   0.011129704618668537
-0.09198366365918947   -0.17056298763259758   0.011129704618668537
-0.09198366365918947   -0.17056298763259758   0.011129704618668537
-0.09198366365918947   -0.17056298763259758   0.011129704618668537
-0.21310875611684912   -0.3218121987529693   -0.059388967100980045
-0.21310875611684912   -0.3218121987529693   -0.059388967100980045
-0.21310875611684912   -0.3218121987529693   -0.059388967100980045
-0.21310875611684912   -0.3218121987529693   -0.059388967100980045
1.7415658480002245   0.19278558009148541   0.1280867023502977
1.7415658480002245   0.19278558009148541   0.1280867023502977
1.7415658480002245   0.19278558009148541   0.1280867023502977
1.7415658480002245   0.19278558009148541   0.1280867023502977
0.7882035083888164   -0.03951636843812417   -0.05925211261892671
0.7882035083888164   -0.03951636843812417   -0.05925211261892671
0.7882035083888164   -0.03951636843812417   -0.05925211261892671
0.7882035083888164   -0.03951636843812417   -0.05925211261892671
0.13424350925656492   0.20437035777767304   0.04386411783706434
0.13424350925656492   0.20437035777767304   0.04386411783706434
0.13424350925656492   0.20437035777767304   0.04386411783706434
0.13424350925656492   0.20437035777767304   0.04386411783706434
-1.7235697968008092   -0.11071690654897437   -0.059413261518884986
-1.7235697968008092   -0.11071690654897437   -0.059413261518884986
-1.7235697968008092   -0.11071690654897437   -0.059413261518884986
-1.7235697968008092   -0.11071690654897437   -0.059413261518884986
-1.8218641367732502   -0.23660199419243094   -0.054476784059076064
-1.8218641367732502   -0.23660199419243094   -0.054476784059076064
-1.8218641367732502   -0.23660199419243094   -0.054476784059076064
-1.8218641367732502   -0.23660199419243094   -0.054476784059076064
0.07044895197941056   0.23248088388460975   0.05152829833595975
0.07044895197941056   0.23248088388460975   0.05152829833595975
0.07044895197941056   0.23248088388460975   0.05152829833595975
0.07044895197941056   0.23248088388460975   0.05152829833595975
-0.8341514860428827   0.026415842077913754   0.0030586631236139555
-0.8341514860428827   0.026415842077913754   0.0030586631236139555
-0.8341514860428827   0.026415842077913754   0.0030586631236139555
-0.8341514860428827   0.026415842077913754   0.0030586631236139555
0.056925508106832445   0.1611080701391151   0.05528389271857154
0.056925508106832445   0.1611080701391151   0.05528389271857154
0.056925508106832445   0.1611080701391151   0.05528389271857154
0.056925508106832445   0.1611080701391151   0.05528389271857154
-1.806188277958404   -0.16307676550464628   -0.04962271867262873
-1.806188277958404   -0.16307676550464628   -0.04962271867262873
-1.806188277958404   -0.16307676550464628   -0.04962271867262873
-1.806188277958404   -0.16307676550464628   -0.04962271867262873
-1.9068988136643894   -0.27973418635633246   -0.04507827391285327
-1.9068988136643894   -0.27973418635633246   -0.04507827391285327
-1.9068988136643894   -0.27973418635633246   -0.04507827391285327
-1.9068988136643894   -0.27973418635633246   -0.04507827391285327
-0.011245505085177888   0.18165296627298144   0.06260454358315508
-0.011245505085177888   0.18165296627298144   0.06260454358315508
-0.011245505085177888   0.18165296627298144   0.06260454358315508
-0.011245505085177888   0.18165296627298144   0.06260454358315508
-0.9156036145824521   -0.015692427850665908   -0.017779069673941356
-0.9156036145824521   -0.015692427850665908   -0.017779069673941356
-0.9156036145824521   -0.015692427850665908   -0.017779069673941356
-0.9156036145824521   -0.015692427850665908   -0.017779069673941356
-0.022814325887080232   0.11948420595920667   0.06692919988741046
-0.022814325887080232   0.11948420595920667   0.06692919988741046
-0.022814325887080232   0.11948420595920667   0.06692919988741046
-0.022814325887080232   0.11948420595920667   0.06692919988741046
-1.8934682046086104   -0.21570363778865945   -0.04195577720161677
-1.8934682046086104   -0.21570363778865945   -0.04195577720161677
-1.8934682046086104   -0.21570363778865945   -0.04195577720161677
-1.8934682046086104   -0.21570363778865945   -0.04195577720161677
-1.991381947787214   -0.31372532365912675   -0.02946904226589717
-1.991381947787214   -0.31372532365912675   -0.02946904226589717
-1.991381947787214   -0.31372532365912675   -0.02946904226589717
-1.991381947787214   -0.31372532365912675   -0.02946904226589717
-0.09587042237674454   0.1337712937040741   0.07121920914249186
-0.09587042237674454   0.1337712937040741   0.07121920914249186
-0.09587042237674454   0.1337712937040741   0.07121920914249186
-0.09587042237674454   0.1337712937040741   0.07121920914249186
-1.0032360044508313   -0.05852417542123997   -0.04052067830476356
-1.0032360044508313   -0.05852417542123997   -0.04052067830476356
-1.0032360044508313   -0.05852417542123997   -0.04052067830476356
-1.0032360044508313   -0.05852417542123997   -0.04052067830476356
-1.624899636812534   0.24248676425166343   0.08073386762188456
-1.624899636812534   0.24248676425166343   0.08073386762188456
-1.624899636812534   0.24248676425166343   0.08073386762188456
-1.624899636812534   0.24248676425166343   0.08073386762188456
-3.456456926789377   -0.15253911202470183   -0.09756741484052239
-3.456456926789377   -0.15253911202470183   -0.09756741484052239
-3.456456926789377   -0.15253911202470183   -0.09756741484052239
-3.456456926789377   -0.15253911202470183   -0.09756741484052239
-3.5331477367144215   -0.18852655881825164   -0.014794170960841485
-3.5331477367144215   -0.18852655881825164   -0.014794170960841485
-3.5331477367144215   -0.18852655881825164   -0.014794170960841485
-3.5331477367144215   -0.18852655881825164   -0.014794170960841485
-1.7291929260601064   0.17555981781264668   -0.0032825424984187224
-1.7291929260601064   0.17555981781264668   -0.0032825424984187224
-1.7291929260601064   0.17555981781264668   -0.0032825424984187224
-1.7291929260601064   0.17555981781264668   -0.0032825424984187224
-2.567268568868174   0.027318973628582155   0.018619067389320093
-2.567268568868174   0.027318973628582155   0.018619067389320093
-2.567268568868174   0.027318973628582155   0.018619067389320093
-2.567268568868174   0.027318973628582155   0.018619067389320093
-1.7059120488010322   0.1980131210654285   0.09066854054417037
-1.7059120488010322   0.1980131210654285   0.09066854054417037
-1.7059120488010322   0.1980131210654285   0.09066854054417037
-1.7059120488010322   0.1980131210654285   0.09066854054417037
-3.5534670499272942   -0.2080182980248576   -0.09689899781862987
-3.5534670499272942   -0.2080182980248576   -0.09689899781862987
-3.5534670499272942   -0.2080182980248576   -0.09689899781862987
-3.5534670499272942   -0.2080182980248576   -0.09689899781862987
-3.637897773245365   -0.2369915636501937   -0.012907126055824808
-3.637897773245365   -0.2369915636501937   -0.012907126055824808
-3.637897773245365   -0.2369915636501937   -0.012907126055824808
-3.637897773245365   -0.2369915636501937   -0.012907126055824808
-1.815205286843103   0.12705495098825048   0.006600222849010823
-1.815205286843103   0.12705495098825048   0.006600222849010823
-1.815205286843103   0.12705495098825048   0.006600222849010823
-1.815205286843103   0.12705495098825048   0.006600222849010823
-2.64084684262655   -0.011339179295905999   0.0015025973359113765
-2.64084684262655   -0.011339179295905999   0.0015025973359113765
-2.64084684262655   -0.011339179295905999   0.0015025973359113765
-2.64084684262655   -0.011339179295905999   0.0015025973359113765
-1.7897287383913394   0.15619270979247157   0.10484520630359895
-1.7897287383913394   0.15619270979247157   0.10484520630359895
-1.7897287383913394   0.15619270979247157   0.10484520630359895
-1.7897287383913394   0.15619270979247157   0.10484520630359895
-3.6574119786011616   -0.26016697935849575   -0.0873027371265386
-3.6574119786011616   -0.26016697935849575   -0.0873027371265386
-3.6574119786011616   -0.26016697935849575   -0.0873027371265386
-3.6574119786011616   -0.26016697935849575   -0.0873027371265386
-3.734401726153605   -0.28882770894653853   0.011372617498988935
-3.734401726153605   -0.28882770894653853   0.011372617498988935
-3.734401726153605   -0.28882770894653853   0.011372617498988935
-3.734401726153605   -0.28882770894653853   0.011372617498988935
-1.906351461445688   0.0694581389949559   0.01249992678769081
-1.906351461445688   0.0694581389949559   0.01249992678769081
-1.906351461445688   0.0694581389949559   0.01249992678769081
-1.906351461445688   0.0694581389949559   0.01249992678769081
-2.7550451473375137   -0.0652743289235781   -0.021391875959067108
-2.7550451473375137   -0.0652743289235781   -0.021391875959067108
-2.7550451473375137   -0.0652743289235781   -0.021391875959067108
-2.7550451473375137   -0.0652743289235781   -0.021391875959067108
-3.333216993311161   0.2526632092019714   0.11342993132385368
-3.333216993311161   0.2526632092019714   0.11342993132385368
-3.333216993311161   0.2526632092019714   0.11342993132385368
-3.333216993311161   0.2526632092019714   0.11342993132385368
-5.100676980099494   -0.23569242426620463   -0.09068788058546301
-5.100676980099494   -0.23569242426620463   -0.09068788058546301
-5.100676980099494   -0.23569242426620463   -0.09068788058546301
-5.100676980099494   -0.23569242426620463   -0.09068788058546301
-5.171848601881363   -0.10165253243244532   0.09680076503900326
-5.171848601881363   -0.10165253243244532   0.09680076503900326
-5.171848601881363   -0.10165253243244532   0.09680076503900326
-5.171848601881363   -0.10165253243244532   0.09680076503900326
-3.4819425905930896   0.10405143835324038   -0.051346437525675
-3.4819425905930896   0.10405143835324038   -0.051346437525675
-3.4819425905930896   0.10405143835324038   -0.051346437525675
-3.4819425905930896   0.10405143835324038   -0.051346437525675
-4.083337789561079   0.05305321320320089   0.09335376955969657
-4.083337789561079   0.05305321320320089   0.09335376955969657
-4.083337789561079   0.05305321320320089   0.09335376955969657
-4.083337789561079   0.05305321320320089   0.09335376955969657
-3.4151407185486216   0.25639313619691595   0.13032122485294423
-3.4151407185486216   0.25639313619691595   0.13032122485294423
-3.4151407185486216   0.25639313619691595   0.13032122485294423
-3.4151407185486216   0.25639313619691595   0.13032122485294423
-5.234702252273169   -0.25004600862343007   -0.0690740107289479
-5.234702252273169   -0.25004600862343007   -0.0690740107289479
-5.234702252273169   -0.25004600862343007   -0.0690740107289479
-5.234702252273169   -0.25004600862343007   -0.0690740107289479
-5.301906319470845   -0.1269996383219678   0.13378419232025712
-5.301906319470845   -0.1269996383219678   0.13378419232025712
-5.301906319470845   -0.1269996383219678   0.13378419232025712
-5.301906319470845   -0.1269996383219678   0.13378419232025712
-3.5818320283562253   0.0761653071992675   -0.045735272459589554
-3.5818320283562253   0.0761653071992675   -0.045735272459589554
-3.5818320283562253   0.0761653071992675   -0.045735272459589554
-3.5818320283562253   0.0761653071992675   -0.045735272459589554
-4.261272331765715   0.02607660852262428   0.059478339157451154
-4.261272331765715   0.02607660852262428   0.059478339157451154
-4.261272331765715   0.02607660852262428   0.059478339157451154
-4.261272331765715   0.02607660852262428   0.059478339157451154
-3.50806356933041   0.23738878267984898   0.16188354718890546
-3.50806356933041   0.23738878267984898   0.16188354718890546
-3.50806356933041   0.23738878267984898   0.16188354718890546
-3.50806356933041   0.23738878267984898   0.16188354718890546
-5.371882553645992   -0.2844308889518651   -0.05866572792548544
-5.371882553645992   -0.2844308889518651   -0.05866572792548544
-5.371882553645992   -0.2844308889518651   -0.05866572792548544
-5.371882553645992   -0.2844308889518651   -0.05866572792548544
-5.478272307168845   -0.23484015785073276   0.1333382066883073
-5.478272307168845   -0.23484015785073276   0.1333382066883073
-5.478272307168845   -0.23484015785073276   0.1333382066883073
-5.478272307168845   -0.23484015785073276   0.1333382066883073
-3.688844553922594   -0.006761144977808442   -0.04290808531468601
-3.688844553922594   -0.006761144977808442   -0.04290808531468601
-3.688844553922594   -0.006761144977808442   -0.04290808531468601
-3.688844553922594   -0.006761144977808442   -0.04290808531468601
-4.314408565407084   -0.012443995365992722   0.04797297638269332
-4.314408565407084   -0.012443995365992722   0.04797297638269332
-4.314408565407084   -0.012443995365992722   0.04797297638269332
-4.314408565407084   -0.012443995365992722   0.04797297638269332
2.925046456214442   0.1617847807681893   -0.1413197866776955
2.925046456214442   0.1617847807681893   -0.1413197866776955
2.925046456214442   0.1617847807681893   -0.1413197866776955
2.925046456214442   0.1617847807681893   -0.1413197866776955
1.3926918937671613   0.029505546499996982   0.05425607852192171
1.3926918937671613   0.029505546499996982   0.05425607852192171
1.3926918937671613   0.029505546499996982   0.05425607852192171
1.3926918937671613   0.029505546499996982   0.05425607852192171
1.2354993207332643   -0.2383520607841748   -0.1339818328335528
1.2354993207332643   -0.2383520607841748   -0.1339818328335528
1.2354993207332643   -0.2383520607841748   -0.1339818328335528
1.2354993207332643   -0.2383520607841748   -0.1339818328335528
2.8607215102999604   0.2697037896573053   0.06703568938932696
2.8607215102999604   0.2697037896573053   0.06703568938932696
2.8607215102999604   0.2697037896573053   0.06703568938932696
2.8607215102999604   0.2697037896573053   0.06703568938932696
1.9948543357918678   0.02704149999415617   -0.05894619544043474
1.9948543357918678   0.02704149999415617   -0.05894619544043474
1.9948543357918678   0.02704149999415617   -0.05894619544043474
1.9948543357918678   0.02704149999415617   -0.05894619544043474
2.7808572404794787   0.07083292976720679   -0.1334147998229818
2.7808572404794787   0.07083292976720679   -0.1334147998229818
2.7808572404794787   0.07083292976720679   -0.1334147998229818
2.7808572404794787   0.07083292976720679   -0.1334147998229818
1.313777510876282   -0.04106728057152109   0.060124337668873
1.313777510876282   -0.04106728057152109   0.060124337668873
1.313777510876282   -0.04106728057152109   0.060124337668873
1.313777510876282   -0.04106728057152109   0.060124337668873
1.1619890701196147   -0.26195707662659296   -0.11415536133364634
1.1619890701196147   -0.26195707662659296   -0.11415536133364634
1.1619890701196147   -0.26195707662659296   -0.11415536133364634
1.1619890701196147   -0.26195707662659296   -0.11415536133364634
2.7464409260203007   0.23601960697546603   0.08796136860422844
2.7464409260203007   0.23601960697546603   0.08796136860422844
2.7464409260203007   0.23601960697546603   0.08796136860422844
2.7464409260203007   0.23601960697546603   0.08796136860422844
1.9285318390361694   -0.013749334004393154   -0.08322380501073298
1.9285318390361694   -0.013749334004393154   -0.08322380501073298
1.9285318390361694   -0.013749334004393154   -0.08322380501073298
1.9285318390361694   -0.013749334004393154   -0.08322380501073298
2.668480443334501   0.04083998559438151   -0.10666142344366036
2.668480443334501   0.04083998559438151   -0.10666142344366036
2.668480443334501   0.04083998559438151   -0.10666142344366036
2.668480443334501   0.04083998559438151   -0.10666142344366036
1.2379779164613443   -0.0687490915895767   0.07258088533797143
1.2379779164613443   -0.0687490915895767   0.07258088533797143
1.2379779164613443   -0.0687490915895767   0.07258088533797143
1.2379779164613443   -0.0687490915895767   0.07258088533797143
1.0956660419809345   -0.2769689875100666   -0.0950441723738707
1.0956660419809345   -0.2769689875100666   -0.0950441723738707
1.0956660419809345   -0.2769689875100666   -0.0950441723738707
1.0956660419809345   -0.2769689875100666   -0.0950441723738707
2.617635184682512   0.1992090328324856   0.10431944854183228
2.617635184682512   0.1992090328324856   0.10431944854183228
2.617635184682512   0.1992090328324856   0.10431944854183228
2.617635184682512   0.1992090328324856   0.10431944854183228
1.7990201465972813   -0.04473879771621847   -0.11887298166019811
1.7990201465972813   -0.04473879771621847   -0.11887298166019811
1.7990201465972813   -0.04473879771621847   -0.11887298166019811
1.7990201465972813   -0.04473879771621847   -0.11887298166019811
1.415263494634156   0.20581517937787552   -0.00919555002096285
1.415263494634156   0.20581517937787552   -0.00919555002096285
1.415263494634156   0.20581517937787552   -0.00919555002096285
1.415263494634156   0.20581517937787552   -0.00919555002096285
-0.09075743868087922   -0.018938813248792357   -0.0002745605380965416
-0.09075743868087922   -0.018938813248792357   -0.0002745605380965416
-0.09075743868087922   -0.018938813248792357   -0.0002745605380965416
-0.09075743868087922   -0.018938813248792357   -0.0002745605380965416
-0.2014795940960995   -0.17794041278868838   -0.08494167021380035
-0.2014795940960995   -0.17794041278868838   -0.08494167021380035
-0.2014795940960995   -0.17794041278868838   -0.08494167021380035
-0.2014795940960995   -0.17794041278868838   -0.08494167021380035
1.3778221713787369   0.24491611238782449   0.09436424722180232
1.3778221713787369   0.24491611238782449   0.09436424722180232
1.3778221713787369   0.24491611238782449   0.09436424722180232
1.3778221713787369   0.24491611238782449   0.09436424722180232
0.6156013562421051   0.06064434928346531   0.0042709669437089905
0.6156013562421051   0.06064434928346531   0.0042709669437089905
0.6156013562421051   0.06064434928346531   0.0042709669437089905
0.6156013562421051   0.06064434928346531   0.0042709669437089905
1.3402906882967425   0.14810547214381214   0.003517472055860213
1.3402906882967425   0.14810547214381214   0.003517472055860213
1.3402906882967425   0.14810547214381214   0.003517472055860213
1.3402906882967425   0.14810547214381214   0.003517472055860213
-0.16329704532209796   -0.08047870685266598   0.008509367720184928
-0.16329704532209796   -0.08047870685266598   0.008509367720184928
-0.16329704532209796   -0.08047870685266598   0.008509367720184928
-0.16329704532209796   -0.08047870685266598   0.008509367720184928
-0.2707367625832154   -0.22256709226598598   -0.07013771962424743
-0.2707367625832154   -0.22256709226598598   -0.07013771962424743
-0.2707367625832154   -0.22256709226598598   -0.07013771962424743
-0.2707367625832154   -0.22256709226598598   -0.07013771962424743
1.2962064470901964   0.19179238822224653   0.10318205867040942
1.2962064470901964   0.19179238822224653   0.10318205867040942
1.2962064470901964   0.19179238822224653   0.10318205867040942
1.2962064470901964   0.19179238822224653   0.10318205867040942
0.5304004308775637   0.008165530543574148   -0.0220930636315569
0.5304004308775637   0.008165530543574148   -0.0220930636315569
0.5304004308775637   0.008165530543574148   -0.0220930636315569
0.5304004308775637   0.008165530543574148   -0.0220930636315569
1.2599084588205869   0.10023866420712355   0.013245841337497809
1.2599084588205869   0.10023866420712355   0.013245841337497809
1.2599084588205869   0.10023866420712355   0.013245841337497809
1.2599084588205869   0.10023866420712355   0.013245841337497809
-0.23494895891175469   -0.13152355284900963   0.017757759316079712
-0.23494895891175469   -0.13152355284900963   0.017757759316079712
-0.23494895891175469   -0.13152355284900963   0.017757759316079712
-0.23494895891175469   -0.13152355284900963   0.017757759316079712
-0.3391103215754566   -0.2602120835222119   -0.05622544614250776
-0.3391103215754566   -0.2602120835222119   -0.05622544614250776
-0.3391103215754566   -0.2602120835222119   -0.05622544614250776
-0.3391103215754566   -0.2602120835222119   -0.05622544614250776
1.220854638068692   0.1425198104812402   0.11141001007360435
1.220854638068692   0.1425198104812402   0.11141001007360435
1.220854638068692   0.1425198104812402   0.11141001007360435
1.220854638068692   0.1425198104812402   0.11141001007360435
0.46481643442688614   -0.03181536966154255   -0.044124375239378844
0.46481643442688614   -0.03181536966154255   -0.044124375239378844
0.46481643442688614   -0.03181536966154255   -0.044124375239378844
0.46481643442688614   -0.03181536966154255   -0.044124375239378844
-0.030788060948850296   0.24654066324989177   0.034092851623363986
-0.030788060948850296   0.24654066324989177   0.034092851623363986
-0.030788060948850296   0.24654066324989177   0.034092851623363986
-0.030788060948850296   0.24654066324989177   0.034092851623363986
-1.542505795272303   -0.0658909826822544   -0.051176080473733884
-1.542505795272303   -0.0658909826822544   -0.051176080473733884
-1.542505795272303   -0.0658909826822544   -0.051176080473733884
-1.542505795272303   -0.0658909826822544   -0.051176080473733884
-1.6138845594002287   -0.12266462979612502   -0.039865758688197514
-1.6138845594002287   -0.12266462979612502   -0.039865758688197514
-1.6138845594002287   -0.12266462979612502   -0.039865758688197514
-1.6138845594002287   -0.12266462979612502   -0.039865758688197514
-0.10113662571936183   0.19782949514770093   0.041003263733506365
-0.10113662571936183   0.19782949514770093   0.041003263733506365
-0.10113662571936183   0.19782949514770093   0.041003263733506365
-0.10113662571936183   0.19782949514770093   0.041003263733506365
-0.8201377260978504   0.06442626866278209   0.016108531201208823
-0.8201377260978504   0.06442626866278209   0.016108531201208823
-0.8201377260978504   0.06442626866278209   0.016108531201208823
-0.8201377260978504   0.06442626866278209   0.016108531201208823
-0.09972339578202352   0.19776711364892563   0.048131794918973264
-0.09972339578202352   0.19776711364892563   0.048131794918973264
-0.09972339578202352   0.19776711364892563   0.048131794918973264
-0.09972339578202352   0.19776711364892563   0.048131794918973264
-1.6139520166606116   -0.12125647562041483   -0.041611199165822586
-1.6139520166606116   -0.12125647562041483   -0.041611199165822586
-1.6139520166606116   -0.12125647562041483   -0.041611199165822586
-1.6139520166606116   -0.12125647562041483   -0.041611199165822586
-1.6848185610478323   -0.17096795632718484   -0.026927013455022096
-1.6848185610478323   -0.17096795632718484   -0.026927013455022096
-1.6848185610478323   -0.17096795632718484   -0.026927013455022096
-1.6848185610478323   -0.17096795632718484   -0.026927013455022096
-0.17332639556197826   0.14312315347767507   0.05122386973827708
-0.17332639556197826   0.14312315347767507   0.05122386973827708
-0.17332639556197826   0.14312315347767507   0.05122386973827708
-0.17332639556197826   0.14312315347767507   0.05122386973827708
-0.8918009646427499   0.016851768845666415   -0.005316625652662693
-0.8918009646427499   0.016851768845666415   -0.005316625652662693
-0.8918009646427499   0.016851768845666415   -0.005316625652662693
-0.8918009646427499   0.016851768845666415   -0.005316625652662693
-0.17048972426951747   0.14915774137927812   0.059372638298978084
-0.17048972426951747   0.14915774137927812   0.059372638298978084
-0.17048972426951747   0.14915774137927812   0.059372638298978084
-0.17048972426951747   0.14915774137927812   0.059372638298978084
-1.6872456433315213   -0.17659295522001633   -0.03343742598063676
-1.6872456433315213   -0.17659295522001633   -0.03343742598063676
-1.6872456433315213   -0.17659295522001633   -0.03343742598063676
-1.6872456433315213   -0.17659295522001633   -0.03343742598063676
-1.7549423436747915   -0.215113445703602   -0.014132566597841519
-1.7549423436747915   -0.215113445703602   -0.014132566597841519
-1.7549423436747915   -0.215113445703602   -0.014132566597841519
-1.7549423436747915   -0.215113445703602   -0.014132566597841519
-0.2457932224599917   0.09021195728031596   0.05993600863229666
-0.2457932224599917   0.09021195728031596   0.05993600863229666
-0.2457932224599917   0.09021195728031596   0.05993600863229666
-0.2457932224599917   0.09021195728031596   0.05993600863229666
-0.9667283987670245   -0.031134480932035274   -0.029162102217268338
-0.9667283987670245   -0.031134480932035274   -0.029162102217268338
-0.9667283987670245   -0.031134480932035274   -0.029162102217268338
-0.9667283987670245   -0.031134480932035274   -0.029162102217268338
-1.4474054708644586   0.28372631158752354   0.0747082472956862
-1.4474054708644586   0.28372631158752354   0.0747082472956862
-1.4474054708644586   0.28372631158752354   0.0747082472956862
-1.4474054708644586   0.28372631158752354   0.0747082472956862
-2.9598690615677983   -0.1137710685157779   -0.09249196658767586
-2.9598690615677983   -0.1137710685157779   -0.09249196658767586
-2.9598690615677983   -0.1137710685157779   -0.09249196658767586
-2.9598690615677983   -0.1137710685157779   -0.09249196658767586
-2.9989282050657518   -0.07587656156976041   0.009270839595190955
-2.9989282050657518   -0.07587656156976041   0.009270839595190955
-2.9989282050657518   -0.07587656156976041   0.009270839595190955
-2.9989282050657518   -0.07587656156976041   0.009270839595190955
-1.5554400416479959   0.14189744457440545   -0.012205244297540496
-1.5554400416479959   0.14189744457440545   -0.012205244297540496
-1.5554400416479959   0.14189744457440545   -0.012205244297540496
-1.5554400416479959   0.14189744457440545   -0.012205244297540496
-2.2259209569942024   0.06189297716273201   0.027321725156677995
-2.2259209569942024   0.06189297716273201   0.027321725156677995
-2.2259209569942024   0.06189297716273201   0.027321725156677995
-2.2259209569942024   0.06189297716273201   0.027321725156677995
-1.516452423685875   0.23640873733720125   0.08822155275024501
-1.516452423685875   0.23640873733720125   0.08822155275024501
-1.516452423685875   0.23640873733720125   0.08822155275024501
-1.516452423685875   0.23640873733720125   0.08822155275024501
-3.037525331391242   -0.1699973626959499   -0.0895939909060709
-3.037525331391242   -0.1699973626959499   -0.0895939909060709
-3.037525331391242   -0.1699973626959499   -0.0895939909060709
-3.037525331391242   -0.1699973626959499   -0.0895939909060709
-3.0815102423698497   -0.12469466669514029   0.014157089958803964
-3.0815102423698497   -0.12469466669514029   0.014157089958803964
-3.0815102423698497   -0.12469466669514029   0.014157089958803964
-3.0815102423698497   -0.12469466669514029   0.014157089958803964
-1.627350404940965   0.09123782704163452   -0.001792016289483403
-1.627350404940965   0.09123782704163452   -0.001792016289483403
-1.627350404940965   0.09123782704163452   -0.001792016289483403
-1.627350404940965   0.09123782704163452   -0.001792016289483403
-2.286720348980891   0.019344159072943734   0.0073549680873207235
-2.286720348980891   0.019344159072943734   0.0073549680873207235
-2.286720348980891   0.019344159072943734   0.0073549680873207235
-2.286720348980891   0.019344159072943734   0.0073549680873207235
-1.5867510314724047   0.19159524425964497   0.10084743383528524
-1.5867510314724047   0.19159524425964497   0.10084743383528524
-1.5867510314724047   0.19159524425964497   0.10084743383528524
-1.5867510314724047   0.19159524425964497   0.10084743383528524
-3.1200082951260364   -0.2229507632007806   -0.08007707731648801
-3.1200082951260364   -0.2229507632007806   -0.08007707731648801
-3.1200082951260364   -0.2229507632007806   -0.08007707731648801
-3.1200082951260364   -0.2229507632007806   -0.08007707731648801
-3.1564738204371716   -0.17716943758884068   0.029484402860191952
-3.1564738204371716   -0.17716943758884068   0.029484402860191952
-3.1564738204371716   -0.17716943758884068   0.029484402860191952
-3.1564738204371716   -0.17716943758884068   0.029484402860191952
-1.701265851600115   0.0333827705519294   0.005753677520034431
-1.701265851600115   0.0333827705519294   0.005753677520034431
-1.701265851600115   0.0333827705519294   0.005753677520034431
-1.701265851600115   0.0333827705519294   0.005753677520034431
-2.3788094380833398   -0.03379181471263609   -0.01790766720802066
-2.3788094380833398   -0.03379181471263609   -0.01790766720802066
-2.3788094380833398   -0.03379181471263609   -0.01790766720802066
-2.3788094380833398   -0.03379181471263609   -0.01790766720802066
-2.8465704103875975   0.2544270916273145   0.10580312917023676
-2.8465704103875975   0.2544270916273145   0.10580312917023676
-2.8465704103875975   0.2544270916273145   0.10580312917023676
-2.8465704103875975   0.2544270916273145   0.10580312917023676
-4.305430222741686   -0.19835051827679362   -0.1025596782429011
-4.305430222741686   -0.19835051827679362   -0.1025596782429011
-4.305430222741686   -0.19835051827679362   -0.1025596782429011
-4.305430222741686   -0.19835051827679362   -0.1025596782429011
-4.354112773052569   -0.04058398072720082   0.0976466495317212
-4.354112773052569   -0.04058398072720082   0.0976466495317212
-4.354112773052569   -0.04058398072720082   0.0976466495317212
-4.354112773052569   -0.04058398072720082   0.0976466495317212
-2.9835390020927104   0.07067669490011663   -0.06033640200947932
-2.9835390020927104   0.07067669490011663   -0.06033640200947932
-2.9835390020927104   0.07067669490011663   -0.06033640200947932
-2.9835390020927104   0.07067669490011663   -0.06033640200947932
-3.4623221805266438   0.05767679685349014   0.08445135976366777
-3.4623221805266438   0.05767679685349014   0.08445135976366777
-3.4623221805266438   0.05767679685349014   0.08445135976366777
-3.4623221805266438   0.05767679685349014   0.08445135976366777
-2.91008914637071   0.25350777416914927   0.12408179733148986
-2.91008914637071   0.25350777416914927   0.12408179733148986
-2.91008914637071   0.25350777416914927   0.12408179733148986
-2.91008914637071   0.25350777416914927   0.12408179733148986
-4.426293753474913   -0.22214618469654934   -0.08169604861060653
-4.426293753474913   -0.22214618469654934   -0.08169604861060653
-4.426293753474913   -0.22214618469654934   -0.08169604861060653
-4.426293753474913   -0.22214618469654934   -0.08169604861060653
-4.462151323793377   -0.06631502297696035   0.12218237209630123
-4.462151323793377   -0.06631502297696035   0.12218237209630123
-4.462151323793377   -0.06631502297696035   0.12218237209630123
-4.462151323793377   -0.06631502297696035   0.12218237209630123
-3.0611724024323603   0.042896296271845324   -0.051744673320735624
-3.0611724024323603   0.042896296271845324   -0.051744673320735624
-3.0611724024323603   0.042896296271845324   -0.051744673320735624
-3.0611724024323603   0.042896296271845324   -0.051744673320735624
-3.6124804261543377   0.028904229486045874   0.05094917270402602
-3.6124804261543377   0.028904229486045874   0.05094917270402602
-3.6124804261543377   0.028904229486045874   0.05094917270402602
-3.6124804261543377   0.028904229486045874   0.05094917270402602
-2.9832553017395846   0.23431261024792605   0.14642451616706273
-2.9832553017395846   0.23431261024792605   0.14642451616706273
-2.9832553017395846   0.23431261024792605   0.14642451616706273
-2.9832553017395846   0.23431261024792605   0.14642451616706273
-4.538005295970819   -0.2556682084377414   -0.06773430333008862
-4.538005295970819   -0.2556682084377414   -0.06773430333008862
-4.538005295970819   -0.2556682084377414   -0.06773430333008862
-4.538005295970819   -0.2556682084377414   -0.06773430333008862
-4.6047219335750835   -0.15731717611414608   0.12018913865623704
-4.6047219335750835   -0.15731717611414608   0.12018913865623704
-4.6047219335750835   -0.15731717611414608   0.12018913865623704
-4.6047219335750835   -0.15731717611414608   0.12018913865623704
-3.1430786397816104   -0.03384011486949523   -0.04686901658134576
-3.1430786397816104   -0.03384011486949523   -0.04686901658134576
-3.1430786397816104   -0.03384011486949523   -0.04686901658134576
-3.1430786397816104   -0.03384011486949523   -0.04686901658134576
-3.6521975870550234   -0.0067015547904886175   0.0395982149962219
-3.6521975870550234   -0.0067015547904886175   0.0395982149962219
-3.6521975870550234   -0.0067015547904886175   0.0395982149962219
-3.6521975870550234   -0.0067015547904886175   0.0395982149962219
1.9988375529309228   0.11252821940122615   -0.13677621613569402
1.9988375529309228   0.11252821940122615   -0.13677621613569402
1.9988375529309228   0.11252821940122615   -0.13677621613569402
1.9988375529309228   0.11252821940122615   -0.13677621613569402
0.8538748139454354   0.05608224772022935   0.05900298774506425
0.8538748139454354   0.05608224772022935   0.05900298774506425
0.8538748139454354   0.05608224772022935   0.05900298774506425
0.8538748139454354   0.05608224772022935   0.05900298774506425
0.7126674876780643   -0.1987959741084569   -0.12740910681758844
0.7126674876780643   -0.1987959741084569   -0.12740910681758844
0.7126674876780643   -0.1987959741084569   -0.12740910681758844
0.7126674876780643   -0.1987959741084569   -0.12740910681758844
1.9510820783908889   0.22813883779817803   0.07165168213374554
1.9510820783908889   0.22813883779817803   0.07165168213374554
1.9510820783908889   0.22813883779817803   0.07165168213374554
1.9510820783908889   0.22813883779817803   0.07165168213374554
1.3060431983252554   0.029046294779562887   -0.03571285977810652
1.3060431983252554   0.029046294779562887   -0.03571285977810652
1.3060431983252554   0.029046294779562887   -0.03571285977810652
1.3060431983252554   0.029046294779562887   -0.03571285977810652
1.8722548637062582   0.033111843135354535   -0.12745739662660238
1.8722548637062582   0.033111843135354535   -0.12745739662660238
1.8722548637062582   0.033111843135354535   -0.12745739662660238
1.8722548637062582   0.033111843135354535   -0.12745739662660238
0.7900162623386987   -0.005247419469650932   0.06578621184679084
0.7900162623386987   -0.005247419469650932   0.06578621184679084
0.7900162623386987   -0.005247419469650932   0.06578621184679084
0.7900162623386987   -0.005247419469650932   0.06578621184679084
0.6524356848702212   -0.22204148881146082   -0.1083388691803263
0.6524356848702212   -0.22204148881146082   -0.1083388691803263
0.6524356848702212   -0.22204148881146082   -0.1083388691803263
0.6524356848702212   -0.22204148881146082   -0.1083388691803263
1.852039461786707   0.19517312420331706   0.09216894280392803
1.852039461786707   0.19517312420331706   0.09216894280392803
1.852039461786707   0.19517312420331706   0.09216894280392803
1.852039461786707   0.19517312420331706   0.09216894280392803
1.2433887706424043   -0.009197113291648462   -0.05855361897210189
1.2433887706424043   -0.009197113291648462   -0.05855361897210189
1.2433887706424043   -0.009197113291648462   -0.05855361897210189
1.2433887706424043   -0.009197113291648462   -0.05855361897210189
1.7745483185084552   0.0033550682295376277   -0.10346871761356784
1.7745483185084552   0.0033550682295376277   -0.10346871761356784
1.7745483185084552   0.0033550682295376277   -0.10346871761356784
1.7745483185084552   0.0033550682295376277   -0.10346871761356784
0.7277638413613768   -0.03238641962477937   0.07864684408877619
0.7277638413613768   -0.03238641962477937   0.07864684408877619
0.7277638413613768   -0.03238641962477937   0.07864684408877619
0.7277638413613768   -0.03238641962477937   0.07864684408877619
0.5985421107056418   -0.2435257949690684   -0.09026161648906739
0.5985421107056418   -0.2435257949690684   -0.09026161648906739
0.5985421107056418   -0.2435257949690684   -0.09026161648906739
0.5985421107056418   -0.2435257949690684   -0.09026161648906739
1.7365141766527243   0.1515791531392453   0.10505717803889439
1.7365141766527243   0.1515791531392453   0.10505717803889439
1.7365141766527243   0.1515791531392453   0.10505717803889439
1.7365141766527243   0.1515791531392453   0.10505717803889439
1.13851816539531   -0.04071998330363402   -0.08972569024069457
1.13851816539531   -0.04071998330363402   -0.08972569024069457
1.13851816539531   -0.04071998330363402   -0.08972569024069457
1.13851816539531   -0.04071998330363402   -0.08972569024069457
0.859032012353614   0.16604019547246682   -0.025168967966293775
0.859032012353614   0.16604019547246682   -0.025168967966293775
0.859032012353614   0.16604019547246682   -0.025168967966293775
0.859032012353614   0.16604019547246682   -0.025168967966293775
-0.26566384371362173   0.015305026026030136   0.008318671564739446
-0.26566384371362173   0.015305026026030136   0.008318671564739446
-0.26566384371362173   0.015305026026030136   0.008318671564739446
-0.26566384371362173   0.015305026026030136   0.008318671564739446
-0.3621931152080123   -0.1376193552214987   -0.07829780423806441
-0.3621931152080123   -0.1376193552214987   -0.07829780423806441
-0.3621931152080123   -0.1376193552214987   -0.07829780423806441
-0.3621931152080123   -0.1376193552214987   -0.07829780423806441
0.8346529628874693   0.19981677260963945   0.08390552251135304
0.8346529628874693   0.19981677260963945   0.08390552251135304
0.8346529628874693   0.19981677260963945   0.08390552251135304
0.8346529628874693   0.19981677260963945   0.08390552251135304
0.2605947731148802   0.05794508360124698   0.009945446982376724
0.2605947731148802   0.05794508360124698   0.009945446982376724
0.2605947731148802   0.05794508360124698   0.009945446982376724
0.2605947731148802   0.05794508360124698   0.009945446982376724
0.7965819821468684   0.10705725281723877   -0.013689861399257717
0.7965819821468684   0.10705725281723877   -0.013689861399257717
0.7965819821468684   0.10705725281723877   -0.013689861399257717
0.7965819821468684   0.10705725281723877   -0.013689861399257717
-0.324669472698025   -0.045407173659712786   0.01710822675008604
-0.324669472698025   -0.045407173659712786   0.01710822675008604
-0.324669472698025   -0.045407173659712786   0.01710822675008604
-0.324669472698025   -0.045407173659712786   0.01710822675008604
-0.4182332401626091   -0.184383736393618   -0.0632588771561077
-0.4182332401626091   -0.184383736393618   -0.0632588771561077
-0.4182332401626091   -0.184383736393618   -0.0632588771561077
-0.4182332401626091   -0.184383736393618   -0.0632588771561077
0.7659504302487808   0.14597569964856597   0.09121766925245063
0.7659504302487808   0.14597569964856597   0.09121766925245063
0.7659504302487808   0.14597569964856597   0.09121766925245063
0.7659504302487808   0.14597569964856597   0.09121766925245063
0.1916020896956139   0.005224633960608585   -0.015382388444711532
0.1916020896956139   0.005224633960608585   -0.015382388444711532
0.1916020896956139   0.005224633960608585   -0.015382388444711532
0.1916020896956139   0.005224633960608585   -0.015382388444711532
0.7290824536966839   0.056918229197972   -0.004064743057450856
0.7290824536966839   0.056918229197972   -0.004064743057450856
0.7290824536966839   0.056918229197972   -0.004064743057450856
0.7290824536966839   0.056918229197972   -0.004064743057450856
-0.3827682657986848   -0.09672926813117796   0.026411526401073915
-0.3827682657986848   -0.09672926813117796   0.026411526401073915
-0.3827682657986848   -0.09672926813117796   0.026411526401073915
-0.3827682657986848   -0.09672926813117796   0.026411526401073915
-0.4735443264910184   -0.2285138595535593   -0.049359375540682975
-0.4735443264910184   -0.2285138595535593   -0.049359375540682975
-0.4735443264910184   -0.2285138595535593   -0.049359375540682975
-0.4735443264910184   -0.2285138595535593   -0.049359375540682975
0.7039510216974013   0.09407964951645051   0.09917749398422707
0.7039510216974013   0.09407964951645051   0.09917749398422707
0.7039510216974013   0.09407964951645051   0.09917749398422707
0.7039510216974013   0.09407964951645051   0.09917749398422707
0.1360316296265189   -0.03872497151917449   -0.037811805493214445
0.1360316296265189   -0.03872497151917449   -0.037811805493214445
0.1360316296265189   -0.03872497151917449   -0.037811805493214445
0.1360316296265189   -0.03872497151917449   -0.037811805493214445
-0.2241789585034198   0.21184935457885407   0.019198769062925405
-0.2241789585034198   0.21184935457885407   0.019198769062925405
-0.2241789585034198   0.21184935457885407   0.019198769062925405
-0.2241789585034198   0.21184935457885407   0.019198769062925405
-1.3687705029552928   -0.03358350268724808   -0.04151354133298488
-1.3687705029552928   -0.03358350268724808   -0.04151354133298488
-1.3687705029552928   -0.03358350268724808   -0.04151354133298488
-1.3687705029552928   -0.03358350268724808   -0.04151354133298488
-1.4239931756334354   -0.08104327039970519   -0.030504014089450547
-1.4239931756334354   -0.08104327039970519   -0.030504014089450547
-1.4239931756334354   -0.08104327039970519   -0.030504014089450547
-1.4239931756334354   -0.08104327039970519   -0.030504014089450547
-0.28203654781916404   0.15240212662187114   0.03246355086279918
-0.28203654781916404   0.15240212662187114   0.03246355086279918
-0.28203654781916404   0.15240212662187114   0.03246355086279918
-0.28203654781916404   0.15240212662187114   0.03246355086279918
-0.8227501129548039   0.06147881308357736   0.0161859070723396
-0.8227501129548039   0.06147881308357736   0.0161859070723396
-0.8227501129548039   0.06147881308357736   0.0161859070723396
-0.8227501129548039   0.06147881308357736   0.0161859070723396
-0.2802550132123234   0.1604665291718401   0.03330682134704106
-0.2802550132123234   0.1604665291718401   0.03330682134704106
-0.2802550132123234   0.1604665291718401   0.03330682134704106
-0.2802550132123234   0.1604665291718401   0.03330682134704106
-1.4259142082818375   -0.08924717099121379   -0.03190527673995213
-1.4259142082818375   -0.08924717099121379   -0.03190527673995213
-1.4259142082818375   -0.08924717099121379   -0.03190527673995213
-1.4259142082818375   -0.08924717099121379   -0.03190527673995213
-1.480600407955369   -0.13199410355082974   -0.01708840301085629
-1.480600407955369   -0.13199410355082974   -0.01708840301085629
-1.480600407955369   -0.13199410355082974   -0.01708840301085629
-1.480600407955369   -0.13199410355082974   -0.01708840301085629
-0.3408359198654531   0.09698967990625314   0.042354308029793605
-0.3408359198654531   0.09698967990625314   0.042354308029793605
-0.3408359198654531   0.09698967990625314   0.042354308029793605
-0.3408359198654531   0.09698967990625314   0.042354308029793605
-0.8809554503709068   0.011927503484275265   -0.005616518805560404
-0.8809554503709068   0.011927503484275265   -0.005616518805560404
-0.8809554503709068   0.011927503484275265   -0.005616518805560404
-0.8809554503709068   0.011927503484275265   -0.005616518805560404
-0.33783970819444686   0.1090339385514525   0.045291107739632935
-0.33783970819444686   0.1090339385514525   0.045291107739632935
-0.33783970819444686   0.1090339385514525   0.045291107739632935
-0.33783970819444686   0.1090339385514525   0.045291107739632935
-1.4844750972312117   -0.14491683980086434   -0.023539113140035137
-1.4844750972312117   -0.14491683980086434   -0.023539113140035137
-1.4844750972312117   -0.14491683980086434   -0.023539113140035137
-1.4844750972312117   -0.14491683980086434   -0.023539113140035137
-1.5362764429356062   -0.18068425782578773   -0.0040618464226072765
-1.5362764429356062   -0.18068425782578773   -0.0040618464226072765
-1.5362764429356062   -0.18068425782578773   -0.0040618464226072765
-1.5362764429356062   -0.18068425782578773   -0.0040618464226072765
-0.39911896098873395   0.04313862618989406   0.05111496622727848
-0.39911896098873395   0.04313862618989406   0.05111496622727848
-0.39911896098873395   0.04313862618989406   0.05111496622727848
-0.39911896098873395   0.04313862618989406   0.05111496622727848
-0.9415387516747299   -0.03768709685353719   -0.029237358822590098
-0.9415387516747299   -0.03768709685353719   -0.029237358822590098
-0.9415387516747299   -0.03768709685353719   -0.029237358822590098
-0.9415387516747299   -0.03768709685353719   -0.029237358822590098
-1.2910555456590256   0.2509879803964439   0.062489762064659754
-1.2910555456590256   0.2509879803964439   0.062489762064659754
-1.2910555456590256   0.2509879803964439   0.062489762064659754
-1.2910555456590256   0.2509879803964439   0.062489762064659754
-2.4515148590310494   -0.08210844788515059   -0.08477378755537407
-2.4515148590310494   -0.08210844788515059   -0.08477378755537407
-2.4515148590310494   -0.08210844788515059   -0.08477378755537407
-2.4515148590310494   -0.08210844788515059   -0.08477378755537407
-2.472328458563137   -0.034880329589408565   0.020794301798530368
-2.472328458563137   -0.034880329589408565   0.020794301798530368
-2.472328458563137   -0.034880329589408565   0.020794301798530368
-2.472328458563137   -0.034880329589408565   0.020794301798530368
-1.385499735387216   0.09921883668653819   -0.018298919944613024
-1.385499735387216   0.09921883668653819   -0.018298919944613024
-1.385499735387216   0.09921883668653819   -0.018298919944613024
-1.385499735387216   0.09921883668653819   -0.018298919944613024
-1.8889058522816513   0.05889779167459169   0.02356096147190477
-1.8889058522816513   0.05889779167459169   0.02356096147190477
-1.8889058522816513   0.05889779167459169   0.02356096147190477
-1.8889058522816513   0.05889779167459169   0.02356096147190477
-1.346077187191256   0.20151466322467482   0.07651799449706648
-1.346077187191256   0.20151466322467482   0.07651799449706648
-1.346077187191256   0.20151466322467482   0.07651799449706648
-1.346077187191256   0.20151466322467482   0.07651799449706648
-2.5134451851658777   -0.13887033453430558   -0.08079932627029264
-2.5134451851658777   -0.13887033453430558   -0.08079932627029264
-2.5134451851658777   -0.13887033453430558   -0.08079932627029264
-2.5134451851658777   -0.13887033453430558   -0.08079932627029264
-2.539026307629256   -0.0853311385010665   0.027039058685302916
-2.539026307629256   -0.0853311385010665   0.027039058685302916
-2.539026307629256   -0.0853311385010665   0.027039058685302916
-2.539026307629256   -0.0853311385010665   0.027039058685302916
-1.442705569859453   0.04817149897924622   -0.007779815061383227
-1.442705569859453   0.04817149897924622   -0.007779815061383227
-1.442705569859453   0.04817149897924622   -0.007779815061383227
-1.442705569859453   0.04817149897924622   -0.007779815061383227
-1.9380495462817733   0.013885378374840052   0.0016802188797128553
-1.9380495462817733   0.013885378374840052   0.0016802188797128553
-1.9380495462817733   0.013885378374840052   0.0016802188797128553
-1.9380495462817733   0.013885378374840052   0.0016802188797128553
-1.4018719504318697   0.15466989784376017   0.08988988321204959
-1.4018719504318697   0.15466989784376017   0.08988988321204959
-1.4018719504318697   0.15466989784376017   0.08988988321204959
-1.4018719504318697   0.15466989784376017   0.08988988321204959
-2.5799927157829936   -0.1919623260917317   -0.07116179449273233
-2.5799927157829936   -0.1919623260917317   -0.07116179449273233
-2.5799927157829936   -0.1919623260917317   -0.07116179449273233
-2.5799927157829936   -0.1919623260917317   -0.07116179449273233
-2.598468772966903   -0.13900453466076673   0.04102007282334148
-2.598468772966903   -0.13900453466076673   0.04102007282334148
-2.598468772966903   -0.13900453466076673   0.04102007282334148
-2.598468772966903   -0.13900453466076673   0.04102007282334148
-1.5009006244705998   -0.008355134413043197   0.00048812248965073024
-1.5009006244705998   -0.008355134413043197   0.00048812248965073024
-1.5009006244705998   -0.008355134413043197   0.00048812248965073024
-1.5009006244705998   -0.008355134413043197   0.00048812248965073024
-2.0114149192588378   -0.03818178265583083   -0.023645307628904905
-2.0114149192588378   -0.03818178265583083   -0.023645307628904905
-2.0114149192588378   -0.03818178265583083   -0.023645307628904905
-2.0114149192588378   -0.03818178265583083   -0.023645307628904905
-2.3519639240062813   0.2325243042129419   0.0983481354703715
-2.3519639240062813   0.2325243042129419   0.0983481354703715
-2.3519639240062813   0.2325243042129419   0.0983481354703715
-2.3519639240062813   0.2325243042129419   0.0983481354703715
-3.4678555372891884   -0.1593103623748079   -0.11070781566914858
-3.4678555372891884   -0.1593103623748079   -0.11070781566914858
-3.4678555372891884   -0.1593103623748079   -0.11070781566914858
-3.4678555372891884   -0.1593103623748079   -0.11070781566914858
-3.5018729834702347   -0.0014150482501743555   0.0975388636167131
-3.5018729834702347   -0.0014150482501743555   0.0975388636167131
-3.5018729834702347   -0.0014150482501743555   0.0975388636167131
-3.5018729834702347   -0.0014150482501743555   0.0975388636167131
-2.4762237295322405   0.03310957453511598   -0.06667195717155985
-2.4762237295322405   0.03310957453511598   -0.06667195717155985
-2.4762237295322405   0.03310957453511598   -0.06667195717155985
-2.4762237295322405   0.03310957453511598   -0.06667195717155985
-2.819840549127339   0.054397146019138365   0.07109145353931995
-2.819840549127339   0.054397146019138365   0.07109145353931995
-2.819840549127339   0.054397146019138365   0.07109145353931995
-2.819840549127339   0.054397146019138365   0.07109145353931995
-2.401856302329982   0.22227955494125817   0.11599519843362266
-2.401856302329982   0.22227955494125817   0.11599519843362266
-2.401856302329982   0.22227955494125817   0.11599519843362266
-2.401856302329982   0.22227955494125817   0.11599519843362266
-3.5776777305565135   -0.19202234854032663   -0.09087757152449974
-3.5776777305565135   -0.19202234854032663   -0.09087757152449974
-3.5776777305565135   -0.19202234854032663   -0.09087757152449974
-3.5776777305565135   -0.19202234854032663   -0.09087757152449974
-3.596012856088195   -0.029130193993713638   0.12296332900730422
-3.596012856088195   -0.029130193993713638   0.12296332900730422
-3.596012856088195   -0.029130193993713638   0.12296332900730422
-3.596012856088195   -0.029130193993713638   0.12296332900730422
-2.5377172278803006   0.005110822362736744   -0.05685750343376875
-2.5377172278803006   0.005110822362736744   -0.05685750343376875
-2.5377172278803006   0.005110822362736744   -0.05685750343376875
-2.5377172278803006   0.005110822362736744   -0.05685750343376875
-2.946267026669821   0.022489668522014283   0.036837486740185055
-2.946267026669821   0.022489668522014283   0.036837486740185055
-2.946267026669821   0.022489668522014283   0.036837486740185055
-2.946267026669821   0.022489668522014283   0.036837486740185055
-2.459854755803632   0.20085158010350834   0.1367140992088507
-2.459854755803632   0.20085158010350834   0.1367140992088507
-2.459854755803632   0.20085158010350834   0.1367140992088507
-2.459854755803632   0.20085158010350834   0.1367140992088507
-3.6749176998465134   -0.2259133234161269   -0.07477776036187408
-3.6749176998465134   -0.2259133234161269   -0.07477776036187408
-3.6749176998465134   -0.2259133234161269   -0.07477776036187408
-3.6749176998465134   -0.2259133234161269   -0.07477776036187408
-3.721955570018841   -0.11554150092823057   0.12350098336220819
-3.721955570018841   -0.11554150092823057   0.12350098336220819
-3.721955570018841   -0.11554150092823057   0.12350098336220819
-3.721955570018841   -0.11554150092823057   0.12350098336220819
-2.6020150200969874   -0.06545158945891238   -0.05026410802896811
-2.6020150200969874   -0.06545158945891238   -0.05026410802896811
-2.6020150200969874   -0.06545158945891238   -0.05026410802896811
-2.6020150200969874   -0.06545158945891238   -0.05026410802896811
-2.9827786509215497   -0.013779367189794889   0.02040508572052574
-2.9827786509215497   -0.013779367189794889   0.02040508572052574
-2.9827786509215497   -0.013779367189794889   0.02040508572052574
-2.9827786509215497   -0.013779367189794889   0.02040508572052574
1.0893981824761831   0.0647122405787498   -0.13337041649308123
1.0893981824761831   0.0647122405787498   -0.13337041649308123
1.0893981824761831   0.0647122405787498   -0.13337041649308123
1.0893981824761831   0.0647122405787498   -0.13337041649308123
0.31365338598036   0.08063722903067617   0.06404979218572887
0.31365338598036   0.08063722903067617   0.06404979218572887
0.31365338598036   0.08063722903067617   0.06404979218572887
0.31365338598036   0.08063722903067617   0.06404979218572887
0.18935108140186752   -0.16204306217488526   -0.11752682074267223
0.18935108140186752   -0.16204306217488526   -0.11752682074267223
0.18935108140186752   -0.16204306217488526   -0.11752682074267223
0.18935108140186752   -0.16204306217488526   -0.11752682074267223
1.058662498082132   0.1876100925055857   0.07707595548604985
1.058662498082132   0.1876100925055857   0.07707595548604985
1.058662498082132   0.1876100925055857   0.07707595548604985
1.058662498082132   0.1876100925055857   0.07707595548604985
0.6239210581773298   0.03122172154766084   -0.014531823254692891
0.6239210581773298   0.03122172154766084   -0.014531823254692891
0.6239210581773298   0.03122172154766084   -0.014531823254692891
0.6239210581773298   0.03122172154766084   -0.014531823254692891
0.9803387958984449   -0.004772206427018311   -0.12216025649979226
0.9803387958984449   -0.004772206427018311   -0.12216025649979226
0.9803387958984449   -0.004772206427018311   -0.12216025649979226
0.9803387958984449   -0.004772206427018311   -0.12216025649979226
0.2652286944923111   0.027893147664453416   0.07192503487020926
0.2652286944923111   0.027893147664453416   0.07192503487020926
0.2652286944923111   0.027893147664453416   0.07192503487020926
0.2652286944923111   0.027893147664453416   0.07192503487020926
0.14238965324129416   -0.18513390758573242   -0.09971640759590637
0.14238965324129416   -0.18513390758573242   -0.09971640759590637
0.14238965324129416   -0.18513390758573242   -0.09971640759590637
0.14238965324129416   -0.18513390758573242   -0.09971640759590637
0.9742576478536532   0.15573288773498492   0.09887253017150394
0.9742576478536532   0.15573288773498492   0.09887253017150394
0.9742576478536532   0.15573288773498492   0.09887253017150394
0.9742576478536532   0.15573288773498492   0.09887253017150394
0.5646875101940304   -0.004787356882622121   -0.0379833089052375
0.5646875101940304   -0.004787356882622121   -0.0379833089052375
0.5646875101940304   -0.004787356882622121   -0.0379833089052375
0.5646875101940304   -0.004787356882622121   -0.0379833089052375
0.8964211701264218   -0.03441643069621744   -0.10016054003345908
0.8964211701264218   -0.03441643069621744   -0.10016054003345908
0.8964211701264218   -0.03441643069621744   -0.10016054003345908
0.8964211701264218   -0.03441643069621744   -0.10016054003345908
0.21696208724004543   0.001751367116988728   0.08626048769513078
0.21696208724004543   0.001751367116988728   0.08626048769513078
0.21696208724004543   0.001751367116988728   0.08626048769513078
0.21696208724004543   0.001751367116988728   0.08626048769513078
0.10037001449670109   -0.21326254413703571   -0.08300714618661023
0.10037001449670109   -0.21326254413703571   -0.08300714618661023
0.10037001449670109   -0.21326254413703571   -0.08300714618661023
0.10037001449670109   -0.21326254413703571   -0.08300714618661023
0.8698193973275165   0.10455091345510432   0.10965627088229861
0.8698193973275165   0.10455091345510432   0.10965627088229861
0.8698193973275165   0.10455091345510432   0.10965627088229861
0.8698193973275165   0.10455091345510432   0.10965627088229861
0.4835382801055726   -0.03697396883801557   -0.06652575602527333
0.4835382801055726   -0.03697396883801557   -0.06652575602527333
0.4835382801055726   -0.03697396883801557   -0.06652575602527333
0.4835382801055726   -0.03697396883801557   -0.06652575602527333
0.3007359896711267   0.11911772193673256   -0.039017682266496836
0.3007359896711267   0.11911772193673256   -0.039017682266496836
0.3007359896711267   0.11911772193673256   -0.039017682266496836
0.3007359896711267   0.11911772193673256   -0.039017682266496836
-0.4505371386800191   0.039175013162272634   0.015760462265184995
-0.4505371386800191   0.039175013162272634   0.015760462265184995
-0.4505371386800191   0.039175013162272634   0.015760462265184995
-0.4505371386800191   0.039175013162272634   0.015760462265184995
-0.5305751288586328   -0.10370298789140123   -0.06846518824774828
-0.5305751288586328   -0.10370298789140123   -0.06846518824774828
-0.5305751288586328   -0.10370298789140123   -0.06846518824774828
-0.5305751288586328   -0.10370298789140123   -0.06846518824774828
0.2893881990413154   0.14795533023991414   0.07266037503976985
0.2893881990413154   0.14795533023991414   0.07266037503976985
0.2893881990413154   0.14795533023991414   0.07266037503976985
0.2893881990413154   0.14795533023991414   0.07266037503976985
-0.10033065293172572   0.04851553225327125   0.0121114494103679
-0.10033065293172572   0.04851553225327125   0.0121114494103679
-0.10033065293172572   0.04851553225327125   0.0121114494103679
-0.10033065293172572   0.04851553225327125   0.0121114494103679
0.2516660418734368   0.06069938982718342   -0.028694470386894683
0.2516660418734368   0.06069938982718342   -0.028694470386894683
0.2516660418734368   0.06069938982718342   -0.028694470386894683
0.2516660418734368   0.06069938982718342   -0.028694470386894683
-0.49492644076711584   -0.018520516555042665   0.024595780873478516
-0.49492644076711584   -0.018520516555042665   0.024595780873478516
-0.49492644076711584   -0.018520516555042665   0.024595780873478516
-0.49492644076711584   -0.018520516555042665   0.024595780873478516
-0.5725962805087741   -0.15068366288485355   -0.053532432657091955
-0.5725962805087741   -0.15068366288485355   -0.053532432657091955
-0.5725962805087741   -0.15068366288485355   -0.053532432657091955
-0.5725962805087741   -0.15068366288485355   -0.053532432657091955
0.2342515047398789   0.09525664577037735   0.07920229654090952
0.2342515047398789   0.09525664577037735   0.07920229654090952
0.2342515047398789   0.09525664577037735   0.07920229654090952
0.2342515047398789   0.09525664577037735   0.07920229654090952
-0.1521925001981944   -0.002049368086169172   -0.012106144448258844
-0.1521925001981944   -0.002049368086169172   -0.012106144448258844
-0.1521925001981944   -0.002049368086169172   -0.012106144448258844
-0.1521925001981944   -0.002049368086169172   -0.012106144448258844
0.19765341794451777   0.010305387503432583   -0.01883687916895323
0.19765341794451777   0.010305387503432583   -0.01883687916895323
0.19765341794451777   0.010305387503432583   -0.01883687916895323
0.19765341794451777   0.010305387503432583   -0.01883687916895323
-0.5386802275665006   -0.06841443847098516   0.03377860764041515
-0.5386802275665006   -0.06841443847098516   0.03377860764041515
-0.5386802275665006   -0.06841443847098516   0.03377860764041515
-0.5386802275665006   -0.06841443847098516   0.03377860764041515
-0.6143035308434421   -0.19741322331759584   -0.04003231764516114
-0.6143035308434421   -0.19741322331759584   -0.04003231764516114
-0.6143035308434421   -0.19741322331759584   -0.04003231764516114
-0.6143035308434421   -0.19741322331759584   -0.04003231764516114
0.18597885618431284   0.04338412504485496   0.0883903930695598
0.18597885618431284   0.04338412504485496   0.0883903930695598
0.18597885618431284   0.04338412504485496   0.0883903930695598
0.18597885618431284   0.04338412504485496   0.0883903930695598
-0.19718467188751146   -0.04747663640283721   -0.035017693385018055
-0.19718467188751146   -0.04747663640283721   -0.035017693385018055
-0.19718467188751146   -0.04747663640283721   -0.035017693385018055
-0.19718467188751146   -0.04747663640283721   -0.035017693385018055
-0.4275647760526048   0.16409984056066024   0.005697448003868857
-0.4275647760526048   0.16409984056066024   0.005697448003868857
-0.4275647760526048   0.16409984056066024   0.005697448003868857
-0.4275647760526048   0.16409984056066024   0.005697448003868857
-1.2048748483231029   -0.013683150019388468   -0.03294657655766352
-1.2048748483231029   -0.013683150019388468   -0.03294657655766352
-1.2048748483231029   -0.013683150019388468   -0.03294657655766352
-1.2048748483231029   -0.013683150019388468   -0.03294657655766352
-1.2426777725785574   -0.05014009109021353   -0.01960631293823089
-1.2426777725785574   -0.05014009109021353   -0.01960631293823089
-1.2426777725785574   -0.05014009109021353   -0.01960631293823089
-1.2426777725785574   -0.05014009109021353   -0.01960631293823089
-0.47205531386700106   0.0973408951863894   0.023090003632611947
-0.47205531386700106   0.0973408951863894   0.023090003632611947
-0.47205531386700106   0.0973408951863894   0.023090003632611947
-0.47205531386700106   0.0973408951863894   0.023090003632611947
-0.8348275826709339   0.04840102040683203   0.012606221346010194
-0.8348275826709339   0.04840102040683203   0.012606221346010194
-0.8348275826709339   0.04840102040683203   0.012606221346010194
-0.8348275826709339   0.04840102040683203   0.012606221346010194
-0.4697571368023496   0.11229137956758578   0.01963040457468082
-0.4697571368023496   0.11229137956758578   0.01963040457468082
-0.4697571368023496   0.11229137956758578   0.01963040457468082
-0.4697571368023496   0.11229137956758578   0.01963040457468082
-1.24678730957495   -0.06690193540317263   -0.02339215360724943
-1.24678730957495   -0.06690193540317263   -0.02339215360724943
-1.24678730957495   -0.06690193540317263   -0.02339215360724943
-1.24678730957495   -0.06690193540317263   -0.02339215360724943
-1.2845070642930179   -0.10142738888959113   -0.006059891521862912
-1.2845070642930179   -0.10142738888959113   -0.006059891521862912
-1.2845070642930179   -0.10142738888959113   -0.006059891521862912
-1.2845070642930179   -0.10142738888959113   -0.006059891521862912
-0.5164178396901818   0.0438954201259525   0.03278068842506397
-0.5164178396901818   0.0438954201259525   0.03278068842506397
-0.5164178396901818   0.0438954201259525   0.03278068842506397
-0.5164178396901818   0.0438954201259525   0.03278068842506397
-0.8784801480995145   -0.0002840801108201785   -0.00912175972036025
-0.8784801480995145   -0.0002840801108201785   -0.00912175972036025
-0.8784801480995145   -0.0002840801108201785   -0.00912175972036025
-0.8784801480995145   -0.0002840801108201785   -0.00912175972036025
-0.5133375583725318   0.06036166135561111   0.031715853783662304
-0.5133375583725318   0.06036166135561111   0.031715853783662304
-0.5133375583725318   0.06036166135561111   0.031715853783662304
-0.5133375583725318   0.06036166135561111   0.031715853783662304
-1.2901641917501914   -0.12047047625878474   -0.015302441438551424
-1.2901641917501914   -0.12047047625878474   -0.015302441438551424
-1.2901641917501914   -0.12047047625878474   -0.015302441438551424
-1.2901641917501914   -0.12047047625878474   -0.015302441438551424
-1.3255499443046328   -0.15096323608088616   0.00703663818927628
-1.3255499443046328   -0.15096323608088616   0.00703663818927628
-1.3255499443046328   -0.15096323608088616   0.00703663818927628
-1.3255499443046328   -0.15096323608088616   0.00703663818927628
-0.5600006441421528   -0.00760709956316645   0.04167599210684804
-0.5600006441421528   -0.00760709956316645   0.04167599210684804
-0.5600006441421528   -0.00760709956316645   0.04167599210684804
-0.5600006441421528   -0.00760709956316645   0.04167599210684804
-0.9243958450131279   -0.049094388506108644   -0.032705283833280446
-0.9243958450131279   -0.049094388506108644   -0.032705283833280446
-0.9243958450131279   -0.049094388506108644   -0.032705283833280446
-0.9243958450131279   -0.049094388506108644   -0.032705283833280446
-1.1439136307786424   0.2066681895878797   0.05150817155737075
-1.1439136307786424   0.2066681895878797   0.05150817155737075
-1.1439136307786424   0.2066681895878797   0.05150817155737075
-1.1439136307786424   0.2066681895878797   0.05150817155737075
-1.9420731419033166   -0.05686696095528826   -0.07544614112456498
-1.9420731419033166   -0.05686696095528826   -0.07544614112456498
-1.9420731419033166   -0.05686696095528826   -0.07544614112456498
-1.9420731419033166   -0.05686696095528826   -0.07544614112456498
-1.945837683596423   -0.0027419807756665082   0.03223494095344796
-1.945837683596423   -0.0027419807756665082   0.03223494095344796
-1.945837683596423   -0.0027419807756665082   0.03223494095344796
-1.945837683596423   -0.0027419807756665082   0.03223494095344796
-1.2235299354827098   0.04994478786373813   -0.023952006412959567
-1.2235299354827098   0.04994478786373813   -0.023952006412959567
-1.2235299354827098   0.04994478786373813   -0.023952006412959567
-1.2235299354827098   0.04994478786373813   -0.023952006412959567
-1.5559539733907546   0.049188291539142504   0.016687475964640208
-1.5559539733907546   0.049188291539142504   0.016687475964640208
-1.5559539733907546   0.049188291539142504   0.016687475964640208
-1.5559539733907546   0.049188291539142504   0.016687475964640208
-1.184391222284413   0.1561979939870844   0.06548835345519237
-1.184391222284413   0.1561979939870844   0.06548835345519237
-1.184391222284413   0.1561979939870844   0.06548835345519237
-1.184391222284413   0.1561979939870844   0.06548835345519237
-1.988462526156005   -0.11248131626029806   -0.07114993635984522
-1.988462526156005   -0.11248131626029806   -0.07114993635984522
-1.988462526156005   -0.11248131626029806   -0.07114993635984522
-1.988462526156005   -0.11248131626029806   -0.07114993635984522
-1.9973149623519948   -0.05328568694491265   0.03954364781036404
-1.9973149623519948   -0.05328568694491265   0.03954364781036404
-1.9973149623519948   -0.05328568694491265   0.03954364781036404
-1.9973149623519948   -0.05328568694491265   0.03954364781036404
-1.2655791152261617   0.0007688271497238164   -0.01361636222691251
-1.2655791152261617   0.0007688271497238164   -0.01361636222691251
-1.2655791152261617   0.0007688271497238164   -0.01361636222691251
-1.2655791152261617   0.0007688271497238164   -0.01361636222691251
-1.5931292471804257   0.0037725661146834066   -0.006105756728499043
-1.5931292471804257   0.0037725661146834066   -0.006105756728499043
-1.5931292471804257   0.0037725661146834066   -0.006105756728499043
-1.5931292471804257   0.0037725661146834066   -0.006105756728499043
-1.2253973840591985   0.10900110275258529   0.07906001800505744
-1.2253973840591985   0.10900110275258529   0.07906001800505744
-1.2253973840591985   0.10900110275258529   0.07906001800505744
-1.2253973840591985   0.10900110275258529   0.07906001800505744
-2.0396675258781047   -0.16368879490692345   -0.061816061858205845
-2.0396675258781047   -0.16368879490692345   -0.061816061858205845
-2.0396675258781047   -0.16368879490692345   -0.061816061858205845
-2.0396675258781047   -0.16368879490692345   -0.061816061858205845
-2.0418229661676364   -0.10590031575064474   0.053684557498557245
-2.0418229661676364   -0.10590031575064474   0.053684557498557245
-2.0418229661676364   -0.10590031575064474   0.053684557498557245
-2.0418229661676364   -0.10590031575064474   0.053684557498557245
-1.3081445683235553   -0.05174608040397455   -0.005153637582263004
-1.3081445683235553   -0.05174608040397455   -0.005153637582263004
-1.3081445683235553   -0.05174608040397455   -0.005153637582263004
-1.3081445683235553   -0.05174608040397455   -0.005153637582263004
-1.6481924371245285   -0.04558208415557419   -0.030896823017841885
-1.6481924371245285   -0.04558208415557419   -0.030896823017841885
-1.6481924371245285   -0.04558208415557419   -0.030896823017841885
-1.6481924371245285   -0.04558208415557419   -0.030896823017841885
-1.856691362195745   0.2033193292244313   0.09127646723360386
-1.856691362195745   0.2033193292244313   0.09127646723360386
-1.856691362195745   0.2033193292244313   0.09127646723360386
-1.856691362195745   0.2033193292244313   0.09127646723360386
-2.6095283734689643   -0.11969529714203253   -0.11508661945903001
-2.6095283734689643   -0.11969529714203253   -0.11508661945903001
-2.6095283734689643   -0.11969529714203253   -0.11508661945903001
-2.6095283734689643   -0.11969529714203253   -0.11508661945903001
-2.628860588903451   0.03511171186643536   0.09597558885624755
-2.628860588903451   0.03511171186643536   0.09597558885624755
-2.628860588903451   0.03511171186643536   0.09597558885624755
-2.628860588903451   0.03511171186643536   0.09597558885624755
-1.9671375358008856   -0.006600560942937261   -0.07040573990160856
-1.9671375358008856   -0.006600560942937261   -0.07040573990160856
-1.9671375358008856   -0.006600560942937261   -0.07040573990160856
-1.9671375358008856   -0.006600560942937261   -0.07040573990160856
-2.1683273240152845   0.049164373896333324   0.05220389084732768
-2.1683273240152845   0.049164373896333324   0.05220389084732768
-2.1683273240152845   0.049164373896333324   0.05220389084732768
-2.1683273240152845   0.049164373896333324   0.05220389084732768
-1.8932201702728635   0.18463398598365988   0.1079465408119048
-1.8932201702728635   0.18463398598365988   0.1079465408119048
-1.8932201702728635   0.18463398598365988   0.1079465408119048
-1.8932201702728635   0.18463398598365988   0.1079465408119048
-2.7064814170833036   -0.15982629771201284   -0.09719054246456824
-2.7064814170833036   -0.15982629771201284   -0.09719054246456824
-2.7064814170833036   -0.15982629771201284   -0.09719054246456824
-2.7064814170833036   -0.15982629771201284   -0.09719054246456824
-2.708954814795896   0.006759481180712901   0.12262337757183014
-2.708954814795896   0.006759481180712901   0.12262337757183014
-2.708954814795896   0.006759481180712901   0.12262337757183014
-2.708954814795896   0.006759481180712901   0.12262337757183014
-2.0134676008380348   -0.034042119600489806   -0.06046311196429023
-2.0134676008380348   -0.034042119600489806   -0.06046311196429023
-2.0134676008380348   -0.034042119600489806   -0.06046311196429023
-2.0134676008380348   -0.034042119600489806   -0.06046311196429023
-2.2703840479215045   0.015586392010053074   0.018410716915544134
-2.2703840479215045   0.015586392010053074   0.018410716915544134
-2.2703840479215045   0.015586392010053074   0.018410716915544134
-2.2703840479215045   0.015586392010053074   0.018410716915544134
-1.9363920098868235   0.16243492607203702   0.12843779711925543
-1.9363920098868235   0.16243492607203702   0.12843779711925543
-1.9363920098868235   0.16243492607203702   0.12843779711925543
-1.9363920098868235   0.16243492607203702   0.12843779711925543
-2.7895484621745874   -0.19323562091927088   -0.08034975722164268
-2.7895484621745874   -0.19323562091927088   -0.08034975722164268
-2.7895484621745874   -0.19323562091927088   -0.08034975722164268
-2.7895484621745874   -0.19323562091927088   -0.08034975722164268
-2.819782140996623   -0.0736101966820879   0.12670997675491186
-2.819782140996623   -0.0736101966820879   0.12670997675491186
-2.819782140996623   -0.0736101966820879   0.12670997675491186
-2.819782140996623   -0.0736101966820879   0.12670997675491186
-2.0612530729984178   -0.09664240008762864   -0.052723892318409474
-2.0612530729984178   -0.09664240008762864   -0.052723892318409474
-2.0612530729984178   -0.09664240008762864   -0.052723892318409474
-2.0612530729984178   -0.09664240008762864   -0.052723892318409474
-2.3041262509201443   -0.02002629849310994   -0.0017927633542870053
-2.3041262509201443   -0.02002629849310994   -0.0017927633542870053
-2.3041262509201443   -0.02002629849310994   -0.0017927633542870053
-2.3041262509201443   -0.02002629849310994   -0.0017927633542870053
0.18244177702932607   0.015048861831456161   -0.13268043485933723
0.18244177702932607   0.015048861831456161   -0.13268043485933723
0.18244177702932607   0.015048861831456161   -0.13268043485933723
0.18244177702932607   0.015048861831456161   -0.13268043485933723
-0.2242521138365096   0.09981933811455022   0.06805593071229432
-0.2242521138365096   0.09981933811455022   0.06805593071229432
-0.2242521138365096   0.09981933811455022   0.06805593071229432
-0.2242521138365096   0.09981933811455022   0.06805593071229432
-0.3323587892999314   -0.12735976437845545   -0.1067520415521538
-0.3323587892999314   -0.12735976437845545   -0.1067520415521538
-0.3323587892999314   -0.12735976437845545   -0.1067520415521538
-0.3323587892999314   -0.12735976437845545   -0.1067520415521538
0.16605959658623595   0.13938296266829484   0.08367369134120273
0.16605959658623595   0.13938296266829484   0.08367369134120273
0.16605959658623595   0.13938296266829484   0.08367369134120273
0.16605959658623595   0.13938296266829484   0.08367369134120273
-0.05598675378507749   0.030568182657790665   0.011606672572626047
-0.05598675378507749   0.030568182657790665   0.011606672572626047
-0.05598675378507749   0.030568182657790665   0.011606672572626047
-0.05598675378507749   0.030568182657790665   0.011606672572626047
0.08864719110641207   -0.04550769555390028   -0.1184976778357215
0.08864719110641207   -0.04550769555390028   -0.1184976778357215
0.08864719110641207   -0.04550769555390028   -0.1184976778357215
0.08864719110641207   -0.04550769555390028   -0.1184976778357215
-0.25954865100062263   0.05292862666322454   0.07701025890270986
-0.25954865100062263   0.05292862666322454   0.07701025890270986
-0.25954865100062263   0.05292862666322454   0.07701025890270986
-0.25954865100062263   0.05292862666322454   0.07701025890270986
-0.36791729986336447   -0.15055538182239023   -0.09039386989829268
-0.36791729986336447   -0.15055538182239023   -0.09039386989829268
-0.36791729986336447   -0.15055538182239023   -0.09039386989829268
-0.36791729986336447   -0.15055538182239023   -0.09039386989829268
0.09270310306562318   0.10783503181845588   0.1146405357833218
0.09270310306562318   0.10783503181845588   0.1146405357833218
0.09270310306562318   0.10783503181845588   0.1146405357833218
0.09270310306562318   0.10783503181845588   0.1146405357833218
-0.11408110580776702   -0.004168179605735123   -0.015243551209544333
-0.11408110580776702   -0.004168179605735123   -0.015243551209544333
-0.11408110580776702   -0.004168179605735123   -0.015243551209544333
-0.11408110580776702   -0.004168179605735123   -0.015243551209544333
0.013533616399107232   -0.07571733144699813   -0.09765453428380393
0.013533616399107232   -0.07571733144699813   -0.09765453428380393
0.013533616399107232   -0.07571733144699813   -0.09765453428380393
0.013533616399107232   -0.07571733144699813   -0.09765453428380393
-0.29512211026315543   0.026622684376756592   0.096404011903604
-0.29512211026315543   0.026622684376756592   0.096404011903604
-0.29512211026315543   0.026622684376756592   0.096404011903604
-0.29512211026315543   0.026622684376756592   0.096404011903604
-0.4004932827688182   -0.18641567571523937   -0.07486399487308527
-0.4004932827688182   -0.18641567571523937   -0.07486399487308527
-0.4004932827688182   -0.18641567571523937   -0.07486399487308527
-0.4004932827688182   -0.18641567571523937   -0.07486399487308527
-0.009165316617537661   0.04156733726020801   0.13059008008794548
-0.009165316617537661   0.04156733726020801   0.13059008008794548
-0.009165316617537661   0.04156733726020801   0.13059008008794548
-0.009165316617537661   0.04156733726020801   0.13059008008794548
-0.17601455061046117   -0.03922995822192238   -0.04611633061267374
-0.17601455061046117   -0.03922995822192238   -0.04611633061267374
-0.17601455061046117   -0.03922995822192238   -0.04611633061267374
-0.17601455061046117   -0.03922995822192238   -0.04611633061267374
-0.2555518479940975   0.06441274871183413   -0.05303615067292911
-0.2555518479940975   0.06441274871183413   -0.05303615067292911
-0.2555518479940975   0.06441274871183413   -0.05303615067292911
-0.2555518479940975   0.06441274871183413   -0.05303615067292911
-0.6374166624861205   0.026769645089531974   0.017863684024405267
-0.6374166624861205   0.026769645089531974   0.017863684024405267
-0.6374166624861205   0.026769645089531974   0.017863684024405267
-0.6374166624861205   0.026769645089531974   0.017863684024405267
-0.6930714774961358   -0.07415100177254261   -0.05541160848500105
-0.6930714774961358   -0.07415100177254261   -0.05541160848500105
-0.6930714774961358   -0.07415100177254261   -0.05541160848500105
-0.6930714774961358   -0.07415100177254261   -0.05541160848500105
-0.2625249719723368   0.0621831577042873   0.0528741230030763
-0.2625249719723368   0.0621831577042873   0.0528741230030763
-0.2625249719723368   0.0621831577042873   0.0528741230030763
-0.2625249719723368   0.0621831577042873   0.0528741230030763
-0.4611534255567114   0.018534134029894123   0.00979635267474805
-0.4611534255567114   0.018534134029894123   0.00979635267474805
-0.4611534255567114   0.018534134029894123   0.00979635267474805
-0.4611534255567114   0.018534134029894123   0.00979635267474805
-0.292583175164638   0.008318527783274299   -0.043552263037414475
-0.292583175164638   0.008318527783274299   -0.043552263037414475
-0.292583175164638   0.008318527783274299   -0.043552263037414475
-0.292583175164638   0.008318527783274299   -0.043552263037414475
-0.6667735142999585   -0.024046611847654206   0.025973817570990345
-0.6667735142999585   -0.024046611847654206   0.025973817570990345
-0.6667735142999585   -0.024046611847654206   0.025973817570990345
-0.6667735142999585   -0.024046611847654206   0.025973817570990345
-0.7207273881775178   -0.11974130539665656   -0.040808566376924656
-0.7207273881775178   -0.11974130539665656   -0.040808566376924656
-0.7207273881775178   -0.11974130539665656   -0.040808566376924656
-0.7207273881775178   -0.11974130539665656   -0.040808566376924656
-0.3054420847440949   0.011817480878577216   0.05960934299708595
-0.3054420847440949   0.011817480878577216   0.05960934299708595
-0.3054420847440949   0.011817480878577216   0.05960934299708595
-0.3054420847440949   0.011817480878577216   0.05960934299708595
-0.496096651507727   -0.027148796924214624   -0.013097310699301309
-0.496096651507727   -0.027148796924214624   -0.013097310699301309
-0.496096651507727   -0.027148796924214624   -0.013097310699301309
-0.496096651507727   -0.027148796924214624   -0.013097310699301309
-0.33439614326082046   -0.040818364066270534   -0.03252510464169195
-0.33439614326082046   -0.040818364066270534   -0.03252510464169195
-0.33439614326082046   -0.040818364066270534   -0.03252510464169195
-0.33439614326082046   -0.040818364066270534   -0.03252510464169195
-0.6958058182850345   -0.07113794907605077   0.03519592676488566
-0.6958058182850345   -0.07113794907605077   0.03519592676488566
-0.6958058182850345   -0.07113794907605077   0.03519592676488566
-0.6958058182850345   -0.07113794907605077   0.03519592676488566
-0.748565782905855   -0.16677708805596878   -0.02787103334445245
-0.748565782905855   -0.16677708805596878   -0.02787103334445245
-0.748565782905855   -0.16677708805596878   -0.02787103334445245
-0.748565782905855   -0.16677708805596878   -0.02787103334445245
-0.34131656813508926   -0.03936390072795656   0.07396780330827461
-0.34131656813508926   -0.03936390072795656   0.07396780330827461
-0.34131656813508926   -0.03936390072795656   0.07396780330827461
-0.34131656813508926   -0.03936390072795656   0.07396780330827461
-0.5310827438613244   -0.0724793267358351   -0.03641911465598005
-0.5310827438613244   -0.0724793267358351   -0.03641911465598005
-0.5310827438613244   -0.0724793267358351   -0.03641911465598005
-0.5310827438613244   -0.0724793267358351   -0.03641911465598005
-0.6259609141417035   0.10755947191302379   -0.005647401077001665
-0.6259609141417035   0.10755947191302379   -0.005647401077001665
-0.6259609141417035   0.10755947191302379   -0.005647401077001665
-0.6259609141417035   0.10755947191302379   -0.005647401077001665
-1.0473389229218735   -0.03560867478090904   -0.02943176953183739
-1.0473389229218735   -0.03560867478090904   -0.02943176953183739
-1.0473389229218735   -0.03560867478090904   -0.02943176953183739
-1.0473389229218735   -0.03560867478090904   -0.02943176953183739
-1.058243932486732   -0.025720397855592964   -0.006027842957630224
-1.058243932486732   -0.025720397855592964   -0.006027842957630224
-1.058243932486732   -0.025720397855592964   -0.006027842957630224
-1.058243932486732   -0.025720397855592964   -0.006027842957630224
-0.6644901753324852   0.005207373436230067   0.008136527124471951
-0.6644901753324852   0.005207373436230067   0.008136527124471951
-0.6644901753324852   0.005207373436230067   0.008136527124471951
-0.6644901753324852   0.005207373436230067   0.008136527124471951
-0.8472521258167289   0.01206027296624168   0.003192293043878261
-0.8472521258167289   0.01206027296624168   0.003192293043878261
-0.8472521258167289   0.01206027296624168   0.003192293043878261
-0.8472521258167289   0.01206027296624168   0.003192293043878261
-0.653949081168698   0.05796167939622293   0.008087691983415198
-0.653949081168698   0.05796167939622293   0.008087691983415198
-0.653949081168698   0.05796167939622293   0.008087691983415198
-0.653949081168698   0.05796167939622293   0.008087691983415198
-1.0723957173933152   -0.0820853945583819   -0.02042177078775788
-1.0723957173933152   -0.0820853945583819   -0.02042177078775788
-1.0723957173933152   -0.0820853945583819   -0.02042177078775788
-1.0723957173933152   -0.0820853945583819   -0.02042177078775788
-1.0841593366599267   -0.07469401181431606   0.007575025693527297
-1.0841593366599267   -0.07469401181431606   0.007575025693527297
-1.0841593366599267   -0.07469401181431606   0.007575025693527297
-1.0841593366599267   -0.07469401181431606   0.007575025693527297
-0.693844518252674   -0.042920384416117174   0.016784862266754623
-0.693844518252674   -0.042920384416117174   0.016784862266754623
-0.693844518252674   -0.042920384416117174   0.016784862266754623
-0.693844518252674   -0.042920384416117174   0.016784862266754623
-0.8753686785145242   -0.032478185177005126   -0.0178379524613633
-0.8753686785145242   -0.032478185177005126   -0.0178379524613633
-0.8753686785145242   -0.032478185177005126   -0.0178379524613633
-0.8753686785145242   -0.032478185177005126   -0.0178379524613633
-0.6829581289067583   0.008075424594712777   0.02022099998550319
-0.6829581289067583   0.008075424594712777   0.02022099998550319
-0.6829581289067583   0.008075424594712777   0.02022099998550319
-0.6829581289067583   0.008075424594712777   0.02022099998550319
-1.0993962819153722   -0.13004037673466579   -0.01326333566335143
-1.0993962819153722   -0.13004037673466579   -0.01326333566335143
-1.0993962819153722   -0.13004037673466579   -0.01326333566335143
-1.0993962819153722   -0.13004037673466579   -0.01326333566335143
-1.109406545529064   -0.12170296005253324   0.02060259104692509
-1.109406545529064   -0.12170296005253324   0.02060259104692509
-1.109406545529064   -0.12170296005253324   0.02060259104692509
-1.109406545529064   -0.12170296005253324   0.02060259104692509
-0.7220067974066317   -0.08836376221674086   0.026510568312428213
-0.7220067974066317   -0.08836376221674086   0.026510568312428213
-0.7220067974066317   -0.08836376221674086   0.026510568312428213
-0.7220067974066317   -0.08836376221674086   0.026510568312428213
-0.905624964492317   -0.07730921646153298   -0.040686416550987176
-0.905624964492317   -0.07730921646153298   -0.040686416550987176
-0.905624964492317   -0.07730921646153298   -0.040686416550987176
-0.905624964492317   -0.07730921646153298   -0.040686416550987176
-0.9944226159656073   0.1563838254590723   0.04315726500952853
-0.9944226159656073   0.1563838254590723   0.04315726500952853
-0.9944226159656073   0.1563838254590723   0.04315726500952853
-0.9944226159656073   0.1563838254590723   0.04315726500952853
-1.4405706296893406   -0.05895890986995267   -0.06613616414837262
-1.4405706296893406   -0.05895890986995267   -0.06613616414837262
-1.4405706296893406   -0.05895890986995267   -0.06613616414837262
-1.4405706296893406   -0.05895890986995267   -0.06613616414837262
-1.420984222238857   0.024243061244768493   0.04499364724833911
-1.420984222238857   0.024243061244768493   0.04499364724833911
-1.420984222238857   0.024243061244768493   0.04499364724833911
-1.420984222238857   0.024243061244768493   0.04499364724833911
-1.0621032540342856   -0.02148495646071094   -0.029559892090279774
-1.0621032540342856   -0.02148495646071094   -0.029559892090279774
-1.0621032540342856   -0.02148495646071094   -0.029559892090279774
-1.0621032540342856   -0.02148495646071094   -0.029559892090279774
-1.2253462249423441   0.025250135487911884   0.00572283609940083
-1.2253462249423441   0.025250135487911884   0.00572283609940083
-1.2253462249423441   0.025250135487911884   0.00572283609940083
-1.2253462249423441   0.025250135487911884   0.00572283609940083
-1.019108407129195   0.10700447667660459   0.056924909297857776
-1.019108407129195   0.10700447667660459   0.056924909297857776
-1.019108407129195   0.10700447667660459   0.056924909297857776
-1.019108407129195   0.10700447667660459   0.056924909297857776
-1.46924938750892   -0.10951669025753494   -0.0625724275997038
-1.46924938750892   -0.10951669025753494   -0.0625724275997038
-1.46924938750892   -0.10951669025753494   -0.0625724275997038
-1.46924938750892   -0.10951669025753494   -0.0625724275997038
-1.4557482406431383   -0.02392071738470747   0.05310504051784626
-1.4557482406431383   -0.02392071738470747   0.05310504051784626
-1.4557482406431383   -0.02392071738470747   0.05310504051784626
-1.4557482406431383   -0.02392071738470747   0.05310504051784626
-1.0877974693681296   -0.06518717282563283   -0.020122476836170924
-1.0877974693681296   -0.06518717282563283   -0.020122476836170924
-1.0877974693681296   -0.06518717282563283   -0.020122476836170924
-1.0877974693681296   -0.06518717282563283   -0.020122476836170924
-1.24898064060578   -0.017679788479059655   -0.017076604883636923
-1.24898064060578   -0.017679788479059655   -0.017076604883636923
-1.24898064060578   -0.017679788479059655   -0.017076604883636923
-1.24898064060578   -0.017679788479059655   -0.017076604883636923
-1.0443082619276338   0.061811289802466085   0.07032509773820944
-1.0443082619276338   0.061811289802466085   0.07032509773820944
-1.0443082619276338   0.061811289802466085   0.07032509773820944
-1.0443082619276338   0.061811289802466085   0.07032509773820944
-1.5033991187243856   -0.15508085065357327   -0.05398921661955559
-1.5033991187243856   -0.15508085065357327   -0.05398921661955559
-1.5033991187243856   -0.15508085065357327   -0.05398921661955559
-1.5033991187243856   -0.15508085065357327   -0.05398921661955559
-1.4840177270526458   -0.07237463880800604   0.06757672912667012
-1.4840177270526458   -0.07237463880800604   0.06757672912667012
-1.4840177270526458   -0.07237463880800604   0.06757672912667012
-1.4840177270526458   -0.07237463880800604   0.06757672912667012
-1.113575039892665   -0.10987652409312601   -0.012066316730501993
-1.113575039892665   -0.10987652409312601   -0.012066316730501993
-1.113575039892665   -0.10987652409312601   -0.012066316730501993
-1.113575039892665   -0.10987652409312601   -0.012066316730501993
-1.2844830426973186   -0.06136961418831183   -0.04040605759715342
-1.2844830426973186   -0.06136961418831183   -0.04040605759715342
-1.2844830426973186   -0.06136961418831183   -0.04040605759715342
-1.2844830426973186   -0.06136961418831183   -0.04040605759715342
-1.3646213551811057   0.16936140842659603   0.08528989009625412
-1.3646213551811057   0.16936140842659603   0.08528989009625412
-1.3646213551811057   0.16936140842659603   0.08528989009625412
-1.3646213551811057   0.16936140842659603   0.08528989009625412
-1.7516289972971801   -0.08724547768489416   -0.11109160600678003
-1.7516289972971801   -0.08724547768489416   -0.11109160600678003
-1.7516289972971801   -0.08724547768489416   -0.11109160600678003
-1.7516289972971801   -0.08724547768489416   -0.11109160600678003
-1.7528579115250726   0.06913939412935194   0.09401441118402445
-1.7528579115250726   0.06913939412935194   0.09401441118402445
-1.7528579115250726   0.06913939412935194   0.09401441118402445
-1.7528579115250726   0.06913939412935194   0.09401441118402445
-1.4584928094856262   -0.05031450800592857   -0.0679917197348257
-1.4584928094856262   -0.05031450800592857   -0.0679917197348257
-1.4584928094856262   -0.05031450800592857   -0.0679917197348257
-1.4584928094856262   -0.05031450800592857   -0.0679917197348257
-1.5180543481283297   0.04055818365291608   0.029005014757272504
-1.5180543481283297   0.04055818365291608   0.029005014757272504
-1.5180543481283297   0.04055818365291608   0.029005014757272504
-1.5180543481283297   0.04055818365291608   0.029005014757272504
-1.3859387026191456   0.14384434582670563   0.10061996076492741
-1.3859387026191456   0.14384434582670563   0.10061996076492741
-1.3859387026191456   0.14384434582670563   0.10061996076492741
-1.3859387026191456   0.14384434582670563   0.10061996076492741
-1.8308724368281515   -0.13047987813987827   -0.09643894306211007
-1.8308724368281515   -0.13047987813987827   -0.09643894306211007
-1.8308724368281515   -0.13047987813987827   -0.09643894306211007
-1.8308724368281515   -0.13047987813987827   -0.09643894306211007
-1.8161043013525946   0.04176374034817848   0.12120288829361107
-1.8161043013525946   0.04176374034817848   0.12120288829361107
-1.8161043013525946   0.04176374034817848   0.12120288829361107
-1.8161043013525946   0.04176374034817848   0.12120288829361107
-1.4885948391151378   -0.07542540779787404   -0.05962326142901517
-1.4885948391151378   -0.07542540779787404   -0.05962326142901517
-1.4885948391151378   -0.07542540779787404   -0.05962326142901517
-1.4885948391151378   -0.07542540779787404   -0.05962326142901517
-1.5931834841888748   0.007227165477875663   -0.002515769275716659
-1.5931834841888748   0.007227165477875663   -0.002515769275716659
-1.5931834841888748   0.007227165477875663   -0.002515769275716659
-1.5931834841888748   0.007227165477875663   -0.002515769275716659
-1.4129836655056291   0.1222906080191502   0.12071659080150397
-1.4129836655056291   0.1222906080191502   0.12071659080150397
-1.4129836655056291   0.1222906080191502   0.12071659080150397
-1.4129836655056291   0.1222906080191502   0.12071659080150397
-1.8972984230444578   -0.16153522355118466   -0.08146875626630978
-1.8972984230444578   -0.16153522355118466   -0.08146875626630978
-1.8972984230444578   -0.16153522355118466   -0.08146875626630978
-1.8972984230444578   -0.16153522355118466   -0.08146875626630978
-1.90975198323416   -0.03015215741774585   0.12822623126674704
-1.90975198323416   -0.03015215741774585   0.12822623126674704
-1.90975198323416   -0.03015215741774585   0.12822623126674704
-1.90975198323416   -0.03015215741774585   0.12822623126674704
-1.5188086851535396   -0.1272481170092906   -0.05150458317652983
-1.5188086851535396   -0.1272481170092906   -0.05150458317652983
-1.5188086851535396   -0.1272481170092906   -0.05150458317652983
-1.5188086851535396   -0.1272481170092906   -0.05150458317652983
-1.6222701871171972   -0.025715948168505975   -0.02497103913888918
-1.6222701871171972   -0.025715948168505975   -0.02497103913888918
-1.6222701871171972   -0.025715948168505975   -0.02497103913888918
-1.6222701871171972   -0.025715948168505975   -0.02497103913888918
-0.7655557002056971   -0.05016433063741116   -0.1405588266783251
-0.7655557002056971   -0.05016433063741116   -0.1405588266783251
-0.7655557002056971   -0.05016433063741116   -0.1405588266783251
-0.7655557002056971   -0.05016433063741116   -0.1405588266783251
-0.7495818371238249   0.1081861887391484   0.06336491748752163
-0.7495818371238249   0.1081861887391484   0.06336491748752163
-0.7495818371238249   0.1081861887391484   0.06336491748752163
-0.7495818371238249   0.1081861887391484   0.06336491748752163
-0.8420827017049117   -0.09799483974482759   -0.09507302243326166
-0.8420827017049117   -0.09799483974482759   -0.09507302243326166
-0.8420827017049117   -0.09799483974482759   -0.09507302243326166
-0.8420827017049117   -0.09799483974482759   -0.09507302243326166
-0.7808082402001157   0.055119932664347254   0.09557273317945264
-0.7808082402001157   0.055119932664347254   0.09557273317945264
-0.7808082402001157   0.055119932664347254   0.09557273317945264
-0.7808082402001157   0.055119932664347254   0.09557273317945264
-0.7451669003827759   0.017890312201951586   0.06463705052572752
-0.7451669003827759   0.017890312201951586   0.06463705052572752
-0.7451669003827759   0.017890312201951586   0.06463705052572752
-0.7451669003827759   0.017890312201951586   0.06463705052572752
-0.8555049665517203   -0.10518573450865057   -0.11760523140556806
-0.8555049665517203   -0.10518573450865057   -0.11760523140556806
-0.8555049665517203   -0.10518573450865057   -0.11760523140556806
-0.8555049665517203   -0.10518573450865057   -0.11760523140556806
-0.7767527788494258   0.05294402393205222   0.08063772816728754
-0.7767527788494258   0.05294402393205222   0.08063772816728754
-0.7767527788494258   0.05294402393205222   0.08063772816728754
-0.7767527788494258   0.05294402393205222   0.08063772816728754
-0.8696949929914072   -0.123639209911701   -0.08033257681043215
-0.8696949929914072   -0.123639209911701   -0.08033257681043215
-0.8696949929914072   -0.123639209911701   -0.08033257681043215
-0.8696949929914072   -0.123639209911701   -0.08033257681043215
-0.8525799935943512   0.02011917289173981   0.1772724675639635
-0.8525799935943512   0.02011917289173981   0.1772724675639635
-0.8525799935943512   0.02011917289173981   0.1772724675639635
-0.8525799935943512   0.02011917289173981   0.1772724675639635
-0.8115632016332504   -0.026203554472195245   0.025678770647791498
-0.8115632016332504   -0.026203554472195245   0.025678770647791498
-0.8115632016332504   -0.026203554472195245   0.025678770647791498
-0.8115632016332504   -0.026203554472195245   0.025678770647791498
-0.9382659185371931   -0.13957873042539287   -0.0914592538331056
-0.9382659185371931   -0.13957873042539287   -0.0914592538331056
-0.9382659185371931   -0.13957873042539287   -0.0914592538331056
-0.9382659185371931   -0.13957873042539287   -0.0914592538331056
-0.8060517072513993   0.014016054202598965   0.10022858777530733
-0.8060517072513993   0.014016054202598965   0.10022858777530733
-0.8060517072513993   0.014016054202598965   0.10022858777530733
-0.8060517072513993   0.014016054202598965   0.10022858777530733
-0.8922541576473138   -0.17378941026360872   -0.06310481650130073
-0.8922541576473138   -0.17378941026360872   -0.06310481650130073
-0.8922541576473138   -0.17378941026360872   -0.06310481650130073
-0.8922541576473138   -0.17378941026360872   -0.06310481650130073
-0.9642491152270977   -0.09553898149789146   0.165966768793134
-0.9642491152270977   -0.09553898149789146   0.165966768793134
-0.9642491152270977   -0.09553898149789146   0.165966768793134
-0.9642491152270977   -0.09553898149789146   0.165966768793134
-0.8685933398692706   -0.07837789793750193   -0.03583887625757258
-0.8685933398692706   -0.07837789793750193   -0.03583887625757258
-0.8685933398692706   -0.07837789793750193   -0.03583887625757258
-0.8685933398692706   -0.07837789793750193   -0.03583887625757258
-0.8033181963439079   -0.0245079470513809   -0.07262274282237174
-0.8033181963439079   -0.0245079470513809   -0.07262274282237174
-0.8033181963439079   -0.0245079470513809   -0.07262274282237174
-0.8033181963439079   -0.0245079470513809   -0.07262274282237174
-0.8081329910107207   -0.09904422732020703   -0.004185854213553084
-0.8081329910107207   -0.09904422732020703   -0.004185854213553084
-0.8081329910107207   -0.09904422732020703   -0.004185854213553084
-0.8081329910107207   -0.09904422732020703   -0.004185854213553084
-0.8135539443666706   -0.06577187671783004   -0.03587207671317674
-0.8135539443666706   -0.06577187671783004   -0.03587207671317674
-0.8135539443666706   -0.06577187671783004   -0.03587207671317674
-0.8135539443666706   -0.06577187671783004   -0.03587207671317674
-0.8309774085021449   -0.13582496802356897   -0.001716428140685844
-0.8309774085021449   -0.13582496802356897   -0.001716428140685844
-0.8309774085021449   -0.13582496802356897   -0.001716428140685844
-0.8309774085021449   -0.13582496802356897   -0.001716428140685844
-0.807053408931111   -0.08480456388669927   -0.0032712272133777753
-0.807053408931111   -0.08480456388669927   -0.0032712272133777753
-0.807053408931111   -0.08480456388669927   -0.0032712272133777753
-0.807053408931111   -0.08480456388669927   -0.0032712272133777753
-0.8309524793913415   -0.07463376541847114   -0.06278298519177264
-0.8309524793913415   -0.07463376541847114   -0.06278298519177264
-0.8309524793913415   -0.07463376541847114   -0.06278298519177264
-0.8309524793913415   -0.07463376541847114   -0.06278298519177264
-0.8187655043991636   -0.1321497102446097   0.004447956651129403
-0.8187655043991636   -0.1321497102446097   0.004447956651129403
-0.8187655043991636   -0.1321497102446097   0.004447956651129403
-0.8187655043991636   -0.1321497102446097   0.004447956651129403
-0.8267951539069954   -0.10897837411416388   -0.023016862803718997
-0.8267951539069954   -0.10897837411416388   -0.023016862803718997
-0.8267951539069954   -0.10897837411416388   -0.023016862803718997
-0.8267951539069954   -0.10897837411416388   -0.023016862803718997
-0.860469868553344   -0.175959724976592   0.018113560444775086
-0.860469868553344   -0.175959724976592   0.018113560444775086
-0.860469868553344   -0.175959724976592   0.018113560444775086
-0.860469868553344   -0.175959724976592   0.018113560444775086
-0.8251010708779796   -0.11963778743180752   -0.023183339970826607
-0.8251010708779796   -0.11963778743180752   -0.023183339970826607
-0.8251010708779796   -0.11963778743180752   -0.023183339970826607
-0.8251010708779796   -0.11963778743180752   -0.023183339970826607
-0.8623651711886277   -0.12079461712616137   -0.046528060582074135
-0.8623651711886277   -0.12079461712616137   -0.046528060582074135
-0.8623651711886277   -0.12079461712616137   -0.046528060582074135
-0.8623651711886277   -0.12079461712616137   -0.046528060582074135
-0.8315389193546031   -0.1707825500474872   0.015068485891558243
-0.8315389193546031   -0.1707825500474872   0.015068485891558243
-0.8315389193546031   -0.1707825500474872   0.015068485891558243
-0.8315389193546031   -0.1707825500474872   0.015068485891558243
-0.8386247213596816   -0.1556741092098924   -0.010275085876812074
-0.8386247213596816   -0.1556741092098924   -0.010275085876812074
-0.8386247213596816   -0.1556741092098924   -0.010275085876812074
-0.8386247213596816   -0.1556741092098924   -0.010275085876812074
-0.8829793871765538   -0.2271335128007253   0.03661313838961158
-0.8829793871765538   -0.2271335128007253   0.03661313838961158
-0.8829793871765538   -0.2271335128007253   0.03661313838961158
-0.8829793871765538   -0.2271335128007253   0.03661313838961158
-0.850144646436782   -0.1619093711127109   -0.048596694367974785
-0.850144646436782   -0.1619093711127109   -0.048596694367974785
-0.850144646436782   -0.1619093711127109   -0.048596694367974785
-0.850144646436782   -0.1619093711127109   -0.048596694367974785
-0.7861692632228695   0.019857768788634628   -0.013269211383123217
-0.7861692632228695   0.019857768788634628   -0.013269211383123217
-0.7861692632228695   0.019857768788634628   -0.013269211383123217
-0.7861692632228695   0.019857768788634628   -0.013269211383123217
-0.8843495408367533   -0.16782831432171427   -0.04225078530618729
-0.8843495408367533   -0.16782831432171427   -0.04225078530618729
-0.8843495408367533   -0.16782831432171427   -0.04225078530618729
-0.8843495408367533   -0.16782831432171427   -0.04225078530618729
-0.8478194253184105   -0.030798967705043617   0.011434071404028703
-0.8478194253184105   -0.030798967705043617   0.011434071404028703
-0.8478194253184105   -0.030798967705043617   0.011434071404028703
-0.8478194253184105   -0.030798967705043617   0.011434071404028703
-0.8349883071736952   -0.18255641290335936   -0.026259354562778447
-0.8349883071736952   -0.18255641290335936   -0.026259354562778447
-0.8349883071736952   -0.18255641290335936   -0.026259354562778447
-0.8349883071736952   -0.18255641290335936   -0.026259354562778447
-0.8377493196043218   -0.09317625714136227   -0.01919806764092008
-0.8377493196043218   -0.09317625714136227   -0.01919806764092008
-0.8377493196043218   -0.09317625714136227   -0.01919806764092008
-0.8377493196043218   -0.09317625714136227   -0.01919806764092008
-0.7978568524565364   -0.02310413849128473   -5.435538905097792e-05
-0.7978568524565364   -0.02310413849128473   -5.435538905097792e-05
-0.7978568524565364   -0.02310413849128473   -5.435538905097792e-05
-0.7978568524565364   -0.02310413849128473   -5.435538905097792e-05
-0.8896510077484979   -0.19495136983004305   -0.0335714386214248
-0.8896510077484979   -0.19495136983004305   -0.0335714386214248
-0.8896510077484979   -0.19495136983004305   -0.0335714386214248
-0.8896510077484979   -0.19495136983004305   -0.0335714386214248
-0.8572223625706782   -0.07411138532852049   0.024207702022742215
-0.8572223625706782   -0.07411138532852049   0.024207702022742215
-0.8572223625706782   -0.07411138532852049   0.024207702022742215
-0.8572223625706782   -0.07411138532852049   0.024207702022742215
-0.8473781344201559   -0.21672126014962118   -0.01818887933407154
-0.8473781344201559   -0.21672126014962118   -0.01818887933407154
-0.8473781344201559   -0.21672126014962118   -0.01818887933407154
-0.8473781344201559   -0.21672126014962118   -0.01818887933407154
-0.8477777349160156   -0.12620415573317342   -0.03626956030489908
-0.8477777349160156   -0.12620415573317342   -0.03626956030489908
-0.8477777349160156   -0.12620415573317342   -0.03626956030489908
-0.8477777349160156   -0.12620415573317342   -0.03626956030489908
-0.8112522775209704   -0.06717923310055551   0.01289837811279794
-0.8112522775209704   -0.06717923310055551   0.01289837811279794
-0.8112522775209704   -0.06717923310055551   0.01289837811279794
-0.8112522775209704   -0.06717923310055551   0.01289837811279794
-0.8985980686174805   -0.2289032615251889   -0.027878952014616223
-0.8985980686174805   -0.2289032615251889   -0.027878952014616223
-0.8985980686174805   -0.2289032615251889   -0.027878952014616223
-0.8985980686174805   -0.2289032615251889   -0.027878952014616223
-0.8648095551220677   -0.11488959418110942   0.0366841662060215
-0.8648095551220677   -0.11488959418110942   0.0366841662060215
-0.8648095551220677   -0.11488959418110942   0.0366841662060215
-0.8648095551220677   -0.11488959418110942   0.0366841662060215
-0.8564893853525446   -0.24958951479374558   -0.0056830002572815196
-0.8564893853525446   -0.24958951479374558   -0.0056830002572815196
-0.8564893853525446   -0.24958951479374558   -0.0056830002572815196
-0.8564893853525446   -0.24958951479374558   -0.0056830002572815196
-0.8597815447267465   -0.16076426635517566   -0.055032072857168164
-0.8597815447267465   -0.16076426635517566   -0.055032072857168164
-0.8597815447267465   -0.16076426635517566   -0.055032072857168164
-0.8597815447267465   -0.16076426635517566   -0.055032072857168164
-0.8166096346495507   0.08732050685775178   0.04129992445035974
-0.8166096346495507   0.08732050685775178   0.04129992445035974
-0.8166096346495507   0.08732050685775178   0.04129992445035974
-0.8166096346495507   0.08732050685775178   0.04129992445035974
-0.9607422418739358   -0.12458589402718537   -0.058679401886175875
-0.9607422418739358   -0.12458589402718537   -0.058679401886175875
-0.9607422418739358   -0.12458589402718537   -0.058679401886175875
-0.9607422418739358   -0.12458589402718537   -0.058679401886175875
-0.9083113828450585   0.026673843368826083   0.057442235868239565
-0.9083113828450585   0.026673843368826083   0.057442235868239565
-0.9083113828450585   0.026673843368826083   0.057442235868239565
-0.9083113828450585   0.026673843368826083   0.057442235868239565
-0.8791299636838598   -0.14023031759749632   -0.035687270530765175
-0.8791299636838598   -0.14023031759749632   -0.035687270530765175
-0.8791299636838598   -0.14023031759749632   -0.035687270530765175
-0.8791299636838598   -0.14023031759749632   -0.035687270530765175
-0.8911957811725243   -0.03674735463620599   -0.011471403942685532
-0.8911957811725243   -0.03674735463620599   -0.011471403942685532
-0.8911957811725243   -0.03674735463620599   -0.011471403942685532
-0.8911957811725243   -0.03674735463620599   -0.011471403942685532
-0.8245732388516829   0.04275519350031487   0.05411084253230796
-0.8245732388516829   0.04275519350031487   0.05411084253230796
-0.8245732388516829   0.04275519350031487   0.05411084253230796
-0.8245732388516829   0.04275519350031487   0.05411084253230796
-0.969097723978718   -0.1625412840304729   -0.05727434240075913
-0.969097723978718   -0.1625412840304729   -0.05727434240075913
-0.969097723978718   -0.1625412840304729   -0.05727434240075913
-0.969097723978718   -0.1625412840304729   -0.05727434240075913
-0.9248763314058149   -0.015559734928594582   0.0650935746867057
-0.9248763314058149   -0.015559734928594582   0.0650935746867057
-0.9248763314058149   -0.015559734928594582   0.0650935746867057
-0.9248763314058149   -0.015559734928594582   0.0650935746867057
-0.8872669862202284   -0.17168536766980527   -0.028441433883723326
-0.8872669862202284   -0.17168536766980527   -0.028441433883723326
-0.8872669862202284   -0.17168536766980527   -0.028441433883723326
-0.8872669862202284   -0.17168536766980527   -0.028441433883723326
-0.8994092925514595   -0.07251300279268261   -0.031480545192433214
-0.8994092925514595   -0.07251300279268261   -0.031480545192433214
-0.8994092925514595   -0.07251300279268261   -0.031480545192433214
-0.8994092925514595   -0.07251300279268261   -0.031480545192433214
-0.8333182475433942   0.003047121060553798   0.0665697707700881
-0.8333182475433942   0.003047121060553798   0.0665697707700881
-0.8333182475433942   0.003047121060553798   0.0665697707700881
-0.8333182475433942   0.003047121060553798   0.0665697707700881
-0.9842257670156167   -0.19569292059193147   -0.051520417698965974
-0.9842257670156167   -0.19569292059193147   -0.051520417698965974
-0.9842257670156167   -0.19569292059193147   -0.051520417698965974
-0.9842257670156167   -0.19569292059193147   -0.051520417698965974
-0.9357403992149538   -0.056025617842564546   0.07935357384453288
-0.9357403992149538   -0.056025617842564546   0.07935357384453288
-0.9357403992149538   -0.056025617842564546   0.07935357384453288
-0.9357403992149538   -0.056025617842564546   0.07935357384453288
-0.8941953939951096   -0.2032640479626609   -0.021870574377636447
-0.8941953939951096   -0.2032640479626609   -0.021870574377636447
-0.8941953939951096   -0.2032640479626609   -0.021870574377636447
-0.8941953939951096   -0.2032640479626609   -0.021870574377636447
-0.9139648409707396   -0.10615354669798173   -0.05084101813668407
-0.9139648409707396   -0.10615354669798173   -0.05084101813668407
-0.9139648409707396   -0.10615354669798173   -0.05084101813668407
-0.9139648409707396   -0.10615354669798173   -0.05084101813668407
-0.8825800955626862   0.12524309249326887   0.08230234314960258
-0.8825800955626862   0.12524309249326887   0.08230234314960258
-0.8825800955626862   0.12524309249326887   0.08230234314960258
-0.8825800955626862   0.12524309249326887   0.08230234314960258
-0.9379906046525401   -0.07472699803815286   -0.08520625172810653
-0.9379906046525401   -0.07472699803815286   -0.08520625172810653
-0.9379906046525401   -0.07472699803815286   -0.08520625172810653
-0.9379906046525401   -0.07472699803815286   -0.08520625172810653
-0.9162702983455246   0.0900147750345574   0.09143218432744135
-0.9162702983455246   0.0900147750345574   0.09143218432744135
-0.9162702983455246   0.0900147750345574   0.09143218432744135
-0.9162702983455246   0.0900147750345574   0.09143218432744135
-0.9550048553988814   -0.09728044812194696   -0.052070835410117686
-0.9550048553988814   -0.09728044812194696   -0.052070835410117686
-0.9550048553988814   -0.09728044812194696   -0.052070835410117686
-0.9550048553988814   -0.09728044812194696   -0.052070835410117686
-0.891748210778474   0.022688911860682948   0.0030442943309450868
-0.891748210778474   0.022688911860682948   0.0030442943309450868
-0.891748210778474   0.022688911860682948   0.0030442943309450868
-0.891748210778474   0.022688911860682948   0.0030442943309450868
-0.8867708913828056   0.0966599390593939   0.09515859748890484
-0.8867708913828056   0.0966599390593939   0.09515859748890484
-0.8867708913828056   0.0966599390593939   0.09515859748890484
-0.8867708913828056   0.0966599390593939   0.09515859748890484
-0.989553222373958   -0.10897457215913854   -0.07599308862099886
-0.989553222373958   -0.10897457215913854   -0.07599308862099886
-0.989553222373958   -0.10897457215913854   -0.07599308862099886
-0.989553222373958   -0.10897457215913854   -0.07599308862099886
-0.9566420962980657   0.06644834706845806   0.11779277008557323
-0.9566420962980657   0.06644834706845806   0.11779277008557323
-0.9566420962980657   0.06644834706845806   0.11779277008557323
-0.9566420962980657   0.06644834706845806   0.11779277008557323
-0.9674513052144832   -0.11575352286951075   -0.04758750641571975
-0.9674513052144832   -0.11575352286951075   -0.04758750641571975
-0.9674513052144832   -0.11575352286951075   -0.04758750641571975
-0.9674513052144832   -0.11575352286951075   -0.04758750641571975
-0.9351719439387481   -0.00590557370179845   -0.020447477435843756
-0.9351719439387481   -0.00590557370179845   -0.020447477435843756
-0.9351719439387481   -0.00590557370179845   -0.020447477435843756
-0.9351719439387481   -0.00590557370179845   -0.020447477435843756
-0.8964465021840955   0.07772125753956341   0.11396172832712978
-0.8964465021840955   0.07772125753956341   0.11396172832712978
-0.8964465021840955   0.07772125753956341   0.11396172832712978
-0.8964465021840955   0.07772125753956341   0.11396172832712978
-1.0342577722615793   -0.13363730627373954   -0.07019995638976757
-1.0342577722615793   -0.13363730627373954   -0.07019995638976757
-1.0342577722615793   -0.13363730627373954   -0.07019995638976757
-1.0342577722615793   -0.13363730627373954   -0.07019995638976757
-1.028301250897372   0.006335240679080895   0.12590477100915975
-1.028301250897372   0.006335240679080895   0.12590477100915975
-1.028301250897372   0.006335240679080895   0.12590477100915975
-1.028301250897372   0.006335240679080895   0.12590477100915975
-0.9787687221390797   -0.15043602834449052   -0.041377630274170386
-0.9787687221390797   -0.15043602834449052   -0.041377630274170386
-0.9787687221390797   -0.15043602834449052   -0.041377630274170386
-0.9787687221390797   -0.15043602834449052   -0.041377630274170386
-0.9557934844565686   -0.032143150781486024   -0.041718872234966266
-0.9557934844565686   -0.032143150781486024   -0.041718872234966266
-0.9557934844565686   -0.032143150781486024   -0.041718872234966266
-0.9557934844565686   -0.032143150781486024   -0.041718872234966266
-1.92556475776003   -0.17558738568611548   -0.17952003400262306
-1.92556475776003   -0.17558738568611548   -0.17952003400262306
-1.92556475776003   -0.17558738568611548   -0.17952003400262306
-1.92556475776003   -0.17558738568611548   -0.17952003400262306
-1.2167767666548157   0.10567143982977317   0.04246943931097737
-1.2167767666548157   0.10567143982977317   0.04246943931097737
-1.2167767666548157   0.10567143982977317   0.04246943931097737
-1.2167767666548157   0.10567143982977317   0.04246943931097737
-1.2771809022710527   -0.07919538858716804   -0.07963121100718717
-1.2771809022710527   -0.07919538858716804   -0.07963121100718717
-1.2771809022710527   -0.07919538858716804   -0.07963121100718717
-1.2771809022710527   -0.07919538858716804   -0.07963121100718717
-2.044710295233877   -0.22769502751136358   0.20227333752974244
-2.044710295233877   -0.22769502751136358   0.20227333752974244
-2.044710295233877   -0.22769502751136358   0.20227333752974244
-2.044710295233877   -0.22769502751136358   0.20227333752974244
-1.4862464232059982   -0.055674505424113174   0.19560431512676718
-1.4862464232059982   -0.055674505424113174   0.19560431512676718
-1.4862464232059982   -0.055674505424113174   0.19560431512676718
-1.4862464232059982   -0.055674505424113174   0.19560431512676718
-2.117381156438129   -0.2575536636831042   -0.13122233231976038
-2.117381156438129   -0.2575536636831042   -0.13122233231976038
-2.117381156438129   -0.2575536636831042   -0.13122233231976038
-2.117381156438129   -0.2575536636831042   -0.13122233231976038
-1.255548407910798   -0.10037511925942708   0.049710991466345424
-1.255548407910798   -0.10037511925942708   0.049710991466345424
-1.255548407910798   -0.10037511925942708   0.049710991466345424
-1.255548407910798   -0.10037511925942708   0.049710991466345424
-1.2958449095115285   -0.1153564628695802   -0.0568407953254591
-1.2958449095115285   -0.1153564628695802   -0.0568407953254591
-1.2958449095115285   -0.1153564628695802   -0.0568407953254591
-1.2958449095115285   -0.1153564628695802   -0.0568407953254591
-2.1084579571536426   -0.3185110506834677   0.005712869342058058
-2.1084579571536426   -0.3185110506834677   0.005712869342058058
-2.1084579571536426   -0.3185110506834677   0.005712869342058058
-2.1084579571536426   -0.3185110506834677   0.005712869342058058
-1.6436651535063111   -0.19221753552818854   0.04494290272670315
-1.6436651535063111   -0.19221753552818854   0.04494290272670315
-1.6436651535063111   -0.19221753552818854   0.04494290272670315
-1.6436651535063111   -0.19221753552818854   0.04494290272670315
-2.1251356159181958   -0.29090311676554503   -0.10528335839861619
-2.1251356159181958   -0.29090311676554503   -0.10528335839861619
-2.1251356159181958   -0.29090311676554503   -0.10528335839861619
-2.1251356159181958   -0.29090311676554503   -0.10528335839861619
-1.294720905551634   -0.15851805159216031   -0.008059186803413665
-1.294720905551634   -0.15851805159216031   -0.008059186803413665
-1.294720905551634   -0.15851805159216031   -0.008059186803413665
-1.294720905551634   -0.15851805159216031   -0.008059186803413665
-1.2958528182337035   -0.20329171344809793   -0.0411931879512924
-1.2958528182337035   -0.20329171344809793   -0.0411931879512924
-1.2958528182337035   -0.20329171344809793   -0.0411931879512924
-1.2958528182337035   -0.20329171344809793   -0.0411931879512924
-2.157282049565971   -0.4870290994591424   0.03300707284699783
-2.157282049565971   -0.4870290994591424   0.03300707284699783
-2.157282049565971   -0.4870290994591424   0.03300707284699783
-2.157282049565971   -0.4870290994591424   0.03300707284699783
-1.6408363957053083   -0.2644504248785542   0.0030654977684476566
-1.6408363957053083   -0.2644504248785542   0.0030654977684476566
-1.6408363957053083   -0.2644504248785542   0.0030654977684476566
-1.6408363957053083   -0.2644504248785542   0.0030654977684476566
-1.3140433836229892   -0.22252298011663763   -0.11566922558346814
-1.3140433836229892   -0.22252298011663763   -0.11566922558346814
-1.3140433836229892   -0.22252298011663763   -0.11566922558346814
-1.3140433836229892   -0.22252298011663763   -0.11566922558346814
-0.8991301806115998   -0.5768999364469916   -0.10835992673626665
-0.8991301806115998   -0.5768999364469916   -0.10835992673626665
-0.8991301806115998   -0.5768999364469916   -0.10835992673626665
-0.8991301806115998   -0.5768999364469916   -0.10835992673626665
-0.7899962691829816   -0.12857852855040827   -0.006465370094045519
-0.7899962691829816   -0.12857852855040827   -0.006465370094045519
-0.7899962691829816   -0.12857852855040827   -0.006465370094045519
-0.7899962691829816   -0.12857852855040827   -0.006465370094045519
-1.3954256229875452   -0.6130463193794129   -0.13700388379740575
-1.3954256229875452   -0.6130463193794129   -0.13700388379740575
-1.3954256229875452   -0.6130463193794129   -0.13700388379740575
-1.3954256229875452   -0.6130463193794129   -0.13700388379740575
-1.0867981676649614   -0.40913989845469145   -0.03156886640515653
-1.0867981676649614   -0.40913989845469145   -0.03156886640515653
-1.0867981676649614   -0.40913989845469145   -0.03156886640515653
-1.0867981676649614   -0.40913989845469145   -0.03156886640515653
-1.3126525141536027   -0.24921136277261974   -0.0869732962344818
-1.3126525141536027   -0.24921136277261974   -0.0869732962344818
-1.3126525141536027   -0.24921136277261974   -0.0869732962344818
-1.3126525141536027   -0.24921136277261974   -0.0869732962344818
-0.8781112443912432   -0.4977553515315223   -0.07786342315425497
-0.8781112443912432   -0.4977553515315223   -0.07786342315425497
-0.8781112443912432   -0.4977553515315223   -0.07786342315425497
-0.8781112443912432   -0.4977553515315223   -0.07786342315425497
-0.7981071341632894   -0.16677914128967802   0.001653744489290406
-0.7981071341632894   -0.16677914128967802   0.001653744489290406
-0.7981071341632894   -0.16677914128967802   0.001653744489290406
-0.7981071341632894   -0.16677914128967802   0.001653744489290406
-1.3995878598026459   -0.60990844549208   -0.08100356415855477
-1.3995878598026459   -0.60990844549208   -0.08100356415855477
-1.3995878598026459   -0.60990844549208   -0.08100356415855477
-1.3995878598026459   -0.60990844549208   -0.08100356415855477
-1.0741348547316754   -0.38353070291659075   -0.033529724184658105
-1.0741348547316754   -0.38353070291659075   -0.033529724184658105
-1.0741348547316754   -0.38353070291659075   -0.033529724184658105
-1.0741348547316754   -0.38353070291659075   -0.033529724184658105
-1.3317984934610816   -0.2868676646963794   -0.06509751324642434
-1.3317984934610816   -0.2868676646963794   -0.06509751324642434
-1.3317984934610816   -0.2868676646963794   -0.06509751324642434
-1.3317984934610816   -0.2868676646963794   -0.06509751324642434
-0.8768815432725651   -0.5008049648530897   -0.058192477493684405
-0.8768815432725651   -0.5008049648530897   -0.058192477493684405
-0.8768815432725651   -0.5008049648530897   -0.058192477493684405
-0.8768815432725651   -0.5008049648530897   -0.058192477493684405
-0.7967923780454502   -0.21456653939567671   0.013260996283751127
-0.7967923780454502   -0.21456653939567671   0.013260996283751127
-0.7967923780454502   -0.21456653939567671   0.013260996283751127
-0.7967923780454502   -0.21456653939567671   0.013260996283751127
-1.3951805683951002   -0.6205634526272601   -0.12056019957912689
-1.3951805683951002   -0.6205634526272601   -0.12056019957912689
-1.3951805683951002   -0.6205634526272601   -0.12056019957912689
-1.3951805683951002   -0.6205634526272601   -0.12056019957912689
-1.089361081603843   -0.412735886803125   -0.062189083318278576
-1.089361081603843   -0.412735886803125   -0.062189083318278576
-1.089361081603843   -0.412735886803125   -0.062189083318278576
-1.089361081603843   -0.412735886803125   -0.062189083318278576
-0.7926587476500794   -0.1430171152485611   -0.009885583127095265
-0.7926587476500794   -0.1430171152485611   -0.009885583127095265
-0.7926587476500794   -0.1430171152485611   -0.009885583127095265
-0.7926587476500794   -0.1430171152485611   -0.009885583127095265
-0.6609815863592968   -0.44058094069361453   -0.07606660511295191
-0.6609815863592968   -0.44058094069361453   -0.07606660511295191
-0.6609815863592968   -0.44058094069361453   -0.07606660511295191
-0.6609815863592968   -0.44058094069361453   -0.07606660511295191
-0.5694391439594275   -0.11805762287627714   0.030685432358364934
-0.5694391439594275   -0.11805762287627714   0.030685432358364934
-0.5694391439594275   -0.11805762287627714   0.030685432358364934
-0.5694391439594275   -0.11805762287627714   0.030685432358364934
-0.8758412371644341   -0.47995548982858005   -0.08431324872315167
-0.8758412371644341   -0.47995548982858005   -0.08431324872315167
-0.8758412371644341   -0.47995548982858005   -0.08431324872315167
-0.8758412371644341   -0.47995548982858005   -0.08431324872315167
-0.7214837272684939   -0.2996690442760833   -0.03516722072917093
-0.7214837272684939   -0.2996690442760833   -0.03516722072917093
-0.7214837272684939   -0.2996690442760833   -0.03516722072917093
-0.7214837272684939   -0.2996690442760833   -0.03516722072917093
-0.7965627329979256   -0.1693288922495729   0.0014526745303841946
-0.7965627329979256   -0.1693288922495729   0.0014526745303841946
-0.7965627329979256   -0.1693288922495729   0.0014526745303841946
-0.7965627329979256   -0.1693288922495729   0.0014526745303841946
-0.6534219472577658   -0.43338851958711155   -0.07389768742247739
-0.6534219472577658   -0.43338851958711155   -0.07389768742247739
-0.6534219472577658   -0.43338851958711155   -0.07389768742247739
-0.6534219472577658   -0.43338851958711155   -0.07389768742247739
-0.5687926169916022   -0.14942528968531615   0.0397054555588999
-0.5687926169916022   -0.14942528968531615   0.0397054555588999
-0.5687926169916022   -0.14942528968531615   0.0397054555588999
-0.5687926169916022   -0.14942528968531615   0.0397054555588999
-0.877748478932981   -0.4875769340771302   -0.07575518657172434
-0.877748478932981   -0.4875769340771302   -0.07575518657172434
-0.877748478932981   -0.4875769340771302   -0.07575518657172434
-0.877748478932981   -0.4875769340771302   -0.07575518657172434
-0.7194690091609762   -0.3115815941468113   -0.04561452551910079
-0.7194690091609762   -0.3115815941468113   -0.04561452551910079
-0.7194690091609762   -0.3115815941468113   -0.04561452551910079
-0.7194690091609762   -0.3115815941468113   -0.04561452551910079
-0.8023342491221205   -0.2011057512850866   0.0148447796905352
-0.8023342491221205   -0.2011057512850866   0.0148447796905352
-0.8023342491221205   -0.2011057512850866   0.0148447796905352
-0.8023342491221205   -0.2011057512850866   0.0148447796905352
-0.6467812791217633   -0.4384709047966524   -0.06119223998055309
-0.6467812791217633   -0.4384709047966524   -0.06119223998055309
-0.6467812791217633   -0.4384709047966524   -0.06119223998055309
-0.6467812791217633   -0.4384709047966524   -0.06119223998055309
-0.5611334515743597   -0.17948208671546162   0.049498206355953395
-0.5611334515743597   -0.17948208671546162   0.049498206355953395
-0.5611334515743597   -0.17948208671546162   0.049498206355953395
-0.5611334515743597   -0.17948208671546162   0.049498206355953395
-0.8662775909544727   -0.4940174279979912   -0.05471417965904646
-0.8662775909544727   -0.4940174279979912   -0.05471417965904646
-0.8662775909544727   -0.4940174279979912   -0.05471417965904646
-0.8662775909544727   -0.4940174279979912   -0.05471417965904646
-0.7163683450725427   -0.327135611466679   -0.05273917434012532
-0.7163683450725427   -0.327135611466679   -0.05273917434012532
-0.7163683450725427   -0.327135611466679   -0.05273917434012532
-0.7163683450725427   -0.327135611466679   -0.05273917434012532
-0.5508680800948864   -0.020075986825869307   0.053995972341355086
-0.5508680800948864   -0.020075986825869307   0.053995972341355086
-0.5508680800948864   -0.020075986825869307   0.053995972341355086
-0.5508680800948864   -0.020075986825869307   0.053995972341355086
-0.5169227414850187   -0.23241399277501218   -0.04517305008470795
-0.5169227414850187   -0.23241399277501218   -0.04517305008470795
-0.5169227414850187   -0.23241399277501218   -0.04517305008470795
-0.5169227414850187   -0.23241399277501218   -0.04517305008470795
-0.44489287229168556   -0.03371241150600647   0.06266516853450993
-0.44489287229168556   -0.03371241150600647   0.06266516853450993
-0.44489287229168556   -0.03371241150600647   0.06266516853450993
-0.44489287229168556   -0.03371241150600647   0.06266516853450993
-0.6123228307138088   -0.2696432987039056   -0.03214732558591308
-0.6123228307138088   -0.2696432987039056   -0.03214732558591308
-0.6123228307138088   -0.2696432987039056   -0.03214732558591308
-0.6123228307138088   -0.2696432987039056   -0.03214732558591308
-0.5330566607692913   -0.1377426724599612   -0.019030803738010395
-0.5330566607692913   -0.1377426724599612   -0.019030803738010395
-0.5330566607692913   -0.1377426724599612   -0.019030803738010395
-0.5330566607692913   -0.1377426724599612   -0.019030803738010395
-0.55049351591213   -0.05491198666106861   0.062267936379643674
-0.55049351591213   -0.05491198666106861   0.062267936379643674
-0.55049351591213   -0.05491198666106861   0.062267936379643674
-0.55049351591213   -0.05491198666106861   0.062267936379643674
-0.5116842149524854   -0.2534057514079645   -0.0515982048675312
-0.5116842149524854   -0.2534057514079645   -0.0515982048675312
-0.5116842149524854   -0.2534057514079645   -0.0515982048675312
-0.5116842149524854   -0.2534057514079645   -0.0515982048675312
-0.4447289468303955   -0.064029103175098   0.06730184919998035
-0.4447289468303955   -0.064029103175098   0.06730184919998035
-0.4447289468303955   -0.064029103175098   0.06730184919998035
-0.4447289468303955   -0.064029103175098   0.06730184919998035
-0.611251206307249   -0.28602245449141517   -0.03599032621323502
-0.611251206307249   -0.28602245449141517   -0.03599032621323502
-0.611251206307249   -0.28602245449141517   -0.03599032621323502
-0.611251206307249   -0.28602245449141517   -0.03599032621323502
-0.5299744569976695   -0.1621599569624848   -0.03222947003060892
-0.5299744569976695   -0.1621599569624848   -0.03222947003060892
-0.5299744569976695   -0.1621599569624848   -0.03222947003060892
-0.5299744569976695   -0.1621599569624848   -0.03222947003060892
-0.5495324917501003   -0.08427835298568281   0.07085914506676104
-0.5495324917501003   -0.08427835298568281   0.07085914506676104
-0.5495324917501003   -0.08427835298568281   0.07085914506676104
-0.5495324917501003   -0.08427835298568281   0.07085914506676104
-0.5094487997683278   -0.2687743430616164   -0.05155217560316248
-0.5094487997683278   -0.2687743430616164   -0.05155217560316248
-0.5094487997683278   -0.2687743430616164   -0.05155217560316248
-0.5094487997683278   -0.2687743430616164   -0.05155217560316248
-0.44004545640019427   -0.09246781235380172   0.07796066607174404
-0.44004545640019427   -0.09246781235380172   0.07796066607174404
-0.44004545640019427   -0.09246781235380172   0.07796066607174404
-0.44004545640019427   -0.09246781235380172   0.07796066607174404
-0.6005801230781593   -0.3024661750550037   -0.024751062823503166
-0.6005801230781593   -0.3024661750550037   -0.024751062823503166
-0.6005801230781593   -0.3024661750550037   -0.024751062823503166
-0.6005801230781593   -0.3024661750550037   -0.024751062823503166
-0.5274502400590139   -0.18302008739683645   -0.04129870181516483
-0.5274502400590139   -0.18302008739683645   -0.04129870181516483
-0.5274502400590139   -0.18302008739683645   -0.04129870181516483
-0.5274502400590139   -0.18302008739683645   -0.04129870181516483
-0.432589648088965   0.06017510703691098   0.08390331708363755
-0.432589648088965   0.06017510703691098   0.08390331708363755
-0.432589648088965   0.06017510703691098   0.08390331708363755
-0.432589648088965   0.06017510703691098   0.08390331708363755
-0.28204932624078016   -0.07583512197478437   -0.027518682357246894
-0.28204932624078016   -0.07583512197478437   -0.027518682357246894
-0.28204932624078016   -0.07583512197478437   -0.027518682357246894
-0.28204932624078016   -0.07583512197478437   -0.027518682357246894
-0.2446884081460855   0.07174679775708202   0.08274894673223136
-0.2446884081460855   0.07174679775708202   0.08274894673223136
-0.2446884081460855   0.07174679775708202   0.08274894673223136
-0.2446884081460855   0.07174679775708202   0.08274894673223136
-0.47701185006027547   -0.11744504880807384   -0.014197083006372204
-0.47701185006027547   -0.11744504880807384   -0.014197083006372204
-0.47701185006027547   -0.11744504880807384   -0.014197083006372204
-0.47701185006027547   -0.11744504880807384   -0.014197083006372204
-0.354376673907839   -0.007308133182533136   -0.015465134859498363
-0.354376673907839   -0.007308133182533136   -0.015465134859498363
-0.354376673907839   -0.007308133182533136   -0.015465134859498363
-0.354376673907839   -0.007308133182533136   -0.015465134859498363
-0.4248737626523925   0.03747466546197338   0.09157363976299522
-0.4248737626523925   0.03747466546197338   0.09157363976299522
-0.4248737626523925   0.03747466546197338   0.09157363976299522
-0.4248737626523925   0.03747466546197338   0.09157363976299522
-0.29727496828297023   -0.08362138924196708   -0.024815666953143602
-0.29727496828297023   -0.08362138924196708   -0.024815666953143602
-0.29727496828297023   -0.08362138924196708   -0.024815666953143602
-0.29727496828297023   -0.08362138924196708   -0.024815666953143602
-0.2548928572636265   0.05710671642748289   0.10415524211839174
-0.2548928572636265   0.05710671642748289   0.10415524211839174
-0.2548928572636265   0.05710671642748289   0.10415524211839174
-0.2548928572636265   0.05710671642748289   0.10415524211839174
-0.47403784434603313   -0.12490330090721465   -0.01836844064609097
-0.47403784434603313   -0.12490330090721465   -0.01836844064609097
-0.47403784434603313   -0.12490330090721465   -0.01836844064609097
-0.47403784434603313   -0.12490330090721465   -0.01836844064609097
-0.3640913606480466   -0.023318108719860578   -0.021417318227208763
-0.3640913606480466   -0.023318108719860578   -0.021417318227208763
-0.3640913606480466   -0.023318108719860578   -0.021417318227208763
-0.3640913606480466   -0.023318108719860578   -0.021417318227208763
-0.4193934513506725   0.024471328225907252   0.10547889519759018
-0.4193934513506725   0.024471328225907252   0.10547889519759018
-0.4193934513506725   0.024471328225907252   0.10547889519759018
-0.4193934513506725   0.024471328225907252   0.10547889519759018
-0.3132774600670355   -0.0960081225136925   -0.0346529329574779
-0.3132774600670355   -0.0960081225136925   -0.0346529329574779
-0.3132774600670355   -0.0960081225136925   -0.0346529329574779
-0.3132774600670355   -0.0960081225136925   -0.0346529329574779
-0.2919263703201164   0.01688200533832373   0.10837018632093767
-0.2919263703201164   0.01688200533832373   0.10837018632093767
-0.2919263703201164   0.01688200533832373   0.10837018632093767
-0.2919263703201164   0.01688200533832373   0.10837018632093767
-0.4665090412095443   -0.1313464292081038   -0.015478641120703828
-0.4665090412095443   -0.1313464292081038   -0.015478641120703828
-0.4665090412095443   -0.1313464292081038   -0.015478641120703828
-0.4665090412095443   -0.1313464292081038   -0.015478641120703828
-0.36846812084292113   -0.0347614936780966   -0.031313724912315016
-0.36846812084292113   -0.0347614936780966   -0.031313724912315016
-0.36846812084292113   -0.0347614936780966   -0.031313724912315016
-0.36846812084292113   -0.0347614936780966   -0.031313724912315016
-4.51484022992894   -0.63716444736317   -0.37364653337962916
-4.51484022992894   -0.63716444736317   -0.37364653337962916
-4.51484022992894   -0.63716444736317   -0.37364653337962916
-4.51484022992894   -0.63716444736317   -0.37364653337962916
-1.5633043779517073   -2.4325352871167496   -0.2929968969882288
-1.5633043779517073   -2.4325352871167496   -0.2929968969882288
-1.5633043779517073   -2.4325352871167496   -0.2929968969882288
-1.5633043779517073   -2.4325352871167496   -0.2929968969882288
-1.2119654486107767   -0.10118879448117271   0.00205965605759615
-1.2119654486107767   -0.10118879448117271   0.00205965605759615
-1.2119654486107767   -0.10118879448117271   0.00205965605759615
-1.2119654486107767   -0.10118879448117271   0.00205965605759615
-4.813384539961286   -2.8649684160500613   -1.5356705912022695
-4.813384539961286   -2.8649684160500613   -1.5356705912022695
-4.813384539961286   -2.8649684160500613   -1.5356705912022695
-4.813384539961286   -2.8649684160500613   -1.5356705912022695
-2.9503799327935636   -1.4260734068054517   -0.20769744396494638
-2.9503799327935636   -1.4260734068054517   -0.20769744396494638
-2.9503799327935636   -1.4260734068054517   -0.20769744396494638
-2.9503799327935636   -1.4260734068054517   -0.20769744396494638
-4.1947577553067505   -0.7997168365231883   -0.5077882474565071
-4.1947577553067505   -0.7997168365231883   -0.5077882474565071
-4.1947577553067505   -0.7997168365231883   -0.5077882474565071
-4.1947577553067505   -0.7997168365231883   -0.5077882474565071
-1.6871016301272186   -2.0229497708699586   -0.45186027513582044
-1.6871016301272186   -2.0229497708699586   -0.45186027513582044
-1.6871016301272186   -2.0229497708699586   -0.45186027513582044
-1.6871016301272186   -2.0229497708699586   -0.45186027513582044
-1.2354232307078057   -0.13571298865723544   0.04666845302738243
-1.2354232307078057   -0.13571298865723544   0.04666845302738243
-1.2354232307078057   -0.13571298865723544   0.04666845302738243
-1.2354232307078057   -0.13571298865723544   0.04666845302738243
-4.503574033722364   -2.5525879929355213   -1.4112324053315772
-4.503574033722364   -2.5525879929355213   -1.4112324053315772
-4.503574033722364   -2.5525879929355213   -1.4112324053315772
-4.503574033722364   -2.5525879929355213   -1.4112324053315772
-2.7783354424968922   -1.2849520014338958   0.11321882081725373
-2.7783354424968922   -1.2849520014338958   0.11321882081725373
-2.7783354424968922   -1.2849520014338958   0.11321882081725373
-2.7783354424968922   -1.2849520014338958   0.11321882081725373
-3.938703485206912   -0.7613302177504222   -0.37813743793944543
-3.938703485206912   -0.7613302177504222   -0.37813743793944543
-3.938703485206912   -0.7613302177504222   -0.37813743793944543
-3.938703485206912   -0.7613302177504222   -0.37813743793944543
-1.6409530379052306   -1.7676300225243105   -0.34906354909265563
-1.6409530379052306   -1.7676300225243105   -0.34906354909265563
-1.6409530379052306   -1.7676300225243105   -0.34906354909265563
-1.6409530379052306   -1.7676300225243105   -0.34906354909265563
-1.417370442282224   -0.36023467639376294   -0.07293241910985182
-1.417370442282224   -0.36023467639376294   -0.07293241910985182
-1.417370442282224   -0.36023467639376294   -0.07293241910985182
-1.417370442282224   -0.36023467639376294   -0.07293241910985182
-4.104272033953007   -2.1414008171174674   -1.249134570214095
-4.104272033953007   -2.1414008171174674   -1.249134570214095
-4.104272033953007   -2.1414008171174674   -1.249134570214095
-4.104272033953007   -2.1414008171174674   -1.249134570214095
-2.5729568758585524   -1.1132715907037836   0.4754439506633855
-2.5729568758585524   -1.1132715907037836   0.4754439506633855
-2.5729568758585524   -1.1132715907037836   0.4754439506633855
-2.5729568758585524   -1.1132715907037836   0.4754439506633855
-1.162084215228964   -0.6264208601012213   -0.09301051039005104
-1.162084215228964   -0.6264208601012213   -0.09301051039005104
-1.162084215228964   -0.6264208601012213   -0.09301051039005104
-1.162084215228964   -0.6264208601012213   -0.09301051039005104
-0.5342095313262718   -0.7594600364815518   -0.13184708449702315
-0.5342095313262718   -0.7594600364815518   -0.13184708449702315
-0.5342095313262718   -0.7594600364815518   -0.13184708449702315
-0.5342095313262718   -0.7594600364815518   -0.13184708449702315
-0.47312905668424093   -0.3986897628037014   0.0124823327778628
-0.47312905668424093   -0.3986897628037014   0.0124823327778628
-0.47312905668424093   -0.3986897628037014   0.0124823327778628
-0.47312905668424093   -0.3986897628037014   0.0124823327778628
-1.4161140538446637   -1.1190169915412784   -0.0008551730517259437
-1.4161140538446637   -1.1190169915412784   -0.0008551730517259437
-1.4161140538446637   -1.1190169915412784   -0.0008551730517259437
-1.4161140538446637   -1.1190169915412784   -0.0008551730517259437
-0.7620438704297323   -0.5435245808793117   0.24306660590223644
-0.7620438704297323   -0.5435245808793117   0.24306660590223644
-0.7620438704297323   -0.5435245808793117   0.24306660590223644
-0.7620438704297323   -0.5435245808793117   0.24306660590223644
-1.3206175568961884   -0.5826348878098259   -0.05975479204081223
-1.3206175568961884   -0.5826348878098259   -0.05975479204081223
-1.3206175568961884   -0.5826348878098259   -0.05975479204081223
-1.3206175568961884   -0.5826348878098259   -0.05975479204081223
-0.6082532566560916   -0.974699569558531   -0.0871288603265612
-0.6082532566560916   -0.974699569558531   -0.0871288603265612
-0.6082532566560916   -0.974699569558531   -0.0871288603265612
-0.6082532566560916   -0.974699569558531   -0.0871288603265612
-0.5101021850512774   -0.413284068652177   0.012632645289607225
-0.5101021850512774   -0.413284068652177   0.012632645289607225
-0.5101021850512774   -0.413284068652177   0.012632645289607225
-0.5101021850512774   -0.413284068652177   0.012632645289607225
-1.4837759486733844   -1.1035024506555609   -0.2273056748021737
-1.4837759486733844   -1.1035024506555609   -0.2273056748021737
-1.4837759486733844   -1.1035024506555609   -0.2273056748021737
-1.4837759486733844   -1.1035024506555609   -0.2273056748021737
-0.906880564472311   -0.6983057155719985   0.11181317471310401
-0.906880564472311   -0.6983057155719985   0.11181317471310401
-0.906880564472311   -0.6983057155719985   0.11181317471310401
-0.906880564472311   -0.6983057155719985   0.11181317471310401
-1.361571902889399   -0.6083851004877392   -0.11140279605008212
-1.361571902889399   -0.6083851004877392   -0.11140279605008212
-1.361571902889399   -0.6083851004877392   -0.11140279605008212
-1.361571902889399   -0.6083851004877392   -0.11140279605008212
-0.628561959698509   -0.9046571476832472   -0.08829314891548055
-0.628561959698509   -0.9046571476832472   -0.08829314891548055
-0.628561959698509   -0.9046571476832472   -0.08829314891548055
-0.628561959698509   -0.9046571476832472   -0.08829314891548055
-0.5668243807012753   -0.4270668599733661   0.01856657599651862
-0.5668243807012753   -0.4270668599733661   0.01856657599651862
-0.5668243807012753   -0.4270668599733661   0.01856657599651862
-0.5668243807012753   -0.4270668599733661   0.01856657599651862
-1.584724349503565   -1.0713706872523794   -0.19856594435793568
-1.584724349503565   -1.0713706872523794   -0.19856594435793568
-1.584724349503565   -1.0713706872523794   -0.19856594435793568
-1.584724349503565   -1.0713706872523794   -0.19856594435793568
-0.9476210379572805   -0.6579489801987475   0.11847611513691197
-0.9476210379572805   -0.6579489801987475   0.11847611513691197
-0.9476210379572805   -0.6579489801987475   0.11847611513691197
-0.9476210379572805   -0.6579489801987475   0.11847611513691197
-0.42503267617942786   -0.37271867223660116   0.02729582699224581
-0.42503267617942786   -0.37271867223660116   0.02729582699224581
-0.42503267617942786   -0.37271867223660116   0.02729582699224581
-0.42503267617942786   -0.37271867223660116   0.02729582699224581
-0.25702919561575555   -0.23198636083623936   -0.06411929757001475
-0.25702919561575555   -0.23198636083623936   -0.06411929757001475
-0.25702919561575555   -0.23198636083623936   -0.06411929757001475
-0.25702919561575555   -0.23198636083623936   -0.06411929757001475
-0.25016736330374534   -0.33241206227545395   0.027730015181790302
-0.25016736330374534   -0.33241206227545395   0.027730015181790302
-0.25016736330374534   -0.33241206227545395   0.027730015181790302
-0.25016736330374534   -0.33241206227545395   0.027730015181790302
-0.46628235319813705   -0.32133689251686126   -0.030637020078457894
-0.46628235319813705   -0.32133689251686126   -0.030637020078457894
-0.46628235319813705   -0.32133689251686126   -0.030637020078457894
-0.46628235319813705   -0.32133689251686126   -0.030637020078457894
-0.29558513646523343   -0.26566888728633137   0.12167431220610525
-0.29558513646523343   -0.26566888728633137   0.12167431220610525
-0.29558513646523343   -0.26566888728633137   0.12167431220610525
-0.29558513646523343   -0.26566888728633137   0.12167431220610525
-0.4650458275936272   -0.375076679236952   0.02928539466418191
-0.4650458275936272   -0.375076679236952   0.02928539466418191
-0.4650458275936272   -0.375076679236952   0.02928539466418191
-0.4650458275936272   -0.375076679236952   0.02928539466418191
-0.25525657068557167   -0.2825249573326797   -0.047603126670115556
-0.25525657068557167   -0.2825249573326797   -0.047603126670115556
-0.25525657068557167   -0.2825249573326797   -0.047603126670115556
-0.25525657068557167   -0.2825249573326797   -0.047603126670115556
-0.25223122442136114   -0.3424154308833502   0.024535074885555952
-0.25223122442136114   -0.3424154308833502   0.024535074885555952
-0.25223122442136114   -0.3424154308833502   0.024535074885555952
-0.25223122442136114   -0.3424154308833502   0.024535074885555952
-0.4939797173569421   -0.375587371946557   0.05554828705566392
-0.4939797173569421   -0.375587371946557   0.05554828705566392
-0.4939797173569421   -0.375587371946557   0.05554828705566392
-0.4939797173569421   -0.375587371946557   0.05554828705566392
-0.3201720003042984   -0.29577254747864473   0.10380138020066029
-0.3201720003042984   -0.29577254747864473   0.10380138020066029
-0.3201720003042984   -0.29577254747864473   0.10380138020066029
-0.3201720003042984   -0.29577254747864473   0.10380138020066029
-0.4998386050999435   -0.38892552226446486   0.03959199865856482
-0.4998386050999435   -0.38892552226446486   0.03959199865856482
-0.4998386050999435   -0.38892552226446486   0.03959199865856482
-0.4998386050999435   -0.38892552226446486   0.03959199865856482
-0.2675571570568206   -0.35026210094390314   -0.04424791823118827
-0.2675571570568206   -0.35026210094390314   -0.04424791823118827
-0.2675571570568206   -0.35026210094390314   -0.04424791823118827
-0.2675571570568206   -0.35026210094390314   -0.04424791823118827
-0.2537756598937164   -0.353701659259538   0.034362732972478965
-0.2537756598937164   -0.353701659259538   0.034362732972478965
-0.2537756598937164   -0.353701659259538   0.034362732972478965
-0.2537756598937164   -0.353701659259538   0.034362732972478965
-0.5757937746824565   -0.46378264292261095   0.010435389039857579
-0.5757937746824565   -0.46378264292261095   0.010435389039857579
-0.5757937746824565   -0.46378264292261095   0.010435389039857579
-0.5757937746824565   -0.46378264292261095   0.010435389039857579
-0.35618847665096154   -0.3377881024004271   0.0500622972657421
-0.35618847665096154   -0.3377881024004271   0.0500622972657421
-0.35618847665096154   -0.3377881024004271   0.0500622972657421
-0.35618847665096154   -0.3377881024004271   0.0500622972657421
-0.21305033052818217   -0.1482059726336506   0.0719946396652634
-0.21305033052818217   -0.1482059726336506   0.0719946396652634
-0.21305033052818217   -0.1482059726336506   0.0719946396652634
-0.21305033052818217   -0.1482059726336506   0.0719946396652634
-0.147068064583845   0.004831734886589861   -0.01424717550345355
-0.147068064583845   0.004831734886589861   -0.01424717550345355
-0.147068064583845   0.004831734886589861   -0.01424717550345355
-0.147068064583845   0.004831734886589861   -0.01424717550345355
-0.13973540738733864   -0.15973636027444055   0.04479994323494201
-0.13973540738733864   -0.15973636027444055   0.04479994323494201
-0.13973540738733864   -0.15973636027444055   0.04479994323494201
-0.13973540738733864   -0.15973636027444055   0.04479994323494201
-0.1958146767039046   -0.022866243728386047   -0.0100523703660739
-0.1958146767039046   -0.022866243728386047   -0.0100523703660739
-0.1958146767039046   -0.022866243728386047   -0.0100523703660739
-0.1958146767039046   -0.022866243728386047   -0.0100523703660739
-0.16093676898648746   -0.07893251006561611   0.03572386564421566
-0.16093676898648746   -0.07893251006561611   0.03572386564421566
-0.16093676898648746   -0.07893251006561611   0.03572386564421566
-0.16093676898648746   -0.07893251006561611   0.03572386564421566
-0.2095024102881982   -0.16910100492065538   0.06774372290472738
-0.2095024102881982   -0.16910100492065538   0.06774372290472738
-0.2095024102881982   -0.16910100492065538   0.06774372290472738
-0.2095024102881982   -0.16910100492065538   0.06774372290472738
-0.12223396186715027   -0.009687887146276431   -0.017741302292280166
-0.12223396186715027   -0.009687887146276431   -0.017741302292280166
-0.12223396186715027   -0.009687887146276431   -0.017741302292280166
-0.12223396186715027   -0.009687887146276431   -0.017741302292280166
-0.127357336340306   -0.1738082823209167   0.04118666467231425
-0.127357336340306   -0.1738082823209167   0.04118666467231425
-0.127357336340306   -0.1738082823209167   0.04118666467231425
-0.127357336340306   -0.1738082823209167   0.04118666467231425
-0.1963528690939909   -0.049309320396399806   0.010820741035456676
-0.1963528690939909   -0.049309320396399806   0.010820741035456676
-0.1963528690939909   -0.049309320396399806   0.010820741035456676
-0.1963528690939909   -0.049309320396399806   0.010820741035456676
-0.14679099007614302   -0.090288804358129   0.04314644405239261
-0.14679099007614302   -0.090288804358129   0.04314644405239261
-0.14679099007614302   -0.090288804358129   0.04314644405239261
-0.14679099007614302   -0.090288804358129   0.04314644405239261
-0.20981571224205495   -0.18308154121331832   0.07727874611205501
-0.20981571224205495   -0.18308154121331832   0.07727874611205501
-0.20981571224205495   -0.18308154121331832   0.07727874611205501
-0.20981571224205495   -0.18308154121331832   0.07727874611205501
-0.11482989954781431   -0.04097146785957052   -0.029012965826573513
-0.11482989954781431   -0.04097146785957052   -0.029012965826573513
-0.11482989954781431   -0.04097146785957052   -0.029012965826573513
-0.11482989954781431   -0.04097146785957052   -0.029012965826573513
-0.10522570150131191   -0.18941209962752173   0.04516489273705924
-0.10522570150131191   -0.18941209962752173   0.04516489273705924
-0.10522570150131191   -0.18941209962752173   0.04516489273705924
-0.10522570150131191   -0.18941209962752173   0.04516489273705924
-0.2100256588539492   -0.11491643557199144   0.014327514483768393
-0.2100256588539492   -0.11491643557199144   0.014327514483768393
-0.2100256588539492   -0.11491643557199144   0.014327514483768393
-0.2100256588539492   -0.11491643557199144   0.014327514483768393
-0.14010222360190122   -0.1142990243227463   0.037998421914287414
-0.14010222360190122   -0.1142990243227463   0.037998421914287414
-0.14010222360190122   -0.1142990243227463   0.037998421914287414
-0.14010222360190122   -0.1142990243227463   0.037998421914287414
-0.1361019803693797   -0.026715766864966056   0.07213074732042889
-0.1361019803693797   -0.026715766864966056   0.07213074732042889
-0.1361019803693797   -0.026715766864966056   0.07213074732042889
-0.1361019803693797   -0.026715766864966056   0.07213074732042889
-0.022133207112971273   0.01679667181984913   -0.001454942658094871
-0.022133207112971273   0.01679667181984913   -0.001454942658094871
-0.022133207112971273   0.01679667181984913   -0.001454942658094871
-0.022133207112971273   0.01679667181984913   -0.001454942658094871
0.010003270222175255   -0.008323787379426089   0.044394103854415834
0.010003270222175255   -0.008323787379426089   0.044394103854415834
0.010003270222175255   -0.008323787379426089   0.044394103854415834
0.010003270222175255   -0.008323787379426089   0.044394103854415834
-0.11535700404205597   0.013189091716107128   -0.006233492029192289
-0.11535700404205597   0.013189091716107128   -0.006233492029192289
-0.11535700404205597   0.013189091716107128   -0.006233492029192289
-0.11535700404205597   0.013189091716107128   -0.006233492029192289
-0.0671154831591562   -0.0048496008753366165   -0.005783262269443713
-0.0671154831591562   -0.0048496008753366165   -0.005783262269443713
-0.0671154831591562   -0.0048496008753366165   -0.005783262269443713
-0.0671154831591562   -0.0048496008753366165   -0.005783262269443713
-0.10688221380776147   -0.025594828987182607   0.07492437984556996
-0.10688221380776147   -0.025594828987182607   0.07492437984556996
-0.10688221380776147   -0.025594828987182607   0.07492437984556996
-0.10688221380776147   -0.025594828987182607   0.07492437984556996
0.005636906733225532   0.03456856006920843   -0.020330061038967298
0.005636906733225532   0.03456856006920843   -0.020330061038967298
0.005636906733225532   0.03456856006920843   -0.020330061038967298
0.005636906733225532   0.03456856006920843   -0.020330061038967298
0.0266800530372435   -0.01015219819737772   0.05466917551981703
0.0266800530372435   -0.01015219819737772   0.05466917551981703
0.0266800530372435   -0.01015219819737772   0.05466917551981703
0.0266800530372435   -0.01015219819737772   0.05466917551981703
-0.10049905169693163   0.010938790331042093   -0.009268984762772742
-0.10049905169693163   0.010938790331042093   -0.009268984762772742
-0.10049905169693163   0.010938790331042093   -0.009268984762772742
-0.10049905169693163   0.010938790331042093   -0.009268984762772742
-0.042820789249607846   -0.0006852512213512268   0.00730371458488364
-0.042820789249607846   -0.0006852512213512268   0.00730371458488364
-0.042820789249607846   -0.0006852512213512268   0.00730371458488364
-0.042820789249607846   -0.0006852512213512268   0.00730371458488364
-0.09046156727452942   -0.02845242652303301   0.08030965420331349
-0.09046156727452942   -0.02845242652303301   0.08030965420331349
-0.09046156727452942   -0.02845242652303301   0.08030965420331349
-0.09046156727452942   -0.02845242652303301   0.08030965420331349
0.02041985443931229   0.033016304481163286   -0.019800320148410704
0.02041985443931229   0.033016304481163286   -0.019800320148410704
0.02041985443931229   0.033016304481163286   -0.019800320148410704
0.02041985443931229   0.033016304481163286   -0.019800320148410704
0.044116599761427074   -0.015541741757894065   0.05291915515937353
0.044116599761427074   -0.015541741757894065   0.05291915515937353
0.044116599761427074   -0.015541741757894065   0.05291915515937353
0.044116599761427074   -0.015541741757894065   0.05291915515937353
-0.07601734389750213   0.012375618544319417   -0.010581037415733087
-0.07601734389750213   0.012375618544319417   -0.010581037415733087
-0.07601734389750213   0.012375618544319417   -0.010581037415733087
-0.07601734389750213   0.012375618544319417   -0.010581037415733087
-0.020959370213455206   0.00217743372389449   0.01904764986519906
-0.020959370213455206   0.00217743372389449   0.01904764986519906
-0.020959370213455206   0.00217743372389449   0.01904764986519906
-0.020959370213455206   0.00217743372389449   0.01904764986519906
              </DataArray>   
             <DataArray type="Float64" NumberOfComponents="3" Name="Displacements" format="ascii">   
0.0   0.0   0.0
-0.012541908776094316   -0.008209621449383931   -0.004200227132589045
0.0   0.0   0.0
0.0   0.0   0.0
-0.012541908776094316   -0.008209621449383931   -0.004200227132589045
-0.007982801700152144   -0.00737425558276683   -0.0030857086296783446
0.0   0.0   0.0
-0.00782643260840115   -0.007745410955322926   -0.0025847095449206808
0.0   0.0   0.0
0.0   0.0   0.0
-0.00782643260840115   -0.007745410955322926   -0.0025847095449206808
0.0   0.0   0.0
0.0   0.0   0.0
-0.00782643260840115   -0.007745410955322926   -0.0025847095449206808
-0.013127562054236657   -0.00874706995875055   -0.0033715122854223525
-0.012541908776094316   -0.008209621449383931   -0.004200227132589045
0.0   0.0   0.0
-0.00782643260840115   -0.007745410955322926   -0.0025847095449206808
-0.012541908776094316   -0.008209621449383931   -0.004200227132589045
0.0   0.0   0.0
0.0   0.0   0.0
-0.013127562054236657   -0.00874706995875055   -0.0033715122854223525
0.0   0.0   0.0
0.0   0.0   0.0
-0.013127562054236657   -0.00874706995875055   -0.0033715122854223525
-0.00782643260840115   -0.007745410955322926   -0.0025847095449206808
0.0   0.0   0.0
-0.00785013181574258   -0.007935429402695454   -0.0020842466153083153
0.0   0.0   0.0
0.0   0.0   0.0
-0.00785013181574258   -0.007935429402695454   -0.0020842466153083153
0.0   0.0   0.0
0.0   0.0   0.0
-0.00785013181574258   -0.007935429402695454   -0.0020842466153083153
-0.013539607666127038   -0.009008331959570154   -0.0025771224942091244
-0.013127562054236657   -0.00874706995875055   -0.0033715122854223525
0.0   0.0   0.0
-0.00785013181574258   -0.007935429402695454   -0.0020842466153083153
-0.013127562054236657   -0.00874706995875055   -0.0033715122854223525
0.0   0.0   0.0
0.0   0.0   0.0
-0.013539607666127038   -0.009008331959570154   -0.0025771224942091244
0.0   0.0   0.0
0.0   0.0   0.0
-0.013539607666127038   -0.009008331959570154   -0.0025771224942091244
-0.00785013181574258   -0.007935429402695454   -0.0020842466153083153
0.0   0.0   0.0
-0.007847840014902862   -0.007983999959843089   -0.0015665299840369922
0.0   0.0   0.0
0.0   0.0   0.0
-0.007847840014902862   -0.007983999959843089   -0.0015665299840369922
0.0   0.0   0.0
0.0   0.0   0.0
-0.007847840014902862   -0.007983999959843089   -0.0015665299840369922
-0.014425652529631044   -0.009205556076747562   -0.0016552882296245958
-0.013539607666127038   -0.009008331959570154   -0.0025771224942091244
0.0   0.0   0.0
-0.007847840014902862   -0.007983999959843089   -0.0015665299840369922
-0.013539607666127038   -0.009008331959570154   -0.0025771224942091244
0.0   0.0   0.0
0.0   0.0   0.0
-0.007982801700152144   -0.00737425558276683   -0.0030857086296783446
0.0   0.0   0.0
0.0   0.0   0.0
-0.007982801700152144   -0.00737425558276683   -0.0030857086296783446
-0.003633529228394462   -0.007067543581896252   -0.0023463555941319347
0.0   0.0   0.0
-0.003496263019302148   -0.0073093160315292685   -0.0021100347981285444
0.0   0.0   0.0
0.0   0.0   0.0
-0.003496263019302148   -0.0073093160315292685   -0.0021100347981285444
0.0   0.0   0.0
0.0   0.0   0.0
-0.003496263019302148   -0.0073093160315292685   -0.0021100347981285444
-0.00782643260840115   -0.007745410955322926   -0.0025847095449206808
-0.007982801700152144   -0.00737425558276683   -0.0030857086296783446
0.0   0.0   0.0
-0.003496263019302148   -0.0073093160315292685   -0.0021100347981285444
-0.007982801700152144   -0.00737425558276683   -0.0030857086296783446
0.0   0.0   0.0
0.0   0.0   0.0
-0.00782643260840115   -0.007745410955322926   -0.0025847095449206808
0.0   0.0   0.0
0.0   0.0   0.0
-0.00782643260840115   -0.007745410955322926   -0.0025847095449206808
-0.003496263019302148   -0.0073093160315292685   -0.0021100347981285444
0.0   0.0   0.0
-0.003419835282040666   -0.007401404191730626   -0.001879702636057979
0.0   0.0   0.0
0.0   0.0   0.0
-0.003419835282040666   -0.007401404191730626   -0.001879702636057979
0.0   0.0   0.0
0.0   0.0   0.0
-0.003419835282040666   -0.007401404191730626   -0.001879702636057979
-0.00785013181574258   -0.007935429402695454   -0.0020842466153083153
-0.00782643260840115   -0.007745410955322926   -0.0025847095449206808
0.0   0.0   0.0
-0.003419835282040666   -0.007401404191730626   -0.001879702636057979
-0.00782643260840115   -0.007745410955322926   -0.0025847095449206808
0.0   0.0   0.0
0.0   0.0   0.0
-0.00785013181574258   -0.007935429402695454   -0.0020842466153083153
0.0   0.0   0.0
0.0   0.0   0.0
-0.00785013181574258   -0.007935429402695454   -0.0020842466153083153
-0.003419835282040666   -0.007401404191730626   -0.001879702636057979
0.0   0.0   0.0
-0.003350510658728023   -0.007362830894232138   -0.0016413903636668709
0.0   0.0   0.0
0.0   0.0   0.0
-0.003350510658728023   -0.007362830894232138   -0.0016413903636668709
0.0   0.0   0.0
0.0   0.0   0.0
-0.003350510658728023   -0.007362830894232138   -0.0016413903636668709
-0.007847840014902862   -0.007983999959843089   -0.0015665299840369922
-0.00785013181574258   -0.007935429402695454   -0.0020842466153083153
0.0   0.0   0.0
-0.003350510658728023   -0.007362830894232138   -0.0016413903636668709
-0.00785013181574258   -0.007935429402695454   -0.0020842466153083153
0.0   0.0   0.0
0.0   0.0   0.0
-0.003633529228394462   -0.007067543581896252   -0.0023463555941319347
0.0   0.0   0.0
0.0   0.0   0.0
-0.003633529228394462   -0.007067543581896252   -0.0023463555941319347
0.00047710695157960215   -0.007106587527768374   -0.0018747764431200351
0.0   0.0   0.0
0.0005639694100519304   -0.00723211251767862   -0.0019079453911924802
0.0   0.0   0.0
0.0   0.0   0.0
0.0005639694100519304   -0.00723211251767862   -0.0019079453911924802
0.0   0.0   0.0
0.0   0.0   0.0
0.0005639694100519304   -0.00723211251767862   -0.0019079453911924802
-0.003496263019302148   -0.0073093160315292685   -0.0021100347981285444
-0.003633529228394462   -0.007067543581896252   -0.0023463555941319347
0.0   0.0   0.0
0.0005639694100519304   -0.00723211251767862   -0.0019079453911924802
-0.003633529228394462   -0.007067543581896252   -0.0023463555941319347
0.0   0.0   0.0
0.0   0.0   0.0
-0.003496263019302148   -0.0073093160315292685   -0.0021100347981285444
0.0   0.0   0.0
0.0   0.0   0.0
-0.003496263019302148   -0.0073093160315292685   -0.0021100347981285444
0.0005639694100519304   -0.00723211251767862   -0.0019079453911924802
0.0   0.0   0.0
0.0006323116833019201   -0.007221890854302421   -0.0019377490808991015
0.0   0.0   0.0
0.0   0.0   0.0
0.0006323116833019201   -0.007221890854302421   -0.0019377490808991015
0.0   0.0   0.0
0.0   0.0   0.0
0.0006323116833019201   -0.007221890854302421   -0.0019377490808991015
-0.003419835282040666   -0.007401404191730626   -0.001879702636057979
-0.003496263019302148   -0.0073093160315292685   -0.0021100347981285444
0.0   0.0   0.0
0.0006323116833019201   -0.007221890854302421   -0.0019377490808991015
-0.003496263019302148   -0.0073093160315292685   -0.0021100347981285444
0.0   0.0   0.0
0.0   0.0   0.0
-0.003419835282040666   -0.007401404191730626   -0.001879702636057979
0.0   0.0   0.0
0.0   0.0   0.0
-0.003419835282040666   -0.007401404191730626   -0.001879702636057979
0.0006323116833019201   -0.007221890854302421   -0.0019377490808991015
0.0   0.0   0.0
0.000724806724829723   -0.007064758654898991   -0.001968190021213219
0.0   0.0   0.0
0.0   0.0   0.0
0.000724806724829723   -0.007064758654898991   -0.001968190021213219
0.0   0.0   0.0
0.0   0.0   0.0
0.000724806724829723   -0.007064758654898991   -0.001968190021213219
-0.003350510658728023   -0.007362830894232138   -0.0016413903636668709
-0.003419835282040666   -0.007401404191730626   -0.001879702636057979
0.0   0.0   0.0
0.000724806724829723   -0.007064758654898991   -0.001968190021213219
-0.003419835282040666   -0.007401404191730626   -0.001879702636057979
0.0   0.0   0.0
0.0   0.0   0.0
0.00047710695157960215   -0.007106587527768374   -0.0018747764431200351
0.0   0.0   0.0
0.0   0.0   0.0
0.00047710695157960215   -0.007106587527768374   -0.0018747764431200351
0.004937755876191882   -0.007454071381065221   -0.001640990215089391
0.0   0.0   0.0
0.004944416398452041   -0.007494344569973406   -0.0019577079085762146
0.0   0.0   0.0
0.0   0.0   0.0
0.004944416398452041   -0.007494344569973406   -0.0019577079085762146
0.0   0.0   0.0
0.0   0.0   0.0
0.004944416398452041   -0.007494344569973406   -0.0019577079085762146
0.0005639694100519304   -0.00723211251767862   -0.0019079453911924802
0.00047710695157960215   -0.007106587527768374   -0.0018747764431200351
0.0   0.0   0.0
0.004944416398452041   -0.007494344569973406   -0.0019577079085762146
0.00047710695157960215   -0.007106587527768374   -0.0018747764431200351
0.0   0.0   0.0
0.0   0.0   0.0
0.0005639694100519304   -0.00723211251767862   -0.0019079453911924802
0.0   0.0   0.0
0.0   0.0   0.0
0.0005639694100519304   -0.00723211251767862   -0.0019079453911924802
0.004944416398452041   -0.007494344569973406   -0.0019577079085762146
0.0   0.0   0.0
0.004921413515958694   -0.007387312973747267   -0.0022613278737213405
0.0   0.0   0.0
0.0   0.0   0.0
0.004921413515958694   -0.007387312973747267   -0.0022613278737213405
0.0   0.0   0.0
0.0   0.0   0.0
0.004921413515958694   -0.007387312973747267   -0.0022613278737213405
0.0006323116833019201   -0.007221890854302421   -0.0019377490808991015
0.0005639694100519304   -0.00723211251767862   -0.0019079453911924802
0.0   0.0   0.0
0.004921413515958694   -0.007387312973747267   -0.0022613278737213405
0.0005639694100519304   -0.00723211251767862   -0.0019079453911924802
0.0   0.0   0.0
0.0   0.0   0.0
0.0006323116833019201   -0.007221890854302421   -0.0019377490808991015
0.0   0.0   0.0
0.0   0.0   0.0
0.0006323116833019201   -0.007221890854302421   -0.0019377490808991015
0.004921413515958694   -0.007387312973747267   -0.0022613278737213405
0.0   0.0   0.0
0.0050149713053560885   -0.007100023052020435   -0.002558997273594129
0.0   0.0   0.0
0.0   0.0   0.0
0.0050149713053560885   -0.007100023052020435   -0.002558997273594129
0.0   0.0   0.0
0.0   0.0   0.0
0.0050149713053560885   -0.007100023052020435   -0.002558997273594129
0.000724806724829723   -0.007064758654898991   -0.001968190021213219
0.0006323116833019201   -0.007221890854302421   -0.0019377490808991015
0.0   0.0   0.0
0.0050149713053560885   -0.007100023052020435   -0.002558997273594129
0.0006323116833019201   -0.007221890854302421   -0.0019377490808991015
0.0   0.0   0.0
0.0   0.0   0.0
0.004937755876191882   -0.007454071381065221   -0.001640990215089391
0.0   0.0   0.0
0.0   0.0   0.0
0.004937755876191882   -0.007454071381065221   -0.001640990215089391
0.01113648163901551   -0.008334085767954675   -0.001546945750353584
0.0   0.0   0.0
0.010456200191986205   -0.008243768501964666   -0.0022643964979261575
0.0   0.0   0.0
0.0   0.0   0.0
0.010456200191986205   -0.008243768501964666   -0.0022643964979261575
0.0   0.0   0.0
0.0   0.0   0.0
0.010456200191986205   -0.008243768501964666   -0.0022643964979261575
0.004944416398452041   -0.007494344569973406   -0.0019577079085762146
0.004937755876191882   -0.007454071381065221   -0.001640990215089391
0.0   0.0   0.0
0.010456200191986205   -0.008243768501964666   -0.0022643964979261575
0.004937755876191882   -0.007454071381065221   -0.001640990215089391
0.0   0.0   0.0
0.0   0.0   0.0
0.004944416398452041   -0.007494344569973406   -0.0019577079085762146
0.0   0.0   0.0
0.0   0.0   0.0
0.004944416398452041   -0.007494344569973406   -0.0019577079085762146
0.010456200191986205   -0.008243768501964666   -0.0022643964979261575
0.0   0.0   0.0
0.010141670130297297   -0.008072356019421396   -0.002870924459538391
0.0   0.0   0.0
0.0   0.0   0.0
0.010141670130297297   -0.008072356019421396   -0.002870924459538391
0.0   0.0   0.0
0.0   0.0   0.0
0.010141670130297297   -0.008072356019421396   -0.002870924459538391
0.004921413515958694   -0.007387312973747267   -0.0022613278737213405
0.004944416398452041   -0.007494344569973406   -0.0019577079085762146
0.0   0.0   0.0
0.010141670130297297   -0.008072356019421396   -0.002870924459538391
0.004944416398452041   -0.007494344569973406   -0.0019577079085762146
0.0   0.0   0.0
0.0   0.0   0.0
0.004921413515958694   -0.007387312973747267   -0.0022613278737213405
0.0   0.0   0.0
0.0   0.0   0.0
0.004921413515958694   -0.007387312973747267   -0.0022613278737213405
0.010141670130297297   -0.008072356019421396   -0.002870924459538391
0.0   0.0   0.0
0.009674700074629016   -0.007633244558488347   -0.003512390678090751
0.0   0.0   0.0
0.0   0.0   0.0
0.009674700074629016   -0.007633244558488347   -0.003512390678090751
0.0   0.0   0.0
0.0   0.0   0.0
0.009674700074629016   -0.007633244558488347   -0.003512390678090751
0.0050149713053560885   -0.007100023052020435   -0.002558997273594129
0.004921413515958694   -0.007387312973747267   -0.0022613278737213405
0.0   0.0   0.0
0.009674700074629016   -0.007633244558488347   -0.003512390678090751
0.004921413515958694   -0.007387312973747267   -0.0022613278737213405
0.0   0.0   0.0
-0.012541908776094316   -0.008209621449383931   -0.004200227132589045
-0.02343982878401946   -0.022944174742844884   -0.005658117828890654
-0.007982801700152144   -0.00737425558276683   -0.0030857086296783446
-0.013127562054236657   -0.00874706995875055   -0.0033715122854223525
-0.02343982878401946   -0.022944174742844884   -0.005658117828890654
-0.01496138898513559   -0.022192362170404722   -0.004655835487557504
-0.007982801700152144   -0.00737425558276683   -0.0030857086296783446
-0.014981508968310249   -0.0225723885354237   -0.004192086075321029
-0.013127562054236657   -0.00874706995875055   -0.0033715122854223525
-0.00782643260840115   -0.007745410955322926   -0.0025847095449206808
-0.014981508968310249   -0.0225723885354237   -0.004192086075321029
-0.007982801700152144   -0.00737425558276683   -0.0030857086296783446
-0.013127562054236657   -0.00874706995875055   -0.0033715122854223525
-0.014981508968310249   -0.0225723885354237   -0.004192086075321029
-0.024145348244008755   -0.023474204595068833   -0.004904695786799597
-0.02343982878401946   -0.022944174742844884   -0.005658117828890654
-0.013127562054236657   -0.00874706995875055   -0.0033715122854223525
-0.014981508968310249   -0.0225723885354237   -0.004192086075321029
-0.02343982878401946   -0.022944174742844884   -0.005658117828890654
-0.007982801700152144   -0.00737425558276683   -0.0030857086296783446
-0.013127562054236657   -0.00874706995875055   -0.0033715122854223525
-0.024145348244008755   -0.023474204595068833   -0.004904695786799597
-0.00782643260840115   -0.007745410955322926   -0.0025847095449206808
-0.013539607666127038   -0.009008331959570154   -0.0025771224942091244
-0.024145348244008755   -0.023474204595068833   -0.004904695786799597
-0.014981508968310249   -0.0225723885354237   -0.004192086075321029
-0.00782643260840115   -0.007745410955322926   -0.0025847095449206808
-0.015043138929010673   -0.022803832529411348   -0.0037462831055969617
-0.013539607666127038   -0.009008331959570154   -0.0025771224942091244
-0.00785013181574258   -0.007935429402695454   -0.0020842466153083153
-0.015043138929010673   -0.022803832529411348   -0.0037462831055969617
-0.00782643260840115   -0.007745410955322926   -0.0025847095449206808
-0.013539607666127038   -0.009008331959570154   -0.0025771224942091244
-0.015043138929010673   -0.022803832529411348   -0.0037462831055969617
-0.024636569064145294   -0.023773328778793883   -0.0041667476069203145
-0.024145348244008755   -0.023474204595068833   -0.004904695786799597
-0.013539607666127038   -0.009008331959570154   -0.0025771224942091244
-0.015043138929010673   -0.022803832529411348   -0.0037462831055969617
-0.024145348244008755   -0.023474204595068833   -0.004904695786799597
-0.00782643260840115   -0.007745410955322926   -0.0025847095449206808
-0.013539607666127038   -0.009008331959570154   -0.0025771224942091244
-0.024636569064145294   -0.023773328778793883   -0.0041667476069203145
-0.00785013181574258   -0.007935429402695454   -0.0020842466153083153
-0.014425652529631044   -0.009205556076747562   -0.0016552882296245958
-0.024636569064145294   -0.023773328778793883   -0.0041667476069203145
-0.015043138929010673   -0.022803832529411348   -0.0037462831055969617
-0.00785013181574258   -0.007935429402695454   -0.0020842466153083153
-0.0150010461215024   -0.022923565897703353   -0.003328837767731845
-0.014425652529631044   -0.009205556076747562   -0.0016552882296245958
-0.007847840014902862   -0.007983999959843089   -0.0015665299840369922
-0.0150010461215024   -0.022923565897703353   -0.003328837767731845
-0.00785013181574258   -0.007935429402695454   -0.0020842466153083153
-0.014425652529631044   -0.009205556076747562   -0.0016552882296245958
-0.0150010461215024   -0.022923565897703353   -0.003328837767731845
-0.025217284507379225   -0.023946595091884487   -0.0034949998977595416
-0.024636569064145294   -0.023773328778793883   -0.0041667476069203145
-0.014425652529631044   -0.009205556076747562   -0.0016552882296245958
-0.0150010461215024   -0.022923565897703353   -0.003328837767731845
-0.024636569064145294   -0.023773328778793883   -0.0041667476069203145
-0.00785013181574258   -0.007935429402695454   -0.0020842466153083153
-0.007982801700152144   -0.00737425558276683   -0.0030857086296783446
-0.01496138898513559   -0.022192362170404722   -0.004655835487557504
-0.003633529228394462   -0.007067543581896252   -0.0023463555941319347
-0.00782643260840115   -0.007745410955322926   -0.0025847095449206808
-0.01496138898513559   -0.022192362170404722   -0.004655835487557504
-0.006937806973082291   -0.021842550476910635   -0.003971418186573455
-0.003633529228394462   -0.007067543581896252   -0.0023463555941319347
-0.006880450140345068   -0.022084626427370274   -0.003734000578339891
-0.00782643260840115   -0.007745410955322926   -0.0025847095449206808
-0.003496263019302148   -0.0073093160315292685   -0.0021100347981285444
-0.006880450140345068   -0.022084626427370274   -0.003734000578339891
-0.003633529228394462   -0.007067543581896252   -0.0023463555941319347
-0.00782643260840115   -0.007745410955322926   -0.0025847095449206808
-0.006880450140345068   -0.022084626427370274   -0.003734000578339891
-0.014981508968310249   -0.0225723885354237   -0.004192086075321029
-0.01496138898513559   -0.022192362170404722   -0.004655835487557504
-0.00782643260840115   -0.007745410955322926   -0.0025847095449206808
-0.006880450140345068   -0.022084626427370274   -0.003734000578339891
-0.01496138898513559   -0.022192362170404722   -0.004655835487557504
-0.003633529228394462   -0.007067543581896252   -0.0023463555941319347
-0.00782643260840115   -0.007745410955322926   -0.0025847095449206808
-0.014981508968310249   -0.0225723885354237   -0.004192086075321029
-0.003496263019302148   -0.0073093160315292685   -0.0021100347981285444
-0.00785013181574258   -0.007935429402695454   -0.0020842466153083153
-0.014981508968310249   -0.0225723885354237   -0.004192086075321029
-0.006880450140345068   -0.022084626427370274   -0.003734000578339891
-0.003496263019302148   -0.0073093160315292685   -0.0021100347981285444
-0.006829904095593808   -0.022201949926474396   -0.0035186710499430836
-0.00785013181574258   -0.007935429402695454   -0.0020842466153083153
-0.003419835282040666   -0.007401404191730626   -0.001879702636057979
-0.006829904095593808   -0.022201949926474396   -0.0035186710499430836
-0.003496263019302148   -0.0073093160315292685   -0.0021100347981285444
-0.00785013181574258   -0.007935429402695454   -0.0020842466153083153
-0.006829904095593808   -0.022201949926474396   -0.0035186710499430836
-0.015043138929010673   -0.022803832529411348   -0.0037462831055969617
-0.014981508968310249   -0.0225723885354237   -0.004192086075321029
-0.00785013181574258   -0.007935429402695454   -0.0020842466153083153
-0.006829904095593808   -0.022201949926474396   -0.0035186710499430836
-0.014981508968310249   -0.0225723885354237   -0.004192086075321029
-0.003496263019302148   -0.0073093160315292685   -0.0021100347981285444
-0.00785013181574258   -0.007935429402695454   -0.0020842466153083153
-0.015043138929010673   -0.022803832529411348   -0.0037462831055969617
-0.003419835282040666   -0.007401404191730626   -0.001879702636057979
-0.007847840014902862   -0.007983999959843089   -0.0015665299840369922
-0.015043138929010673   -0.022803832529411348   -0.0037462831055969617
-0.006829904095593808   -0.022201949926474396   -0.0035186710499430836
-0.003419835282040666   -0.007401404191730626   -0.001879702636057979
-0.006753308945231944   -0.02219894974860045   -0.00333107592736195
-0.007847840014902862   -0.007983999959843089   -0.0015665299840369922
-0.003350510658728023   -0.007362830894232138   -0.0016413903636668709
-0.006753308945231944   -0.02219894974860045   -0.00333107592736195
-0.003419835282040666   -0.007401404191730626   -0.001879702636057979
-0.007847840014902862   -0.007983999959843089   -0.0015665299840369922
-0.006753308945231944   -0.02219894974860045   -0.00333107592736195
-0.0150010461215024   -0.022923565897703353   -0.003328837767731845
-0.015043138929010673   -0.022803832529411348   -0.0037462831055969617
-0.007847840014902862   -0.007983999959843089   -0.0015665299840369922
-0.006753308945231944   -0.02219894974860045   -0.00333107592736195
-0.015043138929010673   -0.022803832529411348   -0.0037462831055969617
-0.003419835282040666   -0.007401404191730626   -0.001879702636057979
-0.003633529228394462   -0.007067543581896252   -0.0023463555941319347
-0.006937806973082291   -0.021842550476910635   -0.003971418186573455
0.00047710695157960215   -0.007106587527768374   -0.0018747764431200351
-0.003496263019302148   -0.0073093160315292685   -0.0021100347981285444
-0.006937806973082291   -0.021842550476910635   -0.003971418186573455
0.0008009550468760783   -0.021852815854273698   -0.003538202648900635
0.00047710695157960215   -0.007106587527768374   -0.0018747764431200351
0.0008718890710958879   -0.021967820232528506   -0.0035229441922466267
-0.003496263019302148   -0.0073093160315292685   -0.0021100347981285444
0.0005639694100519304   -0.00723211251767862   -0.0019079453911924802
0.0008718890710958879   -0.021967820232528506   -0.0035229441922466267
0.00047710695157960215   -0.007106587527768374   -0.0018747764431200351
-0.003496263019302148   -0.0073093160315292685   -0.0021100347981285444
0.0008718890710958879   -0.021967820232528506   -0.0035229441922466267
-0.006880450140345068   -0.022084626427370274   -0.003734000578339891
-0.006937806973082291   -0.021842550476910635   -0.003971418186573455
-0.003496263019302148   -0.0073093160315292685   -0.0021100347981285444
0.0008718890710958879   -0.021967820232528506   -0.0035229441922466267
-0.006937806973082291   -0.021842550476910635   -0.003971418186573455
0.00047710695157960215   -0.007106587527768374   -0.0018747764431200351
-0.003496263019302148   -0.0073093160315292685   -0.0021100347981285444
-0.006880450140345068   -0.022084626427370274   -0.003734000578339891
0.0005639694100519304   -0.00723211251767862   -0.0019079453911924802
-0.003419835282040666   -0.007401404191730626   -0.001879702636057979
-0.006880450140345068   -0.022084626427370274   -0.003734000578339891
0.0008718890710958879   -0.021967820232528506   -0.0035229441922466267
0.0005639694100519304   -0.00723211251767862   -0.0019079453911924802
0.0009188241211256652   -0.021961005245589322   -0.0035327648644129517
-0.003419835282040666   -0.007401404191730626   -0.001879702636057979
0.0006323116833019201   -0.007221890854302421   -0.0019377490808991015
0.0009188241211256652   -0.021961005245589322   -0.0035327648644129517
0.0005639694100519304   -0.00723211251767862   -0.0019079453911924802
-0.003419835282040666   -0.007401404191730626   -0.001879702636057979
0.0009188241211256652   -0.021961005245589322   -0.0035327648644129517
-0.006829904095593808   -0.022201949926474396   -0.0035186710499430836
-0.006880450140345068   -0.022084626427370274   -0.003734000578339891
-0.003419835282040666   -0.007401404191730626   -0.001879702636057979
0.0009188241211256652   -0.021961005245589322   -0.0035327648644129517
-0.006880450140345068   -0.022084626427370274   -0.003734000578339891
0.0005639694100519304   -0.00723211251767862   -0.0019079453911924802
-0.003419835282040666   -0.007401404191730626   -0.001879702636057979
-0.006829904095593808   -0.022201949926474396   -0.0035186710499430836
0.0006323116833019201   -0.007221890854302421   -0.0019377490808991015
-0.003350510658728023   -0.007362830894232138   -0.0016413903636668709
-0.006829904095593808   -0.022201949926474396   -0.0035186710499430836
0.0009188241211256652   -0.021961005245589322   -0.0035327648644129517
0.0006323116833019201   -0.007221890854302421   -0.0019377490808991015
0.0009693645887216479   -0.02182864134887154   -0.0035680643694383555
-0.003350510658728023   -0.007362830894232138   -0.0016413903636668709
0.000724806724829723   -0.007064758654898991   -0.001968190021213219
0.0009693645887216479   -0.02182864134887154   -0.0035680643694383555
0.0006323116833019201   -0.007221890854302421   -0.0019377490808991015
-0.003350510658728023   -0.007362830894232138   -0.0016413903636668709
0.0009693645887216479   -0.02182864134887154   -0.0035680643694383555
-0.006753308945231944   -0.02219894974860045   -0.00333107592736195
-0.006829904095593808   -0.022201949926474396   -0.0035186710499430836
-0.003350510658728023   -0.007362830894232138   -0.0016413903636668709
0.0009693645887216479   -0.02182864134887154   -0.0035680643694383555
-0.006829904095593808   -0.022201949926474396   -0.0035186710499430836
0.0006323116833019201   -0.007221890854302421   -0.0019377490808991015
0.00047710695157960215   -0.007106587527768374   -0.0018747764431200351
0.0008009550468760783   -0.021852815854273698   -0.003538202648900635
0.004937755876191882   -0.007454071381065221   -0.001640990215089391
0.0005639694100519304   -0.00723211251767862   -0.0019079453911924802
0.0008009550468760783   -0.021852815854273698   -0.003538202648900635
0.009000489304660008   -0.022210112256384067   -0.0033353221157866836
0.004937755876191882   -0.007454071381065221   -0.001640990215089391
0.009039242728767298   -0.022209764434469564   -0.0035494444394853133
0.0005639694100519304   -0.00723211251767862   -0.0019079453911924802
0.004944416398452041   -0.007494344569973406   -0.0019577079085762146
0.009039242728767298   -0.022209764434469564   -0.0035494444394853133
0.004937755876191882   -0.007454071381065221   -0.001640990215089391
0.0005639694100519304   -0.00723211251767862   -0.0019079453911924802
0.009039242728767298   -0.022209764434469564   -0.0035494444394853133
0.0008718890710958879   -0.021967820232528506   -0.0035229441922466267
0.0008009550468760783   -0.021852815854273698   -0.003538202648900635
0.0005639694100519304   -0.00723211251767862   -0.0019079453911924802
0.009039242728767298   -0.022209764434469564   -0.0035494444394853133
0.0008009550468760783   -0.021852815854273698   -0.003538202648900635
0.004937755876191882   -0.007454071381065221   -0.001640990215089391
0.0005639694100519304   -0.00723211251767862   -0.0019079453911924802
0.0008718890710958879   -0.021967820232528506   -0.0035229441922466267
0.004944416398452041   -0.007494344569973406   -0.0019577079085762146
0.0006323116833019201   -0.007221890854302421   -0.0019377490808991015
0.0008718890710958879   -0.021967820232528506   -0.0035229441922466267
0.009039242728767298   -0.022209764434469564   -0.0035494444394853133
0.004944416398452041   -0.007494344569973406   -0.0019577079085762146
0.00899472802450011   -0.02208989069331102   -0.003791943130697742
0.0006323116833019201   -0.007221890854302421   -0.0019377490808991015
0.004921413515958694   -0.007387312973747267   -0.0022613278737213405
0.00899472802450011   -0.02208989069331102   -0.003791943130697742
0.004944416398452041   -0.007494344569973406   -0.0019577079085762146
0.0006323116833019201   -0.007221890854302421   -0.0019377490808991015
0.00899472802450011   -0.02208989069331102   -0.003791943130697742
0.0009188241211256652   -0.021961005245589322   -0.0035327648644129517
0.0008718890710958879   -0.021967820232528506   -0.0035229441922466267
0.0006323116833019201   -0.007221890854302421   -0.0019377490808991015
0.00899472802450011   -0.02208989069331102   -0.003791943130697742
0.0008718890710958879   -0.021967820232528506   -0.0035229441922466267
0.004944416398452041   -0.007494344569973406   -0.0019577079085762146
0.0006323116833019201   -0.007221890854302421   -0.0019377490808991015
0.0009188241211256652   -0.021961005245589322   -0.0035327648644129517
0.004921413515958694   -0.007387312973747267   -0.0022613278737213405
0.000724806724829723   -0.007064758654898991   -0.001968190021213219
0.0009188241211256652   -0.021961005245589322   -0.0035327648644129517
0.00899472802450011   -0.02208989069331102   -0.003791943130697742
0.004921413515958694   -0.007387312973747267   -0.0022613278737213405
0.008968222860276142   -0.02181760515420711   -0.004053855524953452
0.000724806724829723   -0.007064758654898991   -0.001968190021213219
0.0050149713053560885   -0.007100023052020435   -0.002558997273594129
0.008968222860276142   -0.02181760515420711   -0.004053855524953452
0.004921413515958694   -0.007387312973747267   -0.0022613278737213405
0.000724806724829723   -0.007064758654898991   -0.001968190021213219
0.008968222860276142   -0.02181760515420711   -0.004053855524953452
0.0009693645887216479   -0.02182864134887154   -0.0035680643694383555
0.0009188241211256652   -0.021961005245589322   -0.0035327648644129517
0.000724806724829723   -0.007064758654898991   -0.001968190021213219
0.008968222860276142   -0.02181760515420711   -0.004053855524953452
0.0009188241211256652   -0.021961005245589322   -0.0035327648644129517
0.004921413515958694   -0.007387312973747267   -0.0022613278737213405
0.004937755876191882   -0.007454071381065221   -0.001640990215089391
0.009000489304660008   -0.022210112256384067   -0.0033353221157866836
0.01113648163901551   -0.008334085767954675   -0.001546945750353584
0.004944416398452041   -0.007494344569973406   -0.0019577079085762146
0.009000489304660008   -0.022210112256384067   -0.0033353221157866836
0.018891430310797878   -0.02287472263979208   -0.0032792080120501005
0.01113648163901551   -0.008334085767954675   -0.001546945750353584
0.018503078772776054   -0.02281321334810341   -0.003760561483055854
0.004944416398452041   -0.007494344569973406   -0.0019577079085762146
0.010456200191986205   -0.008243768501964666   -0.0022643964979261575
0.018503078772776054   -0.02281321334810341   -0.003760561483055854
0.01113648163901551   -0.008334085767954675   -0.001546945750353584
0.004944416398452041   -0.007494344569973406   -0.0019577079085762146
0.018503078772776054   -0.02281321334810341   -0.003760561483055854
0.009039242728767298   -0.022209764434469564   -0.0035494444394853133
0.009000489304660008   -0.022210112256384067   -0.0033353221157866836
0.004944416398452041   -0.007494344569973406   -0.0019577079085762146
0.018503078772776054   -0.02281321334810341   -0.003760561483055854
0.009000489304660008   -0.022210112256384067   -0.0033353221157866836
0.01113648163901551   -0.008334085767954675   -0.001546945750353584
0.004944416398452041   -0.007494344569973406   -0.0019577079085762146
0.009039242728767298   -0.022209764434469564   -0.0035494444394853133
0.010456200191986205   -0.008243768501964666   -0.0022643964979261575
0.004921413515958694   -0.007387312973747267   -0.0022613278737213405
0.009039242728767298   -0.022209764434469564   -0.0035494444394853133
0.018503078772776054   -0.02281321334810341   -0.003760561483055854
0.010456200191986205   -0.008243768501964666   -0.0022643964979261575
0.0181563581675932   -0.022628263053810285   -0.00430165293009788
0.004921413515958694   -0.007387312973747267   -0.0022613278737213405
0.010141670130297297   -0.008072356019421396   -0.002870924459538391
0.0181563581675932   -0.022628263053810285   -0.00430165293009788
0.010456200191986205   -0.008243768501964666   -0.0022643964979261575
0.004921413515958694   -0.007387312973747267   -0.0022613278737213405
0.0181563581675932   -0.022628263053810285   -0.00430165293009788
0.00899472802450011   -0.02208989069331102   -0.003791943130697742
0.009039242728767298   -0.022209764434469564   -0.0035494444394853133
0.004921413515958694   -0.007387312973747267   -0.0022613278737213405
0.0181563581675932   -0.022628263053810285   -0.00430165293009788
0.009039242728767298   -0.022209764434469564   -0.0035494444394853133
0.010456200191986205   -0.008243768501964666   -0.0022643964979261575
0.004921413515958694   -0.007387312973747267   -0.0022613278737213405
0.00899472802450011   -0.02208989069331102   -0.003791943130697742
0.010141670130297297   -0.008072356019421396   -0.002870924459538391
0.0050149713053560885   -0.007100023052020435   -0.002558997273594129
0.00899472802450011   -0.02208989069331102   -0.003791943130697742
0.0181563581675932   -0.022628263053810285   -0.00430165293009788
0.010141670130297297   -0.008072356019421396   -0.002870924459538391
0.017638516535025666   -0.02221588834487503   -0.0048646531149151755
0.0050149713053560885   -0.007100023052020435   -0.002558997273594129
0.009674700074629016   -0.007633244558488347   -0.003512390678090751
0.017638516535025666   -0.02221588834487503   -0.0048646531149151755
0.010141670130297297   -0.008072356019421396   -0.002870924459538391
0.0050149713053560885   -0.007100023052020435   -0.002558997273594129
0.017638516535025666   -0.02221588834487503   -0.0048646531149151755
0.008968222860276142   -0.02181760515420711   -0.004053855524953452
0.00899472802450011   -0.02208989069331102   -0.003791943130697742
0.0050149713053560885   -0.007100023052020435   -0.002558997273594129
0.017638516535025666   -0.02221588834487503   -0.0048646531149151755
0.00899472802450011   -0.02208989069331102   -0.003791943130697742
0.010141670130297297   -0.008072356019421396   -0.002870924459538391
-0.02343982878401946   -0.022944174742844884   -0.005658117828890654
-0.03213419663229151   -0.04306620311826534   -0.006442526938477088
-0.01496138898513559   -0.022192362170404722   -0.004655835487557504
-0.024145348244008755   -0.023474204595068833   -0.004904695786799597
-0.03213419663229151   -0.04306620311826534   -0.006442526938477088
-0.0206581567886162   -0.0424910570805527   -0.005628542001513391
-0.01496138898513559   -0.022192362170404722   -0.004655835487557504
-0.02070638605569192   -0.042819450774656986   -0.005268380878084385
-0.024145348244008755   -0.023474204595068833   -0.004904695786799597
-0.014981508968310249   -0.0225723885354237   -0.004192086075321029
-0.02070638605569192   -0.042819450774656986   -0.005268380878084385
-0.01496138898513559   -0.022192362170404722   -0.004655835487557504
-0.024145348244008755   -0.023474204595068833   -0.004904695786799597
-0.02070638605569192   -0.042819450774656986   -0.005268380878084385
-0.032709638694744414   -0.04351484147233436   -0.005879821665190249
-0.03213419663229151   -0.04306620311826534   -0.006442526938477088
-0.024145348244008755   -0.023474204595068833   -0.004904695786799597
-0.02070638605569192   -0.042819450774656986   -0.005268380878084385
-0.03213419663229151   -0.04306620311826534   -0.006442526938477088
-0.01496138898513559   -0.022192362170404722   -0.004655835487557504
-0.024145348244008755   -0.023474204595068833   -0.004904695786799597
-0.032709638694744414   -0.04351484147233436   -0.005879821665190249
-0.014981508968310249   -0.0225723885354237   -0.004192086075321029
-0.024636569064145294   -0.023773328778793883   -0.0041667476069203145
-0.032709638694744414   -0.04351484147233436   -0.005879821665190249
-0.02070638605569192   -0.042819450774656986   -0.005268380878084385
-0.014981508968310249   -0.0225723885354237   -0.004192086075321029
-0.020762821878668163   -0.04304776209215203   -0.004934178968513919
-0.024636569064145294   -0.023773328778793883   -0.0041667476069203145
-0.015043138929010673   -0.022803832529411348   -0.0037462831055969617
-0.020762821878668163   -0.04304776209215203   -0.004934178968513919
-0.014981508968310249   -0.0225723885354237   -0.004192086075321029
-0.024636569064145294   -0.023773328778793883   -0.0041667476069203145
-0.020762821878668163   -0.04304776209215203   -0.004934178968513919
-0.03307375094442694   -0.0437959189384728   -0.005355179190481742
-0.032709638694744414   -0.04351484147233436   -0.005879821665190249
-0.024636569064145294   -0.023773328778793883   -0.0041667476069203145
-0.020762821878668163   -0.04304776209215203   -0.004934178968513919
-0.032709638694744414   -0.04351484147233436   -0.005879821665190249
-0.014981508968310249   -0.0225723885354237   -0.004192086075321029
-0.024636569064145294   -0.023773328778793883   -0.0041667476069203145
-0.03307375094442694   -0.0437959189384728   -0.005355179190481742
-0.015043138929010673   -0.022803832529411348   -0.0037462831055969617
-0.025217284507379225   -0.023946595091884487   -0.0034949998977595416
-0.03307375094442694   -0.0437959189384728   -0.005355179190481742
-0.020762821878668163   -0.04304776209215203   -0.004934178968513919
-0.015043138929010673   -0.022803832529411348   -0.0037462831055969617
-0.0207270051898872   -0.04319762995553482   -0.004620412942471815
-0.025217284507379225   -0.023946595091884487   -0.0034949998977595416
-0.0150010461215024   -0.022923565897703353   -0.003328837767731845
-0.0207270051898872   -0.04319762995553482   -0.004620412942471815
-0.015043138929010673   -0.022803832529411348   -0.0037462831055969617
-0.025217284507379225   -0.023946595091884487   -0.0034949998977595416
-0.0207270051898872   -0.04319762995553482   -0.004620412942471815
-0.0334880392159819   -0.04399751348378416   -0.004872156441566316
-0.03307375094442694   -0.0437959189384728   -0.005355179190481742
-0.025217284507379225   -0.023946595091884487   -0.0034949998977595416
-0.0207270051898872   -0.04319762995553482   -0.004620412942471815
-0.03307375094442694   -0.0437959189384728   -0.005355179190481742
-0.015043138929010673   -0.022803832529411348   -0.0037462831055969617
-0.01496138898513559   -0.022192362170404722   -0.004655835487557504
-0.0206581567886162   -0.0424910570805527   -0.005628542001513391
-0.006937806973082291   -0.021842550476910635   -0.003971418186573455
-0.014981508968310249   -0.0225723885354237   -0.004192086075321029
-0.0206581567886162   -0.0424910570805527   -0.005628542001513391
-0.009833796037997014   -0.04220453043753971   -0.005062899647777397
-0.006937806973082291   -0.021842550476910635   -0.003971418186573455
-0.009812089969840237   -0.042414719613390627   -0.004859629422952921
-0.014981508968310249   -0.0225723885354237   -0.004192086075321029
-0.006880450140345068   -0.022084626427370274   -0.003734000578339891
-0.009812089969840237   -0.042414719613390627   -0.004859629422952921
-0.006937806973082291   -0.021842550476910635   -0.003971418186573455
-0.014981508968310249   -0.0225723885354237   -0.004192086075321029
-0.009812089969840237   -0.042414719613390627   -0.004859629422952921
-0.02070638605569192   -0.042819450774656986   -0.005268380878084385
-0.0206581567886162   -0.0424910570805527   -0.005628542001513391
-0.014981508968310249   -0.0225723885354237   -0.004192086075321029
-0.009812089969840237   -0.042414719613390627   -0.004859629422952921
-0.0206581567886162   -0.0424910570805527   -0.005628542001513391
-0.006937806973082291   -0.021842550476910635   -0.003971418186573455
-0.014981508968310249   -0.0225723885354237   -0.004192086075321029
-0.02070638605569192   -0.042819450774656986   -0.005268380878084385
-0.006880450140345068   -0.022084626427370274   -0.003734000578339891
-0.015043138929010673   -0.022803832529411348   -0.0037462831055969617
-0.02070638605569192   -0.042819450774656986   -0.005268380878084385
-0.009812089969840237   -0.042414719613390627   -0.004859629422952921
-0.006880450140345068   -0.022084626427370274   -0.003734000578339891
-0.009784827182295746   -0.0425380972920298   -0.00468109614426562
-0.015043138929010673   -0.022803832529411348   -0.0037462831055969617
-0.006829904095593808   -0.022201949926474396   -0.0035186710499430836
-0.009784827182295746   -0.0425380972920298   -0.00468109614426562
-0.006880450140345068   -0.022084626427370274   -0.003734000578339891
-0.015043138929010673   -0.022803832529411348   -0.0037462831055969617
-0.009784827182295746   -0.0425380972920298   -0.00468109614426562
-0.020762821878668163   -0.04304776209215203   -0.004934178968513919
-0.02070638605569192   -0.042819450774656986   -0.005268380878084385
-0.015043138929010673   -0.022803832529411348   -0.0037462831055969617
-0.009784827182295746   -0.0425380972920298   -0.00468109614426562
-0.02070638605569192   -0.042819450774656986   -0.005268380878084385
-0.006880450140345068   -0.022084626427370274   -0.003734000578339891
-0.015043138929010673   -0.022803832529411348   -0.0037462831055969617
-0.020762821878668163   -0.04304776209215203   -0.004934178968513919
-0.006829904095593808   -0.022201949926474396   -0.0035186710499430836
-0.0150010461215024   -0.022923565897703353   -0.003328837767731845
-0.020762821878668163   -0.04304776209215203   -0.004934178968513919
-0.009784827182295746   -0.0425380972920298   -0.00468109614426562
-0.006829904095593808   -0.022201949926474396   -0.0035186710499430836
-0.009738183396605399   -0.04257642788953514   -0.004527217845446744
-0.0150010461215024   -0.022923565897703353   -0.003328837767731845
-0.006753308945231944   -0.02219894974860045   -0.00333107592736195
-0.009738183396605399   -0.04257642788953514   -0.004527217845446744
-0.006829904095593808   -0.022201949926474396   -0.0035186710499430836
-0.0150010461215024   -0.022923565897703353   -0.003328837767731845
-0.009738183396605399   -0.04257642788953514   -0.004527217845446744
-0.0207270051898872   -0.04319762995553482   -0.004620412942471815
-0.020762821878668163   -0.04304776209215203   -0.004934178968513919
-0.0150010461215024   -0.022923565897703353   -0.003328837767731845
-0.009738183396605399   -0.04257642788953514   -0.004527217845446744
-0.020762821878668163   -0.04304776209215203   -0.004934178968513919
-0.006829904095593808   -0.022201949926474396   -0.0035186710499430836
-0.006937806973082291   -0.021842550476910635   -0.003971418186573455
-0.009833796037997014   -0.04220453043753971   -0.005062899647777397
0.0008009550468760783   -0.021852815854273698   -0.003538202648900635
-0.006880450140345068   -0.022084626427370274   -0.003734000578339891
-0.009833796037997014   -0.04220453043753971   -0.005062899647777397
0.0006739019471065985   -0.04218932650464205   -0.004711664103198247
0.0008009550468760783   -0.021852815854273698   -0.003538202648900635
0.000716170718520519   -0.04228323480207264   -0.004664425745744412
-0.006880450140345068   -0.022084626427370274   -0.003734000578339891
0.0008718890710958879   -0.021967820232528506   -0.0035229441922466267
0.000716170718520519   -0.04228323480207264   -0.004664425745744412
0.0008009550468760783   -0.021852815854273698   -0.003538202648900635
-0.006880450140345068   -0.022084626427370274   -0.003734000578339891
0.000716170718520519   -0.04228323480207264   -0.004664425745744412
-0.009812089969840237   -0.042414719613390627   -0.004859629422952921
-0.009833796037997014   -0.04220453043753971   -0.005062899647777397
-0.006880450140345068   -0.022084626427370274   -0.003734000578339891
0.000716170718520519   -0.04228323480207264   -0.004664425745744412
-0.009833796037997014   -0.04220453043753971   -0.005062899647777397
0.0008009550468760783   -0.021852815854273698   -0.003538202648900635
-0.006880450140345068   -0.022084626427370274   -0.003734000578339891
-0.009812089969840237   -0.042414719613390627   -0.004859629422952921
0.0008718890710958879   -0.021967820232528506   -0.0035229441922466267
-0.006829904095593808   -0.022201949926474396   -0.0035186710499430836
-0.009812089969840237   -0.042414719613390627   -0.004859629422952921
0.000716170718520519   -0.04228323480207264   -0.004664425745744412
0.0008718890710958879   -0.021967820232528506   -0.0035229441922466267
0.0007422267603033146   -0.04229068575766031   -0.004641268428439039
-0.006829904095593808   -0.022201949926474396   -0.0035186710499430836
0.0009188241211256652   -0.021961005245589322   -0.0035327648644129517
0.0007422267603033146   -0.04229068575766031   -0.004641268428439039
0.0008718890710958879   -0.021967820232528506   -0.0035229441922466267
-0.006829904095593808   -0.022201949926474396   -0.0035186710499430836
0.0007422267603033146   -0.04229068575766031   -0.004641268428439039
-0.009784827182295746   -0.0425380972920298   -0.00468109614426562
-0.009812089969840237   -0.042414719613390627   -0.004859629422952921
-0.006829904095593808   -0.022201949926474396   -0.0035186710499430836
0.0007422267603033146   -0.04229068575766031   -0.004641268428439039
-0.009812089969840237   -0.042414719613390627   -0.004859629422952921
0.0008718890710958879   -0.021967820232528506   -0.0035229441922466267
-0.006829904095593808   -0.022201949926474396   -0.0035186710499430836
-0.009784827182295746   -0.0425380972920298   -0.00468109614426562
0.0009188241211256652   -0.021961005245589322   -0.0035327648644129517
-0.006753308945231944   -0.02219894974860045   -0.00333107592736195
-0.009784827182295746   -0.0425380972920298   -0.00468109614426562
0.0007422267603033146   -0.04229068575766031   -0.004641268428439039
0.0009188241211256652   -0.021961005245589322   -0.0035327648644129517
0.0007602338656296369   -0.04221038649691239   -0.004643666496563259
-0.006753308945231944   -0.02219894974860045   -0.00333107592736195
0.0009693645887216479   -0.02182864134887154   -0.0035680643694383555
0.0007602338656296369   -0.04221038649691239   -0.004643666496563259
0.0009188241211256652   -0.021961005245589322   -0.0035327648644129517
-0.006753308945231944   -0.02219894974860045   -0.00333107592736195
0.0007602338656296369   -0.04221038649691239   -0.004643666496563259
-0.009738183396605399   -0.04257642788953514   -0.004527217845446744
-0.009784827182295746   -0.0425380972920298   -0.00468109614426562
-0.006753308945231944   -0.02219894974860045   -0.00333107592736195
0.0007602338656296369   -0.04221038649691239   -0.004643666496563259
-0.009784827182295746   -0.0425380972920298   -0.00468109614426562
0.0009188241211256652   -0.021961005245589322   -0.0035327648644129517
0.0008009550468760783   -0.021852815854273698   -0.003538202648900635
0.0006739019471065985   -0.04218932650464205   -0.004711664103198247
0.009000489304660008   -0.022210112256384067   -0.0033353221157866836
0.0008718890710958879   -0.021967820232528506   -0.0035229441922466267
0.0006739019471065985   -0.04218932650464205   -0.004711664103198247
0.011629256979078129   -0.042429343190252974   -0.004568750604639983
0.009000489304660008   -0.022210112256384067   -0.0033353221157866836
0.011665519106506775   -0.042416769783200914   -0.004680807663742817
0.0008718890710958879   -0.021967820232528506   -0.0035229441922466267
0.009039242728767298   -0.022209764434469564   -0.0035494444394853133
0.011665519106506775   -0.042416769783200914   -0.004680807663742817
0.009000489304660008   -0.022210112256384067   -0.0033353221157866836
0.0008718890710958879   -0.021967820232528506   -0.0035229441922466267
0.011665519106506775   -0.042416769783200914   -0.004680807663742817
0.000716170718520519   -0.04228323480207264   -0.004664425745744412
0.0006739019471065985   -0.04218932650464205   -0.004711664103198247
0.0008718890710958879   -0.021967820232528506   -0.0035229441922466267
0.011665519106506775   -0.042416769783200914   -0.004680807663742817
0.0006739019471065985   -0.04218932650464205   -0.004711664103198247
0.009000489304660008   -0.022210112256384067   -0.0033353221157866836
0.0008718890710958879   -0.021967820232528506   -0.0035229441922466267
0.000716170718520519   -0.04228323480207264   -0.004664425745744412
0.009039242728767298   -0.022209764434469564   -0.0035494444394853133
0.0009188241211256652   -0.021961005245589322   -0.0035327648644129517
0.000716170718520519   -0.04228323480207264   -0.004664425745744412
0.011665519106506775   -0.042416769783200914   -0.004680807663742817
0.009039242728767298   -0.022209764434469564   -0.0035494444394853133
0.011632724669032972   -0.042319499687721904   -0.004815176259074543
0.0009188241211256652   -0.021961005245589322   -0.0035327648644129517
0.00899472802450011   -0.02208989069331102   -0.003791943130697742
0.011632724669032972   -0.042319499687721904   -0.004815176259074543
0.009039242728767298   -0.022209764434469564   -0.0035494444394853133
0.0009188241211256652   -0.021961005245589322   -0.0035327648644129517
0.011632724669032972   -0.042319499687721904   -0.004815176259074543
0.0007422267603033146   -0.04229068575766031   -0.004641268428439039
0.000716170718520519   -0.04228323480207264   -0.004664425745744412
0.0009188241211256652   -0.021961005245589322   -0.0035327648644129517
0.011632724669032972   -0.042319499687721904   -0.004815176259074543
0.000716170718520519   -0.04228323480207264   -0.004664425745744412
0.009039242728767298   -0.022209764434469564   -0.0035494444394853133
0.0009188241211256652   -0.021961005245589322   -0.0035327648644129517
0.0007422267603033146   -0.04229068575766031   -0.004641268428439039
0.00899472802450011   -0.02208989069331102   -0.003791943130697742
0.0009693645887216479   -0.02182864134887154   -0.0035680643694383555
0.0007422267603033146   -0.04229068575766031   -0.004641268428439039
0.011632724669032972   -0.042319499687721904   -0.004815176259074543
0.00899472802450011   -0.02208989069331102   -0.003791943130697742
0.011585424629195486   -0.04211666437709974   -0.004974491067269459
0.0009693645887216479   -0.02182864134887154   -0.0035680643694383555
0.008968222860276142   -0.02181760515420711   -0.004053855524953452
0.011585424629195486   -0.04211666437709974   -0.004974491067269459
0.00899472802450011   -0.02208989069331102   -0.003791943130697742
0.0009693645887216479   -0.02182864134887154   -0.0035680643694383555
0.011585424629195486   -0.04211666437709974   -0.004974491067269459
0.0007602338656296369   -0.04221038649691239   -0.004643666496563259
0.0007422267603033146   -0.04229068575766031   -0.004641268428439039
0.0009693645887216479   -0.02182864134887154   -0.0035680643694383555
0.011585424629195486   -0.04211666437709974   -0.004974491067269459
0.0007422267603033146   -0.04229068575766031   -0.004641268428439039
0.00899472802450011   -0.02208989069331102   -0.003791943130697742
0.009000489304660008   -0.022210112256384067   -0.0033353221157866836
0.011629256979078129   -0.042429343190252974   -0.004568750604639983
0.018891430310797878   -0.02287472263979208   -0.0032792080120501005
0.009039242728767298   -0.022209764434469564   -0.0035494444394853133
0.011629256979078129   -0.042429343190252974   -0.004568750604639983
0.024104081092079167   -0.04286531595361477   -0.004569428511791846
0.018891430310797878   -0.02287472263979208   -0.0032792080120501005
0.02388973546333776   -0.042791545024854875   -0.004861588126595165
0.009039242728767298   -0.022209764434469564   -0.0035494444394853133
0.018503078772776054   -0.02281321334810341   -0.003760561483055854
0.02388973546333776   -0.042791545024854875   -0.004861588126595165
0.018891430310797878   -0.02287472263979208   -0.0032792080120501005
0.009039242728767298   -0.022209764434469564   -0.0035494444394853133
0.02388973546333776   -0.042791545024854875   -0.004861588126595165
0.011665519106506775   -0.042416769783200914   -0.004680807663742817
0.011629256979078129   -0.042429343190252974   -0.004568750604639983
0.009039242728767298   -0.022209764434469564   -0.0035494444394853133
0.02388973546333776   -0.042791545024854875   -0.004861588126595165
0.011629256979078129   -0.042429343190252974   -0.004568750604639983
0.018891430310797878   -0.02287472263979208   -0.0032792080120501005
0.009039242728767298   -0.022209764434469564   -0.0035494444394853133
0.011665519106506775   -0.042416769783200914   -0.004680807663742817
0.018503078772776054   -0.02281321334810341   -0.003760561483055854
0.00899472802450011   -0.02208989069331102   -0.003791943130697742
0.011665519106506775   -0.042416769783200914   -0.004680807663742817
0.02388973546333776   -0.042791545024854875   -0.004861588126595165
0.018503078772776054   -0.02281321334810341   -0.003760561483055854
0.02367642848088968   -0.04264160262046658   -0.005193978607948964
0.00899472802450011   -0.02208989069331102   -0.003791943130697742
0.0181563581675932   -0.022628263053810285   -0.00430165293009788
0.02367642848088968   -0.04264160262046658   -0.005193978607948964
0.018503078772776054   -0.02281321334810341   -0.003760561483055854
0.00899472802450011   -0.02208989069331102   -0.003791943130697742
0.02367642848088968   -0.04264160262046658   -0.005193978607948964
0.011632724669032972   -0.042319499687721904   -0.004815176259074543
0.011665519106506775   -0.042416769783200914   -0.004680807663742817
0.00899472802450011   -0.02208989069331102   -0.003791943130697742
0.02367642848088968   -0.04264160262046658   -0.005193978607948964
0.011665519106506775   -0.042416769783200914   -0.004680807663742817
0.018503078772776054   -0.02281321334810341   -0.003760561483055854
0.00899472802450011   -0.02208989069331102   -0.003791943130697742
0.011632724669032972   -0.042319499687721904   -0.004815176259074543
0.0181563581675932   -0.022628263053810285   -0.00430165293009788
0.008968222860276142   -0.02181760515420711   -0.004053855524953452
0.011632724669032972   -0.042319499687721904   -0.004815176259074543
0.02367642848088968   -0.04264160262046658   -0.005193978607948964
0.0181563581675932   -0.022628263053810285   -0.00430165293009788
0.023300476572793438   -0.042326100937283985   -0.005566641633914263
0.008968222860276142   -0.02181760515420711   -0.004053855524953452
0.017638516535025666   -0.02221588834487503   -0.0048646531149151755
0.023300476572793438   -0.042326100937283985   -0.005566641633914263
0.0181563581675932   -0.022628263053810285   -0.00430165293009788
0.008968222860276142   -0.02181760515420711   -0.004053855524953452
0.023300476572793438   -0.042326100937283985   -0.005566641633914263
0.011585424629195486   -0.04211666437709974   -0.004974491067269459
0.011632724669032972   -0.042319499687721904   -0.004815176259074543
0.008968222860276142   -0.02181760515420711   -0.004053855524953452
0.023300476572793438   -0.042326100937283985   -0.005566641633914263
0.011632724669032972   -0.042319499687721904   -0.004815176259074543
0.0181563581675932   -0.022628263053810285   -0.00430165293009788
-0.03213419663229151   -0.04306620311826534   -0.006442526938477088
-0.0383931323257933   -0.06694754845404324   -0.006867995254764139
-0.0206581567886162   -0.0424910570805527   -0.005628542001513391
-0.032709638694744414   -0.04351484147233436   -0.005879821665190249
-0.0383931323257933   -0.06694754845404324   -0.006867995254764139
-0.024915594084905263   -0.06658104468657249   -0.00620338117814094
-0.0206581567886162   -0.0424910570805527   -0.005628542001513391
-0.024948409797941502   -0.06686390505514406   -0.005945304260491866
-0.032709638694744414   -0.04351484147233436   -0.005879821665190249
-0.02070638605569192   -0.042819450774656986   -0.005268380878084385
-0.024948409797941502   -0.06686390505514406   -0.005945304260491866
-0.0206581567886162   -0.0424910570805527   -0.005628542001513391
-0.032709638694744414   -0.04351484147233436   -0.005879821665190249
-0.024948409797941502   -0.06686390505514406   -0.005945304260491866
-0.038782386171811366   -0.06733008274306528   -0.006493661733740006
-0.0383931323257933   -0.06694754845404324   -0.006867995254764139
-0.032709638694744414   -0.04351484147233436   -0.005879821665190249
-0.024948409797941502   -0.06686390505514406   -0.005945304260491866
-0.0383931323257933   -0.06694754845404324   -0.006867995254764139
-0.0206581567886162   -0.0424910570805527   -0.005628542001513391
-0.032709638694744414   -0.04351484147233436   -0.005879821665190249
-0.038782386171811366   -0.06733008274306528   -0.006493661733740006
-0.02070638605569192   -0.042819450774656986   -0.005268380878084385
-0.03307375094442694   -0.0437959189384728   -0.005355179190481742
-0.038782386171811366   -0.06733008274306528   -0.006493661733740006
-0.024948409797941502   -0.06686390505514406   -0.005945304260491866
-0.02070638605569192   -0.042819450774656986   -0.005268380878084385
-0.02497273166224751   -0.06708792262875415   -0.00571289512103751
-0.03307375094442694   -0.0437959189384728   -0.005355179190481742
-0.020762821878668163   -0.04304776209215203   -0.004934178968513919
-0.02497273166224751   -0.06708792262875415   -0.00571289512103751
-0.02070638605569192   -0.042819450774656986   -0.005268380878084385
-0.03307375094442694   -0.0437959189384728   -0.005355179190481742
-0.02497273166224751   -0.06708792262875415   -0.00571289512103751
-0.03900714005094198   -0.06760045541300384   -0.00615512768012982
-0.038782386171811366   -0.06733008274306528   -0.006493661733740006
-0.03307375094442694   -0.0437959189384728   -0.005355179190481742
-0.02497273166224751   -0.06708792262875415   -0.00571289512103751
-0.038782386171811366   -0.06733008274306528   -0.006493661733740006
-0.02070638605569192   -0.042819450774656986   -0.005268380878084385
-0.03307375094442694   -0.0437959189384728   -0.005355179190481742
-0.03900714005094198   -0.06760045541300384   -0.00615512768012982
-0.020762821878668163   -0.04304776209215203   -0.004934178968513919
-0.0334880392159819   -0.04399751348378416   -0.004872156441566316
-0.03900714005094198   -0.06760045541300384   -0.00615512768012982
-0.02497273166224751   -0.06708792262875415   -0.00571289512103751
-0.020762821878668163   -0.04304776209215203   -0.004934178968513919
-0.024923943630405638   -0.06727164979852576   -0.005502759532735678
-0.0334880392159819   -0.04399751348378416   -0.004872156441566316
-0.0207270051898872   -0.04319762995553482   -0.004620412942471815
-0.024923943630405638   -0.06727164979852576   -0.005502759532735678
-0.020762821878668163   -0.04304776209215203   -0.004934178968513919
-0.0334880392159819   -0.04399751348378416   -0.004872156441566316
-0.024923943630405638   -0.06727164979852576   -0.005502759532735678
-0.0392388829440368   -0.06784234184519126   -0.00585663207712487
-0.03900714005094198   -0.06760045541300384   -0.00615512768012982
-0.0334880392159819   -0.04399751348378416   -0.004872156441566316
-0.024923943630405638   -0.06727164979852576   -0.005502759532735678
-0.03900714005094198   -0.06760045541300384   -0.00615512768012982
-0.020762821878668163   -0.04304776209215203   -0.004934178968513919
-0.0206581567886162   -0.0424910570805527   -0.005628542001513391
-0.024915594084905263   -0.06658104468657249   -0.00620338117814094
-0.009833796037997014   -0.04220453043753971   -0.005062899647777397
-0.02070638605569192   -0.042819450774656986   -0.005268380878084385
-0.024915594084905263   -0.06658104468657249   -0.00620338117814094
-0.012278382402736968   -0.06639197780528953   -0.0057430873412287415
-0.009833796037997014   -0.04220453043753971   -0.005062899647777397
-0.012257822786087136   -0.06656966834263743   -0.005573017629047608
-0.02070638605569192   -0.042819450774656986   -0.005268380878084385
-0.009812089969840237   -0.042414719613390627   -0.004859629422952921
-0.012257822786087136   -0.06656966834263743   -0.005573017629047608
-0.009833796037997014   -0.04220453043753971   -0.005062899647777397
-0.02070638605569192   -0.042819450774656986   -0.005268380878084385
-0.012257822786087136   -0.06656966834263743   -0.005573017629047608
-0.024948409797941502   -0.06686390505514406   -0.005945304260491866
-0.024915594084905263   -0.06658104468657249   -0.00620338117814094
-0.02070638605569192   -0.042819450774656986   -0.005268380878084385
-0.012257822786087136   -0.06656966834263743   -0.005573017629047608
-0.024915594084905263   -0.06658104468657249   -0.00620338117814094
-0.009833796037997014   -0.04220453043753971   -0.005062899647777397
-0.02070638605569192   -0.042819450774656986   -0.005268380878084385
-0.024948409797941502   -0.06686390505514406   -0.005945304260491866
-0.009812089969840237   -0.042414719613390627   -0.004859629422952921
-0.020762821878668163   -0.04304776209215203   -0.004934178968513919
-0.024948409797941502   -0.06686390505514406   -0.005945304260491866
-0.012257822786087136   -0.06656966834263743   -0.005573017629047608
-0.009812089969840237   -0.042414719613390627   -0.004859629422952921
-0.012228688296057673   -0.06669807392214334   -0.005428244034966504
-0.020762821878668163   -0.04304776209215203   -0.004934178968513919
-0.009784827182295746   -0.0425380972920298   -0.00468109614426562
-0.012228688296057673   -0.06669807392214334   -0.005428244034966504
-0.009812089969840237   -0.042414719613390627   -0.004859629422952921
-0.020762821878668163   -0.04304776209215203   -0.004934178968513919
-0.012228688296057673   -0.06669807392214334   -0.005428244034966504
-0.02497273166224751   -0.06708792262875415   -0.00571289512103751
-0.024948409797941502   -0.06686390505514406   -0.005945304260491866
-0.020762821878668163   -0.04304776209215203   -0.004934178968513919
-0.012228688296057673   -0.06669807392214334   -0.005428244034966504
-0.024948409797941502   -0.06686390505514406   -0.005945304260491866
-0.009812089969840237   -0.042414719613390627   -0.004859629422952921
-0.020762821878668163   -0.04304776209215203   -0.004934178968513919
-0.02497273166224751   -0.06708792262875415   -0.00571289512103751
-0.009784827182295746   -0.0425380972920298   -0.00468109614426562
-0.0207270051898872   -0.04319762995553482   -0.004620412942471815
-0.02497273166224751   -0.06708792262875415   -0.00571289512103751
-0.012228688296057673   -0.06669807392214334   -0.005428244034966504
-0.009784827182295746   -0.0425380972920298   -0.00468109614426562
-0.012183905717910488   -0.06677803328450825   -0.005309175491622885
-0.0207270051898872   -0.04319762995553482   -0.004620412942471815
-0.009738183396605399   -0.04257642788953514   -0.004527217845446744
-0.012183905717910488   -0.06677803328450825   -0.005309175491622885
-0.009784827182295746   -0.0425380972920298   -0.00468109614426562
-0.0207270051898872   -0.04319762995553482   -0.004620412942471815
-0.012183905717910488   -0.06677803328450825   -0.005309175491622885
-0.024923943630405638   -0.06727164979852576   -0.005502759532735678
-0.02497273166224751   -0.06708792262875415   -0.00571289512103751
-0.0207270051898872   -0.04319762995553482   -0.004620412942471815
-0.012183905717910488   -0.06677803328450825   -0.005309175491622885
-0.02497273166224751   -0.06708792262875415   -0.00571289512103751
-0.009784827182295746   -0.0425380972920298   -0.00468109614426562
-0.009833796037997014   -0.04220453043753971   -0.005062899647777397
-0.012278382402736968   -0.06639197780528953   -0.0057430873412287415
0.0006739019471065985   -0.04218932650464205   -0.004711664103198247
-0.009812089969840237   -0.042414719613390627   -0.004859629422952921
-0.012278382402736968   -0.06639197780528953   -0.0057430873412287415
1.6338233508985373e-05   -0.06635968680862657   -0.005474452670550399
0.0006739019471065985   -0.04218932650464205   -0.004711664103198247
5.742785108548431e-05   -0.066431726252702   -0.005393040671415608
-0.009812089969840237   -0.042414719613390627   -0.004859629422952921
0.000716170718520519   -0.04228323480207264   -0.004664425745744412
5.742785108548431e-05   -0.066431726252702   -0.005393040671415608
0.0006739019471065985   -0.04218932650464205   -0.004711664103198247
-0.009812089969840237   -0.042414719613390627   -0.004859629422952921
5.742785108548431e-05   -0.066431726252702   -0.005393040671415608
-0.012257822786087136   -0.06656966834263743   -0.005573017629047608
-0.012278382402736968   -0.06639197780528953   -0.0057430873412287415
-0.009812089969840237   -0.042414719613390627   -0.004859629422952921
5.742785108548431e-05   -0.066431726252702   -0.005393040671415608
-0.012278382402736968   -0.06639197780528953   -0.0057430873412287415
0.0006739019471065985   -0.04218932650464205   -0.004711664103198247
-0.009812089969840237   -0.042414719613390627   -0.004859629422952921
-0.012257822786087136   -0.06656966834263743   -0.005573017629047608
0.000716170718520519   -0.04228323480207264   -0.004664425745744412
-0.009784827182295746   -0.0425380972920298   -0.00468109614426562
-0.012257822786087136   -0.06656966834263743   -0.005573017629047608
5.742785108548431e-05   -0.066431726252702   -0.005393040671415608
0.000716170718520519   -0.04228323480207264   -0.004664425745744412
8.588296879046104e-05   -0.06645414439450333   -0.005336594320494142
-0.009784827182295746   -0.0425380972920298   -0.00468109614426562
0.0007422267603033146   -0.04229068575766031   -0.004641268428439039
8.588296879046104e-05   -0.06645414439450333   -0.005336594320494142
0.000716170718520519   -0.04228323480207264   -0.004664425745744412
-0.009784827182295746   -0.0425380972920298   -0.00468109614426562
8.588296879046104e-05   -0.06645414439450333   -0.005336594320494142
-0.012228688296057673   -0.06669807392214334   -0.005428244034966504
-0.012257822786087136   -0.06656966834263743   -0.005573017629047608
-0.009784827182295746   -0.0425380972920298   -0.00468109614426562
8.588296879046104e-05   -0.06645414439450333   -0.005336594320494142
-0.012257822786087136   -0.06656966834263743   -0.005573017629047608
0.000716170718520519   -0.04228323480207264   -0.004664425745744412
-0.009784827182295746   -0.0425380972920298   -0.00468109614426562
-0.012228688296057673   -0.06669807392214334   -0.005428244034966504
0.0007422267603033146   -0.04229068575766031   -0.004641268428439039
-0.009738183396605399   -0.04257642788953514   -0.004527217845446744
-0.012228688296057673   -0.06669807392214334   -0.005428244034966504
8.588296879046104e-05   -0.06645414439450333   -0.005336594320494142
0.0007422267603033146   -0.04229068575766031   -0.004641268428439039
0.00010288455101734476   -0.06642626318335405   -0.005306226732990419
-0.009738183396605399   -0.04257642788953514   -0.004527217845446744
0.0007602338656296369   -0.04221038649691239   -0.004643666496563259
0.00010288455101734476   -0.06642626318335405   -0.005306226732990419
0.0007422267603033146   -0.04229068575766031   -0.004641268428439039
-0.009738183396605399   -0.04257642788953514   -0.004527217845446744
0.00010288455101734476   -0.06642626318335405   -0.005306226732990419
-0.012183905717910488   -0.06677803328450825   -0.005309175491622885
-0.012228688296057673   -0.06669807392214334   -0.005428244034966504
-0.009738183396605399   -0.04257642788953514   -0.004527217845446744
0.00010288455101734476   -0.06642626318335405   -0.005306226732990419
-0.012228688296057673   -0.06669807392214334   -0.005428244034966504
0.0007422267603033146   -0.04229068575766031   -0.004641268428439039
0.0006739019471065985   -0.04218932650464205   -0.004711664103198247
1.6338233508985373e-05   -0.06635968680862657   -0.005474452670550399
0.011629256979078129   -0.042429343190252974   -0.004568750604639983
0.000716170718520519   -0.04228323480207264   -0.004664425745744412
1.6338233508985373e-05   -0.06635968680862657   -0.005474452670550399
0.012733688899811996   -0.06647084726412929   -0.0053962903820021346
0.011629256979078129   -0.042429343190252974   -0.004568750604639983
0.012784372798699819   -0.06644346446772313   -0.005405426646081351
0.000716170718520519   -0.04228323480207264   -0.004664425745744412
0.011665519106506775   -0.042416769783200914   -0.004680807663742817
0.012784372798699819   -0.06644346446772313   -0.005405426646081351
0.011629256979078129   -0.042429343190252974   -0.004568750604639983
0.000716170718520519   -0.04228323480207264   -0.004664425745744412
0.012784372798699819   -0.06644346446772313   -0.005405426646081351
5.742785108548431e-05   -0.066431726252702   -0.005393040671415608
1.6338233508985373e-05   -0.06635968680862657   -0.005474452670550399
0.000716170718520519   -0.04228323480207264   -0.004664425745744412
0.012784372798699819   -0.06644346446772313   -0.005405426646081351
1.6338233508985373e-05   -0.06635968680862657   -0.005474452670550399
0.011629256979078129   -0.042429343190252974   -0.004568750604639983
0.000716170718520519   -0.04228323480207264   -0.004664425745744412
5.742785108548431e-05   -0.066431726252702   -0.005393040671415608
0.011665519106506775   -0.042416769783200914   -0.004680807663742817
0.0007422267603033146   -0.04229068575766031   -0.004641268428439039
5.742785108548431e-05   -0.066431726252702   -0.005393040671415608
0.012784372798699819   -0.06644346446772313   -0.005405426646081351
0.011665519106506775   -0.042416769783200914   -0.004680807663742817
0.012785322895071758   -0.06637015113147092   -0.005438191972661326
0.0007422267603033146   -0.04229068575766031   -0.004641268428439039
0.011632724669032972   -0.042319499687721904   -0.004815176259074543
0.012785322895071758   -0.06637015113147092   -0.005438191972661326
0.011665519106506775   -0.042416769783200914   -0.004680807663742817
0.0007422267603033146   -0.04229068575766031   -0.004641268428439039
0.012785322895071758   -0.06637015113147092   -0.005438191972661326
8.588296879046104e-05   -0.06645414439450333   -0.005336594320494142
5.742785108548431e-05   -0.066431726252702   -0.005393040671415608
0.0007422267603033146   -0.04229068575766031   -0.004641268428439039
0.012785322895071758   -0.06637015113147092   -0.005438191972661326
5.742785108548431e-05   -0.066431726252702   -0.005393040671415608
0.011665519106506775   -0.042416769783200914   -0.004680807663742817
0.0007422267603033146   -0.04229068575766031   -0.004641268428439039
8.588296879046104e-05   -0.06645414439450333   -0.005336594320494142
0.011632724669032972   -0.042319499687721904   -0.004815176259074543
0.0007602338656296369   -0.04221038649691239   -0.004643666496563259
8.588296879046104e-05   -0.06645414439450333   -0.005336594320494142
0.012785322895071758   -0.06637015113147092   -0.005438191972661326
0.011632724669032972   -0.042319499687721904   -0.004815176259074543
0.012754475651090556   -0.06623245448348562   -0.005495476480573072
0.0007602338656296369   -0.04221038649691239   -0.004643666496563259
0.011585424629195486   -0.04211666437709974   -0.004974491067269459
0.012754475651090556   -0.06623245448348562   -0.005495476480573072
0.011632724669032972   -0.042319499687721904   -0.004815176259074543
0.0007602338656296369   -0.04221038649691239   -0.004643666496563259
0.012754475651090556   -0.06623245448348562   -0.005495476480573072
0.00010288455101734476   -0.06642626318335405   -0.005306226732990419
8.588296879046104e-05   -0.06645414439450333   -0.005336594320494142
0.0007602338656296369   -0.04221038649691239   -0.004643666496563259
0.012754475651090556   -0.06623245448348562   -0.005495476480573072
8.588296879046104e-05   -0.06645414439450333   -0.005336594320494142
0.011632724669032972   -0.042319499687721904   -0.004815176259074543
0.011629256979078129   -0.042429343190252974   -0.004568750604639983
0.012733688899811996   -0.06647084726412929   -0.0053962903820021346
0.024104081092079167   -0.04286531595361477   -0.004569428511791846
0.011665519106506775   -0.042416769783200914   -0.004680807663742817
0.012733688899811996   -0.06647084726412929   -0.0053962903820021346
0.02677706655723479   -0.0666756301154957   -0.005466502556823347
0.024104081092079167   -0.04286531595361477   -0.004569428511791846
0.026747725999105656   -0.06658102365144973   -0.005573663928009727
0.011665519106506775   -0.042416769783200914   -0.004680807663742817
0.02388973546333776   -0.042791545024854875   -0.004861588126595165
0.026747725999105656   -0.06658102365144973   -0.005573663928009727
0.024104081092079167   -0.04286531595361477   -0.004569428511791846
0.011665519106506775   -0.042416769783200914   -0.004680807663742817
0.026747725999105656   -0.06658102365144973   -0.005573663928009727
0.012784372798699819   -0.06644346446772313   -0.005405426646081351
0.012733688899811996   -0.06647084726412929   -0.0053962903820021346
0.011665519106506775   -0.042416769783200914   -0.004680807663742817
0.026747725999105656   -0.06658102365144973   -0.005573663928009727
0.012733688899811996   -0.06647084726412929   -0.0053962903820021346
0.024104081092079167   -0.04286531595361477   -0.004569428511791846
0.011665519106506775   -0.042416769783200914   -0.004680807663742817
0.012784372798699819   -0.06644346446772313   -0.005405426646081351
0.02388973546333776   -0.042791545024854875   -0.004861588126595165
0.011632724669032972   -0.042319499687721904   -0.004815176259074543
0.012784372798699819   -0.06644346446772313   -0.005405426646081351
0.026747725999105656   -0.06658102365144973   -0.005573663928009727
0.02388973546333776   -0.042791545024854875   -0.004861588126595165
0.026676665472449016   -0.06646119681485108   -0.0057191418540869735
0.011632724669032972   -0.042319499687721904   -0.004815176259074543
0.02367642848088968   -0.04264160262046658   -0.005193978607948964
0.026676665472449016   -0.06646119681485108   -0.0057191418540869735
0.02388973546333776   -0.042791545024854875   -0.004861588126595165
0.011632724669032972   -0.042319499687721904   -0.004815176259074543
0.026676665472449016   -0.06646119681485108   -0.0057191418540869735
0.012785322895071758   -0.06637015113147092   -0.005438191972661326
0.012784372798699819   -0.06644346446772313   -0.005405426646081351
0.011632724669032972   -0.042319499687721904   -0.004815176259074543
0.026676665472449016   -0.06646119681485108   -0.0057191418540869735
0.012784372798699819   -0.06644346446772313   -0.005405426646081351
0.02388973546333776   -0.042791545024854875   -0.004861588126595165
0.011632724669032972   -0.042319499687721904   -0.004815176259074543
0.012785322895071758   -0.06637015113147092   -0.005438191972661326
0.02367642848088968   -0.04264160262046658   -0.005193978607948964
0.011585424629195486   -0.04211666437709974   -0.004974491067269459
0.012785322895071758   -0.06637015113147092   -0.005438191972661326
0.026676665472449016   -0.06646119681485108   -0.0057191418540869735
0.02367642848088968   -0.04264160262046658   -0.005193978607948964
0.026489532027436626   -0.06623186368956384   -0.005902658923499994
0.011585424629195486   -0.04211666437709974   -0.004974491067269459
0.023300476572793438   -0.042326100937283985   -0.005566641633914263
0.026489532027436626   -0.06623186368956384   -0.005902658923499994
0.02367642848088968   -0.04264160262046658   -0.005193978607948964
0.011585424629195486   -0.04211666437709974   -0.004974491067269459
0.026489532027436626   -0.06623186368956384   -0.005902658923499994
0.012754475651090556   -0.06623245448348562   -0.005495476480573072
0.012785322895071758   -0.06637015113147092   -0.005438191972661326
0.011585424629195486   -0.04211666437709974   -0.004974491067269459
0.026489532027436626   -0.06623186368956384   -0.005902658923499994
0.012785322895071758   -0.06637015113147092   -0.005438191972661326
0.02367642848088968   -0.04264160262046658   -0.005193978607948964
-0.0383931323257933   -0.06694754845404324   -0.006867995254764139
-0.042191354272293376   -0.09296333845297183   -0.006990701994833462
-0.024915594084905263   -0.06658104468657249   -0.00620338117814094
-0.038782386171811366   -0.06733008274306528   -0.006493661733740006
-0.042191354272293376   -0.09296333845297183   -0.006990701994833462
-0.027714738570012866   -0.09281347305551117   -0.006460478044252869
-0.024915594084905263   -0.06658104468657249   -0.00620338117814094
-0.027706085980060493   -0.09305508539320233   -0.006301991843699979
-0.038782386171811366   -0.06733008274306528   -0.006493661733740006
-0.024948409797941502   -0.06686390505514406   -0.005945304260491866
-0.027706085980060493   -0.09305508539320233   -0.006301991843699979
-0.024915594084905263   -0.06658104468657249   -0.00620338117814094
-0.038782386171811366   -0.06733008274306528   -0.006493661733740006
-0.027706085980060493   -0.09305508539320233   -0.006301991843699979
-0.04237488776339255   -0.09328800533803237   -0.006797054419797318
-0.042191354272293376   -0.09296333845297183   -0.006990701994833462
-0.038782386171811366   -0.06733008274306528   -0.006493661733740006
-0.027706085980060493   -0.09305508539320233   -0.006301991843699979
-0.042191354272293376   -0.09296333845297183   -0.006990701994833462
-0.024915594084905263   -0.06658104468657249   -0.00620338117814094
-0.038782386171811366   -0.06733008274306528   -0.006493661733740006
-0.04237488776339255   -0.09328800533803237   -0.006797054419797318
-0.024948409797941502   -0.06686390505514406   -0.005945304260491866
-0.03900714005094198   -0.06760045541300384   -0.00615512768012982
-0.04237488776339255   -0.09328800533803237   -0.006797054419797318
-0.027706085980060493   -0.09305508539320233   -0.006301991843699979
-0.024948409797941502   -0.06686390505514406   -0.005945304260491866
-0.027671314562133613   -0.09327771513704584   -0.006169813462434925
-0.03900714005094198   -0.06760045541300384   -0.00615512768012982
-0.02497273166224751   -0.06708792262875415   -0.00571289512103751
-0.027671314562133613   -0.09327771513704584   -0.006169813462434925
-0.024948409797941502   -0.06686390505514406   -0.005945304260491866
-0.03900714005094198   -0.06760045541300384   -0.00615512768012982
-0.027671314562133613   -0.09327771513704584   -0.006169813462434925
-0.04243527855049478   -0.0935524985157034   -0.0066412802593952365
-0.04237488776339255   -0.09328800533803237   -0.006797054419797318
-0.03900714005094198   -0.06760045541300384   -0.00615512768012982
-0.027671314562133613   -0.09327771513704584   -0.006169813462434925
-0.04237488776339255   -0.09328800533803237   -0.006797054419797318
-0.024948409797941502   -0.06686390505514406   -0.005945304260491866
-0.03900714005094198   -0.06760045541300384   -0.00615512768012982
-0.04243527855049478   -0.0935524985157034   -0.0066412802593952365
-0.02497273166224751   -0.06708792262875415   -0.00571289512103751
-0.0392388829440368   -0.06784234184519126   -0.00585663207712487
-0.04243527855049478   -0.0935524985157034   -0.0066412802593952365
-0.027671314562133613   -0.09327771513704584   -0.006169813462434925
-0.02497273166224751   -0.06708792262875415   -0.00571289512103751
-0.02758202690063108   -0.09349830822144244   -0.006062121478093268
-0.0392388829440368   -0.06784234184519126   -0.00585663207712487
-0.024923943630405638   -0.06727164979852576   -0.005502759532735678
-0.02758202690063108   -0.09349830822144244   -0.006062121478093268
-0.02497273166224751   -0.06708792262875415   -0.00571289512103751
-0.0392388829440368   -0.06784234184519126   -0.00585663207712487
-0.02758202690063108   -0.09349830822144244   -0.006062121478093268
-0.04245766339898065   -0.09383935605284074   -0.006526607750178167
-0.04243527855049478   -0.0935524985157034   -0.0066412802593952365
-0.0392388829440368   -0.06784234184519126   -0.00585663207712487
-0.02758202690063108   -0.09349830822144244   -0.006062121478093268
-0.04243527855049478   -0.0935524985157034   -0.0066412802593952365
-0.02497273166224751   -0.06708792262875415   -0.00571289512103751
-0.024915594084905263   -0.06658104468657249   -0.00620338117814094
-0.027714738570012866   -0.09281347305551117   -0.006460478044252869
-0.012278382402736968   -0.06639197780528953   -0.0057430873412287415
-0.024948409797941502   -0.06686390505514406   -0.005945304260491866
-0.027714738570012866   -0.09281347305551117   -0.006460478044252869
-0.014266419258524088   -0.09272797177518664   -0.00609942568215607
-0.012278382402736968   -0.06639197780528953   -0.0057430873412287415
-0.014218502722425039   -0.09287440373980654   -0.00596162017700748
-0.024948409797941502   -0.06686390505514406   -0.005945304260491866
-0.012257822786087136   -0.06656966834263743   -0.005573017629047608
-0.014218502722425039   -0.09287440373980654   -0.00596162017700748
-0.012278382402736968   -0.06639197780528953   -0.0057430873412287415
-0.024948409797941502   -0.06686390505514406   -0.005945304260491866
-0.014218502722425039   -0.09287440373980654   -0.00596162017700748
-0.027706085980060493   -0.09305508539320233   -0.006301991843699979
-0.027714738570012866   -0.09281347305551117   -0.006460478044252869
-0.024948409797941502   -0.06686390505514406   -0.005945304260491866
-0.014218502722425039   -0.09287440373980654   -0.00596162017700748
-0.027714738570012866   -0.09281347305551117   -0.006460478044252869
-0.012278382402736968   -0.06639197780528953   -0.0057430873412287415
-0.024948409797941502   -0.06686390505514406   -0.005945304260491866
-0.027706085980060493   -0.09305508539320233   -0.006301991843699979
-0.012257822786087136   -0.06656966834263743   -0.005573017629047608
-0.02497273166224751   -0.06708792262875415   -0.00571289512103751
-0.027706085980060493   -0.09305508539320233   -0.006301991843699979
-0.014218502722425039   -0.09287440373980654   -0.00596162017700748
-0.012257822786087136   -0.06656966834263743   -0.005573017629047608
-0.014159183036502022   -0.09300861459632316   -0.005850156115880415
-0.02497273166224751   -0.06708792262875415   -0.00571289512103751
-0.012228688296057673   -0.06669807392214334   -0.005428244034966504
-0.014159183036502022   -0.09300861459632316   -0.005850156115880415
-0.012257822786087136   -0.06656966834263743   -0.005573017629047608
-0.02497273166224751   -0.06708792262875415   -0.00571289512103751
-0.014159183036502022   -0.09300861459632316   -0.005850156115880415
-0.027671314562133613   -0.09327771513704584   -0.006169813462434925
-0.027706085980060493   -0.09305508539320233   -0.006301991843699979
-0.02497273166224751   -0.06708792262875415   -0.00571289512103751
-0.014159183036502022   -0.09300861459632316   -0.005850156115880415
-0.027706085980060493   -0.09305508539320233   -0.006301991843699979
-0.012257822786087136   -0.06656966834263743   -0.005573017629047608
-0.02497273166224751   -0.06708792262875415   -0.00571289512103751
-0.027671314562133613   -0.09327771513704584   -0.006169813462434925
-0.012228688296057673   -0.06669807392214334   -0.005428244034966504
-0.024923943630405638   -0.06727164979852576   -0.005502759532735678
-0.027671314562133613   -0.09327771513704584   -0.006169813462434925
-0.014159183036502022   -0.09300861459632316   -0.005850156115880415
-0.012228688296057673   -0.06669807392214334   -0.005428244034966504
-0.014087476382688792   -0.09313104123166993   -0.005765655291448708
-0.024923943630405638   -0.06727164979852576   -0.005502759532735678
-0.012183905717910488   -0.06677803328450825   -0.005309175491622885
-0.014087476382688792   -0.09313104123166993   -0.005765655291448708
-0.012228688296057673   -0.06669807392214334   -0.005428244034966504
-0.024923943630405638   -0.06727164979852576   -0.005502759532735678
-0.014087476382688792   -0.09313104123166993   -0.005765655291448708
-0.02758202690063108   -0.09349830822144244   -0.006062121478093268
-0.027671314562133613   -0.09327771513704584   -0.006169813462434925
-0.024923943630405638   -0.06727164979852576   -0.005502759532735678
-0.014087476382688792   -0.09313104123166993   -0.005765655291448708
-0.027671314562133613   -0.09327771513704584   -0.006169813462434925
-0.012228688296057673   -0.06669807392214334   -0.005428244034966504
-0.012278382402736968   -0.06639197780528953   -0.0057430873412287415
-0.014266419258524088   -0.09272797177518664   -0.00609942568215607
1.6338233508985373e-05   -0.06635968680862657   -0.005474452670550399
-0.012257822786087136   -0.06656966834263743   -0.005573017629047608
-0.014266419258524088   -0.09272797177518664   -0.00609942568215607
-0.001181870309850175   -0.09267932658211364   -0.005912071345806278
1.6338233508985373e-05   -0.06635968680862657   -0.005474452670550399
-0.0011140704438504891   -0.09272890978482538   -0.005796296660346701
-0.012257822786087136   -0.06656966834263743   -0.005573017629047608
5.742785108548431e-05   -0.066431726252702   -0.005393040671415608
-0.0011140704438504891   -0.09272890978482538   -0.005796296660346701
1.6338233508985373e-05   -0.06635968680862657   -0.005474452670550399
-0.012257822786087136   -0.06656966834263743   -0.005573017629047608
-0.0011140704438504891   -0.09272890978482538   -0.005796296660346701
-0.014218502722425039   -0.09287440373980654   -0.00596162017700748
-0.014266419258524088   -0.09272797177518664   -0.00609942568215607
-0.012257822786087136   -0.06656966834263743   -0.005573017629047608
-0.0011140704438504891   -0.09272890978482538   -0.005796296660346701
-0.014266419258524088   -0.09272797177518664   -0.00609942568215607
1.6338233508985373e-05   -0.06635968680862657   -0.005474452670550399
-0.012257822786087136   -0.06656966834263743   -0.005573017629047608
-0.014218502722425039   -0.09287440373980654   -0.00596162017700748
5.742785108548431e-05   -0.066431726252702   -0.005393040671415608
-0.012228688296057673   -0.06669807392214334   -0.005428244034966504
-0.014218502722425039   -0.09287440373980654   -0.00596162017700748
-0.0011140704438504891   -0.09272890978482538   -0.005796296660346701
5.742785108548431e-05   -0.066431726252702   -0.005393040671415608
-0.00105565225651768   -0.09276541912831422   -0.005706626370177733
-0.012228688296057673   -0.06669807392214334   -0.005428244034966504
8.588296879046104e-05   -0.06645414439450333   -0.005336594320494142
-0.00105565225651768   -0.09276541912831422   -0.005706626370177733
5.742785108548431e-05   -0.066431726252702   -0.005393040671415608
-0.012228688296057673   -0.06669807392214334   -0.005428244034966504
-0.00105565225651768   -0.09276541912831422   -0.005706626370177733
-0.014159183036502022   -0.09300861459632316   -0.005850156115880415
-0.014218502722425039   -0.09287440373980654   -0.00596162017700748
-0.012228688296057673   -0.06669807392214334   -0.005428244034966504
-0.00105565225651768   -0.09276541912831422   -0.005706626370177733
-0.014218502722425039   -0.09287440373980654   -0.00596162017700748
5.742785108548431e-05   -0.066431726252702   -0.005393040671415608
-0.012228688296057673   -0.06669807392214334   -0.005428244034966504
-0.014159183036502022   -0.09300861459632316   -0.005850156115880415
8.588296879046104e-05   -0.06645414439450333   -0.005336594320494142
-0.012183905717910488   -0.06677803328450825   -0.005309175491622885
-0.014159183036502022   -0.09300861459632316   -0.005850156115880415
-0.00105565225651768   -0.09276541912831422   -0.005706626370177733
8.588296879046104e-05   -0.06645414439450333   -0.005336594320494142
-0.0010117057867245136   -0.09278867477933384   -0.005644018446850789
-0.012183905717910488   -0.06677803328450825   -0.005309175491622885
0.00010288455101734476   -0.06642626318335405   -0.005306226732990419
-0.0010117057867245136   -0.09278867477933384   -0.005644018446850789
8.588296879046104e-05   -0.06645414439450333   -0.005336594320494142
-0.012183905717910488   -0.06677803328450825   -0.005309175491622885
-0.0010117057867245136   -0.09278867477933384   -0.005644018446850789
-0.014087476382688792   -0.09313104123166993   -0.005765655291448708
-0.014159183036502022   -0.09300861459632316   -0.005850156115880415
-0.012183905717910488   -0.06677803328450825   -0.005309175491622885
-0.0010117057867245136   -0.09278867477933384   -0.005644018446850789
-0.014159183036502022   -0.09300861459632316   -0.005850156115880415
8.588296879046104e-05   -0.06645414439450333   -0.005336594320494142
1.6338233508985373e-05   -0.06635968680862657   -0.005474452670550399
-0.001181870309850175   -0.09267932658211364   -0.005912071345806278
0.012733688899811996   -0.06647084726412929   -0.0053962903820021346
5.742785108548431e-05   -0.066431726252702   -0.005393040671415608
-0.001181870309850175   -0.09267932658211364   -0.005912071345806278
0.01230254022367773   -0.0926591752752102   -0.005899960767420744
0.012733688899811996   -0.06647084726412929   -0.0053962903820021346
0.01239292222893102   -0.09261501745434571   -0.005807333476249973
5.742785108548431e-05   -0.066431726252702   -0.005393040671415608
0.012784372798699819   -0.06644346446772313   -0.005405426646081351
0.01239292222893102   -0.09261501745434571   -0.005807333476249973
0.012733688899811996   -0.06647084726412929   -0.0053962903820021346
5.742785108548431e-05   -0.066431726252702   -0.005393040671415608
0.01239292222893102   -0.09261501745434571   -0.005807333476249973
-0.0011140704438504891   -0.09272890978482538   -0.005796296660346701
-0.001181870309850175   -0.09267932658211364   -0.005912071345806278
5.742785108548431e-05   -0.066431726252702   -0.005393040671415608
0.01239292222893102   -0.09261501745434571   -0.005807333476249973
-0.001181870309850175   -0.09267932658211364   -0.005912071345806278
0.012733688899811996   -0.06647084726412929   -0.0053962903820021346
5.742785108548431e-05   -0.066431726252702   -0.005393040671415608
-0.0011140704438504891   -0.09272890978482538   -0.005796296660346701
0.012784372798699819   -0.06644346446772313   -0.005405426646081351
8.588296879046104e-05   -0.06645414439450333   -0.005336594320494142
-0.0011140704438504891   -0.09272890978482538   -0.005796296660346701
0.01239292222893102   -0.09261501745434571   -0.005807333476249973
0.012784372798699819   -0.06644346446772313   -0.005405426646081351
0.012452470669121411   -0.0925631176378477   -0.005740070155685023
8.588296879046104e-05   -0.06645414439450333   -0.005336594320494142
0.012785322895071758   -0.06637015113147092   -0.005438191972661326
0.012452470669121411   -0.0925631176378477   -0.005740070155685023
0.012784372798699819   -0.06644346446772313   -0.005405426646081351
8.588296879046104e-05   -0.06645414439450333   -0.005336594320494142
0.012452470669121411   -0.0925631176378477   -0.005740070155685023
-0.00105565225651768   -0.09276541912831422   -0.005706626370177733
-0.0011140704438504891   -0.09272890978482538   -0.005796296660346701
8.588296879046104e-05   -0.06645414439450333   -0.005336594320494142
0.012452470669121411   -0.0925631176378477   -0.005740070155685023
-0.0011140704438504891   -0.09272890978482538   -0.005796296660346701
0.012784372798699819   -0.06644346446772313   -0.005405426646081351
8.588296879046104e-05   -0.06645414439450333   -0.005336594320494142
-0.00105565225651768   -0.09276541912831422   -0.005706626370177733
0.012785322895071758   -0.06637015113147092   -0.005438191972661326
0.00010288455101734476   -0.06642626318335405   -0.005306226732990419
-0.00105565225651768   -0.09276541912831422   -0.005706626370177733
0.012452470669121411   -0.0925631176378477   -0.005740070155685023
0.012785322895071758   -0.06637015113147092   -0.005438191972661326
0.012462594751088383   -0.09248631389148787   -0.005697644897497789
0.00010288455101734476   -0.06642626318335405   -0.005306226732990419
0.012754475651090556   -0.06623245448348562   -0.005495476480573072
0.012462594751088383   -0.09248631389148787   -0.005697644897497789
0.012785322895071758   -0.06637015113147092   -0.005438191972661326
0.00010288455101734476   -0.06642626318335405   -0.005306226732990419
0.012462594751088383   -0.09248631389148787   -0.005697644897497789
-0.0010117057867245136   -0.09278867477933384   -0.005644018446850789
-0.00105565225651768   -0.09276541912831422   -0.005706626370177733
0.00010288455101734476   -0.06642626318335405   -0.005306226732990419
0.012462594751088383   -0.09248631389148787   -0.005697644897497789
-0.00105565225651768   -0.09276541912831422   -0.005706626370177733
0.012785322895071758   -0.06637015113147092   -0.005438191972661326
0.012733688899811996   -0.06647084726412929   -0.0053962903820021346
0.01230254022367773   -0.0926591752752102   -0.005899960767420744
0.02677706655723479   -0.0666756301154957   -0.005466502556823347
0.012784372798699819   -0.06644346446772313   -0.005405426646081351
0.01230254022367773   -0.0926591752752102   -0.005899960767420744
0.026917668994517988   -0.09263194882314277   -0.006045125291541507
0.02677706655723479   -0.0666756301154957   -0.005466502556823347
0.02709557759717859   -0.09251379023533944   -0.005970118787762664
0.012784372798699819   -0.06644346446772313   -0.005405426646081351
0.026747725999105656   -0.06658102365144973   -0.005573663928009727
0.02709557759717859   -0.09251379023533944   -0.005970118787762664
0.02677706655723479   -0.0666756301154957   -0.005466502556823347
0.012784372798699819   -0.06644346446772313   -0.005405426646081351
0.02709557759717859   -0.09251379023533944   -0.005970118787762664
0.01239292222893102   -0.09261501745434571   -0.005807333476249973
0.01230254022367773   -0.0926591752752102   -0.005899960767420744
0.012784372798699819   -0.06644346446772313   -0.005405426646081351
0.02709557759717859   -0.09251379023533944   -0.005970118787762664
0.01230254022367773   -0.0926591752752102   -0.005899960767420744
0.02677706655723479   -0.0666756301154957   -0.005466502556823347
0.012784372798699819   -0.06644346446772313   -0.005405426646081351
0.01239292222893102   -0.09261501745434571   -0.005807333476249973
0.026747725999105656   -0.06658102365144973   -0.005573663928009727
0.012785322895071758   -0.06637015113147092   -0.005438191972661326
0.01239292222893102   -0.09261501745434571   -0.005807333476249973
0.02709557759717859   -0.09251379023533944   -0.005970118787762664
0.026747725999105656   -0.06658102365144973   -0.005573663928009727
0.027188108984761237   -0.09242022487418433   -0.005933623579434491
0.012785322895071758   -0.06637015113147092   -0.005438191972661326
0.026676665472449016   -0.06646119681485108   -0.0057191418540869735
0.027188108984761237   -0.09242022487418433   -0.005933623579434491
0.026747725999105656   -0.06658102365144973   -0.005573663928009727
0.012785322895071758   -0.06637015113147092   -0.005438191972661326
0.027188108984761237   -0.09242022487418433   -0.005933623579434491
0.012452470669121411   -0.0925631176378477   -0.005740070155685023
0.01239292222893102   -0.09261501745434571   -0.005807333476249973
0.012785322895071758   -0.06637015113147092   -0.005438191972661326
0.027188108984761237   -0.09242022487418433   -0.005933623579434491
0.01239292222893102   -0.09261501745434571   -0.005807333476249973
0.026747725999105656   -0.06658102365144973   -0.005573663928009727
0.012785322895071758   -0.06637015113147092   -0.005438191972661326
0.012452470669121411   -0.0925631176378477   -0.005740070155685023
0.026676665472449016   -0.06646119681485108   -0.0057191418540869735
0.012754475651090556   -0.06623245448348562   -0.005495476480573072
0.012452470669121411   -0.0925631176378477   -0.005740070155685023
0.027188108984761237   -0.09242022487418433   -0.005933623579434491
0.026676665472449016   -0.06646119681485108   -0.0057191418540869735
0.027207081422314823   -0.09226931004866669   -0.005936294658022346
0.012754475651090556   -0.06623245448348562   -0.005495476480573072
0.026489532027436626   -0.06623186368956384   -0.005902658923499994
0.027207081422314823   -0.09226931004866669   -0.005936294658022346
0.026676665472449016   -0.06646119681485108   -0.0057191418540869735
0.012754475651090556   -0.06623245448348562   -0.005495476480573072
0.027207081422314823   -0.09226931004866669   -0.005936294658022346
0.012462594751088383   -0.09248631389148787   -0.005697644897497789
0.012452470669121411   -0.0925631176378477   -0.005740070155685023
0.012754475651090556   -0.06623245448348562   -0.005495476480573072
0.027207081422314823   -0.09226931004866669   -0.005936294658022346
0.012452470669121411   -0.0925631176378477   -0.005740070155685023
0.026676665472449016   -0.06646119681485108   -0.0057191418540869735
-0.042191354272293376   -0.09296333845297183   -0.006990701994833462
-0.04352446126538716   -0.11946701516183225   -0.006869718196572426
-0.027714738570012866   -0.09281347305551117   -0.006460478044252869
-0.04237488776339255   -0.09328800533803237   -0.006797054419797318
-0.04352446126538716   -0.11946701516183225   -0.006869718196572426
-0.029056245341167894   -0.11953584738487197   -0.006476954622507913
-0.027714738570012866   -0.09281347305551117   -0.006460478044252869
-0.02897984479875485   -0.1197352642804427   -0.006416725133578367
-0.04237488776339255   -0.09328800533803237   -0.006797054419797318
-0.027706085980060493   -0.09305508539320233   -0.006301991843699979
-0.02897984479875485   -0.1197352642804427   -0.006416725133578367
-0.027714738570012866   -0.09281347305551117   -0.006460478044252869
-0.04237488776339255   -0.09328800533803237   -0.006797054419797318
-0.02897984479875485   -0.1197352642804427   -0.006416725133578367
-0.043476781128112756   -0.11973373222507676   -0.006856353481228328
-0.04352446126538716   -0.11946701516183225   -0.006869718196572426
-0.04237488776339255   -0.09328800533803237   -0.006797054419797318
-0.02897984479875485   -0.1197352642804427   -0.006416725133578367
-0.04352446126538716   -0.11946701516183225   -0.006869718196572426
-0.027714738570012866   -0.09281347305551117   -0.006460478044252869
-0.04237488776339255   -0.09328800533803237   -0.006797054419797318
-0.043476781128112756   -0.11973373222507676   -0.006856353481228328
-0.027706085980060493   -0.09305508539320233   -0.006301991843699979
-0.04243527855049478   -0.0935524985157034   -0.0066412802593952365
-0.043476781128112756   -0.11973373222507676   -0.006856353481228328
-0.02897984479875485   -0.1197352642804427   -0.006416725133578367
-0.027706085980060493   -0.09305508539320233   -0.006301991843699979
-0.028859728180408474   -0.1199558846498277   -0.0063836801513558715
-0.04243527855049478   -0.0935524985157034   -0.0066412802593952365
-0.027671314562133613   -0.09327771513704584   -0.006169813462434925
-0.028859728180408474   -0.1199558846498277   -0.0063836801513558715
-0.027706085980060493   -0.09305508539320233   -0.006301991843699979
-0.04243527855049478   -0.0935524985157034   -0.0066412802593952365
-0.028859728180408474   -0.1199558846498277   -0.0063836801513558715
-0.0433456482831488   -0.1199923082199913   -0.00688362087321477
-0.043476781128112756   -0.11973373222507676   -0.006856353481228328
-0.04243527855049478   -0.0935524985157034   -0.0066412802593952365
-0.028859728180408474   -0.1199558846498277   -0.0063836801513558715
-0.043476781128112756   -0.11973373222507676   -0.006856353481228328
-0.027706085980060493   -0.09305508539320233   -0.006301991843699979
-0.04243527855049478   -0.0935524985157034   -0.0066412802593952365
-0.0433456482831488   -0.1199923082199913   -0.00688362087321477
-0.027671314562133613   -0.09327771513704584   -0.006169813462434925
-0.04245766339898065   -0.09383935605284074   -0.006526607750178167
-0.0433456482831488   -0.1199923082199913   -0.00688362087321477
-0.028859728180408474   -0.1199558846498277   -0.0063836801513558715
-0.027671314562133613   -0.09327771513704584   -0.006169813462434925
-0.02870360761982268   -0.12021287647583415   -0.0063774024702042955
-0.04245766339898065   -0.09383935605284074   -0.006526607750178167
-0.02758202690063108   -0.09349830822144244   -0.006062121478093268
-0.02870360761982268   -0.12021287647583415   -0.0063774024702042955
-0.027671314562133613   -0.09327771513704584   -0.006169813462434925
-0.04245766339898065   -0.09383935605284074   -0.006526607750178167
-0.02870360761982268   -0.12021287647583415   -0.0063774024702042955
-0.04313156339131405   -0.12032503999371193   -0.006953544666251052
-0.0433456482831488   -0.1199923082199913   -0.00688362087321477
-0.04245766339898065   -0.09383935605284074   -0.006526607750178167
-0.02870360761982268   -0.12021287647583415   -0.0063774024702042955
-0.0433456482831488   -0.1199923082199913   -0.00688362087321477
-0.027671314562133613   -0.09327771513704584   -0.006169813462434925
-0.027714738570012866   -0.09281347305551117   -0.006460478044252869
-0.029056245341167894   -0.11953584738487197   -0.006476954622507913
-0.014266419258524088   -0.09272797177518664   -0.00609942568215607
-0.027706085980060493   -0.09305508539320233   -0.006301991843699979
-0.029056245341167894   -0.11953584738487197   -0.006476954622507913
-0.01580473567542742   -0.119551134322088   -0.006215807166646145
-0.014266419258524088   -0.09272797177518664   -0.00609942568215607
-0.015701869494102617   -0.11966571046933586   -0.006109377867161563
-0.027706085980060493   -0.09305508539320233   -0.006301991843699979
-0.014218502722425039   -0.09287440373980654   -0.00596162017700748
-0.015701869494102617   -0.11966571046933586   -0.006109377867161563
-0.014266419258524088   -0.09272797177518664   -0.00609942568215607
-0.027706085980060493   -0.09305508539320233   -0.006301991843699979
-0.015701869494102617   -0.11966571046933586   -0.006109377867161563
-0.02897984479875485   -0.1197352642804427   -0.006416725133578367
-0.029056245341167894   -0.11953584738487197   -0.006476954622507913
-0.027706085980060493   -0.09305508539320233   -0.006301991843699979
-0.015701869494102617   -0.11966571046933586   -0.006109377867161563
-0.029056245341167894   -0.11953584738487197   -0.006476954622507913
-0.014266419258524088   -0.09272797177518664   -0.00609942568215607
-0.027706085980060493   -0.09305508539320233   -0.006301991843699979
-0.02897984479875485   -0.1197352642804427   -0.006416725133578367
-0.014218502722425039   -0.09287440373980654   -0.00596162017700748
-0.027671314562133613   -0.09327771513704584   -0.006169813462434925
-0.02897984479875485   -0.1197352642804427   -0.006416725133578367
-0.015701869494102617   -0.11966571046933586   -0.006109377867161563
-0.014218502722425039   -0.09287440373980654   -0.00596162017700748
-0.015585418278948101   -0.1198047241120748   -0.006030244892276197
-0.027671314562133613   -0.09327771513704584   -0.006169813462434925
-0.014159183036502022   -0.09300861459632316   -0.005850156115880415
-0.015585418278948101   -0.1198047241120748   -0.006030244892276197
-0.014218502722425039   -0.09287440373980654   -0.00596162017700748
-0.027671314562133613   -0.09327771513704584   -0.006169813462434925
-0.015585418278948101   -0.1198047241120748   -0.006030244892276197
-0.028859728180408474   -0.1199558846498277   -0.0063836801513558715
-0.02897984479875485   -0.1197352642804427   -0.006416725133578367
-0.027671314562133613   -0.09327771513704584   -0.006169813462434925
-0.015585418278948101   -0.1198047241120748   -0.006030244892276197
-0.02897984479875485   -0.1197352642804427   -0.006416725133578367
-0.014218502722425039   -0.09287440373980654   -0.00596162017700748
-0.027671314562133613   -0.09327771513704584   -0.006169813462434925
-0.028859728180408474   -0.1199558846498277   -0.0063836801513558715
-0.014159183036502022   -0.09300861459632316   -0.005850156115880415
-0.02758202690063108   -0.09349830822144244   -0.006062121478093268
-0.028859728180408474   -0.1199558846498277   -0.0063836801513558715
-0.015585418278948101   -0.1198047241120748   -0.006030244892276197
-0.014159183036502022   -0.09300861459632316   -0.005850156115880415
-0.015459830450013638   -0.11996860794515403   -0.005979281137775196
-0.02758202690063108   -0.09349830822144244   -0.006062121478093268
-0.014087476382688792   -0.09313104123166993   -0.005765655291448708
-0.015459830450013638   -0.11996860794515403   -0.005979281137775196
-0.014159183036502022   -0.09300861459632316   -0.005850156115880415
-0.02758202690063108   -0.09349830822144244   -0.006062121478093268
-0.015459830450013638   -0.11996860794515403   -0.005979281137775196
-0.02870360761982268   -0.12021287647583415   -0.0063774024702042955
-0.028859728180408474   -0.1199558846498277   -0.0063836801513558715
-0.02758202690063108   -0.09349830822144244   -0.006062121478093268
-0.015459830450013638   -0.11996860794515403   -0.005979281137775196
-0.028859728180408474   -0.1199558846498277   -0.0063836801513558715
-0.014159183036502022   -0.09300861459632316   -0.005850156115880415
-0.014266419258524088   -0.09272797177518664   -0.00609942568215607
-0.01580473567542742   -0.119551134322088   -0.006215807166646145
-0.001181870309850175   -0.09267932658211364   -0.005912071345806278
-0.014218502722425039   -0.09287440373980654   -0.00596162017700748
-0.01580473567542742   -0.119551134322088   -0.006215807166646145
-0.0029284327895158103   -0.11948129989915618   -0.006108354877006754
-0.001181870309850175   -0.09267932658211364   -0.005912071345806278
-0.0028065808252772306   -0.11950828417049382   -0.005958020883146604
-0.014218502722425039   -0.09287440373980654   -0.00596162017700748
-0.0011140704438504891   -0.09272890978482538   -0.005796296660346701
-0.0028065808252772306   -0.11950828417049382   -0.005958020883146604
-0.001181870309850175   -0.09267932658211364   -0.005912071345806278
-0.014218502722425039   -0.09287440373980654   -0.00596162017700748
-0.0028065808252772306   -0.11950828417049382   -0.005958020883146604
-0.015701869494102617   -0.11966571046933586   -0.006109377867161563
-0.01580473567542742   -0.119551134322088   -0.006215807166646145
-0.014218502722425039   -0.09287440373980654   -0.00596162017700748
-0.0028065808252772306   -0.11950828417049382   -0.005958020883146604
-0.01580473567542742   -0.119551134322088   -0.006215807166646145
-0.001181870309850175   -0.09267932658211364   -0.005912071345806278
-0.014218502722425039   -0.09287440373980654   -0.00596162017700748
-0.015701869494102617   -0.11966571046933586   -0.006109377867161563
-0.0011140704438504891   -0.09272890978482538   -0.005796296660346701
-0.014159183036502022   -0.09300861459632316   -0.005850156115880415
-0.015701869494102617   -0.11966571046933586   -0.006109377867161563
-0.0028065808252772306   -0.11950828417049382   -0.005958020883146604
-0.0011140704438504891   -0.09272890978482538   -0.005796296660346701
-0.002691386779877566   -0.1195577648439275   -0.005834780140617803
-0.014159183036502022   -0.09300861459632316   -0.005850156115880415
-0.00105565225651768   -0.09276541912831422   -0.005706626370177733
-0.002691386779877566   -0.1195577648439275   -0.005834780140617803
-0.0011140704438504891   -0.09272890978482538   -0.005796296660346701
-0.014159183036502022   -0.09300861459632316   -0.005850156115880415
-0.002691386779877566   -0.1195577648439275   -0.005834780140617803
-0.015585418278948101   -0.1198047241120748   -0.006030244892276197
-0.015701869494102617   -0.11966571046933586   -0.006109377867161563
-0.014159183036502022   -0.09300861459632316   -0.005850156115880415
-0.002691386779877566   -0.1195577648439275   -0.005834780140617803
-0.015701869494102617   -0.11966571046933586   -0.006109377867161563
-0.0011140704438504891   -0.09272890978482538   -0.005796296660346701
-0.014159183036502022   -0.09300861459632316   -0.005850156115880415
-0.015585418278948101   -0.1198047241120748   -0.006030244892276197
-0.00105565225651768   -0.09276541912831422   -0.005706626370177733
-0.014087476382688792   -0.09313104123166993   -0.005765655291448708
-0.015585418278948101   -0.1198047241120748   -0.006030244892276197
-0.002691386779877566   -0.1195577648439275   -0.005834780140617803
-0.00105565225651768   -0.09276541912831422   -0.005706626370177733
-0.002593873467126605   -0.11963088415561324   -0.005739584342892846
-0.014087476382688792   -0.09313104123166993   -0.005765655291448708
-0.0010117057867245136   -0.09278867477933384   -0.005644018446850789
-0.002593873467126605   -0.11963088415561324   -0.005739584342892846
-0.00105565225651768   -0.09276541912831422   -0.005706626370177733
-0.014087476382688792   -0.09313104123166993   -0.005765655291448708
-0.002593873467126605   -0.11963088415561324   -0.005739584342892846
-0.015459830450013638   -0.11996860794515403   -0.005979281137775196
-0.015585418278948101   -0.1198047241120748   -0.006030244892276197
-0.014087476382688792   -0.09313104123166993   -0.005765655291448708
-0.002593873467126605   -0.11963088415561324   -0.005739584342892846
-0.015585418278948101   -0.1198047241120748   -0.006030244892276197
-0.00105565225651768   -0.09276541912831422   -0.005706626370177733
-0.001181870309850175   -0.09267932658211364   -0.005912071345806278
-0.0029284327895158103   -0.11948129989915618   -0.006108354877006754
0.01230254022367773   -0.0926591752752102   -0.005899960767420744
-0.0011140704438504891   -0.09272890978482538   -0.005796296660346701
-0.0029284327895158103   -0.11948129989915618   -0.006108354877006754
0.010336787922687265   -0.11932587474348473   -0.006159622463987547
0.01230254022367773   -0.0926591752752102   -0.005899960767420744
0.010492425729420708   -0.11926502329597459   -0.00596620205851036
-0.0011140704438504891   -0.09272890978482538   -0.005796296660346701
0.01239292222893102   -0.09261501745434571   -0.005807333476249973
0.010492425729420708   -0.11926502329597459   -0.00596620205851036
0.01230254022367773   -0.0926591752752102   -0.005899960767420744
-0.0011140704438504891   -0.09272890978482538   -0.005796296660346701
0.010492425729420708   -0.11926502329597459   -0.00596620205851036
-0.0028065808252772306   -0.11950828417049382   -0.005958020883146604
-0.0029284327895158103   -0.11948129989915618   -0.006108354877006754
-0.0011140704438504891   -0.09272890978482538   -0.005796296660346701
0.010492425729420708   -0.11926502329597459   -0.00596620205851036
-0.0029284327895158103   -0.11948129989915618   -0.006108354877006754
0.01230254022367773   -0.0926591752752102   -0.005899960767420744
-0.0011140704438504891   -0.09272890978482538   -0.005796296660346701
-0.0028065808252772306   -0.11950828417049382   -0.005958020883146604
0.01239292222893102   -0.09261501745434571   -0.005807333476249973
-0.00105565225651768   -0.09276541912831422   -0.005706626370177733
-0.0028065808252772306   -0.11950828417049382   -0.005958020883146604
0.010492425729420708   -0.11926502329597459   -0.00596620205851036
0.01239292222893102   -0.09261501745434571   -0.005807333476249973
0.010635969605901806   -0.11923341116358016   -0.005799800167307998
-0.00105565225651768   -0.09276541912831422   -0.005706626370177733
0.012452470669121411   -0.0925631176378477   -0.005740070155685023
0.010635969605901806   -0.11923341116358016   -0.005799800167307998
0.01239292222893102   -0.09261501745434571   -0.005807333476249973
-0.00105565225651768   -0.09276541912831422   -0.005706626370177733
0.010635969605901806   -0.11923341116358016   -0.005799800167307998
-0.002691386779877566   -0.1195577648439275   -0.005834780140617803
-0.0028065808252772306   -0.11950828417049382   -0.005958020883146604
-0.00105565225651768   -0.09276541912831422   -0.005706626370177733
0.010635969605901806   -0.11923341116358016   -0.005799800167307998
-0.0028065808252772306   -0.11950828417049382   -0.005958020883146604
0.01239292222893102   -0.09261501745434571   -0.005807333476249973
-0.00105565225651768   -0.09276541912831422   -0.005706626370177733
-0.002691386779877566   -0.1195577648439275   -0.005834780140617803
0.012452470669121411   -0.0925631176378477   -0.005740070155685023
-0.0010117057867245136   -0.09278867477933384   -0.005644018446850789
-0.002691386779877566   -0.1195577648439275   -0.005834780140617803
0.010635969605901806   -0.11923341116358016   -0.005799800167307998
0.012452470669121411   -0.0925631176378477   -0.005740070155685023
0.010712164859634186   -0.1192155512908065   -0.005658653028189828
-0.0010117057867245136   -0.09278867477933384   -0.005644018446850789
0.012462594751088383   -0.09248631389148787   -0.005697644897497789
0.010712164859634186   -0.1192155512908065   -0.005658653028189828
0.012452470669121411   -0.0925631176378477   -0.005740070155685023
-0.0010117057867245136   -0.09278867477933384   -0.005644018446850789
0.010712164859634186   -0.1192155512908065   -0.005658653028189828
-0.002593873467126605   -0.11963088415561324   -0.005739584342892846
-0.002691386779877566   -0.1195577648439275   -0.005834780140617803
-0.0010117057867245136   -0.09278867477933384   -0.005644018446850789
0.010712164859634186   -0.1192155512908065   -0.005658653028189828
-0.002691386779877566   -0.1195577648439275   -0.005834780140617803
0.012452470669121411   -0.0925631176378477   -0.005740070155685023
0.01230254022367773   -0.0926591752752102   -0.005899960767420744
0.010336787922687265   -0.11932587474348473   -0.006159622463987547
0.026917668994517988   -0.09263194882314277   -0.006045125291541507
0.01239292222893102   -0.09261501745434571   -0.005807333476249973
0.010336787922687265   -0.11932587474348473   -0.006159622463987547
0.024543186460948527   -0.11906508153458448   -0.006377639968356744
0.026917668994517988   -0.09263194882314277   -0.006045125291541507
0.024950714329884327   -0.11892468580609408   -0.006124163088350921
0.01239292222893102   -0.09261501745434571   -0.005807333476249973
0.02709557759717859   -0.09251379023533944   -0.005970118787762664
0.024950714329884327   -0.11892468580609408   -0.006124163088350921
0.026917668994517988   -0.09263194882314277   -0.006045125291541507
0.01239292222893102   -0.09261501745434571   -0.005807333476249973
0.024950714329884327   -0.11892468580609408   -0.006124163088350921
0.010492425729420708   -0.11926502329597459   -0.00596620205851036
0.010336787922687265   -0.11932587474348473   -0.006159622463987547
0.01239292222893102   -0.09261501745434571   -0.005807333476249973
0.024950714329884327   -0.11892468580609408   -0.006124163088350921
0.010336787922687265   -0.11932587474348473   -0.006159622463987547
0.026917668994517988   -0.09263194882314277   -0.006045125291541507
0.01239292222893102   -0.09261501745434571   -0.005807333476249973
0.010492425729420708   -0.11926502329597459   -0.00596620205851036
0.02709557759717859   -0.09251379023533944   -0.005970118787762664
0.012452470669121411   -0.0925631176378477   -0.005740070155685023
0.010492425729420708   -0.11926502329597459   -0.00596620205851036
0.024950714329884327   -0.11892468580609408   -0.006124163088350921
0.02709557759717859   -0.09251379023533944   -0.005970118787762664
0.02523000910115977   -0.11885664470446602   -0.005909134132287975
0.012452470669121411   -0.0925631176378477   -0.005740070155685023
0.027188108984761237   -0.09242022487418433   -0.005933623579434491
0.02523000910115977   -0.11885664470446602   -0.005909134132287975
0.02709557759717859   -0.09251379023533944   -0.005970118787762664
0.012452470669121411   -0.0925631176378477   -0.005740070155685023
0.02523000910115977   -0.11885664470446602   -0.005909134132287975
0.010635969605901806   -0.11923341116358016   -0.005799800167307998
0.010492425729420708   -0.11926502329597459   -0.00596620205851036
0.012452470669121411   -0.0925631176378477   -0.005740070155685023
0.02523000910115977   -0.11885664470446602   -0.005909134132287975
0.010492425729420708   -0.11926502329597459   -0.00596620205851036
0.02709557759717859   -0.09251379023533944   -0.005970118787762664
0.012452470669121411   -0.0925631176378477   -0.005740070155685023
0.010635969605901806   -0.11923341116358016   -0.005799800167307998
0.027188108984761237   -0.09242022487418433   -0.005933623579434491
0.012462594751088383   -0.09248631389148787   -0.005697644897497789
0.010635969605901806   -0.11923341116358016   -0.005799800167307998
0.02523000910115977   -0.11885664470446602   -0.005909134132287975
0.027188108984761237   -0.09242022487418433   -0.005933623579434491
0.025477040774064492   -0.11878209548184478   -0.005734141778071316
0.012462594751088383   -0.09248631389148787   -0.005697644897497789
0.027207081422314823   -0.09226931004866669   -0.005936294658022346
0.025477040774064492   -0.11878209548184478   -0.005734141778071316
0.027188108984761237   -0.09242022487418433   -0.005933623579434491
0.012462594751088383   -0.09248631389148787   -0.005697644897497789
0.025477040774064492   -0.11878209548184478   -0.005734141778071316
0.010712164859634186   -0.1192155512908065   -0.005658653028189828
0.010635969605901806   -0.11923341116358016   -0.005799800167307998
0.012462594751088383   -0.09248631389148787   -0.005697644897497789
0.025477040774064492   -0.11878209548184478   -0.005734141778071316
0.010635969605901806   -0.11923341116358016   -0.005799800167307998
0.027188108984761237   -0.09242022487418433   -0.005933623579434491
-0.04352446126538716   -0.11946701516183225   -0.006869718196572426
-0.04236683654113744   -0.14479258273352347   -0.006565697838537693
-0.029056245341167894   -0.11953584738487197   -0.006476954622507913
-0.043476781128112756   -0.11973373222507676   -0.006856353481228328
-0.04236683654113744   -0.14479258273352347   -0.006565697838537693
-0.028939223069657242   -0.14508453755622278   -0.006328585610839482
-0.029056245341167894   -0.11953584738487197   -0.006476954622507913
-0.02876981000524049   -0.14523360537100002   -0.006364178851569942
-0.043476781128112756   -0.11973373222507676   -0.006856353481228328
-0.02897984479875485   -0.1197352642804427   -0.006416725133578367
-0.02876981000524049   -0.14523360537100002   -0.006364178851569942
-0.029056245341167894   -0.11953584738487197   -0.006476954622507913
-0.043476781128112756   -0.11973373222507676   -0.006856353481228328
-0.02876981000524049   -0.14523360537100002   -0.006364178851569942
-0.042061128682355425   -0.14499382209901543   -0.006733372912344204
-0.04236683654113744   -0.14479258273352347   -0.006565697838537693
-0.043476781128112756   -0.11973373222507676   -0.006856353481228328
-0.02876981000524049   -0.14523360537100002   -0.006364178851569942
-0.04236683654113744   -0.14479258273352347   -0.006565697838537693
-0.029056245341167894   -0.11953584738487197   -0.006476954622507913
-0.043476781128112756   -0.11973373222507676   -0.006856353481228328
-0.042061128682355425   -0.14499382209901543   -0.006733372912344204
-0.02897984479875485   -0.1197352642804427   -0.006416725133578367
-0.0433456482831488   -0.1199923082199913   -0.00688362087321477
-0.042061128682355425   -0.14499382209901543   -0.006733372912344204
-0.02876981000524049   -0.14523360537100002   -0.006364178851569942
-0.02897984479875485   -0.1197352642804427   -0.006416725133578367
-0.028540148374736073   -0.1454454142177496   -0.0064277092582145055
-0.0433456482831488   -0.1199923082199913   -0.00688362087321477
-0.028859728180408474   -0.1199558846498277   -0.0063836801513558715
-0.028540148374736073   -0.1454454142177496   -0.0064277092582145055
-0.02897984479875485   -0.1197352642804427   -0.006416725133578367
-0.0433456482831488   -0.1199923082199913   -0.00688362087321477
-0.028540148374736073   -0.1454454142177496   -0.0064277092582145055
-0.0417115579494047   -0.1452402782983114   -0.006944996669477204
-0.042061128682355425   -0.14499382209901543   -0.006733372912344204
-0.0433456482831488   -0.1199923082199913   -0.00688362087321477
-0.028540148374736073   -0.1454454142177496   -0.0064277092582145055
-0.042061128682355425   -0.14499382209901543   -0.006733372912344204
-0.02897984479875485   -0.1197352642804427   -0.006416725133578367
-0.0433456482831488   -0.1199923082199913   -0.00688362087321477
-0.0417115579494047   -0.1452402782983114   -0.006944996669477204
-0.028859728180408474   -0.1199558846498277   -0.0063836801513558715
-0.04313156339131405   -0.12032503999371193   -0.006953544666251052
-0.0417115579494047   -0.1452402782983114   -0.006944996669477204
-0.028540148374736073   -0.1454454142177496   -0.0064277092582145055
-0.028859728180408474   -0.1199558846498277   -0.0063836801513558715
-0.028293591064146004   -0.14573286446865233   -0.006520021345228869
-0.04313156339131405   -0.12032503999371193   -0.006953544666251052
-0.02870360761982268   -0.12021287647583415   -0.0063774024702042955
-0.028293591064146004   -0.14573286446865233   -0.006520021345228869
-0.028859728180408474   -0.1199558846498277   -0.0063836801513558715
-0.04313156339131405   -0.12032503999371193   -0.006953544666251052
-0.028293591064146004   -0.14573286446865233   -0.006520021345228869
-0.04123510341580423   -0.14561516250858156   -0.0072013484763845
-0.0417115579494047   -0.1452402782983114   -0.006944996669477204
-0.04313156339131405   -0.12032503999371193   -0.006953544666251052
-0.028293591064146004   -0.14573286446865233   -0.006520021345228869
-0.0417115579494047   -0.1452402782983114   -0.006944996669477204
-0.028859728180408474   -0.1199558846498277   -0.0063836801513558715
-0.029056245341167894   -0.11953584738487197   -0.006476954622507913
-0.028939223069657242   -0.14508453755622278   -0.006328585610839482
-0.01580473567542742   -0.119551134322088   -0.006215807166646145
-0.02897984479875485   -0.1197352642804427   -0.006416725133578367
-0.028939223069657242   -0.14508453755622278   -0.006328585610839482
-0.0169062512361612   -0.14520057331444677   -0.006176696275161966
-0.01580473567542742   -0.119551134322088   -0.006215807166646145
-0.01672160236967811   -0.1452782593922447   -0.00609922584605159
-0.02897984479875485   -0.1197352642804427   -0.006416725133578367
-0.015701869494102617   -0.11966571046933586   -0.006109377867161563
-0.01672160236967811   -0.1452782593922447   -0.00609922584605159
-0.01580473567542742   -0.119551134322088   -0.006215807166646145
-0.02897984479875485   -0.1197352642804427   -0.006416725133578367
-0.01672160236967811   -0.1452782593922447   -0.00609922584605159
-0.02876981000524049   -0.14523360537100002   -0.006364178851569942
-0.028939223069657242   -0.14508453755622278   -0.006328585610839482
-0.02897984479875485   -0.1197352642804427   -0.006416725133578367
-0.01672160236967811   -0.1452782593922447   -0.00609922584605159
-0.028939223069657242   -0.14508453755622278   -0.006328585610839482
-0.01580473567542742   -0.119551134322088   -0.006215807166646145
-0.02897984479875485   -0.1197352642804427   -0.006416725133578367
-0.02876981000524049   -0.14523360537100002   -0.006364178851569942
-0.015701869494102617   -0.11966571046933586   -0.006109377867161563
-0.028859728180408474   -0.1199558846498277   -0.0063836801513558715
-0.02876981000524049   -0.14523360537100002   -0.006364178851569942
-0.01672160236967811   -0.1452782593922447   -0.00609922584605159
-0.015701869494102617   -0.11966571046933586   -0.006109377867161563
-0.01652291019504214   -0.14541630520634186   -0.006049356085408071
-0.028859728180408474   -0.1199558846498277   -0.0063836801513558715
-0.015585418278948101   -0.1198047241120748   -0.006030244892276197
-0.01652291019504214   -0.14541630520634186   -0.006049356085408071
-0.015701869494102617   -0.11966571046933586   -0.006109377867161563
-0.028859728180408474   -0.1199558846498277   -0.0063836801513558715
-0.01652291019504214   -0.14541630520634186   -0.006049356085408071
-0.028540148374736073   -0.1454454142177496   -0.0064277092582145055
-0.02876981000524049   -0.14523360537100002   -0.006364178851569942
-0.028859728180408474   -0.1199558846498277   -0.0063836801513558715
-0.01652291019504214   -0.14541630520634186   -0.006049356085408071
-0.02876981000524049   -0.14523360537100002   -0.006364178851569942
-0.015701869494102617   -0.11966571046933586   -0.006109377867161563
-0.028859728180408474   -0.1199558846498277   -0.0063836801513558715
-0.028540148374736073   -0.1454454142177496   -0.0064277092582145055
-0.015585418278948101   -0.1198047241120748   -0.006030244892276197
-0.02870360761982268   -0.12021287647583415   -0.0063774024702042955
-0.028540148374736073   -0.1454454142177496   -0.0064277092582145055
-0.01652291019504214   -0.14541630520634186   -0.006049356085408071
-0.015585418278948101   -0.1198047241120748   -0.006030244892276197
-0.016318674867359353   -0.1456164739371077   -0.006028423888125586
-0.02870360761982268   -0.12021287647583415   -0.0063774024702042955
-0.015459830450013638   -0.11996860794515403   -0.005979281137775196
-0.016318674867359353   -0.1456164739371077   -0.006028423888125586
-0.015585418278948101   -0.1198047241120748   -0.006030244892276197
-0.02870360761982268   -0.12021287647583415   -0.0063774024702042955
-0.016318674867359353   -0.1456164739371077   -0.006028423888125586
-0.028293591064146004   -0.14573286446865233   -0.006520021345228869
-0.028540148374736073   -0.1454454142177496   -0.0064277092582145055
-0.02870360761982268   -0.12021287647583415   -0.0063774024702042955
-0.016318674867359353   -0.1456164739371077   -0.006028423888125586
-0.028540148374736073   -0.1454454142177496   -0.0064277092582145055
-0.015585418278948101   -0.1198047241120748   -0.006030244892276197
-0.01580473567542742   -0.119551134322088   -0.006215807166646145
-0.0169062512361612   -0.14520057331444677   -0.006176696275161966
-0.0029284327895158103   -0.11948129989915618   -0.006108354877006754
-0.015701869494102617   -0.11966571046933586   -0.006109377867161563
-0.0169062512361612   -0.14520057331444677   -0.006176696275161966
-0.005238263382918253   -0.14511250786892393   -0.006150663634031411
-0.0029284327895158103   -0.11948129989915618   -0.006108354877006754
-0.005034004192916651   -0.14511476504968285   -0.005964007806887451
-0.015701869494102617   -0.11966571046933586   -0.006109377867161563
-0.0028065808252772306   -0.11950828417049382   -0.005958020883146604
-0.005034004192916651   -0.14511476504968285   -0.005964007806887451
-0.0029284327895158103   -0.11948129989915618   -0.006108354877006754
-0.015701869494102617   -0.11966571046933586   -0.006109377867161563
-0.005034004192916651   -0.14511476504968285   -0.005964007806887451
-0.01672160236967811   -0.1452782593922447   -0.00609922584605159
-0.0169062512361612   -0.14520057331444677   -0.006176696275161966
-0.015701869494102617   -0.11966571046933586   -0.006109377867161563
-0.005034004192916651   -0.14511476504968285   -0.005964007806887451
-0.0169062512361612   -0.14520057331444677   -0.006176696275161966
-0.0029284327895158103   -0.11948129989915618   -0.006108354877006754
-0.015701869494102617   -0.11966571046933586   -0.006109377867161563
-0.01672160236967811   -0.1452782593922447   -0.00609922584605159
-0.0028065808252772306   -0.11950828417049382   -0.005958020883146604
-0.015585418278948101   -0.1198047241120748   -0.006030244892276197
-0.01672160236967811   -0.1452782593922447   -0.00609922584605159
-0.005034004192916651   -0.14511476504968285   -0.005964007806887451
-0.0028065808252772306   -0.11950828417049382   -0.005958020883146604
-0.004835140486356219   -0.14517290942458466   -0.005805012203122582
-0.015585418278948101   -0.1198047241120748   -0.006030244892276197
-0.002691386779877566   -0.1195577648439275   -0.005834780140617803
-0.004835140486356219   -0.14517290942458466   -0.005805012203122582
-0.0028065808252772306   -0.11950828417049382   -0.005958020883146604
-0.015585418278948101   -0.1198047241120748   -0.006030244892276197
-0.004835140486356219   -0.14517290942458466   -0.005805012203122582
-0.01652291019504214   -0.14541630520634186   -0.006049356085408071
-0.01672160236967811   -0.1452782593922447   -0.00609922584605159
-0.015585418278948101   -0.1198047241120748   -0.006030244892276197
-0.004835140486356219   -0.14517290942458466   -0.005805012203122582
-0.01672160236967811   -0.1452782593922447   -0.00609922584605159
-0.0028065808252772306   -0.11950828417049382   -0.005958020883146604
-0.015585418278948101   -0.1198047241120748   -0.006030244892276197
-0.01652291019504214   -0.14541630520634186   -0.006049356085408071
-0.002691386779877566   -0.1195577648439275   -0.005834780140617803
-0.015459830450013638   -0.11996860794515403   -0.005979281137775196
-0.01652291019504214   -0.14541630520634186   -0.006049356085408071
-0.004835140486356219   -0.14517290942458466   -0.005805012203122582
-0.002691386779877566   -0.1195577648439275   -0.005834780140617803
-0.004657831427392699   -0.14529180048185902   -0.0056746423698677785
-0.015459830450013638   -0.11996860794515403   -0.005979281137775196
-0.002593873467126605   -0.11963088415561324   -0.005739584342892846
-0.004657831427392699   -0.14529180048185902   -0.0056746423698677785
-0.002691386779877566   -0.1195577648439275   -0.005834780140617803
-0.015459830450013638   -0.11996860794515403   -0.005979281137775196
-0.004657831427392699   -0.14529180048185902   -0.0056746423698677785
-0.016318674867359353   -0.1456164739371077   -0.006028423888125586
-0.01652291019504214   -0.14541630520634186   -0.006049356085408071
-0.015459830450013638   -0.11996860794515403   -0.005979281137775196
-0.004657831427392699   -0.14529180048185902   -0.0056746423698677785
-0.01652291019504214   -0.14541630520634186   -0.006049356085408071
-0.002691386779877566   -0.1195577648439275   -0.005834780140617803
-0.0029284327895158103   -0.11948129989915618   -0.006108354877006754
-0.005238263382918253   -0.14511250786892393   -0.006150663634031411
0.010336787922687265   -0.11932587474348473   -0.006159622463987547
-0.0028065808252772306   -0.11950828417049382   -0.005958020883146604
-0.005238263382918253   -0.14511250786892393   -0.006150663634031411
0.0068344015974690624   -0.14482658361549203   -0.006260384208985319
0.010336787922687265   -0.11932587474348473   -0.006159622463987547
0.007084089731183506   -0.14474833531297357   -0.005965618066573177
-0.0028065808252772306   -0.11950828417049382   -0.005958020883146604
0.010492425729420708   -0.11926502329597459   -0.00596620205851036
0.007084089731183506   -0.14474833531297357   -0.005965618066573177
0.010336787922687265   -0.11932587474348473   -0.006159622463987547
-0.0028065808252772306   -0.11950828417049382   -0.005958020883146604
0.007084089731183506   -0.14474833531297357   -0.005965618066573177
-0.005034004192916651   -0.14511476504968285   -0.005964007806887451
-0.005238263382918253   -0.14511250786892393   -0.006150663634031411
-0.0028065808252772306   -0.11950828417049382   -0.005958020883146604
0.007084089731183506   -0.14474833531297357   -0.005965618066573177
-0.005238263382918253   -0.14511250786892393   -0.006150663634031411
0.010336787922687265   -0.11932587474348473   -0.006159622463987547
-0.0028065808252772306   -0.11950828417049382   -0.005958020883146604
-0.005034004192916651   -0.14511476504968285   -0.005964007806887451
0.010492425729420708   -0.11926502329597459   -0.00596620205851036
-0.002691386779877566   -0.1195577648439275   -0.005834780140617803
-0.005034004192916651   -0.14511476504968285   -0.005964007806887451
0.007084089731183506   -0.14474833531297357   -0.005965618066573177
0.010492425729420708   -0.11926502329597459   -0.00596620205851036
0.007339937972166109   -0.1447339131669474   -0.005700296161792111
-0.002691386779877566   -0.1195577648439275   -0.005834780140617803
0.010635969605901806   -0.11923341116358016   -0.005799800167307998
0.007339937972166109   -0.1447339131669474   -0.005700296161792111
0.010492425729420708   -0.11926502329597459   -0.00596620205851036
-0.002691386779877566   -0.1195577648439275   -0.005834780140617803
0.007339937972166109   -0.1447339131669474   -0.005700296161792111
-0.004835140486356219   -0.14517290942458466   -0.005805012203122582
-0.005034004192916651   -0.14511476504968285   -0.005964007806887451
-0.002691386779877566   -0.1195577648439275   -0.005834780140617803
0.007339937972166109   -0.1447339131669474   -0.005700296161792111
-0.005034004192916651   -0.14511476504968285   -0.005964007806887451
0.010492425729420708   -0.11926502329597459   -0.00596620205851036
-0.002691386779877566   -0.1195577648439275   -0.005834780140617803
-0.004835140486356219   -0.14517290942458466   -0.005805012203122582
0.010635969605901806   -0.11923341116358016   -0.005799800167307998
-0.002593873467126605   -0.11963088415561324   -0.005739584342892846
-0.004835140486356219   -0.14517290942458466   -0.005805012203122582
0.007339937972166109   -0.1447339131669474   -0.005700296161792111
0.010635969605901806   -0.11923341116358016   -0.005799800167307998
0.007509774879598646   -0.14477150289589472   -0.005460539569235246
-0.002593873467126605   -0.11963088415561324   -0.005739584342892846
0.010712164859634186   -0.1192155512908065   -0.005658653028189828
0.007509774879598646   -0.14477150289589472   -0.005460539569235246
0.010635969605901806   -0.11923341116358016   -0.005799800167307998
-0.002593873467126605   -0.11963088415561324   -0.005739584342892846
0.007509774879598646   -0.14477150289589472   -0.005460539569235246
-0.004657831427392699   -0.14529180048185902   -0.0056746423698677785
-0.004835140486356219   -0.14517290942458466   -0.005805012203122582
-0.002593873467126605   -0.11963088415561324   -0.005739584342892846
0.007509774879598646   -0.14477150289589472   -0.005460539569235246
-0.004835140486356219   -0.14517290942458466   -0.005805012203122582
0.010635969605901806   -0.11923341116358016   -0.005799800167307998
0.010336787922687265   -0.11932587474348473   -0.006159622463987547
0.0068344015974690624   -0.14482658361549203   -0.006260384208985319
0.024543186460948527   -0.11906508153458448   -0.006377639968356744
0.010492425729420708   -0.11926502329597459   -0.00596620205851036
0.0068344015974690624   -0.14482658361549203   -0.006260384208985319
0.01968315046360465   -0.1443351676013821   -0.006545255053822105
0.024543186460948527   -0.11906508153458448   -0.006377639968356744
0.020347253046507367   -0.144173427470897   -0.006116615823301709
0.010492425729420708   -0.11926502329597459   -0.00596620205851036
0.024950714329884327   -0.11892468580609408   -0.006124163088350921
0.020347253046507367   -0.144173427470897   -0.006116615823301709
0.024543186460948527   -0.11906508153458448   -0.006377639968356744
0.010492425729420708   -0.11926502329597459   -0.00596620205851036
0.020347253046507367   -0.144173427470897   -0.006116615823301709
0.007084089731183506   -0.14474833531297357   -0.005965618066573177
0.0068344015974690624   -0.14482658361549203   -0.006260384208985319
0.010492425729420708   -0.11926502329597459   -0.00596620205851036
0.020347253046507367   -0.144173427470897   -0.006116615823301709
0.0068344015974690624   -0.14482658361549203   -0.006260384208985319
0.024543186460948527   -0.11906508153458448   -0.006377639968356744
0.010492425729420708   -0.11926502329597459   -0.00596620205851036
0.007084089731183506   -0.14474833531297357   -0.005965618066573177
0.024950714329884327   -0.11892468580609408   -0.006124163088350921
0.010635969605901806   -0.11923341116358016   -0.005799800167307998
0.007084089731183506   -0.14474833531297357   -0.005965618066573177
0.020347253046507367   -0.144173427470897   -0.006116615823301709
0.024950714329884327   -0.11892468580609408   -0.006124163088350921
0.020838621538996894   -0.14412911882774948   -0.005727106736806526
0.010635969605901806   -0.11923341116358016   -0.005799800167307998
0.02523000910115977   -0.11885664470446602   -0.005909134132287975
0.020838621538996894   -0.14412911882774948   -0.005727106736806526
0.024950714329884327   -0.11892468580609408   -0.006124163088350921
0.010635969605901806   -0.11923341116358016   -0.005799800167307998
0.020838621538996894   -0.14412911882774948   -0.005727106736806526
0.007339937972166109   -0.1447339131669474   -0.005700296161792111
0.007084089731183506   -0.14474833531297357   -0.005965618066573177
0.010635969605901806   -0.11923341116358016   -0.005799800167307998
0.020838621538996894   -0.14412911882774948   -0.005727106736806526
0.007084089731183506   -0.14474833531297357   -0.005965618066573177
0.024950714329884327   -0.11892468580609408   -0.006124163088350921
0.010635969605901806   -0.11923341116358016   -0.005799800167307998
0.007339937972166109   -0.1447339131669474   -0.005700296161792111
0.02523000910115977   -0.11885664470446602   -0.005909134132287975
0.010712164859634186   -0.1192155512908065   -0.005658653028189828
0.007339937972166109   -0.1447339131669474   -0.005700296161792111
0.020838621538996894   -0.14412911882774948   -0.005727106736806526
0.02523000910115977   -0.11885664470446602   -0.005909134132287975
0.021336058613831255   -0.1441285447940692   -0.005378491232899262
0.010712164859634186   -0.1192155512908065   -0.005658653028189828
0.025477040774064492   -0.11878209548184478   -0.005734141778071316
0.021336058613831255   -0.1441285447940692   -0.005378491232899262
0.02523000910115977   -0.11885664470446602   -0.005909134132287975
0.010712164859634186   -0.1192155512908065   -0.005658653028189828
0.021336058613831255   -0.1441285447940692   -0.005378491232899262
0.007509774879598646   -0.14477150289589472   -0.005460539569235246
0.007339937972166109   -0.1447339131669474   -0.005700296161792111
0.010712164859634186   -0.1192155512908065   -0.005658653028189828
0.021336058613831255   -0.1441285447940692   -0.005378491232899262
0.007339937972166109   -0.1447339131669474   -0.005700296161792111
0.02523000910115977   -0.11885664470446602   -0.005909134132287975
-0.04236683654113744   -0.14479258273352347   -0.006565697838537693
-0.03866219899133112   -0.1672153633183672   -0.006120932646899071
-0.028939223069657242   -0.14508453755622278   -0.006328585610839482
-0.042061128682355425   -0.14499382209901543   -0.006733372912344204
-0.03866219899133112   -0.1672153633183672   -0.006120932646899071
-0.027357675754728895   -0.16774324341249228   -0.00608230535384996
-0.028939223069657242   -0.14508453755622278   -0.006328585610839482
-0.027074718275526113   -0.16781967368287362   -0.006206961010605772
-0.042061128682355425   -0.14499382209901543   -0.006733372912344204
-0.02876981000524049   -0.14523360537100002   -0.006364178851569942
-0.027074718275526113   -0.16781967368287362   -0.006206961010605772
-0.028939223069657242   -0.14508453755622278   -0.006328585610839482
-0.042061128682355425   -0.14499382209901543   -0.006733372912344204
-0.027074718275526113   -0.16781967368287362   -0.006206961010605772
-0.0380737277575291   -0.16732888453524183   -0.006469499985801917
-0.03866219899133112   -0.1672153633183672   -0.006120932646899071
-0.042061128682355425   -0.14499382209901543   -0.006733372912344204
-0.027074718275526113   -0.16781967368287362   -0.006206961010605772
-0.03866219899133112   -0.1672153633183672   -0.006120932646899071
-0.028939223069657242   -0.14508453755622278   -0.006328585610839482
-0.042061128682355425   -0.14499382209901543   -0.006733372912344204
-0.0380737277575291   -0.16732888453524183   -0.006469499985801917
-0.02876981000524049   -0.14523360537100002   -0.006364178851569942
-0.0417115579494047   -0.1452402782983114   -0.006944996669477204
-0.0380737277575291   -0.16732888453524183   -0.006469499985801917
-0.027074718275526113   -0.16781967368287362   -0.006206961010605772
-0.02876981000524049   -0.14523360537100002   -0.006364178851569942
-0.02671935385660459   -0.16800238931028216   -0.0063600302658000365
-0.0417115579494047   -0.1452402782983114   -0.006944996669477204
-0.028540148374736073   -0.1454454142177496   -0.0064277092582145055
-0.02671935385660459   -0.16800238931028216   -0.0063600302658000365
-0.02876981000524049   -0.14523360537100002   -0.006364178851569942
-0.0417115579494047   -0.1452402782983114   -0.006944996669477204
-0.02671935385660459   -0.16800238931028216   -0.0063600302658000365
-0.03748629618880594   -0.1675432966698345   -0.006864338891275315
-0.0380737277575291   -0.16732888453524183   -0.006469499985801917
-0.0417115579494047   -0.1452402782983114   -0.006944996669477204
-0.02671935385660459   -0.16800238931028216   -0.0063600302658000365
-0.0380737277575291   -0.16732888453524183   -0.006469499985801917
-0.02876981000524049   -0.14523360537100002   -0.006364178851569942
-0.0417115579494047   -0.1452402782983114   -0.006944996669477204
-0.03748629618880594   -0.1675432966698345   -0.006864338891275315
-0.028540148374736073   -0.1454454142177496   -0.0064277092582145055
-0.04123510341580423   -0.14561516250858156   -0.0072013484763845
-0.03748629618880594   -0.1675432966698345   -0.006864338891275315
-0.02671935385660459   -0.16800238931028216   -0.0063600302658000365
-0.028540148374736073   -0.1454454142177496   -0.0064277092582145055
-0.02636863566431589   -0.16830176040254388   -0.006541247709057998
-0.04123510341580423   -0.14561516250858156   -0.0072013484763845
-0.028293591064146004   -0.14573286446865233   -0.006520021345228869
-0.02636863566431589   -0.16830176040254388   -0.006541247709057998
-0.028540148374736073   -0.1454454142177496   -0.0064277092582145055
-0.04123510341580423   -0.14561516250858156   -0.0072013484763845
-0.02636863566431589   -0.16830176040254388   -0.006541247709057998
-0.03673370464591235   -0.16794310722902478   -0.007304560559297213
-0.03748629618880594   -0.1675432966698345   -0.006864338891275315
-0.04123510341580423   -0.14561516250858156   -0.0072013484763845
-0.02636863566431589   -0.16830176040254388   -0.006541247709057998
-0.03748629618880594   -0.1675432966698345   -0.006864338891275315
-0.028540148374736073   -0.1454454142177496   -0.0064277092582145055
-0.028939223069657242   -0.14508453755622278   -0.006328585610839482
-0.027357675754728895   -0.16774324341249228   -0.00608230535384996
-0.0169062512361612   -0.14520057331444677   -0.006176696275161966
-0.02876981000524049   -0.14523360537100002   -0.006364178851569942
-0.027357675754728895   -0.16774324341249228   -0.00608230535384996
-0.017574989151875015   -0.1679913885399553   -0.00606671080902782
-0.0169062512361612   -0.14520057331444677   -0.006176696275161966
-0.017284514798594754   -0.168016588049437   -0.006011143558312083
-0.02876981000524049   -0.14523360537100002   -0.006364178851569942
-0.01672160236967811   -0.1452782593922447   -0.00609922584605159
-0.017284514798594754   -0.168016588049437   -0.006011143558312083
-0.0169062512361612   -0.14520057331444677   -0.006176696275161966
-0.02876981000524049   -0.14523360537100002   -0.006364178851569942
-0.017284514798594754   -0.168016588049437   -0.006011143558312083
-0.027074718275526113   -0.16781967368287362   -0.006206961010605772
-0.027357675754728895   -0.16774324341249228   -0.00608230535384996
-0.02876981000524049   -0.14523360537100002   -0.006364178851569942
-0.017284514798594754   -0.168016588049437   -0.006011143558312083
-0.027357675754728895   -0.16774324341249228   -0.00608230535384996
-0.0169062512361612   -0.14520057331444677   -0.006176696275161966
-0.02876981000524049   -0.14523360537100002   -0.006364178851569942
-0.027074718275526113   -0.16781967368287362   -0.006206961010605772
-0.01672160236967811   -0.1452782593922447   -0.00609922584605159
-0.028540148374736073   -0.1454454142177496   -0.0064277092582145055
-0.027074718275526113   -0.16781967368287362   -0.006206961010605772
-0.017284514798594754   -0.168016588049437   -0.006011143558312083
-0.01672160236967811   -0.1452782593922447   -0.00609922584605159
-0.016984774556107408   -0.16813665435217257   -0.005983149583485429
-0.028540148374736073   -0.1454454142177496   -0.0064277092582145055
-0.01652291019504214   -0.14541630520634186   -0.006049356085408071
-0.016984774556107408   -0.16813665435217257   -0.005983149583485429
-0.01672160236967811   -0.1452782593922447   -0.00609922584605159
-0.028540148374736073   -0.1454454142177496   -0.0064277092582145055
-0.016984774556107408   -0.16813665435217257   -0.005983149583485429
-0.02671935385660459   -0.16800238931028216   -0.0063600302658000365
-0.027074718275526113   -0.16781967368287362   -0.006206961010605772
-0.028540148374736073   -0.1454454142177496   -0.0064277092582145055
-0.016984774556107408   -0.16813665435217257   -0.005983149583485429
-0.027074718275526113   -0.16781967368287362   -0.006206961010605772
-0.01672160236967811   -0.1452782593922447   -0.00609922584605159
-0.028540148374736073   -0.1454454142177496   -0.0064277092582145055
-0.02671935385660459   -0.16800238931028216   -0.0063600302658000365
-0.01652291019504214   -0.14541630520634186   -0.006049356085408071
-0.028293591064146004   -0.14573286446865233   -0.006520021345228869
-0.02671935385660459   -0.16800238931028216   -0.0063600302658000365
-0.016984774556107408   -0.16813665435217257   -0.005983149583485429
-0.01652291019504214   -0.14541630520634186   -0.006049356085408071
-0.016685558817892236   -0.1683572598355999   -0.005982348982126998
-0.028293591064146004   -0.14573286446865233   -0.006520021345228869
-0.016318674867359353   -0.1456164739371077   -0.006028423888125586
-0.016685558817892236   -0.1683572598355999   -0.005982348982126998
-0.01652291019504214   -0.14541630520634186   -0.006049356085408071
-0.028293591064146004   -0.14573286446865233   -0.006520021345228869
-0.016685558817892236   -0.1683572598355999   -0.005982348982126998
-0.02636863566431589   -0.16830176040254388   -0.006541247709057998
-0.02671935385660459   -0.16800238931028216   -0.0063600302658000365
-0.028293591064146004   -0.14573286446865233   -0.006520021345228869
-0.016685558817892236   -0.1683572598355999   -0.005982348982126998
-0.02671935385660459   -0.16800238931028216   -0.0063600302658000365
-0.01652291019504214   -0.14541630520634186   -0.006049356085408071
-0.0169062512361612   -0.14520057331444677   -0.006176696275161966
-0.017574989151875015   -0.1679913885399553   -0.00606671080902782
-0.005238263382918253   -0.14511250786892393   -0.006150663634031411
-0.01672160236967811   -0.1452782593922447   -0.00609922584605159
-0.017574989151875015   -0.1679913885399553   -0.00606671080902782
-0.008117662449076277   -0.16794806963676306   -0.006136198034913411
-0.005238263382918253   -0.14511250786892393   -0.006150663634031411
-0.007799474443959165   -0.16791579756075242   -0.005906749068756057
-0.01672160236967811   -0.1452782593922447   -0.00609922584605159
-0.005034004192916651   -0.14511476504968285   -0.005964007806887451
-0.007799474443959165   -0.16791579756075242   -0.005906749068756057
-0.005238263382918253   -0.14511250786892393   -0.006150663634031411
-0.01672160236967811   -0.1452782593922447   -0.00609922584605159
-0.007799474443959165   -0.16791579756075242   -0.005906749068756057
-0.017284514798594754   -0.168016588049437   -0.006011143558312083
-0.017574989151875015   -0.1679913885399553   -0.00606671080902782
-0.01672160236967811   -0.1452782593922447   -0.00609922584605159
-0.007799474443959165   -0.16791579756075242   -0.005906749068756057
-0.017574989151875015   -0.1679913885399553   -0.00606671080902782
-0.005238263382918253   -0.14511250786892393   -0.006150663634031411
-0.01672160236967811   -0.1452782593922447   -0.00609922584605159
-0.017284514798594754   -0.168016588049437   -0.006011143558312083
-0.005034004192916651   -0.14511476504968285   -0.005964007806887451
-0.01652291019504214   -0.14541630520634186   -0.006049356085408071
-0.017284514798594754   -0.168016588049437   -0.006011143558312083
-0.007799474443959165   -0.16791579756075242   -0.005906749068756057
-0.005034004192916651   -0.14511476504968285   -0.005964007806887451
-0.007490764763877405   -0.16796921078619018   -0.005706688147115137
-0.01652291019504214   -0.14541630520634186   -0.006049356085408071
-0.004835140486356219   -0.14517290942458466   -0.005805012203122582
-0.007490764763877405   -0.16796921078619018   -0.005706688147115137
-0.005034004192916651   -0.14511476504968285   -0.005964007806887451
-0.01652291019504214   -0.14541630520634186   -0.006049356085408071
-0.007490764763877405   -0.16796921078619018   -0.005706688147115137
-0.016984774556107408   -0.16813665435217257   -0.005983149583485429
-0.017284514798594754   -0.168016588049437   -0.006011143558312083
-0.01652291019504214   -0.14541630520634186   -0.006049356085408071
-0.007490764763877405   -0.16796921078619018   -0.005706688147115137
-0.017284514798594754   -0.168016588049437   -0.006011143558312083
-0.005034004192916651   -0.14511476504968285   -0.005964007806887451
-0.01652291019504214   -0.14541630520634186   -0.006049356085408071
-0.016984774556107408   -0.16813665435217257   -0.005983149583485429
-0.004835140486356219   -0.14517290942458466   -0.005805012203122582
-0.016318674867359353   -0.1456164739371077   -0.006028423888125586
-0.016984774556107408   -0.16813665435217257   -0.005983149583485429
-0.007490764763877405   -0.16796921078619018   -0.005706688147115137
-0.004835140486356219   -0.14517290942458466   -0.005805012203122582
-0.0072119451789897406   -0.16812091362028977   -0.005533456375602146
-0.016318674867359353   -0.1456164739371077   -0.006028423888125586
-0.004657831427392699   -0.14529180048185902   -0.0056746423698677785
-0.0072119451789897406   -0.16812091362028977   -0.005533456375602146
-0.004835140486356219   -0.14517290942458466   -0.005805012203122582
-0.016318674867359353   -0.1456164739371077   -0.006028423888125586
-0.0072119451789897406   -0.16812091362028977   -0.005533456375602146
-0.016685558817892236   -0.1683572598355999   -0.005982348982126998
-0.016984774556107408   -0.16813665435217257   -0.005983149583485429
-0.016318674867359353   -0.1456164739371077   -0.006028423888125586
-0.0072119451789897406   -0.16812091362028977   -0.005533456375602146
-0.016984774556107408   -0.16813665435217257   -0.005983149583485429
-0.004835140486356219   -0.14517290942458466   -0.005805012203122582
-0.005238263382918253   -0.14511250786892393   -0.006150663634031411
-0.008117662449076277   -0.16794806963676306   -0.006136198034913411
0.0068344015974690624   -0.14482658361549203   -0.006260384208985319
-0.005034004192916651   -0.14511476504968285   -0.005964007806887451
-0.008117662449076277   -0.16794806963676306   -0.006136198034913411
0.0017870555713631415   -0.16760289462287553   -0.006306292242016553
0.0068344015974690624   -0.14482658361549203   -0.006260384208985319
0.0021739522894251586   -0.1674975149250347   -0.005903610104881043
-0.005034004192916651   -0.14511476504968285   -0.005964007806887451
0.007084089731183506   -0.14474833531297357   -0.005965618066573177
0.0021739522894251586   -0.1674975149250347   -0.005903610104881043
0.0068344015974690624   -0.14482658361549203   -0.006260384208985319
-0.005034004192916651   -0.14511476504968285   -0.005964007806887451
0.0021739522894251586   -0.1674975149250347   -0.005903610104881043
-0.007799474443959165   -0.16791579756075242   -0.005906749068756057
-0.008117662449076277   -0.16794806963676306   -0.006136198034913411
-0.005034004192916651   -0.14511476504968285   -0.005964007806887451
0.0021739522894251586   -0.1674975149250347   -0.005903610104881043
-0.008117662449076277   -0.16794806963676306   -0.006136198034913411
0.0068344015974690624   -0.14482658361549203   -0.006260384208985319
-0.005034004192916651   -0.14511476504968285   -0.005964007806887451
-0.007799474443959165   -0.16791579756075242   -0.005906749068756057
0.007084089731183506   -0.14474833531297357   -0.005965618066573177
-0.004835140486356219   -0.14517290942458466   -0.005805012203122582
-0.007799474443959165   -0.16791579756075242   -0.005906749068756057
0.0021739522894251586   -0.1674975149250347   -0.005903610104881043
0.007084089731183506   -0.14474833531297357   -0.005965618066573177
0.0025813827899815052   -0.1674879489605119   -0.005538205485056644
-0.004835140486356219   -0.14517290942458466   -0.005805012203122582
0.007339937972166109   -0.1447339131669474   -0.005700296161792111
0.0025813827899815052   -0.1674879489605119   -0.005538205485056644
0.007084089731183506   -0.14474833531297357   -0.005965618066573177
-0.004835140486356219   -0.14517290942458466   -0.005805012203122582
0.0025813827899815052   -0.1674879489605119   -0.005538205485056644
-0.007490764763877405   -0.16796921078619018   -0.005706688147115137
-0.007799474443959165   -0.16791579756075242   -0.005906749068756057
-0.004835140486356219   -0.14517290942458466   -0.005805012203122582
0.0025813827899815052   -0.1674879489605119   -0.005538205485056644
-0.007799474443959165   -0.16791579756075242   -0.005906749068756057
0.007084089731183506   -0.14474833531297357   -0.005965618066573177
-0.004835140486356219   -0.14517290942458466   -0.005805012203122582
-0.007490764763877405   -0.16796921078619018   -0.005706688147115137
0.007339937972166109   -0.1447339131669474   -0.005700296161792111
-0.004657831427392699   -0.14529180048185902   -0.0056746423698677785
-0.007490764763877405   -0.16796921078619018   -0.005706688147115137
0.0025813827899815052   -0.1674879489605119   -0.005538205485056644
0.007339937972166109   -0.1447339131669474   -0.005700296161792111
0.00287937096508546   -0.1675698802567   -0.005198479904721815
-0.004657831427392699   -0.14529180048185902   -0.0056746423698677785
0.007509774879598646   -0.14477150289589472   -0.005460539569235246
0.00287937096508546   -0.1675698802567   -0.005198479904721815
0.007339937972166109   -0.1447339131669474   -0.005700296161792111
-0.004657831427392699   -0.14529180048185902   -0.0056746423698677785
0.00287937096508546   -0.1675698802567   -0.005198479904721815
-0.0072119451789897406   -0.16812091362028977   -0.005533456375602146
-0.007490764763877405   -0.16796921078619018   -0.005706688147115137
-0.004657831427392699   -0.14529180048185902   -0.0056746423698677785
0.00287937096508546   -0.1675698802567   -0.005198479904721815
-0.007490764763877405   -0.16796921078619018   -0.005706688147115137
0.007339937972166109   -0.1447339131669474   -0.005700296161792111
0.0068344015974690624   -0.14482658361549203   -0.006260384208985319
0.0017870555713631415   -0.16760289462287553   -0.006306292242016553
0.01968315046360465   -0.1443351676013821   -0.006545255053822105
0.007084089731183506   -0.14474833531297357   -0.005965618066573177
0.0017870555713631415   -0.16760289462287553   -0.006306292242016553
0.012354681906963831   -0.16692300657315617   -0.006671409128967287
0.01968315046360465   -0.1443351676013821   -0.006545255053822105
0.013332223420745588   -0.1667205090007487   -0.006055252173401682
0.007084089731183506   -0.14474833531297357   -0.005965618066573177
0.020347253046507367   -0.144173427470897   -0.006116615823301709
0.013332223420745588   -0.1667205090007487   -0.006055252173401682
0.01968315046360465   -0.1443351676013821   -0.006545255053822105
0.007084089731183506   -0.14474833531297357   -0.005965618066573177
0.013332223420745588   -0.1667205090007487   -0.006055252173401682
0.0021739522894251586   -0.1674975149250347   -0.005903610104881043
0.0017870555713631415   -0.16760289462287553   -0.006306292242016553
0.007084089731183506   -0.14474833531297357   -0.005965618066573177
0.013332223420745588   -0.1667205090007487   -0.006055252173401682
0.0017870555713631415   -0.16760289462287553   -0.006306292242016553
0.01968315046360465   -0.1443351676013821   -0.006545255053822105
0.007084089731183506   -0.14474833531297357   -0.005965618066573177
0.0021739522894251586   -0.1674975149250347   -0.005903610104881043
0.020347253046507367   -0.144173427470897   -0.006116615823301709
0.007339937972166109   -0.1447339131669474   -0.005700296161792111
0.0021739522894251586   -0.1674975149250347   -0.005903610104881043
0.013332223420745588   -0.1667205090007487   -0.006055252173401682
0.020347253046507367   -0.144173427470897   -0.006116615823301709
0.014081552455901642   -0.1666854545292176   -0.0054853129646884645
0.007339937972166109   -0.1447339131669474   -0.005700296161792111
0.020838621538996894   -0.14412911882774948   -0.005727106736806526
0.014081552455901642   -0.1666854545292176   -0.0054853129646884645
0.020347253046507367   -0.144173427470897   -0.006116615823301709
0.007339937972166109   -0.1447339131669474   -0.005700296161792111
0.014081552455901642   -0.1666854545292176   -0.0054853129646884645
0.0025813827899815052   -0.1674879489605119   -0.005538205485056644
0.0021739522894251586   -0.1674975149250347   -0.005903610104881043
0.007339937972166109   -0.1447339131669474   -0.005700296161792111
0.014081552455901642   -0.1666854545292176   -0.0054853129646884645
0.0021739522894251586   -0.1674975149250347   -0.005903610104881043
0.020347253046507367   -0.144173427470897   -0.006116615823301709
0.007339937972166109   -0.1447339131669474   -0.005700296161792111
0.0025813827899815052   -0.1674879489605119   -0.005538205485056644
0.020838621538996894   -0.14412911882774948   -0.005727106736806526
0.007509774879598646   -0.14477150289589472   -0.005460539569235246
0.0025813827899815052   -0.1674879489605119   -0.005538205485056644
0.014081552455901642   -0.1666854545292176   -0.0054853129646884645
0.020838621538996894   -0.14412911882774948   -0.005727106736806526
0.014856854117210973   -0.16674512659115648   -0.004966266635358928
0.007509774879598646   -0.14477150289589472   -0.005460539569235246
0.021336058613831255   -0.1441285447940692   -0.005378491232899262
0.014856854117210973   -0.16674512659115648   -0.004966266635358928
0.020838621538996894   -0.14412911882774948   -0.005727106736806526
0.007509774879598646   -0.14477150289589472   -0.005460539569235246
0.014856854117210973   -0.16674512659115648   -0.004966266635358928
0.00287937096508546   -0.1675698802567   -0.005198479904721815
0.0025813827899815052   -0.1674879489605119   -0.005538205485056644
0.007509774879598646   -0.14477150289589472   -0.005460539569235246
0.014856854117210973   -0.16674512659115648   -0.004966266635358928
0.0025813827899815052   -0.1674879489605119   -0.005538205485056644
0.020838621538996894   -0.14412911882774948   -0.005727106736806526
-0.03866219899133112   -0.1672153633183672   -0.006120932646899071
-0.03235924625126061   -0.18482216766117643   -0.005551815664092152
-0.027357675754728895   -0.16774324341249228   -0.00608230535384996
-0.0380737277575291   -0.16732888453524183   -0.006469499985801917
-0.03235924625126061   -0.18482216766117643   -0.005551815664092152
-0.02431671021193092   -0.1856052144120105   -0.005786971930509412
-0.027357675754728895   -0.16774324341249228   -0.00608230535384996
-0.023907820141227727   -0.1855644150035579   -0.005978887877809811
-0.0380737277575291   -0.16732888453524183   -0.006469499985801917
-0.027074718275526113   -0.16781967368287362   -0.006206961010605772
-0.023907820141227727   -0.1855644150035579   -0.005978887877809811
-0.027357675754728895   -0.16774324341249228   -0.00608230535384996
-0.0380737277575291   -0.16732888453524183   -0.006469499985801917
-0.023907820141227727   -0.1855644150035579   -0.005978887877809811
-0.031479795907627464   -0.1847998215675969   -0.00606935534386952
-0.03235924625126061   -0.18482216766117643   -0.005551815664092152
-0.0380737277575291   -0.16732888453524183   -0.006469499985801917
-0.023907820141227727   -0.1855644150035579   -0.005978887877809811
-0.03235924625126061   -0.18482216766117643   -0.005551815664092152
-0.027357675754728895   -0.16774324341249228   -0.00608230535384996
-0.0380737277575291   -0.16732888453524183   -0.006469499985801917
-0.031479795907627464   -0.1847998215675969   -0.00606935534386952
-0.027074718275526113   -0.16781967368287362   -0.006206961010605772
-0.03748629618880594   -0.1675432966698345   -0.006864338891275315
-0.031479795907627464   -0.1847998215675969   -0.00606935534386952
-0.023907820141227727   -0.1855644150035579   -0.005978887877809811
-0.027074718275526113   -0.16781967368287362   -0.006206961010605772
-0.02342721764411738   -0.1856763030818618   -0.0061998926972867
-0.03748629618880594   -0.1675432966698345   -0.006864338891275315
-0.02671935385660459   -0.16800238931028216   -0.0063600302658000365
-0.02342721764411738   -0.1856763030818618   -0.0061998926972867
-0.027074718275526113   -0.16781967368287362   -0.006206961010605772
-0.03748629618880594   -0.1675432966698345   -0.006864338891275315
-0.02342721764411738   -0.1856763030818618   -0.0061998926972867
-0.030668803689402464   -0.1849381981347933   -0.0066278390604565625
-0.031479795907627464   -0.1847998215675969   -0.00606935534386952
-0.03748629618880594   -0.1675432966698345   -0.006864338891275315
-0.02342721764411738   -0.1856763030818618   -0.0061998926972867
-0.031479795907627464   -0.1847998215675969   -0.00606935534386952
-0.027074718275526113   -0.16781967368287362   -0.006206961010605772
-0.03748629618880594   -0.1675432966698345   -0.006864338891275315
-0.030668803689402464   -0.1849381981347933   -0.0066278390604565625
-0.02671935385660459   -0.16800238931028216   -0.0063600302658000365
-0.03673370464591235   -0.16794310722902478   -0.007304560559297213
-0.030668803689402464   -0.1849381981347933   -0.0066278390604565625
-0.02342721764411738   -0.1856763030818618   -0.0061998926972867
-0.02671935385660459   -0.16800238931028216   -0.0063600302658000365
-0.022991199445973456   -0.18594337996896831   -0.0064481192770798135
-0.03673370464591235   -0.16794310722902478   -0.007304560559297213
-0.02636863566431589   -0.16830176040254388   -0.006541247709057998
-0.022991199445973456   -0.18594337996896831   -0.0064481192770798135
-0.02671935385660459   -0.16800238931028216   -0.0063600302658000365
-0.03673370464591235   -0.16794310722902478   -0.007304560559297213
-0.022991199445973456   -0.18594337996896831   -0.0064481192770798135
-0.02967988968108248   -0.18530879587201904   -0.00722481839614826
-0.030668803689402464   -0.1849381981347933   -0.0066278390604565625
-0.03673370464591235   -0.16794310722902478   -0.007304560559297213
-0.022991199445973456   -0.18594337996896831   -0.0064481192770798135
-0.030668803689402464   -0.1849381981347933   -0.0066278390604565625
-0.02671935385660459   -0.16800238931028216   -0.0063600302658000365
-0.027357675754728895   -0.16774324341249228   -0.00608230535384996
-0.02431671021193092   -0.1856052144120105   -0.005786971930509412
-0.017574989151875015   -0.1679913885399553   -0.00606671080902782
-0.027074718275526113   -0.16781967368287362   -0.006206961010605772
-0.02431671021193092   -0.1856052144120105   -0.005786971930509412
-0.01775270552490245   -0.18611496502495592   -0.005970928750810079
-0.017574989151875015   -0.1679913885399553   -0.00606671080902782
-0.017332823882135525   -0.18605008279915267   -0.005912168231372082
-0.027074718275526113   -0.16781967368287362   -0.006206961010605772
-0.017284514798594754   -0.168016588049437   -0.006011143558312083
-0.017332823882135525   -0.18605008279915267   -0.005912168231372082
-0.017574989151875015   -0.1679913885399553   -0.00606671080902782
-0.027074718275526113   -0.16781967368287362   -0.006206961010605772
-0.017332823882135525   -0.18605008279915267   -0.005912168231372082
-0.023907820141227727   -0.1855644150035579   -0.005978887877809811
-0.02431671021193092   -0.1856052144120105   -0.005786971930509412
-0.027074718275526113   -0.16781967368287362   -0.006206961010605772
-0.017332823882135525   -0.18605008279915267   -0.005912168231372082
-0.02431671021193092   -0.1856052144120105   -0.005786971930509412
-0.017574989151875015   -0.1679913885399553   -0.00606671080902782
-0.027074718275526113   -0.16781967368287362   -0.006206961010605772
-0.023907820141227727   -0.1855644150035579   -0.005978887877809811
-0.017284514798594754   -0.168016588049437   -0.006011143558312083
-0.02671935385660459   -0.16800238931028216   -0.0063600302658000365
-0.023907820141227727   -0.1855644150035579   -0.005978887877809811
-0.017332823882135525   -0.18605008279915267   -0.005912168231372082
-0.017284514798594754   -0.168016588049437   -0.006011143558312083
-0.01691903125824005   -0.18611689831626432   -0.005881639141247942
-0.02671935385660459   -0.16800238931028216   -0.0063600302658000365
-0.016984774556107408   -0.16813665435217257   -0.005983149583485429
-0.01691903125824005   -0.18611689831626432   -0.005881639141247942
-0.017284514798594754   -0.168016588049437   -0.006011143558312083
-0.02671935385660459   -0.16800238931028216   -0.0063600302658000365
-0.01691903125824005   -0.18611689831626432   -0.005881639141247942
-0.02342721764411738   -0.1856763030818618   -0.0061998926972867
-0.023907820141227727   -0.1855644150035579   -0.005978887877809811
-0.02671935385660459   -0.16800238931028216   -0.0063600302658000365
-0.01691903125824005   -0.18611689831626432   -0.005881639141247942
-0.023907820141227727   -0.1855644150035579   -0.005978887877809811
-0.017284514798594754   -0.168016588049437   -0.006011143558312083
-0.02671935385660459   -0.16800238931028216   -0.0063600302658000365
-0.02342721764411738   -0.1856763030818618   -0.0061998926972867
-0.016984774556107408   -0.16813665435217257   -0.005983149583485429
-0.02636863566431589   -0.16830176040254388   -0.006541247709057998
-0.02342721764411738   -0.1856763030818618   -0.0061998926972867
-0.01691903125824005   -0.18611689831626432   -0.005881639141247942
-0.016984774556107408   -0.16813665435217257   -0.005983149583485429
-0.0165384885010762   -0.18631986546068488   -0.00588528795991737
-0.02636863566431589   -0.16830176040254388   -0.006541247709057998
-0.016685558817892236   -0.1683572598355999   -0.005982348982126998
-0.0165384885010762   -0.18631986546068488   -0.00588528795991737
-0.016984774556107408   -0.16813665435217257   -0.005983149583485429
-0.02636863566431589   -0.16830176040254388   -0.006541247709057998
-0.0165384885010762   -0.18631986546068488   -0.00588528795991737
-0.022991199445973456   -0.18594337996896831   -0.0064481192770798135
-0.02342721764411738   -0.1856763030818618   -0.0061998926972867
-0.02636863566431589   -0.16830176040254388   -0.006541247709057998
-0.0165384885010762   -0.18631986546068488   -0.00588528795991737
-0.02342721764411738   -0.1856763030818618   -0.0061998926972867
-0.016984774556107408   -0.16813665435217257   -0.005983149583485429
-0.017574989151875015   -0.1679913885399553   -0.00606671080902782
-0.01775270552490245   -0.18611496502495592   -0.005970928750810079
-0.008117662449076277   -0.16794806963676306   -0.006136198034913411
-0.017284514798594754   -0.168016588049437   -0.006011143558312083
-0.01775270552490245   -0.18611496502495592   -0.005970928750810079
-0.011466494808471143   -0.18638621862341104   -0.006187556930987682
-0.008117662449076277   -0.16794806963676306   -0.006136198034913411
-0.010993093991748004   -0.18629306146185445   -0.0058925258105902035
-0.017284514798594754   -0.168016588049437   -0.006011143558312083
-0.007799474443959165   -0.16791579756075242   -0.005906749068756057
-0.010993093991748004   -0.18629306146185445   -0.0058925258105902035
-0.008117662449076277   -0.16794806963676306   -0.006136198034913411
-0.017284514798594754   -0.168016588049437   -0.006011143558312083
-0.010993093991748004   -0.18629306146185445   -0.0058925258105902035
-0.017332823882135525   -0.18605008279915267   -0.005912168231372082
-0.01775270552490245   -0.18611496502495592   -0.005970928750810079
-0.017284514798594754   -0.168016588049437   -0.006011143558312083
-0.010993093991748004   -0.18629306146185445   -0.0058925258105902035
-0.01775270552490245   -0.18611496502495592   -0.005970928750810079
-0.008117662449076277   -0.16794806963676306   -0.006136198034913411
-0.017284514798594754   -0.168016588049437   -0.006011143558312083
-0.017332823882135525   -0.18605008279915267   -0.005912168231372082
-0.007799474443959165   -0.16791579756075242   -0.005906749068756057
-0.016984774556107408   -0.16813665435217257   -0.005983149583485429
-0.017332823882135525   -0.18605008279915267   -0.005912168231372082
-0.010993093991748004   -0.18629306146185445   -0.0058925258105902035
-0.007799474443959165   -0.16791579756075242   -0.005906749068756057
-0.010541978232041838   -0.18631552028017087   -0.005622368233280196
-0.016984774556107408   -0.16813665435217257   -0.005983149583485429
-0.007490764763877405   -0.16796921078619018   -0.005706688147115137
-0.010541978232041838   -0.18631552028017087   -0.005622368233280196
-0.007799474443959165   -0.16791579756075242   -0.005906749068756057
-0.016984774556107408   -0.16813665435217257   -0.005983149583485429
-0.010541978232041838   -0.18631552028017087   -0.005622368233280196
-0.01691903125824005   -0.18611689831626432   -0.005881639141247942
-0.017332823882135525   -0.18605008279915267   -0.005912168231372082
-0.016984774556107408   -0.16813665435217257   -0.005983149583485429
-0.010541978232041838   -0.18631552028017087   -0.005622368233280196
-0.017332823882135525   -0.18605008279915267   -0.005912168231372082
-0.007799474443959165   -0.16791579756075242   -0.005906749068756057
-0.016984774556107408   -0.16813665435217257   -0.005983149583485429
-0.01691903125824005   -0.18611689831626432   -0.005881639141247942
-0.007490764763877405   -0.16796921078619018   -0.005706688147115137
-0.016685558817892236   -0.1683572598355999   -0.005982348982126998
-0.01691903125824005   -0.18611689831626432   -0.005881639141247942
-0.010541978232041838   -0.18631552028017087   -0.005622368233280196
-0.007490764763877405   -0.16796921078619018   -0.005706688147115137
-0.010167092784942922   -0.18647647228670416   -0.005392813167630138
-0.016685558817892236   -0.1683572598355999   -0.005982348982126998
-0.0072119451789897406   -0.16812091362028977   -0.005533456375602146
-0.010167092784942922   -0.18647647228670416   -0.005392813167630138
-0.007490764763877405   -0.16796921078619018   -0.005706688147115137
-0.016685558817892236   -0.1683572598355999   -0.005982348982126998
-0.010167092784942922   -0.18647647228670416   -0.005392813167630138
-0.0165384885010762   -0.18631986546068488   -0.00588528795991737
-0.01691903125824005   -0.18611689831626432   -0.005881639141247942
-0.016685558817892236   -0.1683572598355999   -0.005982348982126998
-0.010167092784942922   -0.18647647228670416   -0.005392813167630138
-0.01691903125824005   -0.18611689831626432   -0.005881639141247942
-0.007490764763877405   -0.16796921078619018   -0.005706688147115137
-0.008117662449076277   -0.16794806963676306   -0.006136198034913411
-0.011466494808471143   -0.18638621862341104   -0.006187556930987682
0.0017870555713631415   -0.16760289462287553   -0.006306292242016553
-0.007799474443959165   -0.16791579756075242   -0.005906749068756057
-0.011466494808471143   -0.18638621862341104   -0.006187556930987682
-0.004776317218341914   -0.1863250594955301   -0.006442090017691526
0.0017870555713631415   -0.16760289462287553   -0.006306292242016553
-0.004168521006066292   -0.18617914043612996   -0.005921213982152184
-0.007799474443959165   -0.16791579756075242   -0.005906749068756057
0.0021739522894251586   -0.1674975149250347   -0.005903610104881043
-0.004168521006066292   -0.18617914043612996   -0.005921213982152184
0.0017870555713631415   -0.16760289462287553   -0.006306292242016553
-0.007799474443959165   -0.16791579756075242   -0.005906749068756057
-0.004168521006066292   -0.18617914043612996   -0.005921213982152184
-0.010993093991748004   -0.18629306146185445   -0.0058925258105902035
-0.011466494808471143   -0.18638621862341104   -0.006187556930987682
-0.007799474443959165   -0.16791579756075242   -0.005906749068756057
-0.004168521006066292   -0.18617914043612996   -0.005921213982152184
-0.011466494808471143   -0.18638621862341104   -0.006187556930987682
0.0017870555713631415   -0.16760289462287553   -0.006306292242016553
-0.007799474443959165   -0.16791579756075242   -0.005906749068756057
-0.010993093991748004   -0.18629306146185445   -0.0058925258105902035
0.0021739522894251586   -0.1674975149250347   -0.005903610104881043
-0.007490764763877405   -0.16796921078619018   -0.005706688147115137
-0.010993093991748004   -0.18629306146185445   -0.0058925258105902035
-0.004168521006066292   -0.18617914043612996   -0.005921213982152184
0.0021739522894251586   -0.1674975149250347   -0.005903610104881043
-0.0035478155142397677   -0.186152978531535   -0.005426995527349362
-0.007490764763877405   -0.16796921078619018   -0.005706688147115137
0.0025813827899815052   -0.1674879489605119   -0.005538205485056644
-0.0035478155142397677   -0.186152978531535   -0.005426995527349362
0.0021739522894251586   -0.1674975149250347   -0.005903610104881043
-0.007490764763877405   -0.16796921078619018   -0.005706688147115137
-0.0035478155142397677   -0.186152978531535   -0.005426995527349362
-0.010541978232041838   -0.18631552028017087   -0.005622368233280196
-0.010993093991748004   -0.18629306146185445   -0.0058925258105902035
-0.007490764763877405   -0.16796921078619018   -0.005706688147115137
-0.0035478155142397677   -0.186152978531535   -0.005426995527349362
-0.010993093991748004   -0.18629306146185445   -0.0058925258105902035
0.0021739522894251586   -0.1674975149250347   -0.005903610104881043
-0.007490764763877405   -0.16796921078619018   -0.005706688147115137
-0.010541978232041838   -0.18631552028017087   -0.005622368233280196
0.0025813827899815052   -0.1674879489605119   -0.005538205485056644
-0.0072119451789897406   -0.16812091362028977   -0.005533456375602146
-0.010541978232041838   -0.18631552028017087   -0.005622368233280196
-0.0035478155142397677   -0.186152978531535   -0.005426995527349362
0.0025813827899815052   -0.1674879489605119   -0.005538205485056644
-0.0030876548061330197   -0.18627269525837256   -0.004978495109130574
-0.0072119451789897406   -0.16812091362028977   -0.005533456375602146
0.00287937096508546   -0.1675698802567   -0.005198479904721815
-0.0030876548061330197   -0.18627269525837256   -0.004978495109130574
0.0025813827899815052   -0.1674879489605119   -0.005538205485056644
-0.0072119451789897406   -0.16812091362028977   -0.005533456375602146
-0.0030876548061330197   -0.18627269525837256   -0.004978495109130574
-0.010167092784942922   -0.18647647228670416   -0.005392813167630138
-0.010541978232041838   -0.18631552028017087   -0.005622368233280196
-0.0072119451789897406   -0.16812091362028977   -0.005533456375602146
-0.0030876548061330197   -0.18627269525837256   -0.004978495109130574
-0.010541978232041838   -0.18631552028017087   -0.005622368233280196
0.0025813827899815052   -0.1674879489605119   -0.005538205485056644
0.0017870555713631415   -0.16760289462287553   -0.006306292242016553
-0.004776317218341914   -0.1863250594955301   -0.006442090017691526
0.012354681906963831   -0.16692300657315617   -0.006671409128967287
0.0021739522894251586   -0.1674975149250347   -0.005903610104881043
-0.004776317218341914   -0.1863250594955301   -0.006442090017691526
0.0024350992317721067   -0.1856846829761259   -0.006965932649123077
0.012354681906963831   -0.16692300657315617   -0.006671409128967287
0.0038462884242023406   -0.18536643905591205   -0.006113512194577119
0.0021739522894251586   -0.1674975149250347   -0.005903610104881043
0.013332223420745588   -0.1667205090007487   -0.006055252173401682
0.0038462884242023406   -0.18536643905591205   -0.006113512194577119
0.012354681906963831   -0.16692300657315617   -0.006671409128967287
0.0021739522894251586   -0.1674975149250347   -0.005903610104881043
0.0038462884242023406   -0.18536643905591205   -0.006113512194577119
-0.004168521006066292   -0.18617914043612996   -0.005921213982152184
-0.004776317218341914   -0.1863250594955301   -0.006442090017691526
0.0021739522894251586   -0.1674975149250347   -0.005903610104881043
0.0038462884242023406   -0.18536643905591205   -0.006113512194577119
-0.004776317218341914   -0.1863250594955301   -0.006442090017691526
0.012354681906963831   -0.16692300657315617   -0.006671409128967287
0.0021739522894251586   -0.1674975149250347   -0.005903610104881043
-0.004168521006066292   -0.18617914043612996   -0.005921213982152184
0.013332223420745588   -0.1667205090007487   -0.006055252173401682
0.0025813827899815052   -0.1674879489605119   -0.005538205485056644
-0.004168521006066292   -0.18617914043612996   -0.005921213982152184
0.0038462884242023406   -0.18536643905591205   -0.006113512194577119
0.013332223420745588   -0.1667205090007487   -0.006055252173401682
0.004955604034981   -0.18530164092473925   -0.005313592594609314
0.0025813827899815052   -0.1674879489605119   -0.005538205485056644
0.014081552455901642   -0.1666854545292176   -0.0054853129646884645
0.004955604034981   -0.18530164092473925   -0.005313592594609314
0.013332223420745588   -0.1667205090007487   -0.006055252173401682
0.0025813827899815052   -0.1674879489605119   -0.005538205485056644
0.004955604034981   -0.18530164092473925   -0.005313592594609314
-0.0035478155142397677   -0.186152978531535   -0.005426995527349362
-0.004168521006066292   -0.18617914043612996   -0.005921213982152184
0.0025813827899815052   -0.1674879489605119   -0.005538205485056644
0.004955604034981   -0.18530164092473925   -0.005313592594609314
-0.004168521006066292   -0.18617914043612996   -0.005921213982152184
0.013332223420745588   -0.1667205090007487   -0.006055252173401682
0.0025813827899815052   -0.1674879489605119   -0.005538205485056644
-0.0035478155142397677   -0.186152978531535   -0.005426995527349362
0.014081552455901642   -0.1666854545292176   -0.0054853129646884645
0.00287937096508546   -0.1675698802567   -0.005198479904721815
-0.0035478155142397677   -0.186152978531535   -0.005426995527349362
0.004955604034981   -0.18530164092473925   -0.005313592594609314
0.014081552455901642   -0.1666854545292176   -0.0054853129646884645
0.006107058289948558   -0.18535439432374967   -0.004583587283769748
0.00287937096508546   -0.1675698802567   -0.005198479904721815
0.014856854117210973   -0.16674512659115648   -0.004966266635358928
0.006107058289948558   -0.18535439432374967   -0.004583587283769748
0.014081552455901642   -0.1666854545292176   -0.0054853129646884645
0.00287937096508546   -0.1675698802567   -0.005198479904721815
0.006107058289948558   -0.18535439432374967   -0.004583587283769748
-0.0030876548061330197   -0.18627269525837256   -0.004978495109130574
-0.0035478155142397677   -0.186152978531535   -0.005426995527349362
0.00287937096508546   -0.1675698802567   -0.005198479904721815
0.006107058289948558   -0.18535439432374967   -0.004583587283769748
-0.0035478155142397677   -0.186152978531535   -0.005426995527349362
0.014081552455901642   -0.1666854545292176   -0.0054853129646884645
-0.03235924625126061   -0.18482216766117643   -0.005551815664092152
-0.02368164048141297   -0.19527831973048698   -0.004884048992389483
-0.02431671021193092   -0.1856052144120105   -0.005786971930509412
-0.031479795907627464   -0.1847998215675969   -0.00606935534386952
-0.02368164048141297   -0.19527831973048698   -0.004884048992389483
-0.01995107344130828   -0.19626971310475108   -0.005481308248716929
-0.02431671021193092   -0.1856052144120105   -0.005786971930509412
-0.01943426949280115   -0.19607272898732891   -0.005685127589005883
-0.031479795907627464   -0.1847998215675969   -0.00606935534386952
-0.023907820141227727   -0.1855644150035579   -0.005978887877809811
-0.01943426949280115   -0.19607272898732891   -0.005685127589005883
-0.02431671021193092   -0.1856052144120105   -0.005786971930509412
-0.031479795907627464   -0.1847998215675969   -0.00606935534386952
-0.01943426949280115   -0.19607272898732891   -0.005685127589005883
-0.022584335653681172   -0.1950565424952283   -0.005505223612926589
-0.02368164048141297   -0.19527831973048698   -0.004884048992389483
-0.031479795907627464   -0.1847998215675969   -0.00606935534386952
-0.01943426949280115   -0.19607272898732891   -0.005685127589005883
-0.02368164048141297   -0.19527831973048698   -0.004884048992389483
-0.02431671021193092   -0.1856052144120105   -0.005786971930509412
-0.031479795907627464   -0.1847998215675969   -0.00606935534386952
-0.022584335653681172   -0.1950565424952283   -0.005505223612926589
-0.023907820141227727   -0.1855644150035579   -0.005978887877809811
-0.030668803689402464   -0.1849381981347933   -0.0066278390604565625
-0.022584335653681172   -0.1950565424952283   -0.005505223612926589
-0.01943426949280115   -0.19607272898732891   -0.005685127589005883
-0.023907820141227727   -0.1855644150035579   -0.005978887877809811
-0.018862423841422317   -0.19608101800428124   -0.005890987471900257
-0.030668803689402464   -0.1849381981347933   -0.0066278390604565625
-0.02342721764411738   -0.1856763030818618   -0.0061998926972867
-0.018862423841422317   -0.19608101800428124   -0.005890987471900257
-0.023907820141227727   -0.1855644150035579   -0.005978887877809811
-0.030668803689402464   -0.1849381981347933   -0.0066278390604565625
-0.018862423841422317   -0.19608101800428124   -0.005890987471900257
-0.021637447242094755   -0.1950738913952951   -0.0061238784463083845
-0.022584335653681172   -0.1950565424952283   -0.005505223612926589
-0.030668803689402464   -0.1849381981347933   -0.0066278390604565625
-0.018862423841422317   -0.19608101800428124   -0.005890987471900257
-0.022584335653681172   -0.1950565424952283   -0.005505223612926589
-0.023907820141227727   -0.1855644150035579   -0.005978887877809811
-0.030668803689402464   -0.1849381981347933   -0.0066278390604565625
-0.021637447242094755   -0.1950738913952951   -0.0061238784463083845
-0.02342721764411738   -0.1856763030818618   -0.0061998926972867
-0.02967988968108248   -0.18530879587201904   -0.00722481839614826
-0.021637447242094755   -0.1950738913952951   -0.0061238784463083845
-0.018862423841422317   -0.19608101800428124   -0.005890987471900257
-0.02342721764411738   -0.1856763030818618   -0.0061998926972867
-0.018330894018783534   -0.19629546582770144   -0.006099753227405808
-0.02967988968108248   -0.18530879587201904   -0.00722481839614826
-0.022991199445973456   -0.18594337996896831   -0.0064481192770798135
-0.018330894018783534   -0.19629546582770144   -0.006099753227405808
-0.02342721764411738   -0.1856763030818618   -0.0061998926972867
-0.02967988968108248   -0.18530879587201904   -0.00722481839614826
-0.018330894018783534   -0.19629546582770144   -0.006099753227405808
-0.020514737222399666   -0.19534394176068662   -0.00675589938251786
-0.021637447242094755   -0.1950738913952951   -0.0061238784463083845
-0.02967988968108248   -0.18530879587201904   -0.00722481839614826
-0.018330894018783534   -0.19629546582770144   -0.006099753227405808
-0.021637447242094755   -0.1950738913952951   -0.0061238784463083845
-0.02342721764411738   -0.1856763030818618   -0.0061998926972867
-0.02431671021193092   -0.1856052144120105   -0.005786971930509412
-0.01995107344130828   -0.19626971310475108   -0.005481308248716929
-0.01775270552490245   -0.18611496502495592   -0.005970928750810079
-0.023907820141227727   -0.1855644150035579   -0.005978887877809811
-0.01995107344130828   -0.19626971310475108   -0.005481308248716929
-0.017224629859810863   -0.19726989410190054   -0.00600953062495061
-0.01775270552490245   -0.18611496502495592   -0.005970928750810079
-0.016678855481282798   -0.19706805805925676   -0.005865224136041279
-0.023907820141227727   -0.1855644150035579   -0.005978887877809811
-0.017332823882135525   -0.18605008279915267   -0.005912168231372082
-0.016678855481282798   -0.19706805805925676   -0.005865224136041279
-0.01775270552490245   -0.18611496502495592   -0.005970928750810079
-0.023907820141227727   -0.1855644150035579   -0.005978887877809811
-0.016678855481282798   -0.19706805805925676   -0.005865224136041279
-0.01943426949280115   -0.19607272898732891   -0.005685127589005883
-0.01995107344130828   -0.19626971310475108   -0.005481308248716929
-0.023907820141227727   -0.1855644150035579   -0.005978887877809811
-0.016678855481282798   -0.19706805805925676   -0.005865224136041279
-0.01995107344130828   -0.19626971310475108   -0.005481308248716929
-0.01775270552490245   -0.18611496502495592   -0.005970928750810079
-0.023907820141227727   -0.1855644150035579   -0.005978887877809811
-0.01943426949280115   -0.19607272898732891   -0.005685127589005883
-0.017332823882135525   -0.18605008279915267   -0.005912168231372082
-0.02342721764411738   -0.1856763030818618   -0.0061998926972867
-0.01943426949280115   -0.19607272898732891   -0.005685127589005883
-0.016678855481282798   -0.19706805805925676   -0.005865224136041279
-0.017332823882135525   -0.18605008279915267   -0.005912168231372082
-0.016151408875768665   -0.19706336258541796   -0.005719087156485247
-0.02342721764411738   -0.1856763030818618   -0.0061998926972867
-0.01691903125824005   -0.18611689831626432   -0.005881639141247942
-0.016151408875768665   -0.19706336258541796   -0.005719087156485247
-0.017332823882135525   -0.18605008279915267   -0.005912168231372082
-0.02342721764411738   -0.1856763030818618   -0.0061998926972867
-0.016151408875768665   -0.19706336258541796   -0.005719087156485247
-0.018862423841422317   -0.19608101800428124   -0.005890987471900257
-0.01943426949280115   -0.19607272898732891   -0.005685127589005883
-0.02342721764411738   -0.1856763030818618   -0.0061998926972867
-0.016151408875768665   -0.19706336258541796   -0.005719087156485247
-0.01943426949280115   -0.19607272898732891   -0.005685127589005883
-0.017332823882135525   -0.18605008279915267   -0.005912168231372082
-0.02342721764411738   -0.1856763030818618   -0.0061998926972867
-0.018862423841422317   -0.19608101800428124   -0.005890987471900257
-0.01691903125824005   -0.18611689831626432   -0.005881639141247942
-0.022991199445973456   -0.18594337996896831   -0.0064481192770798135
-0.018862423841422317   -0.19608101800428124   -0.005890987471900257
-0.016151408875768665   -0.19706336258541796   -0.005719087156485247
-0.01691903125824005   -0.18611689831626432   -0.005881639141247942
-0.015601341403186747   -0.19725162576173014   -0.005578633547308265
-0.022991199445973456   -0.18594337996896831   -0.0064481192770798135
-0.0165384885010762   -0.18631986546068488   -0.00588528795991737
-0.015601341403186747   -0.19725162576173014   -0.005578633547308265
-0.01691903125824005   -0.18611689831626432   -0.005881639141247942
-0.022991199445973456   -0.18594337996896831   -0.0064481192770798135
-0.015601341403186747   -0.19725162576173014   -0.005578633547308265
-0.018330894018783534   -0.19629546582770144   -0.006099753227405808
-0.018862423841422317   -0.19608101800428124   -0.005890987471900257
-0.022991199445973456   -0.18594337996896831   -0.0064481192770798135
-0.015601341403186747   -0.19725162576173014   -0.005578633547308265
-0.018862423841422317   -0.19608101800428124   -0.005890987471900257
-0.01691903125824005   -0.18611689831626432   -0.005881639141247942
-0.01775270552490245   -0.18611496502495592   -0.005970928750810079
-0.017224629859810863   -0.19726989410190054   -0.00600953062495061
-0.011466494808471143   -0.18638621862341104   -0.006187556930987682
-0.017332823882135525   -0.18605008279915267   -0.005912168231372082
-0.017224629859810863   -0.19726989410190054   -0.00600953062495061
-0.014736721152594761   -0.19848239721378286   -0.006590472975198373
-0.011466494808471143   -0.18638621862341104   -0.006187556930987682
-0.014067327950539287   -0.19830781006162573   -0.006078401527251657
-0.017332823882135525   -0.18605008279915267   -0.005912168231372082
-0.010993093991748004   -0.18629306146185445   -0.0058925258105902035
-0.014067327950539287   -0.19830781006162573   -0.006078401527251657
-0.011466494808471143   -0.18638621862341104   -0.006187556930987682
-0.017332823882135525   -0.18605008279915267   -0.005912168231372082
-0.014067327950539287   -0.19830781006162573   -0.006078401527251657
-0.016678855481282798   -0.19706805805925676   -0.005865224136041279
-0.017224629859810863   -0.19726989410190054   -0.00600953062495061
-0.017332823882135525   -0.18605008279915267   -0.005912168231372082
-0.014067327950539287   -0.19830781006162573   -0.006078401527251657
-0.017224629859810863   -0.19726989410190054   -0.00600953062495061
-0.011466494808471143   -0.18638621862341104   -0.006187556930987682
-0.017332823882135525   -0.18605008279915267   -0.005912168231372082
-0.016678855481282798   -0.19706805805925676   -0.005865224136041279
-0.010993093991748004   -0.18629306146185445   -0.0058925258105902035
-0.01691903125824005   -0.18611689831626432   -0.005881639141247942
-0.016678855481282798   -0.19706805805925676   -0.005865224136041279
-0.014067327950539287   -0.19830781006162573   -0.006078401527251657
-0.010993093991748004   -0.18629306146185445   -0.0058925258105902035
-0.013447446911805161   -0.19829783840466883   -0.005568282320163107
-0.01691903125824005   -0.18611689831626432   -0.005881639141247942
-0.010541978232041838   -0.18631552028017087   -0.005622368233280196
-0.013447446911805161   -0.19829783840466883   -0.005568282320163107
-0.010993093991748004   -0.18629306146185445   -0.0058925258105902035
-0.01691903125824005   -0.18611689831626432   -0.005881639141247942
-0.013447446911805161   -0.19829783840466883   -0.005568282320163107
-0.016151408875768665   -0.19706336258541796   -0.005719087156485247
-0.016678855481282798   -0.19706805805925676   -0.005865224136041279
-0.01691903125824005   -0.18611689831626432   -0.005881639141247942
-0.013447446911805161   -0.19829783840466883   -0.005568282320163107
-0.016678855481282798   -0.19706805805925676   -0.005865224136041279
-0.010993093991748004   -0.18629306146185445   -0.0058925258105902035
-0.01691903125824005   -0.18611689831626432   -0.005881639141247942
-0.016151408875768665   -0.19706336258541796   -0.005719087156485247
-0.010541978232041838   -0.18631552028017087   -0.005622368233280196
-0.0165384885010762   -0.18631986546068488   -0.00588528795991737
-0.016151408875768665   -0.19706336258541796   -0.005719087156485247
-0.013447446911805161   -0.19829783840466883   -0.005568282320163107
-0.010541978232041838   -0.18631552028017087   -0.005622368233280196
-0.012781458163482825   -0.19844342762852205   -0.005056649714486244
-0.0165384885010762   -0.18631986546068488   -0.00588528795991737
-0.010167092784942922   -0.18647647228670416   -0.005392813167630138
-0.012781458163482825   -0.19844342762852205   -0.005056649714486244
-0.010541978232041838   -0.18631552028017087   -0.005622368233280196
-0.0165384885010762   -0.18631986546068488   -0.00588528795991737
-0.012781458163482825   -0.19844342762852205   -0.005056649714486244
-0.015601341403186747   -0.19725162576173014   -0.005578633547308265
-0.016151408875768665   -0.19706336258541796   -0.005719087156485247
-0.0165384885010762   -0.18631986546068488   -0.00588528795991737
-0.012781458163482825   -0.19844342762852205   -0.005056649714486244
-0.016151408875768665   -0.19706336258541796   -0.005719087156485247
-0.010541978232041838   -0.18631552028017087   -0.005622368233280196
-0.011466494808471143   -0.18638621862341104   -0.006187556930987682
-0.014736721152594761   -0.19848239721378286   -0.006590472975198373
-0.004776317218341914   -0.1863250594955301   -0.006442090017691526
-0.010993093991748004   -0.18629306146185445   -0.0058925258105902035
-0.014736721152594761   -0.19848239721378286   -0.006590472975198373
-0.01228819551762352   -0.2   -0.007033876995428443
-0.004776317218341914   -0.1863250594955301   -0.006442090017691526
-0.011447094428492309   -0.2   -0.006258418621014187
-0.010993093991748004   -0.18629306146185445   -0.0058925258105902035
-0.004168521006066292   -0.18617914043612996   -0.005921213982152184
-0.011447094428492309   -0.2   -0.006258418621014187
-0.004776317218341914   -0.1863250594955301   -0.006442090017691526
-0.010993093991748004   -0.18629306146185445   -0.0058925258105902035
-0.011447094428492309   -0.2   -0.006258418621014187
-0.014067327950539287   -0.19830781006162573   -0.006078401527251657
-0.014736721152594761   -0.19848239721378286   -0.006590472975198373
-0.010993093991748004   -0.18629306146185445   -0.0058925258105902035
-0.011447094428492309   -0.2   -0.006258418621014187
-0.014736721152594761   -0.19848239721378286   -0.006590472975198373
-0.004776317218341914   -0.1863250594955301   -0.006442090017691526
-0.010993093991748004   -0.18629306146185445   -0.0058925258105902035
-0.014067327950539287   -0.19830781006162573   -0.006078401527251657
-0.004168521006066292   -0.18617914043612996   -0.005921213982152184
-0.010541978232041838   -0.18631552028017087   -0.005622368233280196
-0.014067327950539287   -0.19830781006162573   -0.006078401527251657
-0.011447094428492309   -0.2   -0.006258418621014187
-0.004168521006066292   -0.18617914043612996   -0.005921213982152184
-0.010602660265643889   -0.2   -0.0054737413506262675
-0.010541978232041838   -0.18631552028017087   -0.005622368233280196
-0.0035478155142397677   -0.186152978531535   -0.005426995527349362
-0.010602660265643889   -0.2   -0.0054737413506262675
-0.004168521006066292   -0.18617914043612996   -0.005921213982152184
-0.010541978232041838   -0.18631552028017087   -0.005622368233280196
-0.010602660265643889   -0.2   -0.0054737413506262675
-0.013447446911805161   -0.19829783840466883   -0.005568282320163107
-0.014067327950539287   -0.19830781006162573   -0.006078401527251657
-0.010541978232041838   -0.18631552028017087   -0.005622368233280196
-0.010602660265643889   -0.2   -0.0054737413506262675
-0.014067327950539287   -0.19830781006162573   -0.006078401527251657
-0.004168521006066292   -0.18617914043612996   -0.005921213982152184
-0.010541978232041838   -0.18631552028017087   -0.005622368233280196
-0.013447446911805161   -0.19829783840466883   -0.005568282320163107
-0.0035478155142397677   -0.186152978531535   -0.005426995527349362
-0.010167092784942922   -0.18647647228670416   -0.005392813167630138
-0.013447446911805161   -0.19829783840466883   -0.005568282320163107
-0.010602660265643889   -0.2   -0.0054737413506262675
-0.0035478155142397677   -0.186152978531535   -0.005426995527349362
-0.009776372102159007   -0.2   -0.004699380630178388
-0.010167092784942922   -0.18647647228670416   -0.005392813167630138
-0.0030876548061330197   -0.18627269525837256   -0.004978495109130574
-0.009776372102159007   -0.2   -0.004699380630178388
-0.0035478155142397677   -0.186152978531535   -0.005426995527349362
-0.010167092784942922   -0.18647647228670416   -0.005392813167630138
-0.009776372102159007   -0.2   -0.004699380630178388
-0.012781458163482825   -0.19844342762852205   -0.005056649714486244
-0.013447446911805161   -0.19829783840466883   -0.005568282320163107
-0.010167092784942922   -0.18647647228670416   -0.005392813167630138
-0.009776372102159007   -0.2   -0.004699380630178388
-0.013447446911805161   -0.19829783840466883   -0.005568282320163107
-0.0035478155142397677   -0.186152978531535   -0.005426995527349362
-0.004776317218341914   -0.1863250594955301   -0.006442090017691526
-0.01228819551762352   -0.2   -0.007033876995428443
0.0024350992317721067   -0.1856846829761259   -0.006965932649123077
-0.004168521006066292   -0.18617914043612996   -0.005921213982152184
-0.01228819551762352   -0.2   -0.007033876995428443
-0.010519342780915101   -0.2   -0.007570904312872485
0.0024350992317721067   -0.1856846829761259   -0.006965932649123077
-0.008766101912026864   -0.2   -0.0064502584871931464
-0.004168521006066292   -0.18617914043612996   -0.005921213982152184
0.0038462884242023406   -0.18536643905591205   -0.006113512194577119
-0.008766101912026864   -0.2   -0.0064502584871931464
0.0024350992317721067   -0.1856846829761259   -0.006965932649123077
-0.004168521006066292   -0.18617914043612996   -0.005921213982152184
-0.008766101912026864   -0.2   -0.0064502584871931464
-0.011447094428492309   -0.2   -0.006258418621014187
-0.01228819551762352   -0.2   -0.007033876995428443
-0.004168521006066292   -0.18617914043612996   -0.005921213982152184
-0.008766101912026864   -0.2   -0.0064502584871931464
-0.01228819551762352   -0.2   -0.007033876995428443
0.0024350992317721067   -0.1856846829761259   -0.006965932649123077
-0.004168521006066292   -0.18617914043612996   -0.005921213982152184
-0.011447094428492309   -0.2   -0.006258418621014187
0.0038462884242023406   -0.18536643905591205   -0.006113512194577119
-0.0035478155142397677   -0.186152978531535   -0.005426995527349362
-0.011447094428492309   -0.2   -0.006258418621014187
-0.008766101912026864   -0.2   -0.0064502584871931464
0.0038462884242023406   -0.18536643905591205   -0.006113512194577119
-0.007367863688368548   -0.2   -0.005378152354541557
-0.0035478155142397677   -0.186152978531535   -0.005426995527349362
0.004955604034981   -0.18530164092473925   -0.005313592594609314
-0.007367863688368548   -0.2   -0.005378152354541557
0.0038462884242023406   -0.18536643905591205   -0.006113512194577119
-0.0035478155142397677   -0.186152978531535   -0.005426995527349362
-0.007367863688368548   -0.2   -0.005378152354541557
-0.010602660265643889   -0.2   -0.0054737413506262675
-0.011447094428492309   -0.2   -0.006258418621014187
-0.0035478155142397677   -0.186152978531535   -0.005426995527349362
-0.007367863688368548   -0.2   -0.005378152354541557
-0.011447094428492309   -0.2   -0.006258418621014187
0.0038462884242023406   -0.18536643905591205   -0.006113512194577119
-0.0035478155142397677   -0.186152978531535   -0.005426995527349362
-0.010602660265643889   -0.2   -0.0054737413506262675
0.004955604034981   -0.18530164092473925   -0.005313592594609314
-0.0030876548061330197   -0.18627269525837256   -0.004978495109130574
-0.010602660265643889   -0.2   -0.0054737413506262675
-0.007367863688368548   -0.2   -0.005378152354541557
0.004955604034981   -0.18530164092473925   -0.005313592594609314
-0.005640395139912409   -0.2   -0.0042652452781115
-0.0030876548061330197   -0.18627269525837256   -0.004978495109130574
0.006107058289948558   -0.18535439432374967   -0.004583587283769748
-0.005640395139912409   -0.2   -0.0042652452781115
0.004955604034981   -0.18530164092473925   -0.005313592594609314
-0.0030876548061330197   -0.18627269525837256   -0.004978495109130574
-0.005640395139912409   -0.2   -0.0042652452781115
-0.009776372102159007   -0.2   -0.004699380630178388
-0.010602660265643889   -0.2   -0.0054737413506262675
-0.0030876548061330197   -0.18627269525837256   -0.004978495109130574
-0.005640395139912409   -0.2   -0.0042652452781115
-0.010602660265643889   -0.2   -0.0054737413506262675
0.004955604034981   -0.18530164092473925   -0.005313592594609314
-0.02368164048141297   -0.19527831973048698   -0.004884048992389483
-0.0140809517774525   -0.19575819461698682   -0.004179289695461313
-0.01995107344130828   -0.19626971310475108   -0.005481308248716929
-0.022584335653681172   -0.1950565424952283   -0.005505223612926589
-0.0140809517774525   -0.19575819461698682   -0.004179289695461313
-0.014965383405288338   -0.19652005219843982   -0.004948162102470026
-0.01995107344130828   -0.19626971310475108   -0.005481308248716929
-0.014574930397756964   -0.19625129092652202   -0.005226988583690514
-0.022584335653681172   -0.1950565424952283   -0.005505223612926589
-0.01943426949280115   -0.19607272898732891   -0.005685127589005883
-0.014574930397756964   -0.19625129092652202   -0.005226988583690514
-0.01995107344130828   -0.19626971310475108   -0.005481308248716929
-0.022584335653681172   -0.1950565424952283   -0.005505223612926589
-0.014574930397756964   -0.19625129092652202   -0.005226988583690514
-0.013087608411560089   -0.19541326586634397   -0.00483178506903086
-0.0140809517774525   -0.19575819461698682   -0.004179289695461313
-0.022584335653681172   -0.1950565424952283   -0.005505223612926589
-0.014574930397756964   -0.19625129092652202   -0.005226988583690514
-0.0140809517774525   -0.19575819461698682   -0.004179289695461313
-0.01995107344130828   -0.19626971310475108   -0.005481308248716929
-0.022584335653681172   -0.1950565424952283   -0.005505223612926589
-0.013087608411560089   -0.19541326586634397   -0.00483178506903086
-0.01943426949280115   -0.19607272898732891   -0.005685127589005883
-0.021637447242094755   -0.1950738913952951   -0.0061238784463083845
-0.013087608411560089   -0.19541326586634397   -0.00483178506903086
-0.014574930397756964   -0.19625129092652202   -0.005226988583690514
-0.01943426949280115   -0.19607272898732891   -0.005685127589005883
-0.014117298633322731   -0.19615060888461022   -0.005483995831908348
-0.021637447242094755   -0.1950738913952951   -0.0061238784463083845
-0.018862423841422317   -0.19608101800428124   -0.005890987471900257
-0.014117298633322731   -0.19615060888461022   -0.005483995831908348
-0.01943426949280115   -0.19607272898732891   -0.005685127589005883
-0.021637447242094755   -0.1950738913952951   -0.0061238784463083845
-0.014117298633322731   -0.19615060888461022   -0.005483995831908348
-0.012260623023349416   -0.19530541868644477   -0.005457190812620318
-0.013087608411560089   -0.19541326586634397   -0.00483178506903086
-0.021637447242094755   -0.1950738913952951   -0.0061238784463083845
-0.014117298633322731   -0.19615060888461022   -0.005483995831908348
-0.013087608411560089   -0.19541326586634397   -0.00483178506903086
-0.01943426949280115   -0.19607272898732891   -0.005685127589005883
-0.021637447242094755   -0.1950738913952951   -0.0061238784463083845
-0.012260623023349416   -0.19530541868644477   -0.005457190812620318
-0.018862423841422317   -0.19608101800428124   -0.005890987471900257
-0.020514737222399666   -0.19534394176068662   -0.00675589938251786
-0.012260623023349416   -0.19530541868644477   -0.005457190812620318
-0.014117298633322731   -0.19615060888461022   -0.005483995831908348
-0.018862423841422317   -0.19608101800428124   -0.005890987471900257
-0.013725066255826628   -0.19621939467497898   -0.0057178142351874345
-0.020514737222399666   -0.19534394176068662   -0.00675589938251786
-0.018330894018783534   -0.19629546582770144   -0.006099753227405808
-0.013725066255826628   -0.19621939467497898   -0.0057178142351874345
-0.018862423841422317   -0.19608101800428124   -0.005890987471900257
-0.020514737222399666   -0.19534394176068662   -0.00675589938251786
-0.013725066255826628   -0.19621939467497898   -0.0057178142351874345
-0.01132574942683825   -0.19539130799943963   -0.006052675863730507
-0.012260623023349416   -0.19530541868644477   -0.005457190812620318
-0.020514737222399666   -0.19534394176068662   -0.00675589938251786
-0.013725066255826628   -0.19621939467497898   -0.0057178142351874345
-0.012260623023349416   -0.19530541868644477   -0.005457190812620318
-0.018862423841422317   -0.19608101800428124   -0.005890987471900257
-0.01995107344130828   -0.19626971310475108   -0.005481308248716929
-0.014965383405288338   -0.19652005219843982   -0.004948162102470026
-0.017224629859810863   -0.19726989410190054   -0.00600953062495061
-0.01943426949280115   -0.19607272898732891   -0.005685127589005883
-0.014965383405288338   -0.19652005219843982   -0.004948162102470026
-0.01614987300370308   -0.1969935203381258   -0.005563285417802237
-0.017224629859810863   -0.19726989410190054   -0.00600953062495061
-0.01580408668440395   -0.1967536371892156   -0.005570935196308204
-0.01943426949280115   -0.19607272898732891   -0.005685127589005883
-0.016678855481282798   -0.19706805805925676   -0.005865224136041279
-0.01580408668440395   -0.1967536371892156   -0.005570935196308204
-0.017224629859810863   -0.19726989410190054   -0.00600953062495061
-0.01943426949280115   -0.19607272898732891   -0.005685127589005883
-0.01580408668440395   -0.1967536371892156   -0.005570935196308204
-0.014574930397756964   -0.19625129092652202   -0.005226988583690514
-0.014965383405288338   -0.19652005219843982   -0.004948162102470026
-0.01943426949280115   -0.19607272898732891   -0.005685127589005883
-0.01580408668440395   -0.1967536371892156   -0.005570935196308204
-0.014965383405288338   -0.19652005219843982   -0.004948162102470026
-0.017224629859810863   -0.19726989410190054   -0.00600953062495061
-0.01943426949280115   -0.19607272898732891   -0.005685127589005883
-0.014574930397756964   -0.19625129092652202   -0.005226988583690514
-0.016678855481282798   -0.19706805805925676   -0.005865224136041279
-0.018862423841422317   -0.19608101800428124   -0.005890987471900257
-0.014574930397756964   -0.19625129092652202   -0.005226988583690514
-0.01580408668440395   -0.1967536371892156   -0.005570935196308204
-0.016678855481282798   -0.19706805805925676   -0.005865224136041279
-0.015419113286296708   -0.19666600343490082   -0.005550293629686041
-0.018862423841422317   -0.19608101800428124   -0.005890987471900257
-0.016151408875768665   -0.19706336258541796   -0.005719087156485247
-0.015419113286296708   -0.19666600343490082   -0.005550293629686041
-0.016678855481282798   -0.19706805805925676   -0.005865224136041279
-0.018862423841422317   -0.19608101800428124   -0.005890987471900257
-0.015419113286296708   -0.19666600343490082   -0.005550293629686041
-0.014117298633322731   -0.19615060888461022   -0.005483995831908348
-0.014574930397756964   -0.19625129092652202   -0.005226988583690514
-0.018862423841422317   -0.19608101800428124   -0.005890987471900257
-0.015419113286296708   -0.19666600343490082   -0.005550293629686041
-0.014574930397756964   -0.19625129092652202   -0.005226988583690514
-0.016678855481282798   -0.19706805805925676   -0.005865224136041279
-0.018862423841422317   -0.19608101800428124   -0.005890987471900257
-0.014117298633322731   -0.19615060888461022   -0.005483995831908348
-0.016151408875768665   -0.19706336258541796   -0.005719087156485247
-0.018330894018783534   -0.19629546582770144   -0.006099753227405808
-0.014117298633322731   -0.19615060888461022   -0.005483995831908348
-0.015419113286296708   -0.19666600343490082   -0.005550293629686041
-0.016151408875768665   -0.19706336258541796   -0.005719087156485247
-0.015027591406406554   -0.19672353654976513   -0.005507457775712261
-0.018330894018783534   -0.19629546582770144   -0.006099753227405808
-0.015601341403186747   -0.19725162576173014   -0.005578633547308265
-0.015027591406406554   -0.19672353654976513   -0.005507457775712261
-0.016151408875768665   -0.19706336258541796   -0.005719087156485247
-0.018330894018783534   -0.19629546582770144   -0.006099753227405808
-0.015027591406406554   -0.19672353654976513   -0.005507457775712261
-0.013725066255826628   -0.19621939467497898   -0.0057178142351874345
-0.014117298633322731   -0.19615060888461022   -0.005483995831908348
-0.018330894018783534   -0.19629546582770144   -0.006099753227405808
-0.015027591406406554   -0.19672353654976513   -0.005507457775712261
-0.014117298633322731   -0.19615060888461022   -0.005483995831908348
-0.016151408875768665   -0.19706336258541796   -0.005719087156485247
-0.017224629859810863   -0.19726989410190054   -0.00600953062495061
-0.01614987300370308   -0.1969935203381258   -0.005563285417802237
-0.014736721152594761   -0.19848239721378286   -0.006590472975198373
-0.016678855481282798   -0.19706805805925676   -0.005865224136041279
-0.01614987300370308   -0.1969935203381258   -0.005563285417802237
-0.01741799391278632   -0.19719631055329728   -0.006168313633346262
-0.014736721152594761   -0.19848239721378286   -0.006590472975198373
-0.01705981094734848   -0.1969678900103272   -0.005915243236923927
-0.016678855481282798   -0.19706805805925676   -0.005865224136041279
-0.014067327950539287   -0.19830781006162573   -0.006078401527251657
-0.01705981094734848   -0.1969678900103272   -0.005915243236923927
-0.014736721152594761   -0.19848239721378286   -0.006590472975198373
-0.016678855481282798   -0.19706805805925676   -0.005865224136041279
-0.01705981094734848   -0.1969678900103272   -0.005915243236923927
-0.01580408668440395   -0.1967536371892156   -0.005570935196308204
-0.01614987300370308   -0.1969935203381258   -0.005563285417802237
-0.016678855481282798   -0.19706805805925676   -0.005865224136041279
-0.01705981094734848   -0.1969678900103272   -0.005915243236923927
-0.01614987300370308   -0.1969935203381258   -0.005563285417802237
-0.014736721152594761   -0.19848239721378286   -0.006590472975198373
-0.016678855481282798   -0.19706805805925676   -0.005865224136041279
-0.01580408668440395   -0.1967536371892156   -0.005570935196308204
-0.014067327950539287   -0.19830781006162573   -0.006078401527251657
-0.016151408875768665   -0.19706336258541796   -0.005719087156485247
-0.01580408668440395   -0.1967536371892156   -0.005570935196308204
-0.01705981094734848   -0.1969678900103272   -0.005915243236923927
-0.014067327950539287   -0.19830781006162573   -0.006078401527251657
-0.016629911218019235   -0.19689423991017063   -0.005627725733631077
-0.016151408875768665   -0.19706336258541796   -0.005719087156485247
-0.013447446911805161   -0.19829783840466883   -0.005568282320163107
-0.016629911218019235   -0.19689423991017063   -0.005627725733631077
-0.014067327950539287   -0.19830781006162573   -0.006078401527251657
-0.016151408875768665   -0.19706336258541796   -0.005719087156485247
-0.016629911218019235   -0.19689423991017063   -0.005627725733631077
-0.015419113286296708   -0.19666600343490082   -0.005550293629686041
-0.01580408668440395   -0.1967536371892156   -0.005570935196308204
-0.016151408875768665   -0.19706336258541796   -0.005719087156485247
-0.016629911218019235   -0.19689423991017063   -0.005627725733631077
-0.01580408668440395   -0.1967536371892156   -0.005570935196308204
-0.014067327950539287   -0.19830781006162573   -0.006078401527251657
-0.016151408875768665   -0.19706336258541796   -0.005719087156485247
-0.015419113286296708   -0.19666600343490082   -0.005550293629686041
-0.013447446911805161   -0.19829783840466883   -0.005568282320163107
-0.015601341403186747   -0.19725162576173014   -0.005578633547308265
-0.015419113286296708   -0.19666600343490082   -0.005550293629686041
-0.016629911218019235   -0.19689423991017063   -0.005627725733631077
-0.013447446911805161   -0.19829783840466883   -0.005568282320163107
-0.016187643261280544   -0.1969507244733795   -0.005321322726710524
-0.015601341403186747   -0.19725162576173014   -0.005578633547308265
-0.012781458163482825   -0.19844342762852205   -0.005056649714486244
-0.016187643261280544   -0.1969507244733795   -0.005321322726710524
-0.013447446911805161   -0.19829783840466883   -0.005568282320163107
-0.015601341403186747   -0.19725162576173014   -0.005578633547308265
-0.016187643261280544   -0.1969507244733795   -0.005321322726710524
-0.015027591406406554   -0.19672353654976513   -0.005507457775712261
-0.015419113286296708   -0.19666600343490082   -0.005550293629686041
-0.015601341403186747   -0.19725162576173014   -0.005578633547308265
-0.016187643261280544   -0.1969507244733795   -0.005321322726710524
-0.015419113286296708   -0.19666600343490082   -0.005550293629686041
-0.013447446911805161   -0.19829783840466883   -0.005568282320163107
-0.014736721152594761   -0.19848239721378286   -0.006590472975198373
-0.01741799391278632   -0.19719631055329728   -0.006168313633346262
-0.01228819551762352   -0.2   -0.007033876995428443
-0.014067327950539287   -0.19830781006162573   -0.006078401527251657
-0.01741799391278632   -0.19719631055329728   -0.006168313633346262
-0.019253482398763996   -0.19698879624399118   -0.006742113874594483
-0.01228819551762352   -0.2   -0.007033876995428443
-0.01878549442705608   -0.19677372487302341   -0.006241055059367595
-0.014067327950539287   -0.19830781006162573   -0.006078401527251657
-0.011447094428492309   -0.2   -0.006258418621014187
-0.01878549442705608   -0.19677372487302341   -0.006241055059367595
-0.01228819551762352   -0.2   -0.007033876995428443
-0.014067327950539287   -0.19830781006162573   -0.006078401527251657
-0.01878549442705608   -0.19677372487302341   -0.006241055059367595
-0.01705981094734848   -0.1969678900103272   -0.005915243236923927
-0.01741799391278632   -0.19719631055329728   -0.006168313633346262
-0.014067327950539287   -0.19830781006162573   -0.006078401527251657
-0.01878549442705608   -0.19677372487302341   -0.006241055059367595
-0.01741799391278632   -0.19719631055329728   -0.006168313633346262
-0.01228819551762352   -0.2   -0.007033876995428443
-0.014067327950539287   -0.19830781006162573   -0.006078401527251657
-0.01705981094734848   -0.1969678900103272   -0.005915243236923927
-0.011447094428492309   -0.2   -0.006258418621014187
-0.013447446911805161   -0.19829783840466883   -0.005568282320163107
-0.01705981094734848   -0.1969678900103272   -0.005915243236923927
-0.01878549442705608   -0.19677372487302341   -0.006241055059367595
-0.011447094428492309   -0.2   -0.006258418621014187
-0.018168648679219336   -0.19672401612297472   -0.0057017364326166055
-0.013447446911805161   -0.19829783840466883   -0.005568282320163107
-0.010602660265643889   -0.2   -0.0054737413506262675
-0.018168648679219336   -0.19672401612297472   -0.0057017364326166055
-0.011447094428492309   -0.2   -0.006258418621014187
-0.013447446911805161   -0.19829783840466883   -0.005568282320163107
-0.018168648679219336   -0.19672401612297472   -0.0057017364326166055
-0.016629911218019235   -0.19689423991017063   -0.005627725733631077
-0.01705981094734848   -0.1969678900103272   -0.005915243236923927
-0.013447446911805161   -0.19829783840466883   -0.005568282320163107
-0.018168648679219336   -0.19672401612297472   -0.0057017364326166055
-0.01705981094734848   -0.1969678900103272   -0.005915243236923927
-0.011447094428492309   -0.2   -0.006258418621014187
-0.013447446911805161   -0.19829783840466883   -0.005568282320163107
-0.016629911218019235   -0.19689423991017063   -0.005627725733631077
-0.010602660265643889   -0.2   -0.0054737413506262675
-0.012781458163482825   -0.19844342762852205   -0.005056649714486244
-0.016629911218019235   -0.19689423991017063   -0.005627725733631077
-0.018168648679219336   -0.19672401612297472   -0.0057017364326166055
-0.010602660265643889   -0.2   -0.0054737413506262675
-0.017587378396660167   -0.19680752111867708   -0.005141373750570685
-0.012781458163482825   -0.19844342762852205   -0.005056649714486244
-0.009776372102159007   -0.2   -0.004699380630178388
-0.017587378396660167   -0.19680752111867708   -0.005141373750570685
-0.010602660265643889   -0.2   -0.0054737413506262675
-0.012781458163482825   -0.19844342762852205   -0.005056649714486244
-0.017587378396660167   -0.19680752111867708   -0.005141373750570685
-0.016187643261280544   -0.1969507244733795   -0.005321322726710524
-0.016629911218019235   -0.19689423991017063   -0.005627725733631077
-0.012781458163482825   -0.19844342762852205   -0.005056649714486244
-0.017587378396660167   -0.19680752111867708   -0.005141373750570685
-0.016629911218019235   -0.19689423991017063   -0.005627725733631077
-0.010602660265643889   -0.2   -0.0054737413506262675
-0.01228819551762352   -0.2   -0.007033876995428443
-0.019253482398763996   -0.19698879624399118   -0.006742113874594483
-0.010519342780915101   -0.2   -0.007570904312872485
-0.011447094428492309   -0.2   -0.006258418621014187
-0.019253482398763996   -0.19698879624399118   -0.006742113874594483
-0.02280725440352022   -0.1960234964996886   -0.0073485613677739545
-0.010519342780915101   -0.2   -0.007570904312872485
-0.02157020685423397   -0.19584322102582982   -0.006526364609678148
-0.011447094428492309   -0.2   -0.006258418621014187
-0.008766101912026864   -0.2   -0.0064502584871931464
-0.02157020685423397   -0.19584322102582982   -0.006526364609678148
-0.010519342780915101   -0.2   -0.007570904312872485
-0.011447094428492309   -0.2   -0.006258418621014187
-0.02157020685423397   -0.19584322102582982   -0.006526364609678148
-0.01878549442705608   -0.19677372487302341   -0.006241055059367595
-0.019253482398763996   -0.19698879624399118   -0.006742113874594483
-0.011447094428492309   -0.2   -0.006258418621014187
-0.02157020685423397   -0.19584322102582982   -0.006526364609678148
-0.019253482398763996   -0.19698879624399118   -0.006742113874594483
-0.010519342780915101   -0.2   -0.007570904312872485
-0.011447094428492309   -0.2   -0.006258418621014187
-0.01878549442705608   -0.19677372487302341   -0.006241055059367595
-0.008766101912026864   -0.2   -0.0064502584871931464
-0.010602660265643889   -0.2   -0.0054737413506262675
-0.01878549442705608   -0.19677372487302341   -0.006241055059367595
-0.02157020685423397   -0.19584322102582982   -0.006526364609678148
-0.008766101912026864   -0.2   -0.0064502584871931464
-0.020432140610734256   -0.1958178074991381   -0.00564809484232468
-0.010602660265643889   -0.2   -0.0054737413506262675
-0.007367863688368548   -0.2   -0.005378152354541557
-0.020432140610734256   -0.1958178074991381   -0.00564809484232468
-0.008766101912026864   -0.2   -0.0064502584871931464
-0.010602660265643889   -0.2   -0.0054737413506262675
-0.020432140610734256   -0.1958178074991381   -0.00564809484232468
-0.018168648679219336   -0.19672401612297472   -0.0057017364326166055
-0.01878549442705608   -0.19677372487302341   -0.006241055059367595
-0.010602660265643889   -0.2   -0.0054737413506262675
-0.020432140610734256   -0.1958178074991381   -0.00564809484232468
-0.01878549442705608   -0.19677372487302341   -0.006241055059367595
-0.008766101912026864   -0.2   -0.0064502584871931464
-0.010602660265643889   -0.2   -0.0054737413506262675
-0.018168648679219336   -0.19672401612297472   -0.0057017364326166055
-0.007367863688368548   -0.2   -0.005378152354541557
-0.009776372102159007   -0.2   -0.004699380630178388
-0.018168648679219336   -0.19672401612297472   -0.0057017364326166055
-0.020432140610734256   -0.1958178074991381   -0.00564809484232468
-0.007367863688368548   -0.2   -0.005378152354541557
-0.018995157586088173   -0.19605467084328929   -0.004728984081932083
-0.009776372102159007   -0.2   -0.004699380630178388
-0.005640395139912409   -0.2   -0.0042652452781115
-0.018995157586088173   -0.19605467084328929   -0.004728984081932083
-0.007367863688368548   -0.2   -0.005378152354541557
-0.009776372102159007   -0.2   -0.004699380630178388
-0.018995157586088173   -0.19605467084328929   -0.004728984081932083
-0.017587378396660167   -0.19680752111867708   -0.005141373750570685
-0.018168648679219336   -0.19672401612297472   -0.0057017364326166055
-0.009776372102159007   -0.2   -0.004699380630178388
-0.018995157586088173   -0.19605467084328929   -0.004728984081932083
-0.018168648679219336   -0.19672401612297472   -0.0057017364326166055
-0.007367863688368548   -0.2   -0.005378152354541557
-0.0140809517774525   -0.19575819461698682   -0.004179289695461313
-0.005651823434598719   -0.18828650330068805   -0.0036139501920743416
-0.014965383405288338   -0.19652005219843982   -0.004948162102470026
-0.013087608411560089   -0.19541326586634397   -0.00483178506903086
-0.005651823434598719   -0.18828650330068805   -0.0036139501920743416
-0.010699108715614435   -0.18885938271474767   -0.004430145158070204
-0.014965383405288338   -0.19652005219843982   -0.004948162102470026
-0.010422128595010747   -0.18853429477399275   -0.004678316572499953
-0.013087608411560089   -0.19541326586634397   -0.00483178506903086
-0.014574930397756964   -0.19625129092652202   -0.005226988583690514
-0.010422128595010747   -0.18853429477399275   -0.004678316572499953
-0.014965383405288338   -0.19652005219843982   -0.004948162102470026
-0.013087608411560089   -0.19541326586634397   -0.00483178506903086
-0.010422128595010747   -0.18853429477399275   -0.004678316572499953
-0.004861458216499597   -0.18788454300191504   -0.004176711239014664
-0.005651823434598719   -0.18828650330068805   -0.0036139501920743416
-0.013087608411560089   -0.19541326586634397   -0.00483178506903086
-0.010422128595010747   -0.18853429477399275   -0.004678316572499953
-0.005651823434598719   -0.18828650330068805   -0.0036139501920743416
-0.014965383405288338   -0.19652005219843982   -0.004948162102470026
-0.013087608411560089   -0.19541326586634397   -0.00483178506903086
-0.004861458216499597   -0.18788454300191504   -0.004176711239014664
-0.014574930397756964   -0.19625129092652202   -0.005226988583690514
-0.012260623023349416   -0.19530541868644477   -0.005457190812620318
-0.004861458216499597   -0.18788454300191504   -0.004176711239014664
-0.010422128595010747   -0.18853429477399275   -0.004678316572499953
-0.014574930397756964   -0.19625129092652202   -0.005226988583690514
-0.010110730835007986   -0.18835261331106706   -0.004903883522413295
-0.012260623023349416   -0.19530541868644477   -0.005457190812620318
-0.014117298633322731   -0.19615060888461022   -0.005483995831908348
-0.010110730835007986   -0.18835261331106706   -0.004903883522413295
-0.014574930397756964   -0.19625129092652202   -0.005226988583690514
-0.012260623023349416   -0.19530541868644477   -0.005457190812620318
-0.010110730835007986   -0.18835261331106706   -0.004903883522413295
-0.0042395767054924345   -0.18769132392597496   -0.004705952580682635
-0.004861458216499597   -0.18788454300191504   -0.004176711239014664
-0.012260623023349416   -0.19530541868644477   -0.005457190812620318
-0.010110730835007986   -0.18835261331106706   -0.004903883522413295
-0.004861458216499597   -0.18788454300191504   -0.004176711239014664
-0.014574930397756964   -0.19625129092652202   -0.005226988583690514
-0.012260623023349416   -0.19530541868644477   -0.005457190812620318
-0.0042395767054924345   -0.18769132392597496   -0.004705952580682635
-0.014117298633322731   -0.19615060888461022   -0.005483995831908348
-0.01132574942683825   -0.19539130799943963   -0.006052675863730507
-0.0042395767054924345   -0.18769132392597496   -0.004705952580682635
-0.010110730835007986   -0.18835261331106706   -0.004903883522413295
-0.014117298633322731   -0.19615060888461022   -0.005483995831908348
-0.009871856697056345   -0.1883092826396343   -0.0051075536018902485
-0.01132574942683825   -0.19539130799943963   -0.006052675863730507
-0.013725066255826628   -0.19621939467497898   -0.0057178142351874345
-0.009871856697056345   -0.1883092826396343   -0.0051075536018902485
-0.014117298633322731   -0.19615060888461022   -0.005483995831908348
-0.01132574942683825   -0.19539130799943963   -0.006052675863730507
-0.009871856697056345   -0.1883092826396343   -0.0051075536018902485
-0.0035613934687739146   -0.18765168153878597   -0.005200238767570903
-0.0042395767054924345   -0.18769132392597496   -0.004705952580682635
-0.01132574942683825   -0.19539130799943963   -0.006052675863730507
-0.009871856697056345   -0.1883092826396343   -0.0051075536018902485
-0.0042395767054924345   -0.18769132392597496   -0.004705952580682635
-0.014117298633322731   -0.19615060888461022   -0.005483995831908348
-0.014965383405288338   -0.19652005219843982   -0.004948162102470026
-0.010699108715614435   -0.18885938271474767   -0.004430145158070204
-0.01614987300370308   -0.1969935203381258   -0.005563285417802237
-0.014574930397756964   -0.19625129092652202   -0.005226988583690514
-0.010699108715614435   -0.18885938271474767   -0.004430145158070204
-0.01567447016730753   -0.18906211716644913   -0.005096571468177076
-0.01614987300370308   -0.1969935203381258   -0.005563285417802237
-0.015441316183543484   -0.18877844575146552   -0.005110622502081542
-0.014574930397756964   -0.19625129092652202   -0.005226988583690514
-0.01580408668440395   -0.1967536371892156   -0.005570935196308204
-0.015441316183543484   -0.18877844575146552   -0.005110622502081542
-0.01614987300370308   -0.1969935203381258   -0.005563285417802237
-0.014574930397756964   -0.19625129092652202   -0.005226988583690514
-0.015441316183543484   -0.18877844575146552   -0.005110622502081542
-0.010422128595010747   -0.18853429477399275   -0.004678316572499953
-0.010699108715614435   -0.18885938271474767   -0.004430145158070204
-0.014574930397756964   -0.19625129092652202   -0.005226988583690514
-0.015441316183543484   -0.18877844575146552   -0.005110622502081542
-0.010699108715614435   -0.18885938271474767   -0.004430145158070204
-0.01614987300370308   -0.1969935203381258   -0.005563285417802237
-0.014574930397756964   -0.19625129092652202   -0.005226988583690514
-0.010422128595010747   -0.18853429477399275   -0.004678316572499953
-0.01580408668440395   -0.1967536371892156   -0.005570935196308204
-0.014117298633322731   -0.19615060888461022   -0.005483995831908348
-0.010422128595010747   -0.18853429477399275   -0.004678316572499953
-0.015441316183543484   -0.18877844575146552   -0.005110622502081542
-0.01580408668440395   -0.1967536371892156   -0.005570935196308204
-0.01520021830830487   -0.18862407038920817   -0.005103745483783908
-0.014117298633322731   -0.19615060888461022   -0.005483995831908348
-0.015419113286296708   -0.19666600343490082   -0.005550293629686041
-0.01520021830830487   -0.18862407038920817   -0.005103745483783908
-0.01580408668440395   -0.1967536371892156   -0.005570935196308204
-0.014117298633322731   -0.19615060888461022   -0.005483995831908348
-0.01520021830830487   -0.18862407038920817   -0.005103745483783908
-0.010110730835007986   -0.18835261331106706   -0.004903883522413295
-0.010422128595010747   -0.18853429477399275   -0.004678316572499953
-0.014117298633322731   -0.19615060888461022   -0.005483995831908348
-0.01520021830830487   -0.18862407038920817   -0.005103745483783908
-0.010422128595010747   -0.18853429477399275   -0.004678316572499953
-0.01580408668440395   -0.1967536371892156   -0.005570935196308204
-0.014117298633322731   -0.19615060888461022   -0.005483995831908348
-0.010110730835007986   -0.18835261331106706   -0.004903883522413295
-0.015419113286296708   -0.19666600343490082   -0.005550293629686041
-0.013725066255826628   -0.19621939467497898   -0.0057178142351874345
-0.010110730835007986   -0.18835261331106706   -0.004903883522413295
-0.01520021830830487   -0.18862407038920817   -0.005103745483783908
-0.015419113286296708   -0.19666600343490082   -0.005550293629686041
-0.014967644825259079   -0.18859265294434394   -0.005075715316603116
-0.013725066255826628   -0.19621939467497898   -0.0057178142351874345
-0.015027591406406554   -0.19672353654976513   -0.005507457775712261
-0.014967644825259079   -0.18859265294434394   -0.005075715316603116
-0.015419113286296708   -0.19666600343490082   -0.005550293629686041
-0.013725066255826628   -0.19621939467497898   -0.0057178142351874345
-0.014967644825259079   -0.18859265294434394   -0.005075715316603116
-0.009871856697056345   -0.1883092826396343   -0.0051075536018902485
-0.010110730835007986   -0.18835261331106706   -0.004903883522413295
-0.013725066255826628   -0.19621939467497898   -0.0057178142351874345
-0.014967644825259079   -0.18859265294434394   -0.005075715316603116
-0.010110730835007986   -0.18835261331106706   -0.004903883522413295
-0.015419113286296708   -0.19666600343490082   -0.005550293629686041
-0.01614987300370308   -0.1969935203381258   -0.005563285417802237
-0.01567447016730753   -0.18906211716644913   -0.005096571468177076
-0.01741799391278632   -0.19719631055329728   -0.006168313633346262
-0.01580408668440395   -0.1967536371892156   -0.005570935196308204
-0.01567447016730753   -0.18906211716644913   -0.005096571468177076
-0.02061437728031934   -0.1888832314784361   -0.005720108148592289
-0.01741799391278632   -0.19719631055329728   -0.006168313633346262
-0.02038306253185043   -0.1886314497903623   -0.005509733329903208
-0.01580408668440395   -0.1967536371892156   -0.005570935196308204
-0.01705981094734848   -0.1969678900103272   -0.005915243236923927
-0.02038306253185043   -0.1886314497903623   -0.005509733329903208
-0.01741799391278632   -0.19719631055329728   -0.006168313633346262
-0.01580408668440395   -0.1967536371892156   -0.005570935196308204
-0.02038306253185043   -0.1886314497903623   -0.005509733329903208
-0.015441316183543484   -0.18877844575146552   -0.005110622502081542
-0.01567447016730753   -0.18906211716644913   -0.005096571468177076
-0.01580408668440395   -0.1967536371892156   -0.005570935196308204
-0.02038306253185043   -0.1886314497903623   -0.005509733329903208
-0.01567447016730753   -0.18906211716644913   -0.005096571468177076
-0.01741799391278632   -0.19719631055329728   -0.006168313633346262
-0.01580408668440395   -0.1967536371892156   -0.005570935196308204
-0.015441316183543484   -0.18877844575146552   -0.005110622502081542
-0.01705981094734848   -0.1969678900103272   -0.005915243236923927
-0.015419113286296708   -0.19666600343490082   -0.005550293629686041
-0.015441316183543484   -0.18877844575146552   -0.005110622502081542
-0.02038306253185043   -0.1886314497903623   -0.005509733329903208
-0.01705981094734848   -0.1969678900103272   -0.005915243236923927
-0.02012346540586942   -0.18850676166359778   -0.00527872724857736
-0.015419113286296708   -0.19666600343490082   -0.005550293629686041
-0.016629911218019235   -0.19689423991017063   -0.005627725733631077
-0.02012346540586942   -0.18850676166359778   -0.00527872724857736
-0.01705981094734848   -0.1969678900103272   -0.005915243236923927
-0.015419113286296708   -0.19666600343490082   -0.005550293629686041
-0.02012346540586942   -0.18850676166359778   -0.00527872724857736
-0.01520021830830487   -0.18862407038920817   -0.005103745483783908
-0.015441316183543484   -0.18877844575146552   -0.005110622502081542
-0.015419113286296708   -0.19666600343490082   -0.005550293629686041
-0.02012346540586942   -0.18850676166359778   -0.00527872724857736
-0.015441316183543484   -0.18877844575146552   -0.005110622502081542
-0.01705981094734848   -0.1969678900103272   -0.005915243236923927
-0.015419113286296708   -0.19666600343490082   -0.005550293629686041
-0.01520021830830487   -0.18862407038920817   -0.005103745483783908
-0.016629911218019235   -0.19689423991017063   -0.005627725733631077
-0.015027591406406554   -0.19672353654976513   -0.005507457775712261
-0.01520021830830487   -0.18862407038920817   -0.005103745483783908
-0.02012346540586942   -0.18850676166359778   -0.00527872724857736
-0.016629911218019235   -0.19689423991017063   -0.005627725733631077
-0.019862648081397205   -0.18849677498566744   -0.005024573884605998
-0.015027591406406554   -0.19672353654976513   -0.005507457775712261
-0.016187643261280544   -0.1969507244733795   -0.005321322726710524
-0.019862648081397205   -0.18849677498566744   -0.005024573884605998
-0.016629911218019235   -0.19689423991017063   -0.005627725733631077
-0.015027591406406554   -0.19672353654976513   -0.005507457775712261
-0.019862648081397205   -0.18849677498566744   -0.005024573884605998
-0.014967644825259079   -0.18859265294434394   -0.005075715316603116
-0.01520021830830487   -0.18862407038920817   -0.005103745483783908
-0.015027591406406554   -0.19672353654976513   -0.005507457775712261
-0.019862648081397205   -0.18849677498566744   -0.005024573884605998
-0.01520021830830487   -0.18862407038920817   -0.005103745483783908
-0.016629911218019235   -0.19689423991017063   -0.005627725733631077
-0.01741799391278632   -0.19719631055329728   -0.006168313633346262
-0.02061437728031934   -0.1888832314784361   -0.005720108148592289
-0.019253482398763996   -0.19698879624399118   -0.006742113874594483
-0.01705981094734848   -0.1969678900103272   -0.005915243236923927
-0.02061437728031934   -0.1888832314784361   -0.005720108148592289
-0.026044513120755786   -0.18829879340272254   -0.006292280901487662
-0.019253482398763996   -0.19698879624399118   -0.006742113874594483
-0.025761758443307498   -0.1880790874341254   -0.005862633853109752
-0.01705981094734848   -0.1969678900103272   -0.005915243236923927
-0.01878549442705608   -0.19677372487302341   -0.006241055059367595
-0.025761758443307498   -0.1880790874341254   -0.005862633853109752
-0.019253482398763996   -0.19698879624399118   -0.006742113874594483
-0.01705981094734848   -0.1969678900103272   -0.005915243236923927
-0.025761758443307498   -0.1880790874341254   -0.005862633853109752
-0.02038306253185043   -0.1886314497903623   -0.005509733329903208
-0.02061437728031934   -0.1888832314784361   -0.005720108148592289
-0.01705981094734848   -0.1969678900103272   -0.005915243236923927
-0.025761758443307498   -0.1880790874341254   -0.005862633853109752
-0.02061437728031934   -0.1888832314784361   -0.005720108148592289
-0.019253482398763996   -0.19698879624399118   -0.006742113874594483
-0.01705981094734848   -0.1969678900103272   -0.005915243236923927
-0.02038306253185043   -0.1886314497903623   -0.005509733329903208
-0.01878549442705608   -0.19677372487302341   -0.006241055059367595
-0.016629911218019235   -0.19689423991017063   -0.005627725733631077
-0.02038306253185043   -0.1886314497903623   -0.005509733329903208
-0.025761758443307498   -0.1880790874341254   -0.005862633853109752
-0.01878549442705608   -0.19677372487302341   -0.006241055059367595
-0.025371759614220467   -0.18798396722945288   -0.005413828940669654
-0.016629911218019235   -0.19689423991017063   -0.005627725733631077
-0.018168648679219336   -0.19672401612297472   -0.0057017364326166055
-0.025371759614220467   -0.18798396722945288   -0.005413828940669654
-0.01878549442705608   -0.19677372487302341   -0.006241055059367595
-0.016629911218019235   -0.19689423991017063   -0.005627725733631077
-0.025371759614220467   -0.18798396722945288   -0.005413828940669654
-0.02012346540586942   -0.18850676166359778   -0.00527872724857736
-0.02038306253185043   -0.1886314497903623   -0.005509733329903208
-0.016629911218019235   -0.19689423991017063   -0.005627725733631077
-0.025371759614220467   -0.18798396722945288   -0.005413828940669654
-0.02038306253185043   -0.1886314497903623   -0.005509733329903208
-0.01878549442705608   -0.19677372487302341   -0.006241055059367595
-0.016629911218019235   -0.19689423991017063   -0.005627725733631077
-0.02012346540586942   -0.18850676166359778   -0.00527872724857736
-0.018168648679219336   -0.19672401612297472   -0.0057017364326166055
-0.016187643261280544   -0.1969507244733795   -0.005321322726710524
-0.02012346540586942   -0.18850676166359778   -0.00527872724857736
-0.025371759614220467   -0.18798396722945288   -0.005413828940669654
-0.018168648679219336   -0.19672401612297472   -0.0057017364326166055
-0.025030689256616338   -0.18801361797564867   -0.004933252671812753
-0.016187643261280544   -0.1969507244733795   -0.005321322726710524
-0.017587378396660167   -0.19680752111867708   -0.005141373750570685
-0.025030689256616338   -0.18801361797564867   -0.004933252671812753
-0.018168648679219336   -0.19672401612297472   -0.0057017364326166055
-0.016187643261280544   -0.1969507244733795   -0.005321322726710524
-0.025030689256616338   -0.18801361797564867   -0.004933252671812753
-0.019862648081397205   -0.18849677498566744   -0.005024573884605998
-0.02012346540586942   -0.18850676166359778   -0.00527872724857736
-0.016187643261280544   -0.1969507244733795   -0.005321322726710524
-0.025030689256616338   -0.18801361797564867   -0.004933252671812753
-0.02012346540586942   -0.18850676166359778   -0.00527872724857736
-0.018168648679219336   -0.19672401612297472   -0.0057017364326166055
-0.019253482398763996   -0.19698879624399118   -0.006742113874594483
-0.026044513120755786   -0.18829879340272254   -0.006292280901487662
-0.02280725440352022   -0.1960234964996886   -0.0073485613677739545
-0.01878549442705608   -0.19677372487302341   -0.006241055059367595
-0.026044513120755786   -0.18829879340272254   -0.006292280901487662
-0.03303782346371694   -0.1873483121784122   -0.006839698612319187
-0.02280725440352022   -0.1960234964996886   -0.0073485613677739545
-0.03213302727108898   -0.18711086442889285   -0.006161547262553717
-0.01878549442705608   -0.19677372487302341   -0.006241055059367595
-0.02157020685423397   -0.19584322102582982   -0.006526364609678148
-0.03213302727108898   -0.18711086442889285   -0.006161547262553717
-0.02280725440352022   -0.1960234964996886   -0.0073485613677739545
-0.01878549442705608   -0.19677372487302341   -0.006241055059367595
-0.03213302727108898   -0.18711086442889285   -0.006161547262553717
-0.025761758443307498   -0.1880790874341254   -0.005862633853109752
-0.026044513120755786   -0.18829879340272254   -0.006292280901487662
-0.01878549442705608   -0.19677372487302341   -0.006241055059367595
-0.03213302727108898   -0.18711086442889285   -0.006161547262553717
-0.026044513120755786   -0.18829879340272254   -0.006292280901487662
-0.02280725440352022   -0.1960234964996886   -0.0073485613677739545
-0.01878549442705608   -0.19677372487302341   -0.006241055059367595
-0.025761758443307498   -0.1880790874341254   -0.005862633853109752
-0.02157020685423397   -0.19584322102582982   -0.006526364609678148
-0.018168648679219336   -0.19672401612297472   -0.0057017364326166055
-0.025761758443307498   -0.1880790874341254   -0.005862633853109752
-0.03213302727108898   -0.18711086442889285   -0.006161547262553717
-0.02157020685423397   -0.19584322102582982   -0.006526364609678148
-0.03132080197835242   -0.18702288088269511   -0.005443310876288216
-0.018168648679219336   -0.19672401612297472   -0.0057017364326166055
-0.020432140610734256   -0.1958178074991381   -0.00564809484232468
-0.03132080197835242   -0.18702288088269511   -0.005443310876288216
-0.02157020685423397   -0.19584322102582982   -0.006526364609678148
-0.018168648679219336   -0.19672401612297472   -0.0057017364326166055
-0.03132080197835242   -0.18702288088269511   -0.005443310876288216
-0.025371759614220467   -0.18798396722945288   -0.005413828940669654
-0.025761758443307498   -0.1880790874341254   -0.005862633853109752
-0.018168648679219336   -0.19672401612297472   -0.0057017364326166055
-0.03132080197835242   -0.18702288088269511   -0.005443310876288216
-0.025761758443307498   -0.1880790874341254   -0.005862633853109752
-0.02157020685423397   -0.19584322102582982   -0.006526364609678148
-0.018168648679219336   -0.19672401612297472   -0.0057017364326166055
-0.025371759614220467   -0.18798396722945288   -0.005413828940669654
-0.020432140610734256   -0.1958178074991381   -0.00564809484232468
-0.017587378396660167   -0.19680752111867708   -0.005141373750570685
-0.025371759614220467   -0.18798396722945288   -0.005413828940669654
-0.03132080197835242   -0.18702288088269511   -0.005443310876288216
-0.020432140610734256   -0.1958178074991381   -0.00564809484232468
-0.030267962664883144   -0.18712936356337442   -0.004691861700968885
-0.017587378396660167   -0.19680752111867708   -0.005141373750570685
-0.018995157586088173   -0.19605467084328929   -0.004728984081932083
-0.030267962664883144   -0.18712936356337442   -0.004691861700968885
-0.020432140610734256   -0.1958178074991381   -0.00564809484232468
-0.017587378396660167   -0.19680752111867708   -0.005141373750570685
-0.030267962664883144   -0.18712936356337442   -0.004691861700968885
-0.025030689256616338   -0.18801361797564867   -0.004933252671812753
-0.025371759614220467   -0.18798396722945288   -0.005413828940669654
-0.017587378396660167   -0.19680752111867708   -0.005141373750570685
-0.030267962664883144   -0.18712936356337442   -0.004691861700968885
-0.025371759614220467   -0.18798396722945288   -0.005413828940669654
-0.020432140610734256   -0.1958178074991381   -0.00564809484232468
-0.005651823434598719   -0.18828650330068805   -0.0036139501920743416
0.0011676569918323272   -0.1745983317879475   -0.002991853401043242
-0.010699108715614435   -0.18885938271474767   -0.004430145158070204
-0.004861458216499597   -0.18788454300191504   -0.004176711239014664
0.0011676569918323272   -0.1745983317879475   -0.002991853401043242
-0.007320239770904482   -0.1750170178866816   -0.0037927140590241276
-0.010699108715614435   -0.18885938271474767   -0.004430145158070204
-0.007173922701141302   -0.17467642884181284   -0.00398906935043954
-0.004861458216499597   -0.18788454300191504   -0.004176711239014664
-0.010422128595010747   -0.18853429477399275   -0.004678316572499953
-0.007173922701141302   -0.17467642884181284   -0.00398906935043954
-0.010699108715614435   -0.18885938271474767   -0.004430145158070204
-0.004861458216499597   -0.18788454300191504   -0.004176711239014664
-0.007173922701141302   -0.17467642884181284   -0.00398906935043954
0.0017175942154663687   -0.1741902215361265   -0.003438664964102265
0.0011676569918323272   -0.1745983317879475   -0.002991853401043242
-0.004861458216499597   -0.18788454300191504   -0.004176711239014664
-0.007173922701141302   -0.17467642884181284   -0.00398906935043954
0.0011676569918323272   -0.1745983317879475   -0.002991853401043242
-0.010699108715614435   -0.18885938271474767   -0.004430145158070204
-0.004861458216499597   -0.18788454300191504   -0.004176711239014664
0.0017175942154663687   -0.1741902215361265   -0.003438664964102265
-0.010422128595010747   -0.18853429477399275   -0.004678316572499953
-0.0042395767054924345   -0.18769132392597496   -0.004705952580682635
0.0017175942154663687   -0.1741902215361265   -0.003438664964102265
-0.007173922701141302   -0.17467642884181284   -0.00398906935043954
-0.010422128595010747   -0.18853429477399275   -0.004678316572499953
-0.00700764054733444   -0.17445245251981878   -0.004162309491801289
-0.0042395767054924345   -0.18769132392597496   -0.004705952580682635
-0.010110730835007986   -0.18835261331106706   -0.004903883522413295
-0.00700764054733444   -0.17445245251981878   -0.004162309491801289
-0.010422128595010747   -0.18853429477399275   -0.004678316572499953
-0.0042395767054924345   -0.18769132392597496   -0.004705952580682635
-0.00700764054733444   -0.17445245251981878   -0.004162309491801289
0.002121919193520409   -0.17395260394909393   -0.0038531248191507445
0.0017175942154663687   -0.1741902215361265   -0.003438664964102265
-0.0042395767054924345   -0.18769132392597496   -0.004705952580682635
-0.00700764054733444   -0.17445245251981878   -0.004162309491801289
0.0017175942154663687   -0.1741902215361265   -0.003438664964102265
-0.010422128595010747   -0.18853429477399275   -0.004678316572499953
-0.0042395767054924345   -0.18769132392597496   -0.004705952580682635
0.002121919193520409   -0.17395260394909393   -0.0038531248191507445
-0.010110730835007986   -0.18835261331106706   -0.004903883522413295
-0.0035613934687739146   -0.18765168153878597   -0.005200238767570903
0.002121919193520409   -0.17395260394909393   -0.0038531248191507445
-0.00700764054733444   -0.17445245251981878   -0.004162309491801289
-0.010110730835007986   -0.18835261331106706   -0.004903883522413295
-0.006908267666116651   -0.17433851462735353   -0.004314714428943836
-0.0035613934687739146   -0.18765168153878597   -0.005200238767570903
-0.009871856697056345   -0.1883092826396343   -0.0051075536018902485
-0.006908267666116651   -0.17433851462735353   -0.004314714428943836
-0.010110730835007986   -0.18835261331106706   -0.004903883522413295
-0.0035613934687739146   -0.18765168153878597   -0.005200238767570903
-0.006908267666116651   -0.17433851462735353   -0.004314714428943836
0.0025538510851921725   -0.17383276194739083   -0.00423505974802556
0.002121919193520409   -0.17395260394909393   -0.0038531248191507445
-0.0035613934687739146   -0.18765168153878597   -0.005200238767570903
-0.006908267666116651   -0.17433851462735353   -0.004314714428943836
0.002121919193520409   -0.17395260394909393   -0.0038531248191507445
-0.010110730835007986   -0.18835261331106706   -0.004903883522413295
-0.010699108715614435   -0.18885938271474767   -0.004430145158070204
-0.007320239770904482   -0.1750170178866816   -0.0037927140590241276
-0.01567447016730753   -0.18906211716644913   -0.005096571468177076
-0.010422128595010747   -0.18853429477399275   -0.004678316572499953
-0.007320239770904482   -0.1750170178866816   -0.0037927140590241276
-0.015525006184739298   -0.17509694552930855   -0.004453603551906907
-0.01567447016730753   -0.18906211716644913   -0.005096571468177076
-0.015417204671997024   -0.17480433289827224   -0.0044589378680652365
-0.010422128595010747   -0.18853429477399275   -0.004678316572499953
-0.015441316183543484   -0.18877844575146552   -0.005110622502081542
-0.015417204671997024   -0.17480433289827224   -0.0044589378680652365
-0.01567447016730753   -0.18906211716644913   -0.005096571468177076
-0.010422128595010747   -0.18853429477399275   -0.004678316572499953
-0.015417204671997024   -0.17480433289827224   -0.0044589378680652365
-0.007173922701141302   -0.17467642884181284   -0.00398906935043954
-0.007320239770904482   -0.1750170178866816   -0.0037927140590241276
-0.010422128595010747   -0.18853429477399275   -0.004678316572499953
-0.015417204671997024   -0.17480433289827224   -0.0044589378680652365
-0.007320239770904482   -0.1750170178866816   -0.0037927140590241276
-0.01567447016730753   -0.18906211716644913   -0.005096571468177076
-0.010422128595010747   -0.18853429477399275   -0.004678316572499953
-0.007173922701141302   -0.17467642884181284   -0.00398906935043954
-0.015441316183543484   -0.18877844575146552   -0.005110622502081542
-0.010110730835007986   -0.18835261331106706   -0.004903883522413295
-0.007173922701141302   -0.17467642884181284   -0.00398906935043954
-0.015417204671997024   -0.17480433289827224   -0.0044589378680652365
-0.015441316183543484   -0.18877844575146552   -0.005110622502081542
-0.015306396766001696   -0.174616119158502   -0.004442139840182084
-0.010110730835007986   -0.18835261331106706   -0.004903883522413295
-0.01520021830830487   -0.18862407038920817   -0.005103745483783908
-0.015306396766001696   -0.174616119158502   -0.004442139840182084
-0.015441316183543484   -0.18877844575146552   -0.005110622502081542
-0.010110730835007986   -0.18835261331106706   -0.004903883522413295
-0.015306396766001696   -0.174616119158502   -0.004442139840182084
-0.00700764054733444   -0.17445245251981878   -0.004162309491801289
-0.007173922701141302   -0.17467642884181284   -0.00398906935043954
-0.010110730835007986   -0.18835261331106706   -0.004903883522413295
-0.015306396766001696   -0.174616119158502   -0.004442139840182084
-0.007173922701141302   -0.17467642884181284   -0.00398906935043954
-0.015441316183543484   -0.18877844575146552   -0.005110622502081542
-0.010110730835007986   -0.18835261331106706   -0.004903883522413295
-0.00700764054733444   -0.17445245251981878   -0.004162309491801289
-0.01520021830830487   -0.18862407038920817   -0.005103745483783908
-0.009871856697056345   -0.1883092826396343   -0.0051075536018902485
-0.00700764054733444   -0.17445245251981878   -0.004162309491801289
-0.015306396766001696   -0.174616119158502   -0.004442139840182084
-0.01520021830830487   -0.18862407038920817   -0.005103745483783908
-0.015209462003609005   -0.17453054105489268   -0.004404661021055449
-0.009871856697056345   -0.1883092826396343   -0.0051075536018902485
-0.014967644825259079   -0.18859265294434394   -0.005075715316603116
-0.015209462003609005   -0.17453054105489268   -0.004404661021055449
-0.01520021830830487   -0.18862407038920817   -0.005103745483783908
-0.009871856697056345   -0.1883092826396343   -0.0051075536018902485
-0.015209462003609005   -0.17453054105489268   -0.004404661021055449
-0.006908267666116651   -0.17433851462735353   -0.004314714428943836
-0.00700764054733444   -0.17445245251981878   -0.004162309491801289
-0.009871856697056345   -0.1883092826396343   -0.0051075536018902485
-0.015209462003609005   -0.17453054105489268   -0.004404661021055449
-0.00700764054733444   -0.17445245251981878   -0.004162309491801289
-0.01520021830830487   -0.18862407038920817   -0.005103745483783908
-0.01567447016730753   -0.18906211716644913   -0.005096571468177076
-0.015525006184739298   -0.17509694552930855   -0.004453603551906907
-0.02061437728031934   -0.1888832314784361   -0.005720108148592289
-0.015441316183543484   -0.18877844575146552   -0.005110622502081542
-0.015525006184739298   -0.17509694552930855   -0.004453603551906907
-0.02359943693259362   -0.17483629566522907   -0.0050502697021384225
-0.02061437728031934   -0.1888832314784361   -0.005720108148592289
-0.023499049070936914   -0.17458374763273704   -0.0048692072291401465
-0.015441316183543484   -0.18877844575146552   -0.005110622502081542
-0.02038306253185043   -0.1886314497903623   -0.005509733329903208
-0.023499049070936914   -0.17458374763273704   -0.0048692072291401465
-0.02061437728031934   -0.1888832314784361   -0.005720108148592289
-0.015441316183543484   -0.18877844575146552   -0.005110622502081542
-0.023499049070936914   -0.17458374763273704   -0.0048692072291401465
-0.015417204671997024   -0.17480433289827224   -0.0044589378680652365
-0.015525006184739298   -0.17509694552930855   -0.004453603551906907
-0.015441316183543484   -0.18877844575146552   -0.005110622502081542
-0.023499049070936914   -0.17458374763273704   -0.0048692072291401465
-0.015525006184739298   -0.17509694552930855   -0.004453603551906907
-0.02061437728031934   -0.1888832314784361   -0.005720108148592289
-0.015441316183543484   -0.18877844575146552   -0.005110622502081542
-0.015417204671997024   -0.17480433289827224   -0.0044589378680652365
-0.02038306253185043   -0.1886314497903623   -0.005509733329903208
-0.01520021830830487   -0.18862407038920817   -0.005103745483783908
-0.015417204671997024   -0.17480433289827224   -0.0044589378680652365
-0.023499049070936914   -0.17458374763273704   -0.0048692072291401465
-0.02038306253185043   -0.1886314497903623   -0.005509733329903208
-0.02337776986101174   -0.17443444301867156   -0.004666480321001171
-0.01520021830830487   -0.18862407038920817   -0.005103745483783908
-0.02012346540586942   -0.18850676166359778   -0.00527872724857736
-0.02337776986101174   -0.17443444301867156   -0.004666480321001171
-0.02038306253185043   -0.1886314497903623   -0.005509733329903208
-0.01520021830830487   -0.18862407038920817   -0.005103745483783908
-0.02337776986101174   -0.17443444301867156   -0.004666480321001171
-0.015306396766001696   -0.174616119158502   -0.004442139840182084
-0.015417204671997024   -0.17480433289827224   -0.0044589378680652365
-0.01520021830830487   -0.18862407038920817   -0.005103745483783908
-0.02337776986101174   -0.17443444301867156   -0.004666480321001171
-0.015417204671997024   -0.17480433289827224   -0.0044589378680652365
-0.02038306253185043   -0.1886314497903623   -0.005509733329903208
-0.01520021830830487   -0.18862407038920817   -0.005103745483783908
-0.015306396766001696   -0.174616119158502   -0.004442139840182084
-0.02012346540586942   -0.18850676166359778   -0.00527872724857736
-0.014967644825259079   -0.18859265294434394   -0.005075715316603116
-0.015306396766001696   -0.174616119158502   -0.004442139840182084
-0.02337776986101174   -0.17443444301867156   -0.004666480321001171
-0.02012346540586942   -0.18850676166359778   -0.00527872724857736
-0.023259720651365782   -0.174383507624132   -0.0044427591247244705
-0.014967644825259079   -0.18859265294434394   -0.005075715316603116
-0.019862648081397205   -0.18849677498566744   -0.005024573884605998
-0.023259720651365782   -0.174383507624132   -0.0044427591247244705
-0.02012346540586942   -0.18850676166359778   -0.00527872724857736
-0.014967644825259079   -0.18859265294434394   -0.005075715316603116
-0.023259720651365782   -0.174383507624132   -0.0044427591247244705
-0.015209462003609005   -0.17453054105489268   -0.004404661021055449
-0.015306396766001696   -0.174616119158502   -0.004442139840182084
-0.014967644825259079   -0.18859265294434394   -0.005075715316603116
-0.023259720651365782   -0.174383507624132   -0.0044427591247244705
-0.015306396766001696   -0.174616119158502   -0.004442139840182084
-0.02012346540586942   -0.18850676166359778   -0.00527872724857736
-0.02061437728031934   -0.1888832314784361   -0.005720108148592289
-0.02359943693259362   -0.17483629566522907   -0.0050502697021384225
-0.026044513120755786   -0.18829879340272254   -0.006292280901487662
-0.02038306253185043   -0.1886314497903623   -0.005509733329903208
-0.02359943693259362   -0.17483629566522907   -0.0050502697021384225
-0.032062950614424206   -0.17424449451013937   -0.0055801752360596455
-0.026044513120755786   -0.18829879340272254   -0.006292280901487662
-0.03193222415136156   -0.1740303325321812   -0.00521254756060482
-0.02038306253185043   -0.1886314497903623   -0.005509733329903208
-0.025761758443307498   -0.1880790874341254   -0.005862633853109752
-0.03193222415136156   -0.1740303325321812   -0.00521254756060482
-0.026044513120755786   -0.18829879340272254   -0.006292280901487662
-0.02038306253185043   -0.1886314497903623   -0.005509733329903208
-0.03193222415136156   -0.1740303325321812   -0.00521254756060482
-0.023499049070936914   -0.17458374763273704   -0.0048692072291401465
-0.02359943693259362   -0.17483629566522907   -0.0050502697021384225
-0.02038306253185043   -0.1886314497903623   -0.005509733329903208
-0.03193222415136156   -0.1740303325321812   -0.00521254756060482
-0.02359943693259362   -0.17483629566522907   -0.0050502697021384225
-0.026044513120755786   -0.18829879340272254   -0.006292280901487662
-0.02038306253185043   -0.1886314497903623   -0.005509733329903208
-0.023499049070936914   -0.17458374763273704   -0.0048692072291401465
-0.025761758443307498   -0.1880790874341254   -0.005862633853109752
-0.02012346540586942   -0.18850676166359778   -0.00527872724857736
-0.023499049070936914   -0.17458374763273704   -0.0048692072291401465
-0.03193222415136156   -0.1740303325321812   -0.00521254756060482
-0.025761758443307498   -0.1880790874341254   -0.005862633853109752
-0.0317108374151112   -0.17391630595458635   -0.004826565186180909
-0.02012346540586942   -0.18850676166359778   -0.00527872724857736
-0.025371759614220467   -0.18798396722945288   -0.005413828940669654
-0.0317108374151112   -0.17391630595458635   -0.004826565186180909
-0.025761758443307498   -0.1880790874341254   -0.005862633853109752
-0.02012346540586942   -0.18850676166359778   -0.00527872724857736
-0.0317108374151112   -0.17391630595458635   -0.004826565186180909
-0.02337776986101174   -0.17443444301867156   -0.004666480321001171
-0.023499049070936914   -0.17458374763273704   -0.0048692072291401465
-0.02012346540586942   -0.18850676166359778   -0.00527872724857736
-0.0317108374151112   -0.17391630595458635   -0.004826565186180909
-0.023499049070936914   -0.17458374763273704   -0.0048692072291401465
-0.025761758443307498   -0.1880790874341254   -0.005862633853109752
-0.02012346540586942   -0.18850676166359778   -0.00527872724857736
-0.02337776986101174   -0.17443444301867156   -0.004666480321001171
-0.025371759614220467   -0.18798396722945288   -0.005413828940669654
-0.019862648081397205   -0.18849677498566744   -0.005024573884605998
-0.02337776986101174   -0.17443444301867156   -0.004666480321001171
-0.0317108374151112   -0.17391630595458635   -0.004826565186180909
-0.025371759614220467   -0.18798396722945288   -0.005413828940669654
-0.031530531496658895   -0.17390835379452788   -0.00441654571947573
-0.019862648081397205   -0.18849677498566744   -0.005024573884605998
-0.025030689256616338   -0.18801361797564867   -0.004933252671812753
-0.031530531496658895   -0.17390835379452788   -0.00441654571947573
-0.025371759614220467   -0.18798396722945288   -0.005413828940669654
-0.019862648081397205   -0.18849677498566744   -0.005024573884605998
-0.031530531496658895   -0.17390835379452788   -0.00441654571947573
-0.023259720651365782   -0.174383507624132   -0.0044427591247244705
-0.02337776986101174   -0.17443444301867156   -0.004666480321001171
-0.019862648081397205   -0.18849677498566744   -0.005024573884605998
-0.031530531496658895   -0.17390835379452788   -0.00441654571947573
-0.02337776986101174   -0.17443444301867156   -0.004666480321001171
-0.025371759614220467   -0.18798396722945288   -0.005413828940669654
-0.026044513120755786   -0.18829879340272254   -0.006292280901487662
-0.032062950614424206   -0.17424449451013937   -0.0055801752360596455
-0.03303782346371694   -0.1873483121784122   -0.006839698612319187
-0.025761758443307498   -0.1880790874341254   -0.005862633853109752
-0.032062950614424206   -0.17424449451013937   -0.0055801752360596455
-0.04193429151871546   -0.173393702409923   -0.00607300243968907
-0.03303782346371694   -0.1873483121784122   -0.006839698612319187
-0.04126885456508666   -0.1731709234396261   -0.005497863452476068
-0.025761758443307498   -0.1880790874341254   -0.005862633853109752
-0.03213302727108898   -0.18711086442889285   -0.006161547262553717
-0.04126885456508666   -0.1731709234396261   -0.005497863452476068
-0.03303782346371694   -0.1873483121784122   -0.006839698612319187
-0.025761758443307498   -0.1880790874341254   -0.005862633853109752
-0.04126885456508666   -0.1731709234396261   -0.005497863452476068
-0.03193222415136156   -0.1740303325321812   -0.00521254756060482
-0.032062950614424206   -0.17424449451013937   -0.0055801752360596455
-0.025761758443307498   -0.1880790874341254   -0.005862633853109752
-0.04126885456508666   -0.1731709234396261   -0.005497863452476068
-0.032062950614424206   -0.17424449451013937   -0.0055801752360596455
-0.03303782346371694   -0.1873483121784122   -0.006839698612319187
-0.025761758443307498   -0.1880790874341254   -0.005862633853109752
-0.03193222415136156   -0.1740303325321812   -0.00521254756060482
-0.03213302727108898   -0.18711086442889285   -0.006161547262553717
-0.025371759614220467   -0.18798396722945288   -0.005413828940669654
-0.03193222415136156   -0.1740303325321812   -0.00521254756060482
-0.04126885456508666   -0.1731709234396261   -0.005497863452476068
-0.03213302727108898   -0.18711086442889285   -0.006161547262553717
-0.04069052500003178   -0.17306646980543888   -0.00489251855173969
-0.025371759614220467   -0.18798396722945288   -0.005413828940669654
-0.03132080197835242   -0.18702288088269511   -0.005443310876288216
-0.04069052500003178   -0.17306646980543888   -0.00489251855173969
-0.03213302727108898   -0.18711086442889285   -0.006161547262553717
-0.025371759614220467   -0.18798396722945288   -0.005413828940669654
-0.04069052500003178   -0.17306646980543888   -0.00489251855173969
-0.0317108374151112   -0.17391630595458635   -0.004826565186180909
-0.03193222415136156   -0.1740303325321812   -0.00521254756060482
-0.025371759614220467   -0.18798396722945288   -0.005413828940669654
-0.04069052500003178   -0.17306646980543888   -0.00489251855173969
-0.03193222415136156   -0.1740303325321812   -0.00521254756060482
-0.03213302727108898   -0.18711086442889285   -0.006161547262553717
-0.025371759614220467   -0.18798396722945288   -0.005413828940669654
-0.0317108374151112   -0.17391630595458635   -0.004826565186180909
-0.03132080197835242   -0.18702288088269511   -0.005443310876288216
-0.025030689256616338   -0.18801361797564867   -0.004933252671812753
-0.0317108374151112   -0.17391630595458635   -0.004826565186180909
-0.04069052500003178   -0.17306646980543888   -0.00489251855173969
-0.03132080197835242   -0.18702288088269511   -0.005443310876288216
-0.03991102258879899   -0.17312433678088515   -0.004260836007220205
-0.025030689256616338   -0.18801361797564867   -0.004933252671812753
-0.030267962664883144   -0.18712936356337442   -0.004691861700968885
-0.03991102258879899   -0.17312433678088515   -0.004260836007220205
-0.03132080197835242   -0.18702288088269511   -0.005443310876288216
-0.025030689256616338   -0.18801361797564867   -0.004933252671812753
-0.03991102258879899   -0.17312433678088515   -0.004260836007220205
-0.031530531496658895   -0.17390835379452788   -0.00441654571947573
-0.0317108374151112   -0.17391630595458635   -0.004826565186180909
-0.025030689256616338   -0.18801361797564867   -0.004933252671812753
-0.03991102258879899   -0.17312433678088515   -0.004260836007220205
-0.0317108374151112   -0.17391630595458635   -0.004826565186180909
-0.03132080197835242   -0.18702288088269511   -0.005443310876288216
0.0011676569918323272   -0.1745983317879475   -0.002991853401043242
0.00632835214624282   -0.15605844779438957   -0.0022807641870211427
-0.007320239770904482   -0.1750170178866816   -0.0037927140590241276
0.0017175942154663687   -0.1741902215361265   -0.003438664964102265
0.00632835214624282   -0.15605844779438957   -0.0022807641870211427
-0.004889251133514419   -0.15633394325158867   -0.003044982490225558
-0.007320239770904482   -0.1750170178866816   -0.0037927140590241276
-0.004859494963585101   -0.1559951994185542   -0.0031805439799378723
0.0017175942154663687   -0.1741902215361265   -0.003438664964102265
-0.007173922701141302   -0.17467642884181284   -0.00398906935043954
-0.004859494963585101   -0.1559951994185542   -0.0031805439799378723
-0.007320239770904482   -0.1750170178866816   -0.0037927140590241276
0.0017175942154663687   -0.1741902215361265   -0.003438664964102265
-0.004859494963585101   -0.1559951994185542   -0.0031805439799378723
0.006652883287004583   -0.15566037858786808   -0.0026100040990365285
0.00632835214624282   -0.15605844779438957   -0.0022807641870211427
0.0017175942154663687   -0.1741902215361265   -0.003438664964102265
-0.004859494963585101   -0.1559951994185542   -0.0031805439799378723
0.00632835214624282   -0.15605844779438957   -0.0022807641870211427
-0.007320239770904482   -0.1750170178866816   -0.0037927140590241276
0.0017175942154663687   -0.1741902215361265   -0.003438664964102265
0.006652883287004583   -0.15566037858786808   -0.0026100040990365285
-0.007173922701141302   -0.17467642884181284   -0.00398906935043954
0.002121919193520409   -0.17395260394909393   -0.0038531248191507445
0.006652883287004583   -0.15566037858786808   -0.0026100040990365285
-0.004859494963585101   -0.1559951994185542   -0.0031805439799378723
-0.007173922701141302   -0.17467642884181284   -0.00398906935043954
-0.004821754402967544   -0.1557481669972189   -0.0032950420414173064
0.002121919193520409   -0.17395260394909393   -0.0038531248191507445
-0.00700764054733444   -0.17445245251981878   -0.004162309491801289
-0.004821754402967544   -0.1557481669972189   -0.0032950420414173064
-0.007173922701141302   -0.17467642884181284   -0.00398906935043954
0.002121919193520409   -0.17395260394909393   -0.0038531248191507445
-0.004821754402967544   -0.1557481669972189   -0.0032950420414173064
0.006859807410665917   -0.15539743111176013   -0.002909492166171349
0.006652883287004583   -0.15566037858786808   -0.0026100040990365285
0.002121919193520409   -0.17395260394909393   -0.0038531248191507445
-0.004821754402967544   -0.1557481669972189   -0.0032950420414173064
0.006652883287004583   -0.15566037858786808   -0.0026100040990365285
-0.007173922701141302   -0.17467642884181284   -0.00398906935043954
0.002121919193520409   -0.17395260394909393   -0.0038531248191507445
0.006859807410665917   -0.15539743111176013   -0.002909492166171349
-0.00700764054733444   -0.17445245251981878   -0.004162309491801289
0.0025538510851921725   -0.17383276194739083   -0.00423505974802556
0.006859807410665917   -0.15539743111176013   -0.002909492166171349
-0.004821754402967544   -0.1557481669972189   -0.0032950420414173064
-0.00700764054733444   -0.17445245251981878   -0.004162309491801289
-0.00484100852484859   -0.15558502300725524   -0.003390015468764999
0.0025538510851921725   -0.17383276194739083   -0.00423505974802556
-0.006908267666116651   -0.17433851462735353   -0.004314714428943836
-0.00484100852484859   -0.15558502300725524   -0.003390015468764999
-0.00700764054733444   -0.17445245251981878   -0.004162309491801289
0.0025538510851921725   -0.17383276194739083   -0.00423505974802556
-0.00484100852484859   -0.15558502300725524   -0.003390015468764999
0.00707139435093006   -0.155219105805334   -0.0031798392774558992
0.006859807410665917   -0.15539743111176013   -0.002909492166171349
0.0025538510851921725   -0.17383276194739083   -0.00423505974802556
-0.00484100852484859   -0.15558502300725524   -0.003390015468764999
0.006859807410665917   -0.15539743111176013   -0.002909492166171349
-0.00700764054733444   -0.17445245251981878   -0.004162309491801289
-0.007320239770904482   -0.1750170178866816   -0.0037927140590241276
-0.004889251133514419   -0.15633394325158867   -0.003044982490225558
-0.015525006184739298   -0.17509694552930855   -0.004453603551906907
-0.007173922701141302   -0.17467642884181284   -0.00398906935043954
-0.004889251133514419   -0.15633394325158867   -0.003044982490225558
-0.01567856583831439   -0.15633471966155862   -0.003676549105220983
-0.015525006184739298   -0.17509694552930855   -0.004453603551906907
-0.01568028449089385   -0.15604769535989582   -0.0036637901594919853
-0.007173922701141302   -0.17467642884181284   -0.00398906935043954
-0.015417204671997024   -0.17480433289827224   -0.0044589378680652365
-0.01568028449089385   -0.15604769535989582   -0.0036637901594919853
-0.015525006184739298   -0.17509694552930855   -0.004453603551906907
-0.007173922701141302   -0.17467642884181284   -0.00398906935043954
-0.01568028449089385   -0.15604769535989582   -0.0036637901594919853
-0.004859494963585101   -0.1559951994185542   -0.0031805439799378723
-0.004889251133514419   -0.15633394325158867   -0.003044982490225558
-0.007173922701141302   -0.17467642884181284   -0.00398906935043954
-0.01568028449089385   -0.15604769535989582   -0.0036637901594919853
-0.004889251133514419   -0.15633394325158867   -0.003044982490225558
-0.015525006184739298   -0.17509694552930855   -0.004453603551906907
-0.007173922701141302   -0.17467642884181284   -0.00398906935043954
-0.004859494963585101   -0.1559951994185542   -0.0031805439799378723
-0.015417204671997024   -0.17480433289827224   -0.0044589378680652365
-0.00700764054733444   -0.17445245251981878   -0.004162309491801289
-0.004859494963585101   -0.1559951994185542   -0.0031805439799378723
-0.01568028449089385   -0.15604769535989582   -0.0036637901594919853
-0.015417204671997024   -0.17480433289827224   -0.0044589378680652365
-0.015681301006646872   -0.15584154365403505   -0.0036300654727103965
-0.00700764054733444   -0.17445245251981878   -0.004162309491801289
-0.015306396766001696   -0.174616119158502   -0.004442139840182084
-0.015681301006646872   -0.15584154365403505   -0.0036300654727103965
-0.015417204671997024   -0.17480433289827224   -0.0044589378680652365
-0.00700764054733444   -0.17445245251981878   -0.004162309491801289
-0.015681301006646872   -0.15584154365403505   -0.0036300654727103965
-0.004821754402967544   -0.1557481669972189   -0.0032950420414173064
-0.004859494963585101   -0.1559951994185542   -0.0031805439799378723
-0.00700764054733444   -0.17445245251981878   -0.004162309491801289
-0.015681301006646872   -0.15584154365403505   -0.0036300654727103965
-0.004859494963585101   -0.1559951994185542   -0.0031805439799378723
-0.015417204671997024   -0.17480433289827224   -0.0044589378680652365
-0.00700764054733444   -0.17445245251981878   -0.004162309491801289
-0.004821754402967544   -0.1557481669972189   -0.0032950420414173064
-0.015306396766001696   -0.174616119158502   -0.004442139840182084
-0.006908267666116651   -0.17433851462735353   -0.004314714428943836
-0.004821754402967544   -0.1557481669972189   -0.0032950420414173064
-0.015681301006646872   -0.15584154365403505   -0.0036300654727103965
-0.015306396766001696   -0.174616119158502   -0.004442139840182084
-0.01569678146587493   -0.1557164008720756   -0.0035764422326230983
-0.006908267666116651   -0.17433851462735353   -0.004314714428943836
-0.015209462003609005   -0.17453054105489268   -0.004404661021055449
-0.01569678146587493   -0.1557164008720756   -0.0035764422326230983
-0.015306396766001696   -0.174616119158502   -0.004442139840182084
-0.006908267666116651   -0.17433851462735353   -0.004314714428943836
-0.01569678146587493   -0.1557164008720756   -0.0035764422326230983
-0.00484100852484859   -0.15558502300725524   -0.003390015468764999
-0.004821754402967544   -0.1557481669972189   -0.0032950420414173064
-0.006908267666116651   -0.17433851462735353   -0.004314714428943836
-0.01569678146587493   -0.1557164008720756   -0.0035764422326230983
-0.004821754402967544   -0.1557481669972189   -0.0032950420414173064
-0.015306396766001696   -0.174616119158502   -0.004442139840182084
-0.015525006184739298   -0.17509694552930855   -0.004453603551906907
-0.01567856583831439   -0.15633471966155862   -0.003676549105220983
-0.02359943693259362   -0.17483629566522907   -0.0050502697021384225
-0.015417204671997024   -0.17480433289827224   -0.0044589378680652365
-0.01567856583831439   -0.15633471966155862   -0.003676549105220983
-0.02628334573584645   -0.15606668567661133   -0.0042301904974453765
-0.02359943693259362   -0.17483629566522907   -0.0050502697021384225
-0.02629300398560717   -0.1558252329914737   -0.004070883503854578
-0.015417204671997024   -0.17480433289827224   -0.0044589378680652365
-0.023499049070936914   -0.17458374763273704   -0.0048692072291401465
-0.02629300398560717   -0.1558252329914737   -0.004070883503854578
-0.02359943693259362   -0.17483629566522907   -0.0050502697021384225
-0.015417204671997024   -0.17480433289827224   -0.0044589378680652365
-0.02629300398560717   -0.1558252329914737   -0.004070883503854578
-0.01568028449089385   -0.15604769535989582   -0.0036637901594919853
-0.01567856583831439   -0.15633471966155862   -0.003676549105220983
-0.015417204671997024   -0.17480433289827224   -0.0044589378680652365
-0.02629300398560717   -0.1558252329914737   -0.004070883503854578
-0.01567856583831439   -0.15633471966155862   -0.003676549105220983
-0.02359943693259362   -0.17483629566522907   -0.0050502697021384225
-0.015417204671997024   -0.17480433289827224   -0.0044589378680652365
-0.01568028449089385   -0.15604769535989582   -0.0036637901594919853
-0.023499049070936914   -0.17458374763273704   -0.0048692072291401465
-0.015306396766001696   -0.174616119158502   -0.004442139840182084
-0.01568028449089385   -0.15604769535989582   -0.0036637901594919853
-0.02629300398560717   -0.1558252329914737   -0.004070883503854578
-0.023499049070936914   -0.17458374763273704   -0.0048692072291401465
-0.026284553548452362   -0.15566393553533284   -0.0038910068847200765
-0.015306396766001696   -0.174616119158502   -0.004442139840182084
-0.02337776986101174   -0.17443444301867156   -0.004666480321001171
-0.026284553548452362   -0.15566393553533284   -0.0038910068847200765
-0.023499049070936914   -0.17458374763273704   -0.0048692072291401465
-0.015306396766001696   -0.174616119158502   -0.004442139840182084
-0.026284553548452362   -0.15566393553533284   -0.0038910068847200765
-0.015681301006646872   -0.15584154365403505   -0.0036300654727103965
-0.01568028449089385   -0.15604769535989582   -0.0036637901594919853
-0.015306396766001696   -0.174616119158502   -0.004442139840182084
-0.026284553548452362   -0.15566393553533284   -0.0038910068847200765
-0.01568028449089385   -0.15604769535989582   -0.0036637901594919853
-0.023499049070936914   -0.17458374763273704   -0.0048692072291401465
-0.015306396766001696   -0.174616119158502   -0.004442139840182084
-0.015681301006646872   -0.15584154365403505   -0.0036300654727103965
-0.02337776986101174   -0.17443444301867156   -0.004666480321001171
-0.015209462003609005   -0.17453054105489268   -0.004404661021055449
-0.015681301006646872   -0.15584154365403505   -0.0036300654727103965
-0.026284553548452362   -0.15566393553533284   -0.0038910068847200765
-0.02337776986101174   -0.17443444301867156   -0.004666480321001171
-0.0262793198407907   -0.1555813654656666   -0.003691165722335111
-0.015209462003609005   -0.17453054105489268   -0.004404661021055449
-0.023259720651365782   -0.174383507624132   -0.0044427591247244705
-0.0262793198407907   -0.1555813654656666   -0.003691165722335111
-0.02337776986101174   -0.17443444301867156   -0.004666480321001171
-0.015209462003609005   -0.17453054105489268   -0.004404661021055449
-0.0262793198407907   -0.1555813654656666   -0.003691165722335111
-0.01569678146587493   -0.1557164008720756   -0.0035764422326230983
-0.015681301006646872   -0.15584154365403505   -0.0036300654727103965
-0.015209462003609005   -0.17453054105489268   -0.004404661021055449
-0.0262793198407907   -0.1555813654656666   -0.003691165722335111
-0.015681301006646872   -0.15584154365403505   -0.0036300654727103965
-0.02337776986101174   -0.17443444301867156   -0.004666480321001171
-0.02359943693259362   -0.17483629566522907   -0.0050502697021384225
-0.02628334573584645   -0.15606668567661133   -0.0042301904974453765
-0.032062950614424206   -0.17424449451013937   -0.0055801752360596455
-0.023499049070936914   -0.17458374763273704   -0.0048692072291401465
-0.02628334573584645   -0.15606668567661133   -0.0042301904974453765
-0.03721951678853571   -0.15554014736871524   -0.004706754156416168
-0.032062950614424206   -0.17424449451013937   -0.0055801752360596455
-0.037207148286822395   -0.15534244871398586   -0.004399194639673506
-0.023499049070936914   -0.17458374763273704   -0.0048692072291401465
-0.03193222415136156   -0.1740303325321812   -0.00521254756060482
-0.037207148286822395   -0.15534244871398586   -0.004399194639673506
-0.032062950614424206   -0.17424449451013937   -0.0055801752360596455
-0.023499049070936914   -0.17458374763273704   -0.0048692072291401465
-0.037207148286822395   -0.15534244871398586   -0.004399194639673506
-0.02629300398560717   -0.1558252329914737   -0.004070883503854578
-0.02628334573584645   -0.15606668567661133   -0.0042301904974453765
-0.023499049070936914   -0.17458374763273704   -0.0048692072291401465
-0.037207148286822395   -0.15534244871398586   -0.004399194639673506
-0.02628334573584645   -0.15606668567661133   -0.0042301904974453765
-0.032062950614424206   -0.17424449451013937   -0.0055801752360596455
-0.023499049070936914   -0.17458374763273704   -0.0048692072291401465
-0.02629300398560717   -0.1558252329914737   -0.004070883503854578
-0.03193222415136156   -0.1740303325321812   -0.00521254756060482
-0.02337776986101174   -0.17443444301867156   -0.004666480321001171
-0.02629300398560717   -0.1558252329914737   -0.004070883503854578
-0.037207148286822395   -0.15534244871398586   -0.004399194639673506
-0.03193222415136156   -0.1740303325321812   -0.00521254756060482
-0.037116142586529184   -0.15522181577071686   -0.004074158981304032
-0.02337776986101174   -0.17443444301867156   -0.004666480321001171
-0.0317108374151112   -0.17391630595458635   -0.004826565186180909
-0.037116142586529184   -0.15522181577071686   -0.004074158981304032
-0.03193222415136156   -0.1740303325321812   -0.00521254756060482
-0.02337776986101174   -0.17443444301867156   -0.004666480321001171
-0.037116142586529184   -0.15522181577071686   -0.004074158981304032
-0.026284553548452362   -0.15566393553533284   -0.0038910068847200765
-0.02629300398560717   -0.1558252329914737   -0.004070883503854578
-0.02337776986101174   -0.17443444301867156   -0.004666480321001171
-0.037116142586529184   -0.15522181577071686   -0.004074158981304032
-0.02629300398560717   -0.1558252329914737   -0.004070883503854578
-0.03193222415136156   -0.1740303325321812   -0.00521254756060482
-0.02337776986101174   -0.17443444301867156   -0.004666480321001171
-0.026284553548452362   -0.15566393553533284   -0.0038910068847200765
-0.0317108374151112   -0.17391630595458635   -0.004826565186180909
-0.023259720651365782   -0.174383507624132   -0.0044427591247244705
-0.026284553548452362   -0.15566393553533284   -0.0038910068847200765
-0.037116142586529184   -0.15522181577071686   -0.004074158981304032
-0.0317108374151112   -0.17391630595458635   -0.004826565186180909
-0.03705515484205013   -0.15518650482393379   -0.0037275660871056372
-0.023259720651365782   -0.174383507624132   -0.0044427591247244705
-0.031530531496658895   -0.17390835379452788   -0.00441654571947573
-0.03705515484205013   -0.15518650482393379   -0.0037275660871056372
-0.0317108374151112   -0.17391630595458635   -0.004826565186180909
-0.023259720651365782   -0.174383507624132   -0.0044427591247244705
-0.03705515484205013   -0.15518650482393379   -0.0037275660871056372
-0.0262793198407907   -0.1555813654656666   -0.003691165722335111
-0.026284553548452362   -0.15566393553533284   -0.0038910068847200765
-0.023259720651365782   -0.174383507624132   -0.0044427591247244705
-0.03705515484205013   -0.15518650482393379   -0.0037275660871056372
-0.026284553548452362   -0.15566393553533284   -0.0038910068847200765
-0.0317108374151112   -0.17391630595458635   -0.004826565186180909
-0.032062950614424206   -0.17424449451013937   -0.0055801752360596455
-0.03721951678853571   -0.15554014736871524   -0.004706754156416168
-0.04193429151871546   -0.173393702409923   -0.00607300243968907
-0.03193222415136156   -0.1740303325321812   -0.00521254756060482
-0.03721951678853571   -0.15554014736871524   -0.004706754156416168
-0.04943473000535459   -0.1548158567730402   -0.005135781236303832
-0.04193429151871546   -0.173393702409923   -0.00607300243968907
-0.048981796803273026   -0.15462218181392876   -0.004665700865302186
-0.03193222415136156   -0.1740303325321812   -0.00521254756060482
-0.04126885456508666   -0.1731709234396261   -0.005497863452476068
-0.048981796803273026   -0.15462218181392876   -0.004665700865302186
-0.04193429151871546   -0.173393702409923   -0.00607300243968907
-0.03193222415136156   -0.1740303325321812   -0.00521254756060482
-0.048981796803273026   -0.15462218181392876   -0.004665700865302186
-0.037207148286822395   -0.15534244871398586   -0.004399194639673506
-0.03721951678853571   -0.15554014736871524   -0.004706754156416168
-0.03193222415136156   -0.1740303325321812   -0.00521254756060482
-0.048981796803273026   -0.15462218181392876   -0.004665700865302186
-0.03721951678853571   -0.15554014736871524   -0.004706754156416168
-0.04193429151871546   -0.173393702409923   -0.00607300243968907
-0.03193222415136156   -0.1740303325321812   -0.00521254756060482
-0.037207148286822395   -0.15534244871398586   -0.004399194639673506
-0.04126885456508666   -0.1731709234396261   -0.005497863452476068
-0.0317108374151112   -0.17391630595458635   -0.004826565186180909
-0.037207148286822395   -0.15534244871398586   -0.004399194639673506
-0.048981796803273026   -0.15462218181392876   -0.004665700865302186
-0.04126885456508666   -0.1731709234396261   -0.005497863452476068
-0.04859392569546862   -0.15451636024624077   -0.004166294540788824
-0.0317108374151112   -0.17391630595458635   -0.004826565186180909
-0.04069052500003178   -0.17306646980543888   -0.00489251855173969
-0.04859392569546862   -0.15451636024624077   -0.004166294540788824
-0.04126885456508666   -0.1731709234396261   -0.005497863452476068
-0.0317108374151112   -0.17391630595458635   -0.004826565186180909
-0.04859392569546862   -0.15451636024624077   -0.004166294540788824
-0.037116142586529184   -0.15522181577071686   -0.004074158981304032
-0.037207148286822395   -0.15534244871398586   -0.004399194639673506
-0.0317108374151112   -0.17391630595458635   -0.004826565186180909
-0.04859392569546862   -0.15451636024624077   -0.004166294540788824
-0.037207148286822395   -0.15534244871398586   -0.004399194639673506
-0.04126885456508666   -0.1731709234396261   -0.005497863452476068
-0.0317108374151112   -0.17391630595458635   -0.004826565186180909
-0.037116142586529184   -0.15522181577071686   -0.004074158981304032
-0.04069052500003178   -0.17306646980543888   -0.00489251855173969
-0.031530531496658895   -0.17390835379452788   -0.00441654571947573
-0.037116142586529184   -0.15522181577071686   -0.004074158981304032
-0.04859392569546862   -0.15451636024624077   -0.004166294540788824
-0.04069052500003178   -0.17306646980543888   -0.00489251855173969
-0.04803345426032463   -0.15454606374647467   -0.0036415593243273262
-0.031530531496658895   -0.17390835379452788   -0.00441654571947573
-0.03991102258879899   -0.17312433678088515   -0.004260836007220205
-0.04803345426032463   -0.15454606374647467   -0.0036415593243273262
-0.04069052500003178   -0.17306646980543888   -0.00489251855173969
-0.031530531496658895   -0.17390835379452788   -0.00441654571947573
-0.04803345426032463   -0.15454606374647467   -0.0036415593243273262
-0.03705515484205013   -0.15518650482393379   -0.0037275660871056372
-0.037116142586529184   -0.15522181577071686   -0.004074158981304032
-0.031530531496658895   -0.17390835379452788   -0.00441654571947573
-0.04803345426032463   -0.15454606374647467   -0.0036415593243273262
-0.037116142586529184   -0.15522181577071686   -0.004074158981304032
-0.04069052500003178   -0.17306646980543888   -0.00489251855173969
0.00632835214624282   -0.15605844779438957   -0.0022807641870211427
0.009868435454154164   -0.13379647327260075   -0.0015185275044969301
-0.004889251133514419   -0.15633394325158867   -0.003044982490225558
0.006652883287004583   -0.15566037858786808   -0.0026100040990365285
0.009868435454154164   -0.13379647327260075   -0.0015185275044969301
-0.0034213045489695807   -0.13393056512343243   -0.0022376478816753995
-0.004889251133514419   -0.15633394325158867   -0.003044982490225558
-0.0034850983136499917   -0.13359998233240652   -0.002310079227133626
0.006652883287004583   -0.15566037858786808   -0.0026100040990365285
-0.004859494963585101   -0.1559951994185542   -0.0031805439799378723
-0.0034850983136499917   -0.13359998233240652   -0.002310079227133626
-0.004889251133514419   -0.15633394325158867   -0.003044982490225558
0.006652883287004583   -0.15566037858786808   -0.0026100040990365285
-0.0034850983136499917   -0.13359998233240652   -0.002310079227133626
0.009994091722348237   -0.13341297747625097   -0.0017330107206948503
0.009868435454154164   -0.13379647327260075   -0.0015185275044969301
0.006652883287004583   -0.15566037858786808   -0.0026100040990365285
-0.0034850983136499917   -0.13359998233240652   -0.002310079227133626
0.009868435454154164   -0.13379647327260075   -0.0015185275044969301
-0.004889251133514419   -0.15633394325158867   -0.003044982490225558
0.006652883287004583   -0.15566037858786808   -0.0026100040990365285
0.009994091722348237   -0.13341297747625097   -0.0017330107206948503
-0.004859494963585101   -0.1559951994185542   -0.0031805439799378723
0.006859807410665917   -0.15539743111176013   -0.002909492166171349
0.009994091722348237   -0.13341297747625097   -0.0017330107206948503
-0.0034850983136499917   -0.13359998233240652   -0.002310079227133626
-0.004859494963585101   -0.1559951994185542   -0.0031805439799378723
-0.00355229900284638   -0.1333371119474621   -0.002363770367726688
0.006859807410665917   -0.15539743111176013   -0.002909492166171349
-0.004821754402967544   -0.1557481669972189   -0.0032950420414173064
-0.00355229900284638   -0.1333371119474621   -0.002363770367726688
-0.004859494963585101   -0.1559951994185542   -0.0031805439799378723
0.006859807410665917   -0.15539743111176013   -0.002909492166171349
-0.00355229900284638   -0.1333371119474621   -0.002363770367726688
0.010030427637495001   -0.1331318095905206   -0.0019198620601495484
0.009994091722348237   -0.13341297747625097   -0.0017330107206948503
0.006859807410665917   -0.15539743111176013   -0.002909492166171349
-0.00355229900284638   -0.1333371119474621   -0.002363770367726688
0.009994091722348237   -0.13341297747625097   -0.0017330107206948503
-0.004859494963585101   -0.1559951994185542   -0.0031805439799378723
0.006859807410665917   -0.15539743111176013   -0.002909492166171349
0.010030427637495001   -0.1331318095905206   -0.0019198620601495484
-0.004821754402967544   -0.1557481669972189   -0.0032950420414173064
0.00707139435093006   -0.155219105805334   -0.0031798392774558992
0.010030427637495001   -0.1331318095905206   -0.0019198620601495484
-0.00355229900284638   -0.1333371119474621   -0.002363770367726688
-0.004821754402967544   -0.1557481669972189   -0.0032950420414173064
-0.003665567547821615   -0.13313379817602342   -0.002399358495087432
0.00707139435093006   -0.155219105805334   -0.0031798392774558992
-0.00484100852484859   -0.15558502300725524   -0.003390015468764999
-0.003665567547821615   -0.13313379817602342   -0.002399358495087432
-0.004821754402967544   -0.1557481669972189   -0.0032950420414173064
0.00707139435093006   -0.155219105805334   -0.0031798392774558992
-0.003665567547821615   -0.13313379817602342   -0.002399358495087432
0.010048756383469106   -0.13290404363418695   -0.002080381193199902
0.010030427637495001   -0.1331318095905206   -0.0019198620601495484
0.00707139435093006   -0.155219105805334   -0.0031798392774558992
-0.003665567547821615   -0.13313379817602342   -0.002399358495087432
0.010030427637495001   -0.1331318095905206   -0.0019198620601495484
-0.004821754402967544   -0.1557481669972189   -0.0032950420414173064
-0.004889251133514419   -0.15633394325158867   -0.003044982490225558
-0.0034213045489695807   -0.13393056512343243   -0.0022376478816753995
-0.01567856583831439   -0.15633471966155862   -0.003676549105220983
-0.004859494963585101   -0.1559951994185542   -0.0031805439799378723
-0.0034213045489695807   -0.13393056512343243   -0.0022376478816753995
-0.016156284183246855   -0.1338597799003344   -0.002831365306030338
-0.01567856583831439   -0.15633471966155862   -0.003676549105220983
-0.016243905839508865   -0.13358290981417698   -0.002796977535063166
-0.004859494963585101   -0.1559951994185542   -0.0031805439799378723
-0.01568028449089385   -0.15604769535989582   -0.0036637901594919853
-0.016243905839508865   -0.13358290981417698   -0.002796977535063166
-0.01567856583831439   -0.15633471966155862   -0.003676549105220983
-0.004859494963585101   -0.1559951994185542   -0.0031805439799378723
-0.016243905839508865   -0.13358290981417698   -0.002796977535063166
-0.0034850983136499917   -0.13359998233240652   -0.002310079227133626
-0.0034213045489695807   -0.13393056512343243   -0.0022376478816753995
-0.004859494963585101   -0.1559951994185542   -0.0031805439799378723
-0.016243905839508865   -0.13358290981417698   -0.002796977535063166
-0.0034213045489695807   -0.13393056512343243   -0.0022376478816753995
-0.01567856583831439   -0.15633471966155862   -0.003676549105220983
-0.004859494963585101   -0.1559951994185542   -0.0031805439799378723
-0.0034850983136499917   -0.13359998233240652   -0.002310079227133626
-0.01568028449089385   -0.15604769535989582   -0.0036637901594919853
-0.004821754402967544   -0.1557481669972189   -0.0032950420414173064
-0.0034850983136499917   -0.13359998233240652   -0.002310079227133626
-0.016243905839508865   -0.13358290981417698   -0.002796977535063166
-0.01568028449089385   -0.15604769535989582   -0.0036637901594919853
-0.01633272276893073   -0.13336409914207517   -0.002743312307724159
-0.004821754402967544   -0.1557481669972189   -0.0032950420414173064
-0.015681301006646872   -0.15584154365403505   -0.0036300654727103965
-0.01633272276893073   -0.13336409914207517   -0.002743312307724159
-0.01568028449089385   -0.15604769535989582   -0.0036637901594919853
-0.004821754402967544   -0.1557481669972189   -0.0032950420414173064
-0.01633272276893073   -0.13336409914207517   -0.002743312307724159
-0.00355229900284638   -0.1333371119474621   -0.002363770367726688
-0.0034850983136499917   -0.13359998233240652   -0.002310079227133626
-0.004821754402967544   -0.1557481669972189   -0.0032950420414173064
-0.01633272276893073   -0.13336409914207517   -0.002743312307724159
-0.0034850983136499917   -0.13359998233240652   -0.002310079227133626
-0.01568028449089385   -0.15604769535989582   -0.0036637901594919853
-0.004821754402967544   -0.1557481669972189   -0.0032950420414173064
-0.00355229900284638   -0.1333371119474621   -0.002363770367726688
-0.015681301006646872   -0.15584154365403505   -0.0036300654727103965
-0.00484100852484859   -0.15558502300725524   -0.003390015468764999
-0.00355229900284638   -0.1333371119474621   -0.002363770367726688
-0.01633272276893073   -0.13336409914207517   -0.002743312307724159
-0.015681301006646872   -0.15584154365403505   -0.0036300654727103965
-0.016435243797097845   -0.1332043416957618   -0.002671279897131081
-0.00484100852484859   -0.15558502300725524   -0.003390015468764999
-0.01569678146587493   -0.1557164008720756   -0.0035764422326230983
-0.016435243797097845   -0.1332043416957618   -0.002671279897131081
-0.015681301006646872   -0.15584154365403505   -0.0036300654727103965
-0.00484100852484859   -0.15558502300725524   -0.003390015468764999
-0.016435243797097845   -0.1332043416957618   -0.002671279897131081
-0.003665567547821615   -0.13313379817602342   -0.002399358495087432
-0.00355229900284638   -0.1333371119474621   -0.002363770367726688
-0.00484100852484859   -0.15558502300725524   -0.003390015468764999
-0.016435243797097845   -0.1332043416957618   -0.002671279897131081
-0.00355229900284638   -0.1333371119474621   -0.002363770367726688
-0.015681301006646872   -0.15584154365403505   -0.0036300654727103965
-0.01567856583831439   -0.15633471966155862   -0.003676549105220983
-0.016156284183246855   -0.1338597799003344   -0.002831365306030338
-0.02628334573584645   -0.15606668567661133   -0.0042301904974453765
-0.01568028449089385   -0.15604769535989582   -0.0036637901594919853
-0.016156284183246855   -0.1338597799003344   -0.002831365306030338
-0.02867513212127268   -0.1335963806358428   -0.0033400959889203358
-0.02628334573584645   -0.15606668567661133   -0.0042301904974453765
-0.028769476986906822   -0.1333684397866012   -0.0031993673317969418
-0.01568028449089385   -0.15604769535989582   -0.0036637901594919853
-0.02629300398560717   -0.1558252329914737   -0.004070883503854578
-0.028769476986906822   -0.1333684397866012   -0.0031993673317969418
-0.02628334573584645   -0.15606668567661133   -0.0042301904974453765
-0.01568028449089385   -0.15604769535989582   -0.0036637901594919853
-0.028769476986906822   -0.1333684397866012   -0.0031993673317969418
-0.016243905839508865   -0.13358290981417698   -0.002796977535063166
-0.016156284183246855   -0.1338597799003344   -0.002831365306030338
-0.01568028449089385   -0.15604769535989582   -0.0036637901594919853
-0.028769476986906822   -0.1333684397866012   -0.0031993673317969418
-0.016156284183246855   -0.1338597799003344   -0.002831365306030338
-0.02628334573584645   -0.15606668567661133   -0.0042301904974453765
-0.01568028449089385   -0.15604769535989582   -0.0036637901594919853
-0.016243905839508865   -0.13358290981417698   -0.002796977535063166
-0.02629300398560717   -0.1558252329914737   -0.004070883503854578
-0.015681301006646872   -0.15584154365403505   -0.0036300654727103965
-0.016243905839508865   -0.13358290981417698   -0.002796977535063166
-0.028769476986906822   -0.1333684397866012   -0.0031993673317969418
-0.02629300398560717   -0.1558252329914737   -0.004070883503854578
-0.02884777599835171   -0.13319800090644968   -0.0030396930095857176
-0.015681301006646872   -0.15584154365403505   -0.0036300654727103965
-0.026284553548452362   -0.15566393553533284   -0.0038910068847200765
-0.02884777599835171   -0.13319800090644968   -0.0030396930095857176
-0.02629300398560717   -0.1558252329914737   -0.004070883503854578
-0.015681301006646872   -0.15584154365403505   -0.0036300654727103965
-0.02884777599835171   -0.13319800090644968   -0.0030396930095857176
-0.01633272276893073   -0.13336409914207517   -0.002743312307724159
-0.016243905839508865   -0.13358290981417698   -0.002796977535063166
-0.015681301006646872   -0.15584154365403505   -0.0036300654727103965
-0.02884777599835171   -0.13319800090644968   -0.0030396930095857176
-0.016243905839508865   -0.13358290981417698   -0.002796977535063166
-0.02629300398560717   -0.1558252329914737   -0.004070883503854578
-0.015681301006646872   -0.15584154365403505   -0.0036300654727103965
-0.01633272276893073   -0.13336409914207517   -0.002743312307724159
-0.026284553548452362   -0.15566393553533284   -0.0038910068847200765
-0.01569678146587493   -0.1557164008720756   -0.0035764422326230983
-0.01633272276893073   -0.13336409914207517   -0.002743312307724159
-0.02884777599835171   -0.13319800090644968   -0.0030396930095857176
-0.026284553548452362   -0.15566393553533284   -0.0038910068847200765
-0.028928307865677495   -0.13308482993766055   -0.0028616368998882033
-0.01569678146587493   -0.1557164008720756   -0.0035764422326230983
-0.0262793198407907   -0.1555813654656666   -0.003691165722335111
-0.028928307865677495   -0.13308482993766055   -0.0028616368998882033
-0.026284553548452362   -0.15566393553533284   -0.0038910068847200765
-0.01569678146587493   -0.1557164008720756   -0.0035764422326230983
-0.028928307865677495   -0.13308482993766055   -0.0028616368998882033
-0.016435243797097845   -0.1332043416957618   -0.002671279897131081
-0.01633272276893073   -0.13336409914207517   -0.002743312307724159
-0.01569678146587493   -0.1557164008720756   -0.0035764422326230983
-0.028928307865677495   -0.13308482993766055   -0.0028616368998882033
-0.01633272276893073   -0.13336409914207517   -0.002743312307724159
-0.026284553548452362   -0.15566393553533284   -0.0038910068847200765
-0.02628334573584645   -0.15606668567661133   -0.0042301904974453765
-0.02867513212127268   -0.1335963806358428   -0.0033400959889203358
-0.03721951678853571   -0.15554014736871524   -0.004706754156416168
-0.02629300398560717   -0.1558252329914737   -0.004070883503854578
-0.02867513212127268   -0.1335963806358428   -0.0033400959889203358
-0.04149184613825822   -0.13314569235163914   -0.003765616657171698
-0.03721951678853571   -0.15554014736871524   -0.004706754156416168
-0.04157024237340359   -0.13296563565117409   -0.003517117909334321
-0.02629300398560717   -0.1558252329914737   -0.004070883503854578
-0.037207148286822395   -0.15534244871398586   -0.004399194639673506
-0.04157024237340359   -0.13296563565117409   -0.003517117909334321
-0.03721951678853571   -0.15554014736871524   -0.004706754156416168
-0.02629300398560717   -0.1558252329914737   -0.004070883503854578
-0.04157024237340359   -0.13296563565117409   -0.003517117909334321
-0.028769476986906822   -0.1333684397866012   -0.0031993673317969418
-0.02867513212127268   -0.1335963806358428   -0.0033400959889203358
-0.02629300398560717   -0.1558252329914737   -0.004070883503854578
-0.04157024237340359   -0.13296563565117409   -0.003517117909334321
-0.02867513212127268   -0.1335963806358428   -0.0033400959889203358
-0.03721951678853571   -0.15554014736871524   -0.004706754156416168
-0.02629300398560717   -0.1558252329914737   -0.004070883503854578
-0.028769476986906822   -0.1333684397866012   -0.0031993673317969418
-0.037207148286822395   -0.15534244871398586   -0.004399194639673506
-0.026284553548452362   -0.15566393553533284   -0.0038910068847200765
-0.028769476986906822   -0.1333684397866012   -0.0031993673317969418
-0.04157024237340359   -0.13296563565117409   -0.003517117909334321
-0.037207148286822395   -0.15534244871398586   -0.004399194639673506
-0.04158145688275904   -0.13283941231002203   -0.0032522982522850013
-0.026284553548452362   -0.15566393553533284   -0.0038910068847200765
-0.037116142586529184   -0.15522181577071686   -0.004074158981304032
-0.04158145688275904   -0.13283941231002203   -0.0032522982522850013
-0.037207148286822395   -0.15534244871398586   -0.004399194639673506
-0.026284553548452362   -0.15566393553533284   -0.0038910068847200765
-0.04158145688275904   -0.13283941231002203   -0.0032522982522850013
-0.02884777599835171   -0.13319800090644968   -0.0030396930095857176
-0.028769476986906822   -0.1333684397866012   -0.0031993673317969418
-0.026284553548452362   -0.15566393553533284   -0.0038910068847200765
-0.04158145688275904   -0.13283941231002203   -0.0032522982522850013
-0.028769476986906822   -0.1333684397866012   -0.0031993673317969418
-0.037207148286822395   -0.15534244871398586   -0.004399194639673506
-0.026284553548452362   -0.15566393553533284   -0.0038910068847200765
-0.02884777599835171   -0.13319800090644968   -0.0030396930095857176
-0.037116142586529184   -0.15522181577071686   -0.004074158981304032
-0.0262793198407907   -0.1555813654656666   -0.003691165722335111
-0.02884777599835171   -0.13319800090644968   -0.0030396930095857176
-0.04158145688275904   -0.13283941231002203   -0.0032522982522850013
-0.037116142586529184   -0.15522181577071686   -0.004074158981304032
-0.04161146558515864   -0.13277557831294343   -0.002967710964957432
-0.0262793198407907   -0.1555813654656666   -0.003691165722335111
-0.03705515484205013   -0.15518650482393379   -0.0037275660871056372
-0.04161146558515864   -0.13277557831294343   -0.002967710964957432
-0.037116142586529184   -0.15522181577071686   -0.004074158981304032
-0.0262793198407907   -0.1555813654656666   -0.003691165722335111
-0.04161146558515864   -0.13277557831294343   -0.002967710964957432
-0.028928307865677495   -0.13308482993766055   -0.0028616368998882033
-0.02884777599835171   -0.13319800090644968   -0.0030396930095857176
-0.0262793198407907   -0.1555813654656666   -0.003691165722335111
-0.04161146558515864   -0.13277557831294343   -0.002967710964957432
-0.02884777599835171   -0.13319800090644968   -0.0030396930095857176
-0.037116142586529184   -0.15522181577071686   -0.004074158981304032
-0.03721951678853571   -0.15554014736871524   -0.004706754156416168
-0.04149184613825822   -0.13314569235163914   -0.003765616657171698
-0.04943473000535459   -0.1548158567730402   -0.005135781236303832
-0.037207148286822395   -0.15534244871398586   -0.004399194639673506
-0.04149184613825822   -0.13314569235163914   -0.003765616657171698
-0.055466270467687456   -0.1325558665832114   -0.004129037821494448
-0.04943473000535459   -0.1548158567730402   -0.005135781236303832
-0.055202817556883534   -0.1323914073346979   -0.0037670087494899424
-0.037207148286822395   -0.15534244871398586   -0.004399194639673506
-0.048981796803273026   -0.15462218181392876   -0.004665700865302186
-0.055202817556883534   -0.1323914073346979   -0.0037670087494899424
-0.04943473000535459   -0.1548158567730402   -0.005135781236303832
-0.037207148286822395   -0.15534244871398586   -0.004399194639673506
-0.055202817556883534   -0.1323914073346979   -0.0037670087494899424
-0.04157024237340359   -0.13296563565117409   -0.003517117909334321
-0.04149184613825822   -0.13314569235163914   -0.003765616657171698
-0.037207148286822395   -0.15534244871398586   -0.004399194639673506
-0.055202817556883534   -0.1323914073346979   -0.0037670087494899424
-0.04149184613825822   -0.13314569235163914   -0.003765616657171698
-0.04943473000535459   -0.1548158567730402   -0.005135781236303832
-0.037207148286822395   -0.15534244871398586   -0.004399194639673506
-0.04157024237340359   -0.13296563565117409   -0.003517117909334321
-0.048981796803273026   -0.15462218181392876   -0.004665700865302186
-0.037116142586529184   -0.15522181577071686   -0.004074158981304032
-0.04157024237340359   -0.13296563565117409   -0.003517117909334321
-0.055202817556883534   -0.1323914073346979   -0.0037670087494899424
-0.048981796803273026   -0.15462218181392876   -0.004665700865302186
-0.0549804618846752   -0.13228390796165573   -0.003376512610329243
-0.037116142586529184   -0.15522181577071686   -0.004074158981304032
-0.04859392569546862   -0.15451636024624077   -0.004166294540788824
-0.0549804618846752   -0.13228390796165573   -0.003376512610329243
-0.048981796803273026   -0.15462218181392876   -0.004665700865302186
-0.037116142586529184   -0.15522181577071686   -0.004074158981304032
-0.0549804618846752   -0.13228390796165573   -0.003376512610329243
-0.04158145688275904   -0.13283941231002203   -0.0032522982522850013
-0.04157024237340359   -0.13296563565117409   -0.003517117909334321
-0.037116142586529184   -0.15522181577071686   -0.004074158981304032
-0.0549804618846752   -0.13228390796165573   -0.003376512610329243
-0.04157024237340359   -0.13296563565117409   -0.003517117909334321
-0.048981796803273026   -0.15462218181392876   -0.004665700865302186
-0.037116142586529184   -0.15522181577071686   -0.004074158981304032
-0.04158145688275904   -0.13283941231002203   -0.0032522982522850013
-0.04859392569546862   -0.15451636024624077   -0.004166294540788824
-0.03705515484205013   -0.15518650482393379   -0.0037275660871056372
-0.04158145688275904   -0.13283941231002203   -0.0032522982522850013
-0.0549804618846752   -0.13228390796165573   -0.003376512610329243
-0.04859392569546862   -0.15451636024624077   -0.004166294540788824
-0.05461216003153602   -0.132282640960117   -0.002961089498261719
-0.03705515484205013   -0.15518650482393379   -0.0037275660871056372
-0.04803345426032463   -0.15454606374647467   -0.0036415593243273262
-0.05461216003153602   -0.132282640960117   -0.002961089498261719
-0.04859392569546862   -0.15451636024624077   -0.004166294540788824
-0.03705515484205013   -0.15518650482393379   -0.0037275660871056372
-0.05461216003153602   -0.132282640960117   -0.002961089498261719
-0.04161146558515864   -0.13277557831294343   -0.002967710964957432
-0.04158145688275904   -0.13283941231002203   -0.0032522982522850013
-0.03705515484205013   -0.15518650482393379   -0.0037275660871056372
-0.05461216003153602   -0.132282640960117   -0.002961089498261719
-0.04158145688275904   -0.13283941231002203   -0.0032522982522850013
-0.04859392569546862   -0.15451636024624077   -0.004166294540788824
0.009868435454154164   -0.13379647327260075   -0.0015185275044969301
0.011817428064859203   -0.10885076503896912   -0.0007710674845907514
-0.0034213045489695807   -0.13393056512343243   -0.0022376478816753995
0.009994091722348237   -0.13341297747625097   -0.0017330107206948503
0.011817428064859203   -0.10885076503896912   -0.0007710674845907514
-0.0029182727791160832   -0.10884536228978453   -0.001438432812581257
-0.0034213045489695807   -0.13393056512343243   -0.0022376478816753995
-0.0030517678225097456   -0.10852538119130063   -0.0014471538554649296
0.009994091722348237   -0.13341297747625097   -0.0017330107206948503
-0.0034850983136499917   -0.13359998233240652   -0.002310079227133626
-0.0030517678225097456   -0.10852538119130063   -0.0014471538554649296
-0.0034213045489695807   -0.13393056512343243   -0.0022376478816753995
0.009994091722348237   -0.13341297747625097   -0.0017330107206948503
-0.0030517678225097456   -0.10852538119130063   -0.0014471538554649296
0.011770991525323161   -0.10848346854302356   -0.0008724682870827973
0.011817428064859203   -0.10885076503896912   -0.0007710674845907514
0.009994091722348237   -0.13341297747625097   -0.0017330107206948503
-0.0030517678225097456   -0.10852538119130063   -0.0014471538554649296
0.011817428064859203   -0.10885076503896912   -0.0007710674845907514
-0.0034213045489695807   -0.13393056512343243   -0.0022376478816753995
0.009994091722348237   -0.13341297747625097   -0.0017330107206948503
0.011770991525323161   -0.10848346854302356   -0.0008724682870827973
-0.0034850983136499917   -0.13359998233240652   -0.002310079227133626
0.010030427637495001   -0.1331318095905206   -0.0019198620601495484
0.011770991525323161   -0.10848346854302356   -0.0008724682870827973
-0.0030517678225097456   -0.10852538119130063   -0.0014471538554649296
-0.0034850983136499917   -0.13359998233240652   -0.002310079227133626
-0.0032000733557127725   -0.10824878314489812   -0.0014393207185751425
0.010030427637495001   -0.1331318095905206   -0.0019198620601495484
-0.00355229900284638   -0.1333371119474621   -0.002363770367726688
-0.0032000733557127725   -0.10824878314489812   -0.0014393207185751425
-0.0034850983136499917   -0.13359998233240652   -0.002310079227133626
0.010030427637495001   -0.1331318095905206   -0.0019198620601495484
-0.0032000733557127725   -0.10824878314489812   -0.0014393207185751425
0.011661764323488566   -0.10818635224609595   -0.0009473361180287477
0.011770991525323161   -0.10848346854302356   -0.0008724682870827973
0.010030427637495001   -0.1331318095905206   -0.0019198620601495484
-0.0032000733557127725   -0.10824878314489812   -0.0014393207185751425
0.011770991525323161   -0.10848346854302356   -0.0008724682870827973
-0.0034850983136499917   -0.13359998233240652   -0.002310079227133626
0.010030427637495001   -0.1331318095905206   -0.0019198620601495484
0.011661764323488566   -0.10818635224609595   -0.0009473361180287477
-0.00355229900284638   -0.1333371119474621   -0.002363770367726688
0.010048756383469106   -0.13290404363418695   -0.002080381193199902
0.011661764323488566   -0.10818635224609595   -0.0009473361180287477
-0.0032000733557127725   -0.10824878314489812   -0.0014393207185751425
-0.00355229900284638   -0.1333371119474621   -0.002363770367726688
-0.0033835464302219152   -0.10800849907131012   -0.0014142807911171177
0.010048756383469106   -0.13290404363418695   -0.002080381193199902
-0.003665567547821615   -0.13313379817602342   -0.002399358495087432
-0.0033835464302219152   -0.10800849907131012   -0.0014142807911171177
-0.00355229900284638   -0.1333371119474621   -0.002363770367726688
0.010048756383469106   -0.13290404363418695   -0.002080381193199902
-0.0033835464302219152   -0.10800849907131012   -0.0014142807911171177
0.011509848186402034   -0.10791166774249013   -0.0009975232742562069
0.011661764323488566   -0.10818635224609595   -0.0009473361180287477
0.010048756383469106   -0.13290404363418695   -0.002080381193199902
-0.0033835464302219152   -0.10800849907131012   -0.0014142807911171177
0.011661764323488566   -0.10818635224609595   -0.0009473361180287477
-0.00355229900284638   -0.1333371119474621   -0.002363770367726688
-0.0034213045489695807   -0.13393056512343243   -0.0022376478816753995
-0.0029182727791160832   -0.10884536228978453   -0.001438432812581257
-0.016156284183246855   -0.1338597799003344   -0.002831365306030338
-0.0034850983136499917   -0.13359998233240652   -0.002310079227133626
-0.0029182727791160832   -0.10884536228978453   -0.001438432812581257
-0.016971698023821962   -0.10871165520662704   -0.001990981518260429
-0.016156284183246855   -0.1338597799003344   -0.002831365306030338
-0.01712048091659509   -0.10844529750003877   -0.0019332471911881473
-0.0034850983136499917   -0.13359998233240652   -0.002310079227133626
-0.016243905839508865   -0.13358290981417698   -0.002796977535063166
-0.01712048091659509   -0.10844529750003877   -0.0019332471911881473
-0.016156284183246855   -0.1338597799003344   -0.002831365306030338
-0.0034850983136499917   -0.13359998233240652   -0.002310079227133626
-0.01712048091659509   -0.10844529750003877   -0.0019332471911881473
-0.0030517678225097456   -0.10852538119130063   -0.0014471538554649296
-0.0029182727791160832   -0.10884536228978453   -0.001438432812581257
-0.0034850983136499917   -0.13359998233240652   -0.002310079227133626
-0.01712048091659509   -0.10844529750003877   -0.0019332471911881473
-0.0029182727791160832   -0.10884536228978453   -0.001438432812581257
-0.016156284183246855   -0.1338597799003344   -0.002831365306030338
-0.0034850983136499917   -0.13359998233240652   -0.002310079227133626
-0.0030517678225097456   -0.10852538119130063   -0.0014471538554649296
-0.016243905839508865   -0.13358290981417698   -0.002796977535063166
-0.00355229900284638   -0.1333371119474621   -0.002363770367726688
-0.0030517678225097456   -0.10852538119130063   -0.0014471538554649296
-0.01712048091659509   -0.10844529750003877   -0.0019332471911881473
-0.016243905839508865   -0.13358290981417698   -0.002796977535063166
-0.017272215810274168   -0.10821426100477703   -0.0018582853700233003
-0.00355229900284638   -0.1333371119474621   -0.002363770367726688
-0.01633272276893073   -0.13336409914207517   -0.002743312307724159
-0.017272215810274168   -0.10821426100477703   -0.0018582853700233003
-0.016243905839508865   -0.13358290981417698   -0.002796977535063166
-0.00355229900284638   -0.1333371119474621   -0.002363770367726688
-0.017272215810274168   -0.10821426100477703   -0.0018582853700233003
-0.0032000733557127725   -0.10824878314489812   -0.0014393207185751425
-0.0030517678225097456   -0.10852538119130063   -0.0014471538554649296
-0.00355229900284638   -0.1333371119474621   -0.002363770367726688
-0.017272215810274168   -0.10821426100477703   -0.0018582853700233003
-0.0030517678225097456   -0.10852538119130063   -0.0014471538554649296
-0.016243905839508865   -0.13358290981417698   -0.002796977535063166
-0.00355229900284638   -0.1333371119474621   -0.002363770367726688
-0.0032000733557127725   -0.10824878314489812   -0.0014393207185751425
-0.01633272276893073   -0.13336409914207517   -0.002743312307724159
-0.003665567547821615   -0.13313379817602342   -0.002399358495087432
-0.0032000733557127725   -0.10824878314489812   -0.0014393207185751425
-0.017272215810274168   -0.10821426100477703   -0.0018582853700233003
-0.01633272276893073   -0.13336409914207517   -0.002743312307724159
-0.017436682706375037   -0.10802067899159908   -0.0017668851692883697
-0.003665567547821615   -0.13313379817602342   -0.002399358495087432
-0.016435243797097845   -0.1332043416957618   -0.002671279897131081
-0.017436682706375037   -0.10802067899159908   -0.0017668851692883697
-0.01633272276893073   -0.13336409914207517   -0.002743312307724159
-0.003665567547821615   -0.13313379817602342   -0.002399358495087432
-0.017436682706375037   -0.10802067899159908   -0.0017668851692883697
-0.0033835464302219152   -0.10800849907131012   -0.0014142807911171177
-0.0032000733557127725   -0.10824878314489812   -0.0014393207185751425
-0.003665567547821615   -0.13313379817602342   -0.002399358495087432
-0.017436682706375037   -0.10802067899159908   -0.0017668851692883697
-0.0032000733557127725   -0.10824878314489812   -0.0014393207185751425
-0.01633272276893073   -0.13336409914207517   -0.002743312307724159
-0.016156284183246855   -0.1338597799003344   -0.002831365306030338
-0.016971698023821962   -0.10871165520662704   -0.001990981518260429
-0.02867513212127268   -0.1335963806358428   -0.0033400959889203358
-0.016243905839508865   -0.13358290981417698   -0.002796977535063166
-0.016971698023821962   -0.10871165520662704   -0.001990981518260429
-0.030787409335067187   -0.10846372467487074   -0.0024581176137625795
-0.02867513212127268   -0.1335963806358428   -0.0033400959889203358
-0.030940375382265246   -0.10824692228035686   -0.0023339921584558452
-0.016243905839508865   -0.13358290981417698   -0.002796977535063166
-0.028769476986906822   -0.1333684397866012   -0.0031993673317969418
-0.030940375382265246   -0.10824692228035686   -0.0023339921584558452
-0.02867513212127268   -0.1335963806358428   -0.0033400959889203358
-0.016243905839508865   -0.13358290981417698   -0.002796977535063166
-0.030940375382265246   -0.10824692228035686   -0.0023339921584558452
-0.01712048091659509   -0.10844529750003877   -0.0019332471911881473
-0.016971698023821962   -0.10871165520662704   -0.001990981518260429
-0.016243905839508865   -0.13358290981417698   -0.002796977535063166
-0.030940375382265246   -0.10824692228035686   -0.0023339921584558452
-0.016971698023821962   -0.10871165520662704   -0.001990981518260429
-0.02867513212127268   -0.1335963806358428   -0.0033400959889203358
-0.016243905839508865   -0.13358290981417698   -0.002796977535063166
-0.01712048091659509   -0.10844529750003877   -0.0019332471911881473
-0.028769476986906822   -0.1333684397866012   -0.0031993673317969418
-0.01633272276893073   -0.13336409914207517   -0.002743312307724159
-0.01712048091659509   -0.10844529750003877   -0.0019332471911881473
-0.030940375382265246   -0.10824692228035686   -0.0023339921584558452
-0.028769476986906822   -0.1333684397866012   -0.0031993673317969418
-0.031079241737239915   -0.1080651908453647   -0.002193034740677061
-0.01633272276893073   -0.13336409914207517   -0.002743312307724159
-0.02884777599835171   -0.13319800090644968   -0.0030396930095857176
-0.031079241737239915   -0.1080651908453647   -0.002193034740677061
-0.028769476986906822   -0.1333684397866012   -0.0031993673317969418
-0.01633272276893073   -0.13336409914207517   -0.002743312307724159
-0.031079241737239915   -0.1080651908453647   -0.002193034740677061
-0.017272215810274168   -0.10821426100477703   -0.0018582853700233003
-0.01712048091659509   -0.10844529750003877   -0.0019332471911881473
-0.01633272276893073   -0.13336409914207517   -0.002743312307724159
-0.031079241737239915   -0.1080651908453647   -0.002193034740677061
-0.01712048091659509   -0.10844529750003877   -0.0019332471911881473
-0.028769476986906822   -0.1333684397866012   -0.0031993673317969418
-0.01633272276893073   -0.13336409914207517   -0.002743312307724159
-0.017272215810274168   -0.10821426100477703   -0.0018582853700233003
-0.02884777599835171   -0.13319800090644968   -0.0030396930095857176
-0.016435243797097845   -0.1332043416957618   -0.002671279897131081
-0.017272215810274168   -0.10821426100477703   -0.0018582853700233003
-0.031079241737239915   -0.1080651908453647   -0.002193034740677061
-0.02884777599835171   -0.13319800090644968   -0.0030396930095857176
-0.031219411442932457   -0.10791885090236526   -0.00203589428592839
-0.016435243797097845   -0.1332043416957618   -0.002671279897131081
-0.028928307865677495   -0.13308482993766055   -0.0028616368998882033
-0.031219411442932457   -0.10791885090236526   -0.00203589428592839
-0.02884777599835171   -0.13319800090644968   -0.0030396930095857176
-0.016435243797097845   -0.1332043416957618   -0.002671279897131081
-0.031219411442932457   -0.10791885090236526   -0.00203589428592839
-0.017436682706375037   -0.10802067899159908   -0.0017668851692883697
-0.017272215810274168   -0.10821426100477703   -0.0018582853700233003
-0.016435243797097845   -0.1332043416957618   -0.002671279897131081
-0.031219411442932457   -0.10791885090236526   -0.00203589428592839
-0.017272215810274168   -0.10821426100477703   -0.0018582853700233003
-0.02884777599835171   -0.13319800090644968   -0.0030396930095857176
-0.02867513212127268   -0.1335963806358428   -0.0033400959889203358
-0.030787409335067187   -0.10846372467487074   -0.0024581176137625795
-0.04149184613825822   -0.13314569235163914   -0.003765616657171698
-0.028769476986906822   -0.1333684397866012   -0.0031993673317969418
-0.030787409335067187   -0.10846372467487074   -0.0024581176137625795
-0.04487631702427827   -0.10809626506817432   -0.0028407748630344095
-0.04149184613825822   -0.13314569235163914   -0.003765616657171698
-0.04501853968017387   -0.10792949347161883   -0.0026497607997557544
-0.028769476986906822   -0.1333684397866012   -0.0031993673317969418
-0.04157024237340359   -0.13296563565117409   -0.003517117909334321
-0.04501853968017387   -0.10792949347161883   -0.0026497607997557544
-0.04149184613825822   -0.13314569235163914   -0.003765616657171698
-0.028769476986906822   -0.1333684397866012   -0.0031993673317969418
-0.04501853968017387   -0.10792949347161883   -0.0026497607997557544
-0.030940375382265246   -0.10824692228035686   -0.0023339921584558452
-0.030787409335067187   -0.10846372467487074   -0.0024581176137625795
-0.028769476986906822   -0.1333684397866012   -0.0031993673317969418
-0.04501853968017387   -0.10792949347161883   -0.0026497607997557544
-0.030787409335067187   -0.10846372467487074   -0.0024581176137625795
-0.04149184613825822   -0.13314569235163914   -0.003765616657171698
-0.028769476986906822   -0.1333684397866012   -0.0031993673317969418
-0.030940375382265246   -0.10824692228035686   -0.0023339921584558452
-0.04157024237340359   -0.13296563565117409   -0.003517117909334321
-0.02884777599835171   -0.13319800090644968   -0.0030396930095857176
-0.030940375382265246   -0.10824692228035686   -0.0023339921584558452
-0.04501853968017387   -0.10792949347161883   -0.0026497607997557544
-0.04157024237340359   -0.13296563565117409   -0.003517117909334321
-0.045105426060365196   -0.10779316831253041   -0.0024442020058079244
-0.02884777599835171   -0.13319800090644968   -0.0030396930095857176
-0.04158145688275904   -0.13283941231002203   -0.0032522982522850013
-0.045105426060365196   -0.10779316831253041   -0.0024442020058079244
-0.04157024237340359   -0.13296563565117409   -0.003517117909334321
-0.02884777599835171   -0.13319800090644968   -0.0030396930095857176
-0.045105426060365196   -0.10779316831253041   -0.0024442020058079244
-0.031079241737239915   -0.1080651908453647   -0.002193034740677061
-0.030940375382265246   -0.10824692228035686   -0.0023339921584558452
-0.02884777599835171   -0.13319800090644968   -0.0030396930095857176
-0.045105426060365196   -0.10779316831253041   -0.0024442020058079244
-0.030940375382265246   -0.10824692228035686   -0.0023339921584558452
-0.04157024237340359   -0.13296563565117409   -0.003517117909334321
-0.02884777599835171   -0.13319800090644968   -0.0030396930095857176
-0.031079241737239915   -0.1080651908453647   -0.002193034740677061
-0.04158145688275904   -0.13283941231002203   -0.0032522982522850013
-0.028928307865677495   -0.13308482993766055   -0.0028616368998882033
-0.031079241737239915   -0.1080651908453647   -0.002193034740677061
-0.045105426060365196   -0.10779316831253041   -0.0024442020058079244
-0.04158145688275904   -0.13283941231002203   -0.0032522982522850013
-0.04520047585815725   -0.10769526762238944   -0.002221083512110162
-0.028928307865677495   -0.13308482993766055   -0.0028616368998882033
-0.04161146558515864   -0.13277557831294343   -0.002967710964957432
-0.04520047585815725   -0.10769526762238944   -0.002221083512110162
-0.04158145688275904   -0.13283941231002203   -0.0032522982522850013
-0.028928307865677495   -0.13308482993766055   -0.0028616368998882033
-0.04520047585815725   -0.10769526762238944   -0.002221083512110162
-0.031219411442932457   -0.10791885090236526   -0.00203589428592839
-0.031079241737239915   -0.1080651908453647   -0.002193034740677061
-0.028928307865677495   -0.13308482993766055   -0.0028616368998882033
-0.04520047585815725   -0.10769526762238944   -0.002221083512110162
-0.031079241737239915   -0.1080651908453647   -0.002193034740677061
-0.04158145688275904   -0.13283941231002203   -0.0032522982522850013
-0.04149184613825822   -0.13314569235163914   -0.003765616657171698
-0.04487631702427827   -0.10809626506817432   -0.0028407748630344095
-0.055466270467687456   -0.1325558665832114   -0.004129037821494448
-0.04157024237340359   -0.13296563565117409   -0.003517117909334321
-0.04487631702427827   -0.10809626506817432   -0.0028407748630344095
-0.059993782817773594   -0.10764549365321648   -0.003145677786337607
-0.055466270467687456   -0.1325558665832114   -0.004129037821494448
-0.0598937681735761   -0.10750450255904191   -0.0028919922064417477
-0.04157024237340359   -0.13296563565117409   -0.003517117909334321
-0.055202817556883534   -0.1323914073346979   -0.0037670087494899424
-0.0598937681735761   -0.10750450255904191   -0.0028919922064417477
-0.055466270467687456   -0.1325558665832114   -0.004129037821494448
-0.04157024237340359   -0.13296563565117409   -0.003517117909334321
-0.0598937681735761   -0.10750450255904191   -0.0028919922064417477
-0.04501853968017387   -0.10792949347161883   -0.0026497607997557544
-0.04487631702427827   -0.10809626506817432   -0.0028407748630344095
-0.04157024237340359   -0.13296563565117409   -0.003517117909334321
-0.0598937681735761   -0.10750450255904191   -0.0028919922064417477
-0.04487631702427827   -0.10809626506817432   -0.0028407748630344095
-0.055466270467687456   -0.1325558665832114   -0.004129037821494448
-0.04157024237340359   -0.13296563565117409   -0.003517117909334321
-0.04501853968017387   -0.10792949347161883   -0.0026497607997557544
-0.055202817556883534   -0.1323914073346979   -0.0037670087494899424
-0.04158145688275904   -0.13283941231002203   -0.0032522982522850013
-0.04501853968017387   -0.10792949347161883   -0.0026497607997557544
-0.0598937681735761   -0.10750450255904191   -0.0028919922064417477
-0.055202817556883534   -0.1323914073346979   -0.0037670087494899424
-0.059812319458078744   -0.10738955274048803   -0.0026116205924873923
-0.04158145688275904   -0.13283941231002203   -0.0032522982522850013
-0.0549804618846752   -0.13228390796165573   -0.003376512610329243
-0.059812319458078744   -0.10738955274048803   -0.0026116205924873923
-0.055202817556883534   -0.1323914073346979   -0.0037670087494899424
-0.04158145688275904   -0.13283941231002203   -0.0032522982522850013
-0.059812319458078744   -0.10738955274048803   -0.0026116205924873923
-0.045105426060365196   -0.10779316831253041   -0.0024442020058079244
-0.04501853968017387   -0.10792949347161883   -0.0026497607997557544
-0.04158145688275904   -0.13283941231002203   -0.0032522982522850013
-0.059812319458078744   -0.10738955274048803   -0.0026116205924873923
-0.04501853968017387   -0.10792949347161883   -0.0026497607997557544
-0.055202817556883534   -0.1323914073346979   -0.0037670087494899424
-0.04158145688275904   -0.13283941231002203   -0.0032522982522850013
-0.045105426060365196   -0.10779316831253041   -0.0024442020058079244
-0.0549804618846752   -0.13228390796165573   -0.003376512610329243
-0.04161146558515864   -0.13277557831294343   -0.002967710964957432
-0.045105426060365196   -0.10779316831253041   -0.0024442020058079244
-0.059812319458078744   -0.10738955274048803   -0.0026116205924873923
-0.0549804618846752   -0.13228390796165573   -0.003376512610329243
-0.05961287045028371   -0.10734952240015368   -0.0023076117235844894
-0.04161146558515864   -0.13277557831294343   -0.002967710964957432
-0.05461216003153602   -0.132282640960117   -0.002961089498261719
-0.05961287045028371   -0.10734952240015368   -0.0023076117235844894
-0.0549804618846752   -0.13228390796165573   -0.003376512610329243
-0.04161146558515864   -0.13277557831294343   -0.002967710964957432
-0.05961287045028371   -0.10734952240015368   -0.0023076117235844894
-0.04520047585815725   -0.10769526762238944   -0.002221083512110162
-0.045105426060365196   -0.10779316831253041   -0.0024442020058079244
-0.04161146558515864   -0.13277557831294343   -0.002967710964957432
-0.05961287045028371   -0.10734952240015368   -0.0023076117235844894
-0.045105426060365196   -0.10779316831253041   -0.0024442020058079244
-0.0549804618846752   -0.13228390796165573   -0.003376512610329243
0.011817428064859203   -0.10885076503896912   -0.0007710674845907514
0.012181329286828994   -0.08221395783450154   -0.00011595434496217701
-0.0029182727791160832   -0.10884536228978453   -0.001438432812581257
0.011770991525323161   -0.10848346854302356   -0.0008724682870827973
0.012181329286828994   -0.08221395783450154   -0.00011595434496217701
-0.003373797810214809   -0.0820750264831877   -0.0007169964395186576
-0.0029182727791160832   -0.10884536228978453   -0.001438432812581257
-0.0035562491442655934   -0.08176843681092019   -0.0006622599931955208
0.011770991525323161   -0.10848346854302356   -0.0008724682870827973
-0.0030517678225097456   -0.10852538119130063   -0.0014471538554649296
-0.0035562491442655934   -0.08176843681092019   -0.0006622599931955208
-0.0029182727791160832   -0.10884536228978453   -0.001438432812581257
0.011770991525323161   -0.10848346854302356   -0.0008724682870827973
-0.0035562491442655934   -0.08176843681092019   -0.0006622599931955208
0.01198556443306934   -0.0818632456148949   -0.00010265329697024732
0.012181329286828994   -0.08221395783450154   -0.00011595434496217701
0.011770991525323161   -0.10848346854302356   -0.0008724682870827973
-0.0035562491442655934   -0.08176843681092019   -0.0006622599931955208
0.012181329286828994   -0.08221395783450154   -0.00011595434496217701
-0.0029182727791160832   -0.10884536228978453   -0.001438432812581257
0.011770991525323161   -0.10848346854302356   -0.0008724682870827973
0.01198556443306934   -0.0818632456148949   -0.00010265329697024732
-0.0030517678225097456   -0.10852538119130063   -0.0014471538554649296
0.011661764323488566   -0.10818635224609595   -0.0009473361180287477
0.01198556443306934   -0.0818632456148949   -0.00010265329697024732
-0.0035562491442655934   -0.08176843681092019   -0.0006622599931955208
-0.0030517678225097456   -0.10852538119130063   -0.0014471538554649296
-0.00376496284249586   -0.08147821648920033   -0.0005925696140611335
0.011661764323488566   -0.10818635224609595   -0.0009473361180287477
-0.0032000733557127725   -0.10824878314489812   -0.0014393207185751425
-0.00376496284249586   -0.08147821648920033   -0.0005925696140611335
-0.0030517678225097456   -0.10852538119130063   -0.0014471538554649296
0.011661764323488566   -0.10818635224609595   -0.0009473361180287477
-0.00376496284249586   -0.08147821648920033   -0.0005925696140611335
0.011746937449893632   -0.08154856946169008   -5.8758768815650115e-05
0.01198556443306934   -0.0818632456148949   -0.00010265329697024732
0.011661764323488566   -0.10818635224609595   -0.0009473361180287477
-0.00376496284249586   -0.08147821648920033   -0.0005925696140611335
0.01198556443306934   -0.0818632456148949   -0.00010265329697024732
-0.0030517678225097456   -0.10852538119130063   -0.0014471538554649296
0.011661764323488566   -0.10818635224609595   -0.0009473361180287477
0.011746937449893632   -0.08154856946169008   -5.8758768815650115e-05
-0.0032000733557127725   -0.10824878314489812   -0.0014393207185751425
0.011509848186402034   -0.10791166774249013   -0.0009975232742562069
0.011746937449893632   -0.08154856946169008   -5.8758768815650115e-05
-0.00376496284249586   -0.08147821648920033   -0.0005925696140611335
-0.0032000733557127725   -0.10824878314489812   -0.0014393207185751425
-0.00399880676352784   -0.08120043734262615   -0.0005041692035305776
0.011509848186402034   -0.10791166774249013   -0.0009975232742562069
-0.0033835464302219152   -0.10800849907131012   -0.0014142807911171177
-0.00399880676352784   -0.08120043734262615   -0.0005041692035305776
-0.0032000733557127725   -0.10824878314489812   -0.0014393207185751425
0.011509848186402034   -0.10791166774249013   -0.0009975232742562069
-0.00399880676352784   -0.08120043734262615   -0.0005041692035305776
0.011432822037838132   -0.08121875789163617   1.4332913139244766e-05
0.011746937449893632   -0.08154856946169008   -5.8758768815650115e-05
0.011509848186402034   -0.10791166774249013   -0.0009975232742562069
-0.00399880676352784   -0.08120043734262615   -0.0005041692035305776
0.011746937449893632   -0.08154856946169008   -5.8758768815650115e-05
-0.0032000733557127725   -0.10824878314489812   -0.0014393207185751425
-0.0029182727791160832   -0.10884536228978453   -0.001438432812581257
-0.003373797810214809   -0.0820750264831877   -0.0007169964395186576
-0.016971698023821962   -0.10871165520662704   -0.001990981518260429
-0.0030517678225097456   -0.10852538119130063   -0.0014471538554649296
-0.003373797810214809   -0.0820750264831877   -0.0007169964395186576
-0.01811364736712392   -0.08191529477917864   -0.0012274628923868896
-0.016971698023821962   -0.10871165520662704   -0.001990981518260429
-0.01829920698628524   -0.08165806932593983   -0.001145017022243354
-0.0030517678225097456   -0.10852538119130063   -0.0014471538554649296
-0.01712048091659509   -0.10844529750003877   -0.0019332471911881473
-0.01829920698628524   -0.08165806932593983   -0.001145017022243354
-0.016971698023821962   -0.10871165520662704   -0.001990981518260429
-0.0030517678225097456   -0.10852538119130063   -0.0014471538554649296
-0.01829920698628524   -0.08165806932593983   -0.001145017022243354
-0.0035562491442655934   -0.08176843681092019   -0.0006622599931955208
-0.003373797810214809   -0.0820750264831877   -0.0007169964395186576
-0.0030517678225097456   -0.10852538119130063   -0.0014471538554649296
-0.01829920698628524   -0.08165806932593983   -0.001145017022243354
-0.003373797810214809   -0.0820750264831877   -0.0007169964395186576
-0.016971698023821962   -0.10871165520662704   -0.001990981518260429
-0.0030517678225097456   -0.10852538119130063   -0.0014471538554649296
-0.0035562491442655934   -0.08176843681092019   -0.0006622599931955208
-0.01712048091659509   -0.10844529750003877   -0.0019332471911881473
-0.0032000733557127725   -0.10824878314489812   -0.0014393207185751425
-0.0035562491442655934   -0.08176843681092019   -0.0006622599931955208
-0.01829920698628524   -0.08165806932593983   -0.001145017022243354
-0.01712048091659509   -0.10844529750003877   -0.0019332471911881473
-0.018488854350597137   -0.08141356910839329   -0.001048351626012192
-0.0032000733557127725   -0.10824878314489812   -0.0014393207185751425
-0.017272215810274168   -0.10821426100477703   -0.0018582853700233003
-0.018488854350597137   -0.08141356910839329   -0.001048351626012192
-0.01712048091659509   -0.10844529750003877   -0.0019332471911881473
-0.0032000733557127725   -0.10824878314489812   -0.0014393207185751425
-0.018488854350597137   -0.08141356910839329   -0.001048351626012192
-0.00376496284249586   -0.08147821648920033   -0.0005925696140611335
-0.0035562491442655934   -0.08176843681092019   -0.0006622599931955208
-0.0032000733557127725   -0.10824878314489812   -0.0014393207185751425
-0.018488854350597137   -0.08141356910839329   -0.001048351626012192
-0.0035562491442655934   -0.08176843681092019   -0.0006622599931955208
-0.01712048091659509   -0.10844529750003877   -0.0019332471911881473
-0.0032000733557127725   -0.10824878314489812   -0.0014393207185751425
-0.00376496284249586   -0.08147821648920033   -0.0005925696140611335
-0.017272215810274168   -0.10821426100477703   -0.0018582853700233003
-0.0033835464302219152   -0.10800849907131012   -0.0014142807911171177
-0.00376496284249586   -0.08147821648920033   -0.0005925696140611335
-0.018488854350597137   -0.08141356910839329   -0.001048351626012192
-0.017272215810274168   -0.10821426100477703   -0.0018582853700233003
-0.018690456838222687   -0.08118548414237448   -0.0009372887990174319
-0.0033835464302219152   -0.10800849907131012   -0.0014142807911171177
-0.017436682706375037   -0.10802067899159908   -0.0017668851692883697
-0.018690456838222687   -0.08118548414237448   -0.0009372887990174319
-0.017272215810274168   -0.10821426100477703   -0.0018582853700233003
-0.0033835464302219152   -0.10800849907131012   -0.0014142807911171177
-0.018690456838222687   -0.08118548414237448   -0.0009372887990174319
-0.00399880676352784   -0.08120043734262615   -0.0005041692035305776
-0.00376496284249586   -0.08147821648920033   -0.0005925696140611335
-0.0033835464302219152   -0.10800849907131012   -0.0014142807911171177
-0.018690456838222687   -0.08118548414237448   -0.0009372887990174319
-0.00376496284249586   -0.08147821648920033   -0.0005925696140611335
-0.017272215810274168   -0.10821426100477703   -0.0018582853700233003
-0.016971698023821962   -0.10871165520662704   -0.001990981518260429
-0.01811364736712392   -0.08191529477917864   -0.0012274628923868896
-0.030787409335067187   -0.10846372467487074   -0.0024581176137625795
-0.01712048091659509   -0.10844529750003877   -0.0019332471911881473
-0.01811364736712392   -0.08191529477917864   -0.0012274628923868896
-0.03261484897121441   -0.08172475188478659   -0.0016620485227238466
-0.030787409335067187   -0.10846372467487074   -0.0024581176137625795
-0.03279884584926893   -0.0815133928915817   -0.0015518260551097597
-0.01712048091659509   -0.10844529750003877   -0.0019332471911881473
-0.030940375382265246   -0.10824692228035686   -0.0023339921584558452
-0.03279884584926893   -0.0815133928915817   -0.0015518260551097597
-0.030787409335067187   -0.10846372467487074   -0.0024581176137625795
-0.01712048091659509   -0.10844529750003877   -0.0019332471911881473
-0.03279884584926893   -0.0815133928915817   -0.0015518260551097597
-0.01829920698628524   -0.08165806932593983   -0.001145017022243354
-0.01811364736712392   -0.08191529477917864   -0.0012274628923868896
-0.01712048091659509   -0.10844529750003877   -0.0019332471911881473
-0.03279884584926893   -0.0815133928915817   -0.0015518260551097597
-0.01811364736712392   -0.08191529477917864   -0.0012274628923868896
-0.030787409335067187   -0.10846372467487074   -0.0024581176137625795
-0.01712048091659509   -0.10844529750003877   -0.0019332471911881473
-0.01829920698628524   -0.08165806932593983   -0.001145017022243354
-0.030940375382265246   -0.10824692228035686   -0.0023339921584558452
-0.017272215810274168   -0.10821426100477703   -0.0018582853700233003
-0.01829920698628524   -0.08165806932593983   -0.001145017022243354
-0.03279884584926893   -0.0815133928915817   -0.0015518260551097597
-0.030940375382265246   -0.10824692228035686   -0.0023339921584558452
-0.03297100064083668   -0.08131552153230028   -0.0014278717255440461
-0.017272215810274168   -0.10821426100477703   -0.0018582853700233003
-0.031079241737239915   -0.1080651908453647   -0.002193034740677061
-0.03297100064083668   -0.08131552153230028   -0.0014278717255440461
-0.030940375382265246   -0.10824692228035686   -0.0023339921584558452
-0.017272215810274168   -0.10821426100477703   -0.0018582853700233003
-0.03297100064083668   -0.08131552153230028   -0.0014278717255440461
-0.018488854350597137   -0.08141356910839329   -0.001048351626012192
-0.01829920698628524   -0.08165806932593983   -0.001145017022243354
-0.017272215810274168   -0.10821426100477703   -0.0018582853700233003
-0.03297100064083668   -0.08131552153230028   -0.0014278717255440461
-0.01829920698628524   -0.08165806932593983   -0.001145017022243354
-0.030940375382265246   -0.10824692228035686   -0.0023339921584558452
-0.017272215810274168   -0.10821426100477703   -0.0018582853700233003
-0.018488854350597137   -0.08141356910839329   -0.001048351626012192
-0.031079241737239915   -0.1080651908453647   -0.002193034740677061
-0.017436682706375037   -0.10802067899159908   -0.0017668851692883697
-0.018488854350597137   -0.08141356910839329   -0.001048351626012192
-0.03297100064083668   -0.08131552153230028   -0.0014278717255440461
-0.031079241737239915   -0.1080651908453647   -0.002193034740677061
-0.03314376916683341   -0.08113170094420971   -0.0012908729057168043
-0.017436682706375037   -0.10802067899159908   -0.0017668851692883697
-0.031219411442932457   -0.10791885090236526   -0.00203589428592839
-0.03314376916683341   -0.08113170094420971   -0.0012908729057168043
-0.031079241737239915   -0.1080651908453647   -0.002193034740677061
-0.017436682706375037   -0.10802067899159908   -0.0017668851692883697
-0.03314376916683341   -0.08113170094420971   -0.0012908729057168043
-0.018690456838222687   -0.08118548414237448   -0.0009372887990174319
-0.018488854350597137   -0.08141356910839329   -0.001048351626012192
-0.017436682706375037   -0.10802067899159908   -0.0017668851692883697
-0.03314376916683341   -0.08113170094420971   -0.0012908729057168043
-0.018488854350597137   -0.08141356910839329   -0.001048351626012192
-0.031079241737239915   -0.1080651908453647   -0.002193034740677061
-0.030787409335067187   -0.10846372467487074   -0.0024581176137625795
-0.03261484897121441   -0.08172475188478659   -0.0016620485227238466
-0.04487631702427827   -0.10809626506817432   -0.0028407748630344095
-0.030940375382265246   -0.10824692228035686   -0.0023339921584558452
-0.03261484897121441   -0.08172475188478659   -0.0016620485227238466
-0.04737729160888194   -0.08146780935945346   -0.002017055983358305
-0.04487631702427827   -0.10809626506817432   -0.0028407748630344095
-0.047553577779003334   -0.08130472044695534   -0.0018793824004587258
-0.030940375382265246   -0.10824692228035686   -0.0023339921584558452
-0.04501853968017387   -0.10792949347161883   -0.0026497607997557544
-0.047553577779003334   -0.08130472044695534   -0.0018793824004587258
-0.04487631702427827   -0.10809626506817432   -0.0028407748630344095
-0.030940375382265246   -0.10824692228035686   -0.0023339921584558452
-0.047553577779003334   -0.08130472044695534   -0.0018793824004587258
-0.03279884584926893   -0.0815133928915817   -0.0015518260551097597
-0.03261484897121441   -0.08172475188478659   -0.0016620485227238466
-0.030940375382265246   -0.10824692228035686   -0.0023339921584558452
-0.047553577779003334   -0.08130472044695534   -0.0018793824004587258
-0.03261484897121441   -0.08172475188478659   -0.0016620485227238466
-0.04487631702427827   -0.10809626506817432   -0.0028407748630344095
-0.030940375382265246   -0.10824692228035686   -0.0023339921584558452
-0.03279884584926893   -0.0815133928915817   -0.0015518260551097597
-0.04501853968017387   -0.10792949347161883   -0.0026497607997557544
-0.031079241737239915   -0.1080651908453647   -0.002193034740677061
-0.03279884584926893   -0.0815133928915817   -0.0015518260551097597
-0.047553577779003334   -0.08130472044695534   -0.0018793824004587258
-0.04501853968017387   -0.10792949347161883   -0.0026497607997557544
-0.04768773190006442   -0.0811497298541216   -0.0017302771071998405
-0.031079241737239915   -0.1080651908453647   -0.002193034740677061
-0.045105426060365196   -0.10779316831253041   -0.0024442020058079244
-0.04768773190006442   -0.0811497298541216   -0.0017302771071998405
-0.04501853968017387   -0.10792949347161883   -0.0026497607997557544
-0.031079241737239915   -0.1080651908453647   -0.002193034740677061
-0.04768773190006442   -0.0811497298541216   -0.0017302771071998405
-0.03297100064083668   -0.08131552153230028   -0.0014278717255440461
-0.03279884584926893   -0.0815133928915817   -0.0015518260551097597
-0.031079241737239915   -0.1080651908453647   -0.002193034740677061
-0.04768773190006442   -0.0811497298541216   -0.0017302771071998405
-0.03279884584926893   -0.0815133928915817   -0.0015518260551097597
-0.04501853968017387   -0.10792949347161883   -0.0026497607997557544
-0.031079241737239915   -0.1080651908453647   -0.002193034740677061
-0.03297100064083668   -0.08131552153230028   -0.0014278717255440461
-0.045105426060365196   -0.10779316831253041   -0.0024442020058079244
-0.031219411442932457   -0.10791885090236526   -0.00203589428592839
-0.03297100064083668   -0.08131552153230028   -0.0014278717255440461
-0.04768773190006442   -0.0811497298541216   -0.0017302771071998405
-0.045105426060365196   -0.10779316831253041   -0.0024442020058079244
-0.047820719930801024   -0.0810095259471445   -0.0015667277684153667
-0.031219411442932457   -0.10791885090236526   -0.00203589428592839
-0.04520047585815725   -0.10769526762238944   -0.002221083512110162
-0.047820719930801024   -0.0810095259471445   -0.0015667277684153667
-0.045105426060365196   -0.10779316831253041   -0.0024442020058079244
-0.031219411442932457   -0.10791885090236526   -0.00203589428592839
-0.047820719930801024   -0.0810095259471445   -0.0015667277684153667
-0.03314376916683341   -0.08113170094420971   -0.0012908729057168043
-0.03297100064083668   -0.08131552153230028   -0.0014278717255440461
-0.031219411442932457   -0.10791885090236526   -0.00203589428592839
-0.047820719930801024   -0.0810095259471445   -0.0015667277684153667
-0.03297100064083668   -0.08131552153230028   -0.0014278717255440461
-0.045105426060365196   -0.10779316831253041   -0.0024442020058079244
-0.04487631702427827   -0.10809626506817432   -0.0028407748630344095
-0.04737729160888194   -0.08146780935945346   -0.002017055983358305
-0.059993782817773594   -0.10764549365321648   -0.003145677786337607
-0.04501853968017387   -0.10792949347161883   -0.0026497607997557544
-0.04737729160888194   -0.08146780935945346   -0.002017055983358305
-0.06301844992123445   -0.08116537263545075   -0.002281921611686287
-0.059993782817773594   -0.10764549365321648   -0.003145677786337607
-0.06304834180005622   -0.08103442108528944   -0.002130753596969187
-0.04501853968017387   -0.10792949347161883   -0.0026497607997557544
-0.0598937681735761   -0.10750450255904191   -0.0028919922064417477
-0.06304834180005622   -0.08103442108528944   -0.002130753596969187
-0.059993782817773594   -0.10764549365321648   -0.003145677786337607
-0.04501853968017387   -0.10792949347161883   -0.0026497607997557544
-0.06304834180005622   -0.08103442108528944   -0.002130753596969187
-0.047553577779003334   -0.08130472044695534   -0.0018793824004587258
-0.04737729160888194   -0.08146780935945346   -0.002017055983358305
-0.04501853968017387   -0.10792949347161883   -0.0026497607997557544
-0.06304834180005622   -0.08103442108528944   -0.002130753596969187
-0.04737729160888194   -0.08146780935945346   -0.002017055983358305
-0.059993782817773594   -0.10764549365321648   -0.003145677786337607
-0.04501853968017387   -0.10792949347161883   -0.0026497607997557544
-0.047553577779003334   -0.08130472044695534   -0.0018793824004587258
-0.0598937681735761   -0.10750450255904191   -0.0028919922064417477
-0.045105426060365196   -0.10779316831253041   -0.0024442020058079244
-0.047553577779003334   -0.08130472044695534   -0.0018793824004587258
-0.06304834180005622   -0.08103442108528944   -0.002130753596969187
-0.0598937681735761   -0.10750450255904191   -0.0028919922064417477
-0.0630785696826034   -0.08090144199654814   -0.001956530086997753
-0.045105426060365196   -0.10779316831253041   -0.0024442020058079244
-0.059812319458078744   -0.10738955274048803   -0.0026116205924873923
-0.0630785696826034   -0.08090144199654814   -0.001956530086997753
-0.0598937681735761   -0.10750450255904191   -0.0028919922064417477
-0.045105426060365196   -0.10779316831253041   -0.0024442020058079244
-0.0630785696826034   -0.08090144199654814   -0.001956530086997753
-0.04768773190006442   -0.0811497298541216   -0.0017302771071998405
-0.047553577779003334   -0.08130472044695534   -0.0018793824004587258
-0.045105426060365196   -0.10779316831253041   -0.0024442020058079244
-0.0630785696826034   -0.08090144199654814   -0.001956530086997753
-0.047553577779003334   -0.08130472044695534   -0.0018793824004587258
-0.0598937681735761   -0.10750450255904191   -0.0028919922064417477
-0.045105426060365196   -0.10779316831253041   -0.0024442020058079244
-0.04768773190006442   -0.0811497298541216   -0.0017302771071998405
-0.059812319458078744   -0.10738955274048803   -0.0026116205924873923
-0.04520047585815725   -0.10769526762238944   -0.002221083512110162
-0.04768773190006442   -0.0811497298541216   -0.0017302771071998405
-0.0630785696826034   -0.08090144199654814   -0.001956530086997753
-0.059812319458078744   -0.10738955274048803   -0.0026116205924873923
-0.0630216457117748   -0.08081148933584763   -0.0017620083125261283
-0.04520047585815725   -0.10769526762238944   -0.002221083512110162
-0.05961287045028371   -0.10734952240015368   -0.0023076117235844894
-0.0630216457117748   -0.08081148933584763   -0.0017620083125261283
-0.059812319458078744   -0.10738955274048803   -0.0026116205924873923
-0.04520047585815725   -0.10769526762238944   -0.002221083512110162
-0.0630216457117748   -0.08081148933584763   -0.0017620083125261283
-0.047820719930801024   -0.0810095259471445   -0.0015667277684153667
-0.04768773190006442   -0.0811497298541216   -0.0017302771071998405
-0.04520047585815725   -0.10769526762238944   -0.002221083512110162
-0.0630216457117748   -0.08081148933584763   -0.0017620083125261283
-0.04768773190006442   -0.0811497298541216   -0.0017302771071998405
-0.059812319458078744   -0.10738955274048803   -0.0026116205924873923
0.012181329286828994   -0.08221395783450154   -0.00011595434496217701
0.010896150720146044   -0.05481565990691187   0.00033589242121645935
-0.003373797810214809   -0.0820750264831877   -0.0007169964395186576
0.01198556443306934   -0.0818632456148949   -0.00010265329697024732
0.010896150720146044   -0.05481565990691187   0.00033589242121645935
-0.00475876611122039   -0.05455548721503935   -0.00014385667589065056
-0.003373797810214809   -0.0820750264831877   -0.0007169964395186576
-0.004975805909759046   -0.05427738515415256   -3.099210158885014e-05
0.01198556443306934   -0.0818632456148949   -0.00010265329697024732
-0.0035562491442655934   -0.08176843681092019   -0.0006622599931955208
-0.004975805909759046   -0.05427738515415256   -3.099210158885014e-05
-0.003373797810214809   -0.0820750264831877   -0.0007169964395186576
0.01198556443306934   -0.0818632456148949   -0.00010265329697024732
-0.004975805909759046   -0.05427738515415256   -3.099210158885014e-05
0.010552796282240937   -0.05448109579097427   0.0004776535488293018
0.010896150720146044   -0.05481565990691187   0.00033589242121645935
0.01198556443306934   -0.0818632456148949   -0.00010265329697024732
-0.004975805909759046   -0.05427738515415256   -3.099210158885014e-05
0.010896150720146044   -0.05481565990691187   0.00033589242121645935
-0.003373797810214809   -0.0820750264831877   -0.0007169964395186576
0.01198556443306934   -0.0818632456148949   -0.00010265329697024732
0.010552796282240937   -0.05448109579097427   0.0004776535488293018
-0.0035562491442655934   -0.08176843681092019   -0.0006622599931955208
0.011746937449893632   -0.08154856946169008   -5.8758768815650115e-05
0.010552796282240937   -0.05448109579097427   0.0004776535488293018
-0.004975805909759046   -0.05427738515415256   -3.099210158885014e-05
-0.0035562491442655934   -0.08176843681092019   -0.0006622599931955208
-0.005229451598055897   -0.05398354646635558   0.0001017519968509393
0.011746937449893632   -0.08154856946169008   -5.8758768815650115e-05
-0.00376496284249586   -0.08147821648920033   -0.0005925696140611335
-0.005229451598055897   -0.05398354646635558   0.0001017519968509393
-0.0035562491442655934   -0.08176843681092019   -0.0006622599931955208
0.011746937449893632   -0.08154856946169008   -5.8758768815650115e-05
-0.005229451598055897   -0.05398354646635558   0.0001017519968509393
0.01017086267659771   -0.05414804895197164   0.0006801062176776447
0.010552796282240937   -0.05448109579097427   0.0004776535488293018
0.011746937449893632   -0.08154856946169008   -5.8758768815650115e-05
-0.005229451598055897   -0.05398354646635558   0.0001017519968509393
0.010552796282240937   -0.05448109579097427   0.0004776535488293018
-0.0035562491442655934   -0.08176843681092019   -0.0006622599931955208
0.011746937449893632   -0.08154856946169008   -5.8758768815650115e-05
0.01017086267659771   -0.05414804895197164   0.0006801062176776447
-0.00376496284249586   -0.08147821648920033   -0.0005925696140611335
0.011432822037838132   -0.08121875789163617   1.4332913139244766e-05
0.01017086267659771   -0.05414804895197164   0.0006801062176776447
-0.005229451598055897   -0.05398354646635558   0.0001017519968509393
-0.00376496284249586   -0.08147821648920033   -0.0005925696140611335
-0.005491519329418886   -0.053671257749556764   0.0002540698522013914
0.011432822037838132   -0.08121875789163617   1.4332913139244766e-05
-0.00399880676352784   -0.08120043734262615   -0.0005041692035305776
-0.005491519329418886   -0.053671257749556764   0.0002540698522013914
-0.00376496284249586   -0.08147821648920033   -0.0005925696140611335
0.011432822037838132   -0.08121875789163617   1.4332913139244766e-05
-0.005491519329418886   -0.053671257749556764   0.0002540698522013914
0.00970431554899335   -0.05373922681788422   0.0009026765287130582
0.01017086267659771   -0.05414804895197164   0.0006801062176776447
0.011432822037838132   -0.08121875789163617   1.4332913139244766e-05
-0.005491519329418886   -0.053671257749556764   0.0002540698522013914
0.01017086267659771   -0.05414804895197164   0.0006801062176776447
-0.00376496284249586   -0.08147821648920033   -0.0005925696140611335
-0.003373797810214809   -0.0820750264831877   -0.0007169964395186576
-0.00475876611122039   -0.05455548721503935   -0.00014385667589065056
-0.01811364736712392   -0.08191529477917864   -0.0012274628923868896
-0.0035562491442655934   -0.08176843681092019   -0.0006622599931955208
-0.00475876611122039   -0.05455548721503935   -0.00014385667589065056
-0.019504967110417156   -0.0544882580188648   -0.000607203776938476
-0.01811364736712392   -0.08191529477917864   -0.0012274628923868896
-0.019700664854978647   -0.05424482635630275   -0.000502816503998174
-0.0035562491442655934   -0.08176843681092019   -0.0006622599931955208
-0.01829920698628524   -0.08165806932593983   -0.001145017022243354
-0.019700664854978647   -0.05424482635630275   -0.000502816503998174
-0.01811364736712392   -0.08191529477917864   -0.0012274628923868896
-0.0035562491442655934   -0.08176843681092019   -0.0006622599931955208
-0.019700664854978647   -0.05424482635630275   -0.000502816503998174
-0.004975805909759046   -0.05427738515415256   -3.099210158885014e-05
-0.00475876611122039   -0.05455548721503935   -0.00014385667589065056
-0.0035562491442655934   -0.08176843681092019   -0.0006622599931955208
-0.019700664854978647   -0.05424482635630275   -0.000502816503998174
-0.00475876611122039   -0.05455548721503935   -0.00014385667589065056
-0.01811364736712392   -0.08191529477917864   -0.0012274628923868896
-0.0035562491442655934   -0.08176843681092019   -0.0006622599931955208
-0.004975805909759046   -0.05427738515415256   -3.099210158885014e-05
-0.01829920698628524   -0.08165806932593983   -0.001145017022243354
-0.00376496284249586   -0.08147821648920033   -0.0005925696140611335
-0.004975805909759046   -0.05427738515415256   -3.099210158885014e-05
-0.019700664854978647   -0.05424482635630275   -0.000502816503998174
-0.01829920698628524   -0.08165806932593983   -0.001145017022243354
-0.019902981747281622   -0.053991484766731775   -0.0003881928293339314
-0.00376496284249586   -0.08147821648920033   -0.0005925696140611335
-0.018488854350597137   -0.08141356910839329   -0.001048351626012192
-0.019902981747281622   -0.053991484766731775   -0.0003881928293339314
-0.01829920698628524   -0.08165806932593983   -0.001145017022243354
-0.00376496284249586   -0.08147821648920033   -0.0005925696140611335
-0.019902981747281622   -0.053991484766731775   -0.0003881928293339314
-0.005229451598055897   -0.05398354646635558   0.0001017519968509393
-0.004975805909759046   -0.05427738515415256   -3.099210158885014e-05
-0.00376496284249586   -0.08147821648920033   -0.0005925696140611335
-0.019902981747281622   -0.053991484766731775   -0.0003881928293339314
-0.004975805909759046   -0.05427738515415256   -3.099210158885014e-05
-0.01829920698628524   -0.08165806932593983   -0.001145017022243354
-0.00376496284249586   -0.08147821648920033   -0.0005925696140611335
-0.005229451598055897   -0.05398354646635558   0.0001017519968509393
-0.018488854350597137   -0.08141356910839329   -0.001048351626012192
-0.00399880676352784   -0.08120043734262615   -0.0005041692035305776
-0.005229451598055897   -0.05398354646635558   0.0001017519968509393
-0.019902981747281622   -0.053991484766731775   -0.0003881928293339314
-0.018488854350597137   -0.08141356910839329   -0.001048351626012192
-0.02011348666568265   -0.05373259371744722   -0.0002612595079134504
-0.00399880676352784   -0.08120043734262615   -0.0005041692035305776
-0.018690456838222687   -0.08118548414237448   -0.0009372887990174319
-0.02011348666568265   -0.05373259371744722   -0.0002612595079134504
-0.018488854350597137   -0.08141356910839329   -0.001048351626012192
-0.00399880676352784   -0.08120043734262615   -0.0005041692035305776
-0.02011348666568265   -0.05373259371744722   -0.0002612595079134504
-0.005491519329418886   -0.053671257749556764   0.0002540698522013914
-0.005229451598055897   -0.05398354646635558   0.0001017519968509393
-0.00399880676352784   -0.08120043734262615   -0.0005041692035305776
-0.02011348666568265   -0.05373259371744722   -0.0002612595079134504
-0.005229451598055897   -0.05398354646635558   0.0001017519968509393
-0.018488854350597137   -0.08141356910839329   -0.001048351626012192
-0.01811364736712392   -0.08191529477917864   -0.0012274628923868896
-0.019504967110417156   -0.0544882580188648   -0.000607203776938476
-0.03261484897121441   -0.08172475188478659   -0.0016620485227238466
-0.01829920698628524   -0.08165806932593983   -0.001145017022243354
-0.019504967110417156   -0.0544882580188648   -0.000607203776938476
-0.0341030710929656   -0.05446971552673737   -0.0010265972858459838
-0.03261484897121441   -0.08172475188478659   -0.0016620485227238466
-0.03428991730873573   -0.05425575237809362   -0.0009275485310017517
-0.01829920698628524   -0.08165806932593983   -0.001145017022243354
-0.03279884584926893   -0.0815133928915817   -0.0015518260551097597
-0.03428991730873573   -0.05425575237809362   -0.0009275485310017517
-0.03261484897121441   -0.08172475188478659   -0.0016620485227238466
-0.01829920698628524   -0.08165806932593983   -0.001145017022243354
-0.03428991730873573   -0.05425575237809362   -0.0009275485310017517
-0.019700664854978647   -0.05424482635630275   -0.000502816503998174
-0.019504967110417156   -0.0544882580188648   -0.000607203776938476
-0.01829920698628524   -0.08165806932593983   -0.001145017022243354
-0.03428991730873573   -0.05425575237809362   -0.0009275485310017517
-0.019504967110417156   -0.0544882580188648   -0.000607203776938476
-0.03261484897121441   -0.08172475188478659   -0.0016620485227238466
-0.01829920698628524   -0.08165806932593983   -0.001145017022243354
-0.019700664854978647   -0.05424482635630275   -0.000502816503998174
-0.03279884584926893   -0.0815133928915817   -0.0015518260551097597
-0.018488854350597137   -0.08141356910839329   -0.001048351626012192
-0.019700664854978647   -0.05424482635630275   -0.000502816503998174
-0.03428991730873573   -0.05425575237809362   -0.0009275485310017517
-0.03279884584926893   -0.0815133928915817   -0.0015518260551097597
-0.03446789397283231   -0.05403771217740185   -0.0008195691217589464
-0.018488854350597137   -0.08141356910839329   -0.001048351626012192
-0.03297100064083668   -0.08131552153230028   -0.0014278717255440461
-0.03446789397283231   -0.05403771217740185   -0.0008195691217589464
-0.03279884584926893   -0.0815133928915817   -0.0015518260551097597
-0.018488854350597137   -0.08141356910839329   -0.001048351626012192
-0.03446789397283231   -0.05403771217740185   -0.0008195691217589464
-0.019902981747281622   -0.053991484766731775   -0.0003881928293339314
-0.019700664854978647   -0.05424482635630275   -0.000502816503998174
-0.018488854350597137   -0.08141356910839329   -0.001048351626012192
-0.03446789397283231   -0.05403771217740185   -0.0008195691217589464
-0.019700664854978647   -0.05424482635630275   -0.000502816503998174
-0.03279884584926893   -0.0815133928915817   -0.0015518260551097597
-0.018488854350597137   -0.08141356910839329   -0.001048351626012192
-0.019902981747281622   -0.053991484766731775   -0.0003881928293339314
-0.03297100064083668   -0.08131552153230028   -0.0014278717255440461
-0.018690456838222687   -0.08118548414237448   -0.0009372887990174319
-0.019902981747281622   -0.053991484766731775   -0.0003881928293339314
-0.03446789397283231   -0.05403771217740185   -0.0008195691217589464
-0.03297100064083668   -0.08131552153230028   -0.0014278717255440461
-0.03464406681617449   -0.05381438351003215   -0.0007031843667448604
-0.018690456838222687   -0.08118548414237448   -0.0009372887990174319
-0.03314376916683341   -0.08113170094420971   -0.0012908729057168043
-0.03464406681617449   -0.05381438351003215   -0.0007031843667448604
-0.03297100064083668   -0.08131552153230028   -0.0014278717255440461
-0.018690456838222687   -0.08118548414237448   -0.0009372887990174319
-0.03464406681617449   -0.05381438351003215   -0.0007031843667448604
-0.02011348666568265   -0.05373259371744722   -0.0002612595079134504
-0.019902981747281622   -0.053991484766731775   -0.0003881928293339314
-0.018690456838222687   -0.08118548414237448   -0.0009372887990174319
-0.03464406681617449   -0.05381438351003215   -0.0007031843667448604
-0.019902981747281622   -0.053991484766731775   -0.0003881928293339314
-0.03297100064083668   -0.08131552153230028   -0.0014278717255440461
-0.03261484897121441   -0.08172475188478659   -0.0016620485227238466
-0.0341030710929656   -0.05446971552673737   -0.0010265972858459838
-0.04737729160888194   -0.08146780935945346   -0.002017055983358305
-0.03279884584926893   -0.0815133928915817   -0.0015518260551097597
-0.0341030710929656   -0.05446971552673737   -0.0010265972858459838
-0.04900995800939653   -0.054385653581799386   -0.0013800202522900103
-0.04737729160888194   -0.08146780935945346   -0.002017055983358305
-0.04918809120425505   -0.05421045224108434   -0.0012867421455208417
-0.03279884584926893   -0.0815133928915817   -0.0015518260551097597
-0.047553577779003334   -0.08130472044695534   -0.0018793824004587258
-0.04918809120425505   -0.05421045224108434   -0.0012867421455208417
-0.04737729160888194   -0.08146780935945346   -0.002017055983358305
-0.03279884584926893   -0.0815133928915817   -0.0015518260551097597
-0.04918809120425505   -0.05421045224108434   -0.0012867421455208417
-0.03428991730873573   -0.05425575237809362   -0.0009275485310017517
-0.0341030710929656   -0.05446971552673737   -0.0010265972858459838
-0.03279884584926893   -0.0815133928915817   -0.0015518260551097597
-0.04918809120425505   -0.05421045224108434   -0.0012867421455208417
-0.0341030710929656   -0.05446971552673737   -0.0010265972858459838
-0.04737729160888194   -0.08146780935945346   -0.002017055983358305
-0.03279884584926893   -0.0815133928915817   -0.0015518260551097597
-0.03428991730873573   -0.05425575237809362   -0.0009275485310017517
-0.047553577779003334   -0.08130472044695534   -0.0018793824004587258
-0.03297100064083668   -0.08131552153230028   -0.0014278717255440461
-0.03428991730873573   -0.05425575237809362   -0.0009275485310017517
-0.04918809120425505   -0.05421045224108434   -0.0012867421455208417
-0.047553577779003334   -0.08130472044695534   -0.0018793824004587258
-0.049339292146278975   -0.054025567672436145   -0.0011871818044130213
-0.03297100064083668   -0.08131552153230028   -0.0014278717255440461
-0.04768773190006442   -0.0811497298541216   -0.0017302771071998405
-0.049339292146278975   -0.054025567672436145   -0.0011871818044130213
-0.047553577779003334   -0.08130472044695534   -0.0018793824004587258
-0.03297100064083668   -0.08131552153230028   -0.0014278717255440461
-0.049339292146278975   -0.054025567672436145   -0.0011871818044130213
-0.03446789397283231   -0.05403771217740185   -0.0008195691217589464
-0.03428991730873573   -0.05425575237809362   -0.0009275485310017517
-0.03297100064083668   -0.08131552153230028   -0.0014278717255440461
-0.049339292146278975   -0.054025567672436145   -0.0011871818044130213
-0.03428991730873573   -0.05425575237809362   -0.0009275485310017517
-0.047553577779003334   -0.08130472044695534   -0.0018793824004587258
-0.03297100064083668   -0.08131552153230028   -0.0014278717255440461
-0.03446789397283231   -0.05403771217740185   -0.0008195691217589464
-0.04768773190006442   -0.0811497298541216   -0.0017302771071998405
-0.03314376916683341   -0.08113170094420971   -0.0012908729057168043
-0.03446789397283231   -0.05403771217740185   -0.0008195691217589464
-0.049339292146278975   -0.054025567672436145   -0.0011871818044130213
-0.04768773190006442   -0.0811497298541216   -0.0017302771071998405
-0.049482214613513646   -0.05383563883259905   -0.001078546162585846
-0.03314376916683341   -0.08113170094420971   -0.0012908729057168043
-0.047820719930801024   -0.0810095259471445   -0.0015667277684153667
-0.049482214613513646   -0.05383563883259905   -0.001078546162585846
-0.04768773190006442   -0.0811497298541216   -0.0017302771071998405
-0.03314376916683341   -0.08113170094420971   -0.0012908729057168043
-0.049482214613513646   -0.05383563883259905   -0.001078546162585846
-0.03464406681617449   -0.05381438351003215   -0.0007031843667448604
-0.03446789397283231   -0.05403771217740185   -0.0008195691217589464
-0.03314376916683341   -0.08113170094420971   -0.0012908729057168043
-0.049482214613513646   -0.05383563883259905   -0.001078546162585846
-0.03446789397283231   -0.05403771217740185   -0.0008195691217589464
-0.04768773190006442   -0.0811497298541216   -0.0017302771071998405
-0.04737729160888194   -0.08146780935945346   -0.002017055983358305
-0.04900995800939653   -0.054385653581799386   -0.0013800202522900103
-0.06301844992123445   -0.08116537263545075   -0.002281921611686287
-0.047553577779003334   -0.08130472044695534   -0.0018793824004587258
-0.04900995800939653   -0.054385653581799386   -0.0013800202522900103
-0.06461916362211659   -0.054247937285080684   -0.0016433515486654051
-0.06301844992123445   -0.08116537263545075   -0.002281921611686287
-0.06473130945061793   -0.054100062110300044   -0.0015742483279292262
-0.047553577779003334   -0.08130472044695534   -0.0018793824004587258
-0.06304834180005622   -0.08103442108528944   -0.002130753596969187
-0.06473130945061793   -0.054100062110300044   -0.0015742483279292262
-0.06301844992123445   -0.08116537263545075   -0.002281921611686287
-0.047553577779003334   -0.08130472044695534   -0.0018793824004587258
-0.06473130945061793   -0.054100062110300044   -0.0015742483279292262
-0.04918809120425505   -0.05421045224108434   -0.0012867421455208417
-0.04900995800939653   -0.054385653581799386   -0.0013800202522900103
-0.047553577779003334   -0.08130472044695534   -0.0018793824004587258
-0.06473130945061793   -0.054100062110300044   -0.0015742483279292262
-0.04900995800939653   -0.054385653581799386   -0.0013800202522900103
-0.06301844992123445   -0.08116537263545075   -0.002281921611686287
-0.047553577779003334   -0.08130472044695534   -0.0018793824004587258
-0.04918809120425505   -0.05421045224108434   -0.0012867421455208417
-0.06304834180005622   -0.08103442108528944   -0.002130753596969187
-0.04768773190006442   -0.0811497298541216   -0.0017302771071998405
-0.04918809120425505   -0.05421045224108434   -0.0012867421455208417
-0.06473130945061793   -0.054100062110300044   -0.0015742483279292262
-0.06304834180005622   -0.08103442108528944   -0.002130753596969187
-0.06483385293300778   -0.05393307201223488   -0.0014896120085619586
-0.04768773190006442   -0.0811497298541216   -0.0017302771071998405
-0.0630785696826034   -0.08090144199654814   -0.001956530086997753
-0.06483385293300778   -0.05393307201223488   -0.0014896120085619586
-0.06304834180005622   -0.08103442108528944   -0.002130753596969187
-0.04768773190006442   -0.0811497298541216   -0.0017302771071998405
-0.06483385293300778   -0.05393307201223488   -0.0014896120085619586
-0.049339292146278975   -0.054025567672436145   -0.0011871818044130213
-0.04918809120425505   -0.05421045224108434   -0.0012867421455208417
-0.04768773190006442   -0.0811497298541216   -0.0017302771071998405
-0.06483385293300778   -0.05393307201223488   -0.0014896120085619586
-0.04918809120425505   -0.05421045224108434   -0.0012867421455208417
-0.06304834180005622   -0.08103442108528944   -0.002130753596969187
-0.04768773190006442   -0.0811497298541216   -0.0017302771071998405
-0.049339292146278975   -0.054025567672436145   -0.0011871818044130213
-0.0630785696826034   -0.08090144199654814   -0.001956530086997753
-0.047820719930801024   -0.0810095259471445   -0.0015667277684153667
-0.049339292146278975   -0.054025567672436145   -0.0011871818044130213
-0.06483385293300778   -0.05393307201223488   -0.0014896120085619586
-0.0630785696826034   -0.08090144199654814   -0.001956530086997753
-0.06488516029346213   -0.05377882620842433   -0.0013933934812843992
-0.047820719930801024   -0.0810095259471445   -0.0015667277684153667
-0.0630216457117748   -0.08081148933584763   -0.0017620083125261283
-0.06488516029346213   -0.05377882620842433   -0.0013933934812843992
-0.0630785696826034   -0.08090144199654814   -0.001956530086997753
-0.047820719930801024   -0.0810095259471445   -0.0015667277684153667
-0.06488516029346213   -0.05377882620842433   -0.0013933934812843992
-0.049482214613513646   -0.05383563883259905   -0.001078546162585846
-0.049339292146278975   -0.054025567672436145   -0.0011871818044130213
-0.047820719930801024   -0.0810095259471445   -0.0015667277684153667
-0.06488516029346213   -0.05377882620842433   -0.0013933934812843992
-0.049339292146278975   -0.054025567672436145   -0.0011871818044130213
-0.0630785696826034   -0.08090144199654814   -0.001956530086997753
0.010896150720146044   -0.05481565990691187   0.00033589242121645935
0.007619572497845185   -0.027499512674329   0.00035915317475993506
-0.00475876611122039   -0.05455548721503935   -0.00014385667589065056
0.010552796282240937   -0.05448109579097427   0.0004776535488293018
0.007619572497845185   -0.027499512674329   0.00035915317475993506
-0.006960894984865211   -0.02713852372878284   0.0001753852922246664
-0.00475876611122039   -0.05455548721503935   -0.00014385667589065056
-0.007176186797307074   -0.026995890332542967   0.00033126898166871015
0.010552796282240937   -0.05448109579097427   0.0004776535488293018
-0.004975805909759046   -0.05427738515415256   -3.099210158885014e-05
-0.007176186797307074   -0.026995890332542967   0.00033126898166871015
-0.00475876611122039   -0.05455548721503935   -0.00014385667589065056
0.010552796282240937   -0.05448109579097427   0.0004776535488293018
-0.007176186797307074   -0.026995890332542967   0.00033126898166871015
0.006949216852492603   -0.02714514018840459   0.0007459343302833696
0.007619572497845185   -0.027499512674329   0.00035915317475993506
0.010552796282240937   -0.05448109579097427   0.0004776535488293018
-0.007176186797307074   -0.026995890332542967   0.00033126898166871015
0.007619572497845185   -0.027499512674329   0.00035915317475993506
-0.00475876611122039   -0.05455548721503935   -0.00014385667589065056
0.010552796282240937   -0.05448109579097427   0.0004776535488293018
0.006949216852492603   -0.02714514018840459   0.0007459343302833696
-0.004975805909759046   -0.05427738515415256   -3.099210158885014e-05
0.01017086267659771   -0.05414804895197164   0.0006801062176776447
0.006949216852492603   -0.02714514018840459   0.0007459343302833696
-0.007176186797307074   -0.026995890332542967   0.00033126898166871015
-0.004975805909759046   -0.05427738515415256   -3.099210158885014e-05
-0.007458083149067419   -0.026745428902207217   0.000520253491032898
0.01017086267659771   -0.05414804895197164   0.0006801062176776447
-0.005229451598055897   -0.05398354646635558   0.0001017519968509393
-0.007458083149067419   -0.026745428902207217   0.000520253491032898
-0.004975805909759046   -0.05427738515415256   -3.099210158885014e-05
0.01017086267659771   -0.05414804895197164   0.0006801062176776447
-0.007458083149067419   -0.026745428902207217   0.000520253491032898
0.006556201332277277   -0.026853596358262535   0.0010351608738107434
0.006949216852492603   -0.02714514018840459   0.0007459343302833696
0.01017086267659771   -0.05414804895197164   0.0006801062176776447
-0.007458083149067419   -0.026745428902207217   0.000520253491032898
0.006949216852492603   -0.02714514018840459   0.0007459343302833696
-0.004975805909759046   -0.05427738515415256   -3.099210158885014e-05
0.01017086267659771   -0.05414804895197164   0.0006801062176776447
0.006556201332277277   -0.026853596358262535   0.0010351608738107434
-0.005229451598055897   -0.05398354646635558   0.0001017519968509393
0.00970431554899335   -0.05373922681788422   0.0009026765287130582
0.006556201332277277   -0.026853596358262535   0.0010351608738107434
-0.007458083149067419   -0.026745428902207217   0.000520253491032898
-0.005229451598055897   -0.05398354646635558   0.0001017519968509393
-0.007694621516616458   -0.026475487830549857   0.000686677875382336
0.00970431554899335   -0.05373922681788422   0.0009026765287130582
-0.005491519329418886   -0.053671257749556764   0.0002540698522013914
-0.007694621516616458   -0.026475487830549857   0.000686677875382336
-0.005229451598055897   -0.05398354646635558   0.0001017519968509393
0.00970431554899335   -0.05373922681788422   0.0009026765287130582
-0.007694621516616458   -0.026475487830549857   0.000686677875382336
0.006053294976124894   -0.02640957888625797   0.0013660615231935595
0.006556201332277277   -0.026853596358262535   0.0010351608738107434
0.00970431554899335   -0.05373922681788422   0.0009026765287130582
-0.007694621516616458   -0.026475487830549857   0.000686677875382336
0.006556201332277277   -0.026853596358262535   0.0010351608738107434
-0.005229451598055897   -0.05398354646635558   0.0001017519968509393
-0.00475876611122039   -0.05455548721503935   -0.00014385667589065056
-0.006960894984865211   -0.02713852372878284   0.0001753852922246664
-0.019504967110417156   -0.0544882580188648   -0.000607203776938476
-0.004975805909759046   -0.05427738515415256   -3.099210158885014e-05
-0.006960894984865211   -0.02713852372878284   0.0001753852922246664
-0.020851395039701515   -0.027536476288829572   -0.0001956488819694256
-0.019504967110417156   -0.0544882580188648   -0.000607203776938476
-0.021048699288643117   -0.027320866040693947   -8.560995577658021e-05
-0.004975805909759046   -0.05427738515415256   -3.099210158885014e-05
-0.019700664854978647   -0.05424482635630275   -0.000502816503998174
-0.021048699288643117   -0.027320866040693947   -8.560995577658021e-05
-0.019504967110417156   -0.0544882580188648   -0.000607203776938476
-0.004975805909759046   -0.05427738515415256   -3.099210158885014e-05
-0.021048699288643117   -0.027320866040693947   -8.560995577658021e-05
-0.007176186797307074   -0.026995890332542967   0.00033126898166871015
-0.006960894984865211   -0.02713852372878284   0.0001753852922246664
-0.004975805909759046   -0.05427738515415256   -3.099210158885014e-05
-0.021048699288643117   -0.027320866040693947   -8.560995577658021e-05
-0.006960894984865211   -0.02713852372878284   0.0001753852922246664
-0.019504967110417156   -0.0544882580188648   -0.000607203776938476
-0.004975805909759046   -0.05427738515415256   -3.099210158885014e-05
-0.007176186797307074   -0.026995890332542967   0.00033126898166871015
-0.019700664854978647   -0.05424482635630275   -0.000502816503998174
-0.005229451598055897   -0.05398354646635558   0.0001017519968509393
-0.007176186797307074   -0.026995890332542967   0.00033126898166871015
-0.021048699288643117   -0.027320866040693947   -8.560995577658021e-05
-0.019700664854978647   -0.05424482635630275   -0.000502816503998174
-0.02125471682643924   -0.027078068648532138   3.0591396420297466e-05
-0.005229451598055897   -0.05398354646635558   0.0001017519968509393
-0.019902981747281622   -0.053991484766731775   -0.0003881928293339314
-0.02125471682643924   -0.027078068648532138   3.0591396420297466e-05
-0.019700664854978647   -0.05424482635630275   -0.000502816503998174
-0.005229451598055897   -0.05398354646635558   0.0001017519968509393
-0.02125471682643924   -0.027078068648532138   3.0591396420297466e-05
-0.007458083149067419   -0.026745428902207217   0.000520253491032898
-0.007176186797307074   -0.026995890332542967   0.00033126898166871015
-0.005229451598055897   -0.05398354646635558   0.0001017519968509393
-0.02125471682643924   -0.027078068648532138   3.0591396420297466e-05
-0.007176186797307074   -0.026995890332542967   0.00033126898166871015
-0.019700664854978647   -0.05424482635630275   -0.000502816503998174
-0.005229451598055897   -0.05398354646635558   0.0001017519968509393
-0.007458083149067419   -0.026745428902207217   0.000520253491032898
-0.019902981747281622   -0.053991484766731775   -0.0003881928293339314
-0.005491519329418886   -0.053671257749556764   0.0002540698522013914
-0.007458083149067419   -0.026745428902207217   0.000520253491032898
-0.02125471682643924   -0.027078068648532138   3.0591396420297466e-05
-0.019902981747281622   -0.053991484766731775   -0.0003881928293339314
-0.0214501143501757   -0.026811970479700825   0.00015859188177450636
-0.005491519329418886   -0.053671257749556764   0.0002540698522013914
-0.02011348666568265   -0.05373259371744722   -0.0002612595079134504
-0.0214501143501757   -0.026811970479700825   0.00015859188177450636
-0.019902981747281622   -0.053991484766731775   -0.0003881928293339314
-0.005491519329418886   -0.053671257749556764   0.0002540698522013914
-0.0214501143501757   -0.026811970479700825   0.00015859188177450636
-0.007694621516616458   -0.026475487830549857   0.000686677875382336
-0.007458083149067419   -0.026745428902207217   0.000520253491032898
-0.005491519329418886   -0.053671257749556764   0.0002540698522013914
-0.0214501143501757   -0.026811970479700825   0.00015859188177450636
-0.007458083149067419   -0.026745428902207217   0.000520253491032898
-0.019902981747281622   -0.053991484766731775   -0.0003881928293339314
-0.019504967110417156   -0.0544882580188648   -0.000607203776938476
-0.020851395039701515   -0.027536476288829572   -0.0001956488819694256
-0.0341030710929656   -0.05446971552673737   -0.0010265972858459838
-0.019700664854978647   -0.05424482635630275   -0.000502816503998174
-0.020851395039701515   -0.027536476288829572   -0.0001956488819694256
-0.03508832211275002   -0.027847258588192644   -0.0006052478223202628
-0.0341030710929656   -0.05446971552673737   -0.0010265972858459838
-0.03526511996925843   -0.027626086456931823   -0.0005202973510024595
-0.019700664854978647   -0.05424482635630275   -0.000502816503998174
-0.03428991730873573   -0.05425575237809362   -0.0009275485310017517
-0.03526511996925843   -0.027626086456931823   -0.0005202973510024595
-0.0341030710929656   -0.05446971552673737   -0.0010265972858459838
-0.019700664854978647   -0.05424482635630275   -0.000502816503998174
-0.03526511996925843   -0.027626086456931823   -0.0005202973510024595
-0.021048699288643117   -0.027320866040693947   -8.560995577658021e-05
-0.020851395039701515   -0.027536476288829572   -0.0001956488819694256
-0.019700664854978647   -0.05424482635630275   -0.000502816503998174
-0.03526511996925843   -0.027626086456931823   -0.0005202973510024595
-0.020851395039701515   -0.027536476288829572   -0.0001956488819694256
-0.0341030710929656   -0.05446971552673737   -0.0010265972858459838
-0.019700664854978647   -0.05424482635630275   -0.000502816503998174
-0.021048699288643117   -0.027320866040693947   -8.560995577658021e-05
-0.03428991730873573   -0.05425575237809362   -0.0009275485310017517
-0.019902981747281622   -0.053991484766731775   -0.0003881928293339314
-0.021048699288643117   -0.027320866040693947   -8.560995577658021e-05
-0.03526511996925843   -0.027626086456931823   -0.0005202973510024595
-0.03428991730873573   -0.05425575237809362   -0.0009275485310017517
-0.03543405766570566   -0.027392778402217145   -0.0004358071237077021
-0.019902981747281622   -0.053991484766731775   -0.0003881928293339314
-0.03446789397283231   -0.05403771217740185   -0.0008195691217589464
-0.03543405766570566   -0.027392778402217145   -0.0004358071237077021
-0.03428991730873573   -0.05425575237809362   -0.0009275485310017517
-0.019902981747281622   -0.053991484766731775   -0.0003881928293339314
-0.03543405766570566   -0.027392778402217145   -0.0004358071237077021
-0.02125471682643924   -0.027078068648532138   3.0591396420297466e-05
-0.021048699288643117   -0.027320866040693947   -8.560995577658021e-05
-0.019902981747281622   -0.053991484766731775   -0.0003881928293339314
-0.03543405766570566   -0.027392778402217145   -0.0004358071237077021
-0.021048699288643117   -0.027320866040693947   -8.560995577658021e-05
-0.03428991730873573   -0.05425575237809362   -0.0009275485310017517
-0.019902981747281622   -0.053991484766731775   -0.0003881928293339314
-0.02125471682643924   -0.027078068648532138   3.0591396420297466e-05
-0.03446789397283231   -0.05403771217740185   -0.0008195691217589464
-0.02011348666568265   -0.05373259371744722   -0.0002612595079134504
-0.02125471682643924   -0.027078068648532138   3.0591396420297466e-05
-0.03543405766570566   -0.027392778402217145   -0.0004358071237077021
-0.03446789397283231   -0.05403771217740185   -0.0008195691217589464
-0.03558953797430604   -0.02714040059334954   -0.0003440178440827729
-0.02011348666568265   -0.05373259371744722   -0.0002612595079134504
-0.03464406681617449   -0.05381438351003215   -0.0007031843667448604
-0.03558953797430604   -0.02714040059334954   -0.0003440178440827729
-0.03446789397283231   -0.05403771217740185   -0.0008195691217589464
-0.02011348666568265   -0.05373259371744722   -0.0002612595079134504
-0.03558953797430604   -0.02714040059334954   -0.0003440178440827729
-0.0214501143501757   -0.026811970479700825   0.00015859188177450636
-0.02125471682643924   -0.027078068648532138   3.0591396420297466e-05
-0.02011348666568265   -0.05373259371744722   -0.0002612595079134504
-0.03558953797430604   -0.02714040059334954   -0.0003440178440827729
-0.02125471682643924   -0.027078068648532138   3.0591396420297466e-05
-0.03446789397283231   -0.05403771217740185   -0.0008195691217589464
-0.0341030710929656   -0.05446971552673737   -0.0010265972858459838
-0.03508832211275002   -0.027847258588192644   -0.0006052478223202628
-0.04900995800939653   -0.054385653581799386   -0.0013800202522900103
-0.03428991730873573   -0.05425575237809362   -0.0009275485310017517
-0.03508832211275002   -0.027847258588192644   -0.0006052478223202628
-0.04982516177779419   -0.02797446159292169   -0.0009837714699640087
-0.04900995800939653   -0.054385653581799386   -0.0013800202522900103
-0.04998435167015149   -0.027775290627367118   -0.0009221140513731383
-0.03428991730873573   -0.05425575237809362   -0.0009275485310017517
-0.04918809120425505   -0.05421045224108434   -0.0012867421455208417
-0.04998435167015149   -0.027775290627367118   -0.0009221140513731383
-0.04900995800939653   -0.054385653581799386   -0.0013800202522900103
-0.03428991730873573   -0.05425575237809362   -0.0009275485310017517
-0.04998435167015149   -0.027775290627367118   -0.0009221140513731383
-0.03526511996925843   -0.027626086456931823   -0.0005202973510024595
-0.03508832211275002   -0.027847258588192644   -0.0006052478223202628
-0.03428991730873573   -0.05425575237809362   -0.0009275485310017517
-0.04998435167015149   -0.027775290627367118   -0.0009221140513731383
-0.03508832211275002   -0.027847258588192644   -0.0006052478223202628
-0.04900995800939653   -0.054385653581799386   -0.0013800202522900103
-0.03428991730873573   -0.05425575237809362   -0.0009275485310017517
-0.03526511996925843   -0.027626086456931823   -0.0005202973510024595
-0.04918809120425505   -0.05421045224108434   -0.0012867421455208417
-0.03446789397283231   -0.05403771217740185   -0.0008195691217589464
-0.03526511996925843   -0.027626086456931823   -0.0005202973510024595
-0.04998435167015149   -0.027775290627367118   -0.0009221140513731383
-0.04918809120425505   -0.05421045224108434   -0.0012867421455208417
-0.05012618878238387   -0.027558758064394513   -0.0008623850829370024
-0.03446789397283231   -0.05403771217740185   -0.0008195691217589464
-0.049339292146278975   -0.054025567672436145   -0.0011871818044130213
-0.05012618878238387   -0.027558758064394513   -0.0008623850829370024
-0.04918809120425505   -0.05421045224108434   -0.0012867421455208417
-0.03446789397283231   -0.05403771217740185   -0.0008195691217589464
-0.05012618878238387   -0.027558758064394513   -0.0008623850829370024
-0.03543405766570566   -0.027392778402217145   -0.0004358071237077021
-0.03526511996925843   -0.027626086456931823   -0.0005202973510024595
-0.03446789397283231   -0.05403771217740185   -0.0008195691217589464
-0.05012618878238387   -0.027558758064394513   -0.0008623850829370024
-0.03526511996925843   -0.027626086456931823   -0.0005202973510024595
-0.04918809120425505   -0.05421045224108434   -0.0012867421455208417
-0.03446789397283231   -0.05403771217740185   -0.0008195691217589464
-0.03543405766570566   -0.027392778402217145   -0.0004358071237077021
-0.049339292146278975   -0.054025567672436145   -0.0011871818044130213
-0.03464406681617449   -0.05381438351003215   -0.0007031843667448604
-0.03543405766570566   -0.027392778402217145   -0.0004358071237077021
-0.05012618878238387   -0.027558758064394513   -0.0008623850829370024
-0.049339292146278975   -0.054025567672436145   -0.0011871818044130213
-0.05025455388408571   -0.027328457064594778   -0.0008010821071049494
-0.03464406681617449   -0.05381438351003215   -0.0007031843667448604
-0.049482214613513646   -0.05383563883259905   -0.001078546162585846
-0.05025455388408571   -0.027328457064594778   -0.0008010821071049494
-0.049339292146278975   -0.054025567672436145   -0.0011871818044130213
-0.03464406681617449   -0.05381438351003215   -0.0007031843667448604
-0.05025455388408571   -0.027328457064594778   -0.0008010821071049494
-0.03558953797430604   -0.02714040059334954   -0.0003440178440827729
-0.03543405766570566   -0.027392778402217145   -0.0004358071237077021
-0.03464406681617449   -0.05381438351003215   -0.0007031843667448604
-0.05025455388408571   -0.027328457064594778   -0.0008010821071049494
-0.03543405766570566   -0.027392778402217145   -0.0004358071237077021
-0.049339292146278975   -0.054025567672436145   -0.0011871818044130213
-0.04900995800939653   -0.054385653581799386   -0.0013800202522900103
-0.04982516177779419   -0.02797446159292169   -0.0009837714699640087
-0.06461916362211659   -0.054247937285080684   -0.0016433515486654051
-0.04918809120425505   -0.05421045224108434   -0.0012867421455208417
-0.04982516177779419   -0.02797446159292169   -0.0009837714699640087
-0.06508096320758368   -0.0279892193882452   -0.0012993411523598757
-0.06461916362211659   -0.054247937285080684   -0.0016433515486654051
-0.06521821326164964   -0.02779564744241455   -0.0012733940338169629
-0.04918809120425505   -0.05421045224108434   -0.0012867421455208417
-0.06473130945061793   -0.054100062110300044   -0.0015742483279292262
-0.06521821326164964   -0.02779564744241455   -0.0012733940338169629
-0.06461916362211659   -0.054247937285080684   -0.0016433515486654051
-0.04918809120425505   -0.05421045224108434   -0.0012867421455208417
-0.06521821326164964   -0.02779564744241455   -0.0012733940338169629
-0.04998435167015149   -0.027775290627367118   -0.0009221140513731383
-0.04982516177779419   -0.02797446159292169   -0.0009837714699640087
-0.04918809120425505   -0.05421045224108434   -0.0012867421455208417
-0.06521821326164964   -0.02779564744241455   -0.0012733940338169629
-0.04982516177779419   -0.02797446159292169   -0.0009837714699640087
-0.06461916362211659   -0.054247937285080684   -0.0016433515486654051
-0.04918809120425505   -0.05421045224108434   -0.0012867421455208417
-0.04998435167015149   -0.027775290627367118   -0.0009221140513731383
-0.06473130945061793   -0.054100062110300044   -0.0015742483279292262
-0.049339292146278975   -0.054025567672436145   -0.0011871818044130213
-0.04998435167015149   -0.027775290627367118   -0.0009221140513731383
-0.06521821326164964   -0.02779564744241455   -0.0012733940338169629
-0.06473130945061793   -0.054100062110300044   -0.0015742483279292262
-0.06534117669444382   -0.027586767298220086   -0.0012431445611715895
-0.049339292146278975   -0.054025567672436145   -0.0011871818044130213
-0.06483385293300778   -0.05393307201223488   -0.0014896120085619586
-0.06534117669444382   -0.027586767298220086   -0.0012431445611715895
-0.06473130945061793   -0.054100062110300044   -0.0015742483279292262
-0.049339292146278975   -0.054025567672436145   -0.0011871818044130213
-0.06534117669444382   -0.027586767298220086   -0.0012431445611715895
-0.05012618878238387   -0.027558758064394513   -0.0008623850829370024
-0.04998435167015149   -0.027775290627367118   -0.0009221140513731383
-0.049339292146278975   -0.054025567672436145   -0.0011871818044130213
-0.06534117669444382   -0.027586767298220086   -0.0012431445611715895
-0.04998435167015149   -0.027775290627367118   -0.0009221140513731383
-0.06473130945061793   -0.054100062110300044   -0.0015742483279292262
-0.049339292146278975   -0.054025567672436145   -0.0011871818044130213
-0.05012618878238387   -0.027558758064394513   -0.0008623850829370024
-0.06483385293300778   -0.05393307201223488   -0.0014896120085619586
-0.049482214613513646   -0.05383563883259905   -0.001078546162585846
-0.05012618878238387   -0.027558758064394513   -0.0008623850829370024
-0.06534117669444382   -0.027586767298220086   -0.0012431445611715895
-0.06483385293300778   -0.05393307201223488   -0.0014896120085619586
-0.06544518999072708   -0.027365505360787766   -0.0012153446886399833
-0.049482214613513646   -0.05383563883259905   -0.001078546162585846
-0.06488516029346213   -0.05377882620842433   -0.0013933934812843992
-0.06544518999072708   -0.027365505360787766   -0.0012153446886399833
-0.06483385293300778   -0.05393307201223488   -0.0014896120085619586
-0.049482214613513646   -0.05383563883259905   -0.001078546162585846
-0.06544518999072708   -0.027365505360787766   -0.0012153446886399833
-0.05025455388408571   -0.027328457064594778   -0.0008010821071049494
-0.05012618878238387   -0.027558758064394513   -0.0008623850829370024
-0.049482214613513646   -0.05383563883259905   -0.001078546162585846
-0.06544518999072708   -0.027365505360787766   -0.0012153446886399833
-0.05012618878238387   -0.027558758064394513   -0.0008623850829370024
-0.06483385293300778   -0.05393307201223488   -0.0014896120085619586
0.007619572497845185   -0.027499512674329   0.00035915317475993506
0.0   0.0   0.0
-0.006960894984865211   -0.02713852372878284   0.0001753852922246664
0.006949216852492603   -0.02714514018840459   0.0007459343302833696
0.0   0.0   0.0
-0.008759831276615582   -0.0021850972072036305   -8.231852458152323e-05
-0.006960894984865211   -0.02713852372878284   0.0001753852922246664
-0.009282440544526264   -0.0016909795651774   0.00021577984763606313
0.006949216852492603   -0.02714514018840459   0.0007459343302833696
-0.007176186797307074   -0.026995890332542967   0.00033126898166871015
-0.009282440544526264   -0.0016909795651774   0.00021577984763606313
-0.006960894984865211   -0.02713852372878284   0.0001753852922246664
0.006949216852492603   -0.02714514018840459   0.0007459343302833696
-0.009282440544526264   -0.0016909795651774   0.00021577984763606313
0.0   0.0   0.0
0.0   0.0   0.0
0.006949216852492603   -0.02714514018840459   0.0007459343302833696
-0.009282440544526264   -0.0016909795651774   0.00021577984763606313
0.0   0.0   0.0
-0.006960894984865211   -0.02713852372878284   0.0001753852922246664
0.006949216852492603   -0.02714514018840459   0.0007459343302833696
0.0   0.0   0.0
-0.007176186797307074   -0.026995890332542967   0.00033126898166871015
0.006556201332277277   -0.026853596358262535   0.0010351608738107434
0.0   0.0   0.0
-0.009282440544526264   -0.0016909795651774   0.00021577984763606313
-0.007176186797307074   -0.026995890332542967   0.00033126898166871015
-0.009609345204865715   -0.0014519011008389368   0.0003866573535628092
0.006556201332277277   -0.026853596358262535   0.0010351608738107434
-0.007458083149067419   -0.026745428902207217   0.000520253491032898
-0.009609345204865715   -0.0014519011008389368   0.0003866573535628092
-0.007176186797307074   -0.026995890332542967   0.00033126898166871015
0.006556201332277277   -0.026853596358262535   0.0010351608738107434
-0.009609345204865715   -0.0014519011008389368   0.0003866573535628092
0.0   0.0   0.0
0.0   0.0   0.0
0.006556201332277277   -0.026853596358262535   0.0010351608738107434
-0.009609345204865715   -0.0014519011008389368   0.0003866573535628092
0.0   0.0   0.0
-0.007176186797307074   -0.026995890332542967   0.00033126898166871015
0.006556201332277277   -0.026853596358262535   0.0010351608738107434
0.0   0.0   0.0
-0.007458083149067419   -0.026745428902207217   0.000520253491032898
0.006053294976124894   -0.02640957888625797   0.0013660615231935595
0.0   0.0   0.0
-0.009609345204865715   -0.0014519011008389368   0.0003866573535628092
-0.007458083149067419   -0.026745428902207217   0.000520253491032898
-0.010045746999269287   -0.0011350383352834396   0.0005825661067979402
0.006053294976124894   -0.02640957888625797   0.0013660615231935595
-0.007694621516616458   -0.026475487830549857   0.000686677875382336
-0.010045746999269287   -0.0011350383352834396   0.0005825661067979402
-0.007458083149067419   -0.026745428902207217   0.000520253491032898
0.006053294976124894   -0.02640957888625797   0.0013660615231935595
-0.010045746999269287   -0.0011350383352834396   0.0005825661067979402
0.0   0.0   0.0
0.0   0.0   0.0
0.006053294976124894   -0.02640957888625797   0.0013660615231935595
-0.010045746999269287   -0.0011350383352834396   0.0005825661067979402
0.0   0.0   0.0
-0.007458083149067419   -0.026745428902207217   0.000520253491032898
-0.006960894984865211   -0.02713852372878284   0.0001753852922246664
-0.008759831276615582   -0.0021850972072036305   -8.231852458152323e-05
-0.020851395039701515   -0.027536476288829572   -0.0001956488819694256
-0.007176186797307074   -0.026995890332542967   0.00033126898166871015
-0.008759831276615582   -0.0021850972072036305   -8.231852458152323e-05
-0.021480278621204264   -0.002848965101179134   -9.011167487245697e-05
-0.020851395039701515   -0.027536476288829572   -0.0001956488819694256
-0.02174814729337646   -0.002576799154748423   -1.538444927496489e-05
-0.007176186797307074   -0.026995890332542967   0.00033126898166871015
-0.021048699288643117   -0.027320866040693947   -8.560995577658021e-05
-0.02174814729337646   -0.002576799154748423   -1.538444927496489e-05
-0.020851395039701515   -0.027536476288829572   -0.0001956488819694256
-0.007176186797307074   -0.026995890332542967   0.00033126898166871015
-0.02174814729337646   -0.002576799154748423   -1.538444927496489e-05
-0.009282440544526264   -0.0016909795651774   0.00021577984763606313
-0.008759831276615582   -0.0021850972072036305   -8.231852458152323e-05
-0.007176186797307074   -0.026995890332542967   0.00033126898166871015
-0.02174814729337646   -0.002576799154748423   -1.538444927496489e-05
-0.008759831276615582   -0.0021850972072036305   -8.231852458152323e-05
-0.020851395039701515   -0.027536476288829572   -0.0001956488819694256
-0.007176186797307074   -0.026995890332542967   0.00033126898166871015
-0.009282440544526264   -0.0016909795651774   0.00021577984763606313
-0.021048699288643117   -0.027320866040693947   -8.560995577658021e-05
-0.007458083149067419   -0.026745428902207217   0.000520253491032898
-0.009282440544526264   -0.0016909795651774   0.00021577984763606313
-0.02174814729337646   -0.002576799154748423   -1.538444927496489e-05
-0.021048699288643117   -0.027320866040693947   -8.560995577658021e-05
-0.022014384494952955   -0.0022589181954966553   0.00011975200827295226
-0.007458083149067419   -0.026745428902207217   0.000520253491032898
-0.02125471682643924   -0.027078068648532138   3.0591396420297466e-05
-0.022014384494952955   -0.0022589181954966553   0.00011975200827295226
-0.021048699288643117   -0.027320866040693947   -8.560995577658021e-05
-0.007458083149067419   -0.026745428902207217   0.000520253491032898
-0.022014384494952955   -0.0022589181954966553   0.00011975200827295226
-0.009609345204865715   -0.0014519011008389368   0.0003866573535628092
-0.009282440544526264   -0.0016909795651774   0.00021577984763606313
-0.007458083149067419   -0.026745428902207217   0.000520253491032898
-0.022014384494952955   -0.0022589181954966553   0.00011975200827295226
-0.009282440544526264   -0.0016909795651774   0.00021577984763606313
-0.021048699288643117   -0.027320866040693947   -8.560995577658021e-05
-0.007458083149067419   -0.026745428902207217   0.000520253491032898
-0.009609345204865715   -0.0014519011008389368   0.0003866573535628092
-0.02125471682643924   -0.027078068648532138   3.0591396420297466e-05
-0.007694621516616458   -0.026475487830549857   0.000686677875382336
-0.009609345204865715   -0.0014519011008389368   0.0003866573535628092
-0.022014384494952955   -0.0022589181954966553   0.00011975200827295226
-0.02125471682643924   -0.027078068648532138   3.0591396420297466e-05
-0.02230722446308366   -0.0018926842311987164   0.0002483448660826523
-0.007694621516616458   -0.026475487830549857   0.000686677875382336
-0.0214501143501757   -0.026811970479700825   0.00015859188177450636
-0.02230722446308366   -0.0018926842311987164   0.0002483448660826523
-0.02125471682643924   -0.027078068648532138   3.0591396420297466e-05
-0.007694621516616458   -0.026475487830549857   0.000686677875382336
-0.02230722446308366   -0.0018926842311987164   0.0002483448660826523
-0.010045746999269287   -0.0011350383352834396   0.0005825661067979402
-0.009609345204865715   -0.0014519011008389368   0.0003866573535628092
-0.007694621516616458   -0.026475487830549857   0.000686677875382336
-0.02230722446308366   -0.0018926842311987164   0.0002483448660826523
-0.009609345204865715   -0.0014519011008389368   0.0003866573535628092
-0.02125471682643924   -0.027078068648532138   3.0591396420297466e-05
-0.020851395039701515   -0.027536476288829572   -0.0001956488819694256
-0.021480278621204264   -0.002848965101179134   -9.011167487245697e-05
-0.03508832211275002   -0.027847258588192644   -0.0006052478223202628
-0.021048699288643117   -0.027320866040693947   -8.560995577658021e-05
-0.021480278621204264   -0.002848965101179134   -9.011167487245697e-05
-0.03543780632464844   -0.0030267990187046656   -0.0003540567144476756
-0.03508832211275002   -0.027847258588192644   -0.0006052478223202628
-0.035599450276475764   -0.0028120850394073014   -0.00033421936832259656
-0.021048699288643117   -0.027320866040693947   -8.560995577658021e-05
-0.03526511996925843   -0.027626086456931823   -0.0005202973510024595
-0.035599450276475764   -0.0028120850394073014   -0.00033421936832259656
-0.03508832211275002   -0.027847258588192644   -0.0006052478223202628
-0.021048699288643117   -0.027320866040693947   -8.560995577658021e-05
-0.035599450276475764   -0.0028120850394073014   -0.00033421936832259656
-0.02174814729337646   -0.002576799154748423   -1.538444927496489e-05
-0.021480278621204264   -0.002848965101179134   -9.011167487245697e-05
-0.021048699288643117   -0.027320866040693947   -8.560995577658021e-05
-0.035599450276475764   -0.0028120850394073014   -0.00033421936832259656
-0.021480278621204264   -0.002848965101179134   -9.011167487245697e-05
-0.03508832211275002   -0.027847258588192644   -0.0006052478223202628
-0.021048699288643117   -0.027320866040693947   -8.560995577658021e-05
-0.02174814729337646   -0.002576799154748423   -1.538444927496489e-05
-0.03526511996925843   -0.027626086456931823   -0.0005202973510024595
-0.02125471682643924   -0.027078068648532138   3.0591396420297466e-05
-0.02174814729337646   -0.002576799154748423   -1.538444927496489e-05
-0.035599450276475764   -0.0028120850394073014   -0.00033421936832259656
-0.03526511996925843   -0.027626086456931823   -0.0005202973510024595
-0.03576737065726362   -0.002564113692902628   -0.00029891125352075047
-0.02125471682643924   -0.027078068648532138   3.0591396420297466e-05
-0.03543405766570566   -0.027392778402217145   -0.0004358071237077021
-0.03576737065726362   -0.002564113692902628   -0.00029891125352075047
-0.03526511996925843   -0.027626086456931823   -0.0005202973510024595
-0.02125471682643924   -0.027078068648532138   3.0591396420297466e-05
-0.03576737065726362   -0.002564113692902628   -0.00029891125352075047
-0.022014384494952955   -0.0022589181954966553   0.00011975200827295226
-0.02174814729337646   -0.002576799154748423   -1.538444927496489e-05
-0.02125471682643924   -0.027078068648532138   3.0591396420297466e-05
-0.03576737065726362   -0.002564113692902628   -0.00029891125352075047
-0.02174814729337646   -0.002576799154748423   -1.538444927496489e-05
-0.03526511996925843   -0.027626086456931823   -0.0005202973510024595
-0.02125471682643924   -0.027078068648532138   3.0591396420297466e-05
-0.022014384494952955   -0.0022589181954966553   0.00011975200827295226
-0.03543405766570566   -0.027392778402217145   -0.0004358071237077021
-0.0214501143501757   -0.026811970479700825   0.00015859188177450636
-0.022014384494952955   -0.0022589181954966553   0.00011975200827295226
-0.03576737065726362   -0.002564113692902628   -0.00029891125352075047
-0.03543405766570566   -0.027392778402217145   -0.0004358071237077021
-0.0359250642545822   -0.002264462640167717   -0.0002521998675555229
-0.0214501143501757   -0.026811970479700825   0.00015859188177450636
-0.03558953797430604   -0.02714040059334954   -0.0003440178440827729
-0.0359250642545822   -0.002264462640167717   -0.0002521998675555229
-0.03543405766570566   -0.027392778402217145   -0.0004358071237077021
-0.0214501143501757   -0.026811970479700825   0.00015859188177450636
-0.0359250642545822   -0.002264462640167717   -0.0002521998675555229
-0.02230722446308366   -0.0018926842311987164   0.0002483448660826523
-0.022014384494952955   -0.0022589181954966553   0.00011975200827295226
-0.0214501143501757   -0.026811970479700825   0.00015859188177450636
-0.0359250642545822   -0.002264462640167717   -0.0002521998675555229
-0.022014384494952955   -0.0022589181954966553   0.00011975200827295226
-0.03543405766570566   -0.027392778402217145   -0.0004358071237077021
-0.03508832211275002   -0.027847258588192644   -0.0006052478223202628
-0.03543780632464844   -0.0030267990187046656   -0.0003540567144476756
-0.04982516177779419   -0.02797446159292169   -0.0009837714699640087
-0.03526511996925843   -0.027626086456931823   -0.0005202973510024595
-0.03543780632464844   -0.0030267990187046656   -0.0003540567144476756
-0.05008167233691164   -0.002987475927286945   -0.0007273097777712541
-0.04982516177779419   -0.02797446159292169   -0.0009837714699640087
-0.05019062044043318   -0.0027926781499879273   -0.0007189469447700777
-0.03526511996925843   -0.027626086456931823   -0.0005202973510024595
-0.04998435167015149   -0.027775290627367118   -0.0009221140513731383
-0.05019062044043318   -0.0027926781499879273   -0.0007189469447700777
-0.04982516177779419   -0.02797446159292169   -0.0009837714699640087
-0.03526511996925843   -0.027626086456931823   -0.0005202973510024595
-0.05019062044043318   -0.0027926781499879273   -0.0007189469447700777
-0.035599450276475764   -0.0028120850394073014   -0.00033421936832259656
-0.03543780632464844   -0.0030267990187046656   -0.0003540567144476756
-0.03526511996925843   -0.027626086456931823   -0.0005202973510024595
-0.05019062044043318   -0.0027926781499879273   -0.0007189469447700777
-0.03543780632464844   -0.0030267990187046656   -0.0003540567144476756
-0.04982516177779419   -0.02797446159292169   -0.0009837714699640087
-0.03526511996925843   -0.027626086456931823   -0.0005202973510024595
-0.035599450276475764   -0.0028120850394073014   -0.00033421936832259656
-0.04998435167015149   -0.027775290627367118   -0.0009221140513731383
-0.03543405766570566   -0.027392778402217145   -0.0004358071237077021
-0.035599450276475764   -0.0028120850394073014   -0.00033421936832259656
-0.05019062044043318   -0.0027926781499879273   -0.0007189469447700777
-0.04998435167015149   -0.027775290627367118   -0.0009221140513731383
-0.05030433898169586   -0.0025770496237697933   -0.0007138567990042325
-0.03543405766570566   -0.027392778402217145   -0.0004358071237077021
-0.05012618878238387   -0.027558758064394513   -0.0008623850829370024
-0.05030433898169586   -0.0025770496237697933   -0.0007138567990042325
-0.04998435167015149   -0.027775290627367118   -0.0009221140513731383
-0.03543405766570566   -0.027392778402217145   -0.0004358071237077021
-0.05030433898169586   -0.0025770496237697933   -0.0007138567990042325
-0.03576737065726362   -0.002564113692902628   -0.00029891125352075047
-0.035599450276475764   -0.0028120850394073014   -0.00033421936832259656
-0.03543405766570566   -0.027392778402217145   -0.0004358071237077021
-0.05030433898169586   -0.0025770496237697933   -0.0007138567990042325
-0.035599450276475764   -0.0028120850394073014   -0.00033421936832259656
-0.04998435167015149   -0.027775290627367118   -0.0009221140513731383
-0.03543405766570566   -0.027392778402217145   -0.0004358071237077021
-0.03576737065726362   -0.002564113692902628   -0.00029891125352075047
-0.05012618878238387   -0.027558758064394513   -0.0008623850829370024
-0.03558953797430604   -0.02714040059334954   -0.0003440178440827729
-0.03576737065726362   -0.002564113692902628   -0.00029891125352075047
-0.05030433898169586   -0.0025770496237697933   -0.0007138567990042325
-0.05012618878238387   -0.027558758064394513   -0.0008623850829370024
-0.05038949427299599   -0.0023447914105189063   -0.0007125921890779054
-0.03558953797430604   -0.02714040059334954   -0.0003440178440827729
-0.05025455388408571   -0.027328457064594778   -0.0008010821071049494
-0.05038949427299599   -0.0023447914105189063   -0.0007125921890779054
-0.05012618878238387   -0.027558758064394513   -0.0008623850829370024
-0.03558953797430604   -0.02714040059334954   -0.0003440178440827729
-0.05038949427299599   -0.0023447914105189063   -0.0007125921890779054
-0.0359250642545822   -0.002264462640167717   -0.0002521998675555229
-0.03576737065726362   -0.002564113692902628   -0.00029891125352075047
-0.03558953797430604   -0.02714040059334954   -0.0003440178440827729
-0.05038949427299599   -0.0023447914105189063   -0.0007125921890779054
-0.03576737065726362   -0.002564113692902628   -0.00029891125352075047
-0.05012618878238387   -0.027558758064394513   -0.0008623850829370024
-0.04982516177779419   -0.02797446159292169   -0.0009837714699640087
-0.05008167233691164   -0.002987475927286945   -0.0007273097777712541
-0.06508096320758368   -0.0279892193882452   -0.0012993411523598757
-0.04998435167015149   -0.027775290627367118   -0.0009221140513731383
-0.05008167233691164   -0.002987475927286945   -0.0007273097777712541
-0.0651254889195012   -0.002964669246961084   -0.0010941675356046473
-0.06508096320758368   -0.0279892193882452   -0.0012993411523598757
-0.06521328533421647   -0.0027529178769168778   -0.0010943958251214143
-0.04998435167015149   -0.027775290627367118   -0.0009221140513731383
-0.06521821326164964   -0.02779564744241455   -0.0012733940338169629
-0.06521328533421647   -0.0027529178769168778   -0.0010943958251214143
-0.06508096320758368   -0.0279892193882452   -0.0012993411523598757
-0.04998435167015149   -0.027775290627367118   -0.0009221140513731383
-0.06521328533421647   -0.0027529178769168778   -0.0010943958251214143
-0.05019062044043318   -0.0027926781499879273   -0.0007189469447700777
-0.05008167233691164   -0.002987475927286945   -0.0007273097777712541
-0.04998435167015149   -0.027775290627367118   -0.0009221140513731383
-0.06521328533421647   -0.0027529178769168778   -0.0010943958251214143
-0.05008167233691164   -0.002987475927286945   -0.0007273097777712541
-0.06508096320758368   -0.0279892193882452   -0.0012993411523598757
-0.04998435167015149   -0.027775290627367118   -0.0009221140513731383
-0.05019062044043318   -0.0027926781499879273   -0.0007189469447700777
-0.06521821326164964   -0.02779564744241455   -0.0012733940338169629
-0.05012618878238387   -0.027558758064394513   -0.0008623850829370024
-0.05019062044043318   -0.0027926781499879273   -0.0007189469447700777
-0.06521328533421647   -0.0027529178769168778   -0.0010943958251214143
-0.06521821326164964   -0.02779564744241455   -0.0012733940338169629
-0.06530976917223047   -0.002542181357738363   -0.0011111043966169703
-0.05012618878238387   -0.027558758064394513   -0.0008623850829370024
-0.06534117669444382   -0.027586767298220086   -0.0012431445611715895
-0.06530976917223047   -0.002542181357738363   -0.0011111043966169703
-0.06521821326164964   -0.02779564744241455   -0.0012733940338169629
-0.05012618878238387   -0.027558758064394513   -0.0008623850829370024
-0.06530976917223047   -0.002542181357738363   -0.0011111043966169703
-0.05030433898169586   -0.0025770496237697933   -0.0007138567990042325
-0.05019062044043318   -0.0027926781499879273   -0.0007189469447700777
-0.05012618878238387   -0.027558758064394513   -0.0008623850829370024
-0.06530976917223047   -0.002542181357738363   -0.0011111043966169703
-0.05019062044043318   -0.0027926781499879273   -0.0007189469447700777
-0.06521821326164964   -0.02779564744241455   -0.0012733940338169629
-0.05012618878238387   -0.027558758064394513   -0.0008623850829370024
-0.05030433898169586   -0.0025770496237697933   -0.0007138567990042325
-0.06534117669444382   -0.027586767298220086   -0.0012431445611715895
-0.05025455388408571   -0.027328457064594778   -0.0008010821071049494
-0.05030433898169586   -0.0025770496237697933   -0.0007138567990042325
-0.06530976917223047   -0.002542181357738363   -0.0011111043966169703
-0.06534117669444382   -0.027586767298220086   -0.0012431445611715895
-0.06538045303475336   -0.002313312299416115   -0.0011290593741979512
-0.05025455388408571   -0.027328457064594778   -0.0008010821071049494
-0.06544518999072708   -0.027365505360787766   -0.0012153446886399833
-0.06538045303475336   -0.002313312299416115   -0.0011290593741979512
-0.06534117669444382   -0.027586767298220086   -0.0012431445611715895
-0.05025455388408571   -0.027328457064594778   -0.0008010821071049494
-0.06538045303475336   -0.002313312299416115   -0.0011290593741979512
-0.05038949427299599   -0.0023447914105189063   -0.0007125921890779054
-0.05030433898169586   -0.0025770496237697933   -0.0007138567990042325
-0.05025455388408571   -0.027328457064594778   -0.0008010821071049494
-0.06538045303475336   -0.002313312299416115   -0.0011290593741979512
-0.05030433898169586   -0.0025770496237697933   -0.0007138567990042325
-0.06534117669444382   -0.027586767298220086   -0.0012431445611715895
              </DataArray>   
          </PointData>  
       </Piece>  
   </UnstructuredGrid> 
</VTKFile> 
